Subject To
	c_1: + 15 x_1 + 1 x_2 + 24 x_3 + 25 x_4 + 10 x_5 + 14 x_6 + 50 x_7 + 40 x_8 + 12 x_9 + 15 x_10 + 33 x_11 + 12 x_12 = 1482
	c_2: + 30 x_1 + 44 x_2 + 22 x_3 + 39 x_4 + 24 x_5 + 37 x_6 + 49 x_7 + 8 x_8 + 10 x_9 + 26 x_10 + 48 x_11 + 23 x_12 = 1551
	c_3: + 50 x_1 + 31 x_2 + 1 x_3 + 17 x_4 + 33 x_5 + 3 x_6 + 41 x_7 + 22 x_8 + 28 x_9 + 36 x_10 + 42 x_11 + 37 x_12 = 1430
	c_4: + 24 x_1 + 47 x_2 + 34 x_3 + 18 x_4 + 16 x_5 + 2 x_6 + 15 x_7 + 43 x_8 + 43 x_9 + 21 x_10 + 7 x_11 + 48 x_12 = 1156
	c_5: + 6 x_1 + 32 x_2 + 44 x_3 + 7 x_4 + 36 x_5 + 49 x_6 + 34 x_7 + 47 x_8 + 4 x_9 + 44 x_10 + 7 x_11 + 23 x_12 = 1394
	c_6: + 36 x_1 + 13 x_2 + 50 x_3 + 32 x_4 + 18 x_5 + 42 x_6 + 22 x_7 + 38 x_8 + 46 x_9 + 21 x_10 + 39 x_11 + 36 x_12 = 1662
	c_7: + 19 x_1 + 7 x_2 + 30 x_3 + 42 x_4 + 47 x_5 + 36 x_6 + 29 x_7 + 43 x_8 + 1 x_9 + 33 x_10 + 3 x_11 + 34 x_12 = 1407
	c_8: + 28 x_1 + 50 x_2 + 37 x_3 + 42 x_4 + 15 x_5 + 21 x_6 + 30 x_7 + 21 x_8 + 5 x_9 + 30 x_10 + 9 x_11 + 48 x_12 = 1278
Bounds
  0 <= x_1 <= 10
  0 <= x_2 <= 10
  0 <= x_3 <= 10
  0 <= x_4 <= 10
  0 <= x_5 <= 10
  0 <= x_6 <= 10
  0 <= x_7 <= 10
  0 <= x_8 <= 10
  0 <= x_9 <= 10
  0 <= x_10 <= 10
  0 <= x_11 <= 10
  0 <= x_12 <= 10
End
