Subject To
	c_1: + 5 x_1 + 18 x_2 + 10 x_3 + 22 x_4 + 13 x_5 + 21 x_6 + 18 x_7 + 33 x_8 + 25 x_9 + 49 x_10 + 27 x_11 + 28 x_12 = 1452
	c_2: + 47 x_1 + 46 x_2 + 8 x_3 + 31 x_4 + 38 x_5 + 35 x_6 + 46 x_7 + 17 x_8 + 29 x_9 + 45 x_10 + 10 x_11 + 13 x_12 = 1508
	c_3: + 42 x_1 + 39 x_2 + 38 x_3 + 30 x_4 + 1 x_5 + 22 x_6 + 46 x_7 + 41 x_8 + 25 x_9 + 36 x_10 + 42 x_11 + 8 x_12 = 1605
	c_4: + 42 x_1 + 29 x_2 + 10 x_3 + 37 x_4 + 7 x_5 + 45 x_6 + 47 x_7 + 49 x_8 + 27 x_9 + 46 x_10 + 22 x_11 + 30 x_12 = 1830
	c_5: + 34 x_1 + 47 x_2 + 44 x_3 + 44 x_4 + 25 x_5 + 13 x_6 + 44 x_7 + 34 x_8 + 23 x_9 + 39 x_10 + 17 x_11 + 38 x_12 = 1691
	c_6: + 40 x_1 + 50 x_2 + 10 x_3 + 16 x_4 + 34 x_5 + 43 x_6 + 44 x_7 + 11 x_8 + 9 x_9 + 49 x_10 + 26 x_11 + 50 x_12 = 1638
	c_7: + 17 x_1 + 22 x_2 + 21 x_3 + 50 x_4 + 28 x_5 + 25 x_6 + 37 x_7 + 31 x_8 + 48 x_9 + 12 x_10 + 5 x_11 + 30 x_12 = 1344
	c_8: + 8 x_1 + 36 x_2 + 13 x_3 + 44 x_4 + 46 x_5 + 36 x_6 + 49 x_7 + 19 x_8 + 34 x_9 + 43 x_10 + 5 x_11 + 46 x_12 = 1689
Bounds
  0 <= x_1 <= 10
  0 <= x_2 <= 10
  0 <= x_3 <= 10
  0 <= x_4 <= 10
  0 <= x_5 <= 10
  0 <= x_6 <= 10
  0 <= x_7 <= 10
  0 <= x_8 <= 10
  0 <= x_9 <= 10
  0 <= x_10 <= 10
  0 <= x_11 <= 10
  0 <= x_12 <= 10
End
