Subject To
	c_1: + 18 x_1 + 1 x_2 + 23 x_3 + 33 x_4 + 38 x_5 + 19 x_6 + 10 x_7 + 33 x_8 + 26 x_9 + 41 x_10 + 27 x_11 + 40 x_12 = 1921
	c_2: + 37 x_1 + 44 x_2 + 36 x_3 + 46 x_4 + 19 x_5 + 5 x_6 + 49 x_7 + 32 x_8 + 4 x_9 + 13 x_10 + 8 x_11 + 24 x_12 = 1427
	c_3: + 13 x_1 + 4 x_2 + 1 x_3 + 50 x_4 + 41 x_5 + 49 x_6 + 36 x_7 + 45 x_8 + 9 x_9 + 13 x_10 + 3 x_11 + 42 x_12 = 1804
	c_4: + 15 x_1 + 44 x_2 + 7 x_3 + 1 x_4 + 16 x_5 + 40 x_6 + 31 x_7 + 25 x_8 + 13 x_9 + 33 x_10 + 17 x_11 + 35 x_12 = 1299
	c_5: + 8 x_1 + 23 x_2 + 30 x_3 + 6 x_4 + 17 x_5 + 15 x_6 + 40 x_7 + 40 x_8 + 47 x_9 + 33 x_10 + 34 x_11 + 37 x_12 = 1707
	c_6: + 19 x_1 + 5 x_2 + 4 x_3 + 40 x_4 + 46 x_5 + 15 x_6 + 45 x_7 + 33 x_8 + 34 x_9 + 34 x_10 + 41 x_11 + 15 x_12 = 1869
	c_7: + 38 x_1 + 30 x_2 + 8 x_3 + 38 x_4 + 14 x_5 + 29 x_6 + 49 x_7 + 31 x_8 + 15 x_9 + 32 x_10 + 33 x_11 + 11 x_12 = 1539
	c_8: + 40 x_1 + 17 x_2 + 17 x_3 + 33 x_4 + 15 x_5 + 35 x_6 + 33 x_7 + 27 x_8 + 7 x_9 + 17 x_10 + 31 x_11 + 4 x_12 = 1292
Bounds
  0 <= x_1 <= 10
  0 <= x_2 <= 10
  0 <= x_3 <= 10
  0 <= x_4 <= 10
  0 <= x_5 <= 10
  0 <= x_6 <= 10
  0 <= x_7 <= 10
  0 <= x_8 <= 10
  0 <= x_9 <= 10
  0 <= x_10 <= 10
  0 <= x_11 <= 10
  0 <= x_12 <= 10
End
