Subject To
	c_1: + 17 x_1 + 35 x_2 + 41 x_3 + 44 x_4 + 13 x_5 + 26 x_6 + 27 x_7 + 45 x_8 + 41 x_9 + 7 x_10 + 42 x_11 + 2 x_12 = 2429
	c_2: + 49 x_1 + 33 x_2 + 15 x_3 + 20 x_4 + 35 x_5 + 21 x_6 + 46 x_7 + 7 x_8 + 16 x_9 + 43 x_10 + 44 x_11 + 14 x_12 = 1713
	c_3: + 25 x_1 + 43 x_2 + 50 x_3 + 4 x_4 + 50 x_5 + 13 x_6 + 45 x_7 + 48 x_8 + 44 x_9 + 19 x_10 + 21 x_11 + 35 x_12 = 2194
	c_4: + 36 x_1 + 43 x_2 + 29 x_3 + 45 x_4 + 3 x_5 + 17 x_6 + 23 x_7 + 11 x_8 + 16 x_9 + 17 x_10 + 10 x_11 + 18 x_12 = 1586
	c_5: + 31 x_1 + 29 x_2 + 17 x_3 + 10 x_4 + 7 x_5 + 1 x_6 + 5 x_7 + 10 x_8 + 10 x_9 + 49 x_10 + 10 x_11 + 31 x_12 = 875
	c_6: + 46 x_1 + 37 x_2 + 19 x_3 + 32 x_4 + 9 x_5 + 15 x_6 + 6 x_7 + 1 x_8 + 41 x_9 + 7 x_10 + 34 x_11 + 20 x_12 = 1610
	c_7: + 46 x_1 + 44 x_2 + 18 x_3 + 29 x_4 + 43 x_5 + 28 x_6 + 5 x_7 + 18 x_8 + 9 x_9 + 8 x_10 + 31 x_11 + 34 x_12 = 1623
	c_8: + 46 x_1 + 50 x_2 + 3 x_3 + 28 x_4 + 32 x_5 + 1 x_6 + 44 x_7 + 22 x_8 + 31 x_9 + 39 x_10 + 25 x_11 + 5 x_12 = 1763
Bounds
  0 <= x_1 <= 10
  0 <= x_2 <= 10
  0 <= x_3 <= 10
  0 <= x_4 <= 10
  0 <= x_5 <= 10
  0 <= x_6 <= 10
  0 <= x_7 <= 10
  0 <= x_8 <= 10
  0 <= x_9 <= 10
  0 <= x_10 <= 10
  0 <= x_11 <= 10
  0 <= x_12 <= 10
End
