Subject To
	c_1: + 18 x_1 + 39 x_2 + 50 x_3 + 23 x_4 + 31 x_5 + 10 x_6 + 33 x_7 + 14 x_8 + 22 x_9 + 44 x_10 + 4 x_11 + 24 x_12 = 2027
	c_2: + 4 x_1 + 16 x_2 + 7 x_3 + 1 x_4 + 10 x_5 + 18 x_6 + 6 x_7 + 49 x_8 + 37 x_9 + 48 x_10 + 28 x_11 + 38 x_12 = 1220
	c_3: + 35 x_1 + 23 x_2 + 36 x_3 + 38 x_4 + 22 x_5 + 25 x_6 + 23 x_7 + 45 x_8 + 12 x_9 + 23 x_10 + 24 x_11 + 20 x_12 = 1589
	c_4: + 38 x_1 + 43 x_2 + 35 x_3 + 17 x_4 + 37 x_5 + 46 x_6 + 7 x_7 + 9 x_8 + 10 x_9 + 4 x_10 + 15 x_11 + 49 x_12 = 1578
	c_5: + 20 x_1 + 9 x_2 + 22 x_3 + 7 x_4 + 50 x_5 + 50 x_6 + 2 x_7 + 11 x_8 + 41 x_9 + 22 x_10 + 29 x_11 + 8 x_12 = 1218
	c_6: + 50 x_1 + 26 x_2 + 12 x_3 + 27 x_4 + 9 x_5 + 1 x_6 + 40 x_7 + 50 x_8 + 21 x_9 + 47 x_10 + 15 x_11 + 5 x_12 = 1554
	c_7: + 42 x_1 + 47 x_2 + 43 x_3 + 20 x_4 + 21 x_5 + 20 x_6 + 9 x_7 + 11 x_8 + 49 x_9 + 38 x_10 + 38 x_11 + 32 x_12 = 1961
	c_8: + 18 x_1 + 5 x_2 + 4 x_3 + 49 x_4 + 46 x_5 + 44 x_6 + 20 x_7 + 27 x_8 + 50 x_9 + 36 x_10 + 15 x_11 + 15 x_12 = 1487
Bounds
  0 <= x_1 <= 10
  0 <= x_2 <= 10
  0 <= x_3 <= 10
  0 <= x_4 <= 10
  0 <= x_5 <= 10
  0 <= x_6 <= 10
  0 <= x_7 <= 10
  0 <= x_8 <= 10
  0 <= x_9 <= 10
  0 <= x_10 <= 10
  0 <= x_11 <= 10
  0 <= x_12 <= 10
End
