Subject To
	c_1: + 27 x_1 + 14 x_2 + 32 x_3 + 28 x_4 + 27 x_5 + 18 x_6 + 50 x_7 + 34 x_8 + 40 x_9 + 19 x_10 + 12 x_11 + 34 x_12 = 2108
	c_2: + 32 x_1 + 29 x_2 + 18 x_3 + 3 x_4 + 16 x_5 + 24 x_6 + 10 x_7 + 23 x_8 + 50 x_9 + 43 x_10 + 6 x_11 + 3 x_12 = 1362
	c_3: + 40 x_1 + 35 x_2 + 30 x_3 + 43 x_4 + 39 x_5 + 17 x_6 + 28 x_7 + 33 x_8 + 3 x_9 + 34 x_10 + 16 x_11 + 32 x_12 = 1881
	c_4: + 31 x_1 + 21 x_2 + 28 x_3 + 5 x_4 + 1 x_5 + 13 x_6 + 17 x_7 + 27 x_8 + 20 x_9 + 11 x_10 + 8 x_11 + 37 x_12 = 1277
	c_5: + 29 x_1 + 28 x_2 + 16 x_3 + 16 x_4 + 18 x_5 + 47 x_6 + 3 x_7 + 30 x_8 + 36 x_9 + 32 x_10 + 6 x_11 + 20 x_12 = 1432
	c_6: + 19 x_1 + 37 x_2 + 18 x_3 + 43 x_4 + 41 x_5 + 49 x_6 + 9 x_7 + 29 x_8 + 45 x_9 + 42 x_10 + 48 x_11 + 38 x_12 = 2070
	c_7: + 43 x_1 + 43 x_2 + 40 x_3 + 48 x_4 + 15 x_5 + 50 x_6 + 43 x_7 + 34 x_8 + 48 x_9 + 21 x_10 + 45 x_11 + 40 x_12 = 2560
	c_8: + 40 x_1 + 47 x_2 + 3 x_3 + 32 x_4 + 24 x_5 + 19 x_6 + 34 x_7 + 32 x_8 + 31 x_9 + 41 x_10 + 5 x_11 + 8 x_12 = 1723
Bounds
  0 <= x_1 <= 10
  0 <= x_2 <= 10
  0 <= x_3 <= 10
  0 <= x_4 <= 10
  0 <= x_5 <= 10
  0 <= x_6 <= 10
  0 <= x_7 <= 10
  0 <= x_8 <= 10
  0 <= x_9 <= 10
  0 <= x_10 <= 10
  0 <= x_11 <= 10
  0 <= x_12 <= 10
End
