Subject To
	c_1: + 23 x_1 + 2 x_2 + 42 x_3 + 28 x_4 + 35 x_5 + 25 x_6 + 5 x_7 + 13 x_8 + 44 x_9 + 9 x_10 + 14 x_11 + 24 x_12 = 1564
	c_2: + 19 x_1 + 24 x_2 + 2 x_3 + 23 x_4 + 13 x_5 + 44 x_6 + 46 x_7 + 15 x_8 + 11 x_9 + 4 x_10 + 21 x_11 + 13 x_12 = 806
	c_3: + 30 x_1 + 46 x_2 + 39 x_3 + 23 x_4 + 40 x_5 + 16 x_6 + 27 x_7 + 4 x_8 + 25 x_9 + 39 x_10 + 17 x_11 + 10 x_12 = 1329
	c_4: + 29 x_1 + 41 x_2 + 42 x_3 + 38 x_4 + 19 x_5 + 31 x_6 + 49 x_7 + 33 x_8 + 6 x_9 + 47 x_10 + 34 x_11 + 42 x_12 = 1466
	c_5: + 21 x_1 + 4 x_2 + 26 x_3 + 19 x_4 + 24 x_5 + 31 x_6 + 23 x_7 + 3 x_8 + 9 x_9 + 39 x_10 + 24 x_11 + 44 x_12 = 1153
	c_6: + 34 x_1 + 34 x_2 + 33 x_3 + 43 x_4 + 34 x_5 + 31 x_6 + 45 x_7 + 1 x_8 + 20 x_9 + 24 x_10 + 39 x_11 + 45 x_12 = 1595
	c_7: + 37 x_1 + 6 x_2 + 19 x_3 + 49 x_4 + 12 x_5 + 30 x_6 + 50 x_7 + 16 x_8 + 50 x_9 + 33 x_10 + 50 x_11 + 3 x_12 = 1478
	c_8: + 15 x_1 + 28 x_2 + 20 x_3 + 33 x_4 + 8 x_5 + 28 x_6 + 44 x_7 + 48 x_8 + 32 x_9 + 16 x_10 + 42 x_11 + 35 x_12 = 1304
Bounds
  0 <= x_1 <= 10
  0 <= x_2 <= 10
  0 <= x_3 <= 10
  0 <= x_4 <= 10
  0 <= x_5 <= 10
  0 <= x_6 <= 10
  0 <= x_7 <= 10
  0 <= x_8 <= 10
  0 <= x_9 <= 10
  0 <= x_10 <= 10
  0 <= x_11 <= 10
  0 <= x_12 <= 10
End
