Subject To
	c_1: + 3 x_1 + 25 x_2 + 5 x_3 + 32 x_4 + 10 x_5 + 16 x_6 + 48 x_7 + 39 x_8 + 1 x_9 + 3 x_10 + 13 x_11 + 33 x_12 = 1439
	c_2: + 32 x_1 + 37 x_2 + 8 x_3 + 23 x_4 + 29 x_5 + 47 x_6 + 41 x_7 + 13 x_8 + 28 x_9 + 50 x_10 + 45 x_11 + 36 x_12 = 1386
	c_3: + 2 x_1 + 5 x_2 + 30 x_3 + 46 x_4 + 27 x_5 + 26 x_6 + 50 x_7 + 48 x_8 + 31 x_9 + 6 x_10 + 28 x_11 + 31 x_12 = 1620
	c_4: + 22 x_1 + 41 x_2 + 11 x_3 + 18 x_4 + 36 x_5 + 45 x_6 + 29 x_7 + 6 x_8 + 5 x_9 + 33 x_10 + 47 x_11 + 37 x_12 = 1222
	c_5: + 9 x_1 + 30 x_2 + 18 x_3 + 34 x_4 + 4 x_5 + 7 x_6 + 13 x_7 + 18 x_8 + 42 x_9 + 27 x_10 + 15 x_11 + 5 x_12 = 740
	c_6: + 44 x_1 + 29 x_2 + 31 x_3 + 33 x_4 + 32 x_5 + 40 x_6 + 38 x_7 + 16 x_8 + 38 x_9 + 23 x_10 + 21 x_11 + 47 x_12 = 1437
	c_7: + 32 x_1 + 40 x_2 + 24 x_3 + 49 x_4 + 20 x_5 + 22 x_6 + 13 x_7 + 39 x_8 + 50 x_9 + 48 x_10 + 5 x_11 + 50 x_12 = 1426
	c_8: + 4 x_1 + 16 x_2 + 13 x_3 + 9 x_4 + 16 x_5 + 10 x_6 + 26 x_7 + 35 x_8 + 24 x_9 + 3 x_10 + 21 x_11 + 46 x_12 = 1113
Bounds
  0 <= x_1 <= 10
  0 <= x_2 <= 10
  0 <= x_3 <= 10
  0 <= x_4 <= 10
  0 <= x_5 <= 10
  0 <= x_6 <= 10
  0 <= x_7 <= 10
  0 <= x_8 <= 10
  0 <= x_9 <= 10
  0 <= x_10 <= 10
  0 <= x_11 <= 10
  0 <= x_12 <= 10
End
