Subject To
	c_1: + 11 x_1 + 46 x_2 + 13 x_3 + 46 x_4 + 24 x_5 + 33 x_6 + 3 x_7 + 14 x_8 + 2 x_9 + 11 x_10 + 21 x_11 + 34 x_12 = 1659
	c_2: + 7 x_1 + 43 x_2 + 11 x_3 + 7 x_4 + 13 x_5 + 17 x_6 + 11 x_7 + 35 x_8 + 32 x_9 + 35 x_10 + 3 x_11 + 47 x_12 = 1229
	c_3: + 25 x_1 + 39 x_2 + 39 x_3 + 32 x_4 + 6 x_5 + 48 x_6 + 43 x_7 + 21 x_8 + 37 x_9 + 43 x_10 + 37 x_11 + 6 x_12 = 1511
	c_4: + 8 x_1 + 50 x_2 + 32 x_3 + 8 x_4 + 12 x_5 + 6 x_6 + 33 x_7 + 30 x_8 + 37 x_9 + 7 x_10 + 14 x_11 + 20 x_12 = 1054
	c_5: + 50 x_1 + 34 x_2 + 35 x_3 + 22 x_4 + 2 x_5 + 44 x_6 + 20 x_7 + 2 x_8 + 20 x_9 + 36 x_10 + 28 x_11 + 20 x_12 = 1356
	c_6: + 44 x_1 + 44 x_2 + 10 x_3 + 33 x_4 + 36 x_5 + 35 x_6 + 18 x_7 + 36 x_8 + 13 x_9 + 14 x_10 + 30 x_11 + 12 x_12 = 1610
	c_7: + 34 x_1 + 2 x_2 + 31 x_3 + 6 x_4 + 2 x_5 + 11 x_6 + 49 x_7 + 36 x_8 + 9 x_9 + 41 x_10 + 30 x_11 + 12 x_12 = 685
	c_8: + 20 x_1 + 8 x_2 + 44 x_3 + 30 x_4 + 19 x_5 + 37 x_6 + 19 x_7 + 50 x_8 + 4 x_9 + 49 x_10 + 47 x_11 + 4 x_12 = 1296
Bounds
  0 <= x_1 <= 10
  0 <= x_2 <= 10
  0 <= x_3 <= 10
  0 <= x_4 <= 10
  0 <= x_5 <= 10
  0 <= x_6 <= 10
  0 <= x_7 <= 10
  0 <= x_8 <= 10
  0 <= x_9 <= 10
  0 <= x_10 <= 10
  0 <= x_11 <= 10
  0 <= x_12 <= 10
End
