Subject To
	c_1: + 21 x_1 + 11 x_2 + 33 x_3 + 26 x_4 + 2 x_5 + 5 x_6 + 19 x_7 + 30 x_8 + 9 x_9 + 26 x_10 + 14 x_11 + 28 x_12 = 1058
	c_2: + 9 x_1 + 36 x_2 + 32 x_3 + 33 x_4 + 6 x_5 + 35 x_6 + 41 x_7 + 13 x_8 + 23 x_9 + 41 x_10 + 38 x_11 + 48 x_12 = 1331
	c_3: + 13 x_1 + 20 x_2 + 27 x_3 + 41 x_4 + 42 x_5 + 17 x_6 + 47 x_7 + 10 x_8 + 22 x_9 + 46 x_10 + 44 x_11 + 38 x_12 = 1302
	c_4: + 9 x_1 + 5 x_2 + 33 x_3 + 26 x_4 + 27 x_5 + 25 x_6 + 38 x_7 + 12 x_8 + 32 x_9 + 17 x_10 + 27 x_11 + 26 x_12 = 958
	c_5: + 9 x_1 + 20 x_2 + 30 x_3 + 39 x_4 + 23 x_5 + 5 x_6 + 48 x_7 + 5 x_8 + 47 x_9 + 23 x_10 + 2 x_11 + 48 x_12 = 1157
	c_6: + 38 x_1 + 23 x_2 + 32 x_3 + 15 x_4 + 32 x_5 + 35 x_6 + 13 x_7 + 47 x_8 + 4 x_9 + 47 x_10 + 16 x_11 + 2 x_12 = 1114
	c_7: + 9 x_1 + 33 x_2 + 22 x_3 + 23 x_4 + 16 x_5 + 20 x_6 + 31 x_7 + 31 x_8 + 23 x_9 + 22 x_10 + 38 x_11 + 12 x_12 = 962
	c_8: + 27 x_1 + 40 x_2 + 24 x_3 + 38 x_4 + 12 x_5 + 44 x_6 + 25 x_7 + 20 x_8 + 32 x_9 + 18 x_10 + 5 x_11 + 16 x_12 = 994
Bounds
  0 <= x_1 <= 10
  0 <= x_2 <= 10
  0 <= x_3 <= 10
  0 <= x_4 <= 10
  0 <= x_5 <= 10
  0 <= x_6 <= 10
  0 <= x_7 <= 10
  0 <= x_8 <= 10
  0 <= x_9 <= 10
  0 <= x_10 <= 10
  0 <= x_11 <= 10
  0 <= x_12 <= 10
End
