Subject To
	c_1: + 15 x_1 + 23 x_2 + 12 x_3 + 15 x_4 + 49 x_5 + 26 x_6 + 5 x_7 + 31 x_8 + 22 x_9 + 31 x_10 + 31 x_11 + 30 x_12 = 1657
	c_2: + 16 x_1 + 15 x_2 + 18 x_3 + 45 x_4 + 41 x_5 + 20 x_6 + 14 x_7 + 38 x_8 + 41 x_9 + 50 x_10 + 22 x_11 + 21 x_12 = 1753
	c_3: + 1 x_1 + 33 x_2 + 2 x_3 + 2 x_4 + 18 x_5 + 16 x_6 + 35 x_7 + 1 x_8 + 28 x_9 + 11 x_10 + 41 x_11 + 24 x_12 = 1014
	c_4: + 12 x_1 + 30 x_2 + 42 x_3 + 4 x_4 + 42 x_5 + 35 x_6 + 50 x_7 + 28 x_8 + 50 x_9 + 26 x_10 + 41 x_11 + 14 x_12 = 1751
	c_5: + 26 x_1 + 2 x_2 + 4 x_3 + 49 x_4 + 20 x_5 + 29 x_6 + 27 x_7 + 6 x_8 + 44 x_9 + 39 x_10 + 13 x_11 + 15 x_12 = 1227
	c_6: + 20 x_1 + 9 x_2 + 43 x_3 + 18 x_4 + 35 x_5 + 46 x_6 + 33 x_7 + 9 x_8 + 22 x_9 + 46 x_10 + 48 x_11 + 37 x_12 = 1777
	c_7: + 18 x_1 + 23 x_2 + 25 x_3 + 21 x_4 + 19 x_5 + 49 x_6 + 30 x_7 + 19 x_8 + 1 x_9 + 4 x_10 + 20 x_11 + 43 x_12 = 1244
	c_8: + 11 x_1 + 28 x_2 + 16 x_3 + 7 x_4 + 32 x_5 + 4 x_6 + 26 x_7 + 25 x_8 + 35 x_9 + 45 x_10 + 19 x_11 + 8 x_12 = 1286
Bounds
  0 <= x_1 <= 10
  0 <= x_2 <= 10
  0 <= x_3 <= 10
  0 <= x_4 <= 10
  0 <= x_5 <= 10
  0 <= x_6 <= 10
  0 <= x_7 <= 10
  0 <= x_8 <= 10
  0 <= x_9 <= 10
  0 <= x_10 <= 10
  0 <= x_11 <= 10
  0 <= x_12 <= 10
End
