Subject To
	c_1: + 23 x_1 + 34 x_2 + 2 x_3 + 1 x_4 + 11 x_5 + 47 x_6 + 46 x_7 + 30 x_8 + 20 x_9 + 43 x_10 + 9 x_11 + 14 x_12 = 1934
	c_2: + 40 x_1 + 49 x_2 + 35 x_3 + 32 x_4 + 40 x_5 + 12 x_6 + 5 x_7 + 1 x_8 + 36 x_9 + 9 x_10 + 8 x_11 + 3 x_12 = 996
	c_3: + 9 x_1 + 28 x_2 + 11 x_3 + 16 x_4 + 35 x_5 + 41 x_6 + 32 x_7 + 3 x_8 + 7 x_9 + 5 x_10 + 26 x_11 + 31 x_12 = 1210
	c_4: + 14 x_1 + 9 x_2 + 2 x_3 + 8 x_4 + 45 x_5 + 39 x_6 + 35 x_7 + 20 x_8 + 8 x_9 + 10 x_10 + 45 x_11 + 19 x_12 = 1258
	c_5: + 32 x_1 + 37 x_2 + 6 x_3 + 35 x_4 + 28 x_5 + 21 x_6 + 26 x_7 + 14 x_8 + 50 x_9 + 9 x_10 + 40 x_11 + 44 x_12 = 1424
	c_6: + 17 x_1 + 9 x_2 + 49 x_3 + 4 x_4 + 30 x_5 + 40 x_6 + 29 x_7 + 6 x_8 + 41 x_9 + 29 x_10 + 37 x_11 + 12 x_12 = 1386
	c_7: + 35 x_1 + 1 x_2 + 16 x_3 + 27 x_4 + 49 x_5 + 1 x_6 + 10 x_7 + 21 x_8 + 16 x_9 + 25 x_10 + 24 x_11 + 34 x_12 = 886
	c_8: + 11 x_1 + 5 x_2 + 33 x_3 + 9 x_4 + 31 x_5 + 17 x_6 + 22 x_7 + 14 x_8 + 30 x_9 + 50 x_10 + 11 x_11 + 30 x_12 = 1264
Bounds
  0 <= x_1 <= 10
  0 <= x_2 <= 10
  0 <= x_3 <= 10
  0 <= x_4 <= 10
  0 <= x_5 <= 10
  0 <= x_6 <= 10
  0 <= x_7 <= 10
  0 <= x_8 <= 10
  0 <= x_9 <= 10
  0 <= x_10 <= 10
  0 <= x_11 <= 10
  0 <= x_12 <= 10
End
