Subject To
	c_1: + 11 x_1 + 19 x_2 + 39 x_3 + 43 x_4 + 23 x_5 + 30 x_6 + 23 x_7 + 7 x_8 + 46 x_9 + 44 x_10 + 30 x_11 + 18 x_12 = 2281
	c_2: + 50 x_1 + 38 x_2 + 25 x_3 + 3 x_4 + 23 x_5 + 49 x_6 + 6 x_7 + 14 x_8 + 22 x_9 + 27 x_10 + 30 x_11 + 18 x_12 = 1623
	c_3: + 50 x_1 + 38 x_2 + 24 x_3 + 17 x_4 + 9 x_5 + 20 x_6 + 16 x_7 + 2 x_8 + 48 x_9 + 38 x_10 + 33 x_11 + 4 x_12 = 1860
	c_4: + 50 x_1 + 50 x_2 + 17 x_3 + 26 x_4 + 2 x_5 + 30 x_6 + 21 x_7 + 15 x_8 + 34 x_9 + 29 x_10 + 31 x_11 + 3 x_12 = 1755
	c_5: + 26 x_1 + 15 x_2 + 24 x_3 + 39 x_4 + 32 x_5 + 18 x_6 + 50 x_7 + 7 x_8 + 40 x_9 + 14 x_10 + 45 x_11 + 38 x_12 = 2040
	c_6: + 26 x_1 + 40 x_2 + 1 x_3 + 4 x_4 + 42 x_5 + 1 x_6 + 22 x_7 + 7 x_8 + 41 x_9 + 43 x_10 + 4 x_11 + 46 x_12 = 1526
	c_7: + 43 x_1 + 44 x_2 + 20 x_3 + 48 x_4 + 18 x_5 + 10 x_6 + 42 x_7 + 8 x_8 + 5 x_9 + 27 x_10 + 36 x_11 + 48 x_12 = 1833
	c_8: + 19 x_1 + 26 x_2 + 40 x_3 + 34 x_4 + 6 x_5 + 5 x_6 + 34 x_7 + 29 x_8 + 5 x_9 + 9 x_10 + 39 x_11 + 14 x_12 = 1400
Bounds
  0 <= x_1 <= 10
  0 <= x_2 <= 10
  0 <= x_3 <= 10
  0 <= x_4 <= 10
  0 <= x_5 <= 10
  0 <= x_6 <= 10
  0 <= x_7 <= 10
  0 <= x_8 <= 10
  0 <= x_9 <= 10
  0 <= x_10 <= 10
  0 <= x_11 <= 10
  0 <= x_12 <= 10
End
