Subject To
	c_1: + 14 x_1 + 1 x_2 + 7 x_3 + 30 x_4 + 2 x_5 + 16 x_6 + 6 x_7 + 21 x_8 + 14 x_9 + 34 x_10 + 11 x_11 + 13 x_12 = 695
	c_2: + 23 x_1 + 24 x_2 + 7 x_3 + 49 x_4 + 18 x_5 + 46 x_6 + 8 x_7 + 9 x_8 + 6 x_9 + 37 x_10 + 31 x_11 + 10 x_12 = 911
	c_3: + 47 x_1 + 7 x_2 + 21 x_3 + 18 x_4 + 18 x_5 + 11 x_6 + 47 x_7 + 30 x_8 + 23 x_9 + 39 x_10 + 7 x_11 + 4 x_12 = 834
	c_4: + 34 x_1 + 17 x_2 + 32 x_3 + 43 x_4 + 30 x_5 + 43 x_6 + 37 x_7 + 32 x_8 + 39 x_9 + 36 x_10 + 2 x_11 + 10 x_12 = 1079
	c_5: + 7 x_1 + 34 x_2 + 20 x_3 + 45 x_4 + 25 x_5 + 48 x_6 + 49 x_7 + 50 x_8 + 20 x_9 + 26 x_10 + 24 x_11 + 14 x_12 = 1022
	c_6: + 34 x_1 + 42 x_2 + 44 x_3 + 19 x_4 + 34 x_5 + 32 x_6 + 49 x_7 + 45 x_8 + 42 x_9 + 13 x_10 + 18 x_11 + 35 x_12 = 908
	c_7: + 32 x_1 + 19 x_2 + 35 x_3 + 29 x_4 + 47 x_5 + 30 x_6 + 11 x_7 + 10 x_8 + 19 x_9 + 38 x_10 + 30 x_11 + 40 x_12 = 909
	c_8: + 22 x_1 + 25 x_2 + 17 x_3 + 23 x_4 + 15 x_5 + 36 x_6 + 7 x_7 + 35 x_8 + 4 x_9 + 50 x_10 + 12 x_11 + 30 x_12 = 922
Bounds
  0 <= x_1 <= 10
  0 <= x_2 <= 10
  0 <= x_3 <= 10
  0 <= x_4 <= 10
  0 <= x_5 <= 10
  0 <= x_6 <= 10
  0 <= x_7 <= 10
  0 <= x_8 <= 10
  0 <= x_9 <= 10
  0 <= x_10 <= 10
  0 <= x_11 <= 10
  0 <= x_12 <= 10
End
