Subject To
	c_1: + 29 x_1 + 43 x_2 + 25 x_3 + 32 x_4 + 48 x_5 + 22 x_6 + 27 x_7 + 39 x_8 + 46 x_9 + 12 x_10 + 26 x_11 + 3 x_12 = 2461
	c_2: + 6 x_1 + 46 x_2 + 46 x_3 + 35 x_4 + 18 x_5 + 26 x_6 + 30 x_7 + 28 x_8 + 2 x_9 + 1 x_10 + 38 x_11 + 7 x_12 = 1758
	c_3: + 30 x_1 + 42 x_2 + 36 x_3 + 1 x_4 + 27 x_5 + 9 x_6 + 29 x_7 + 36 x_8 + 1 x_9 + 12 x_10 + 14 x_11 + 44 x_12 = 1586
	c_4: + 40 x_1 + 49 x_2 + 28 x_3 + 41 x_4 + 1 x_5 + 24 x_6 + 4 x_7 + 17 x_8 + 19 x_9 + 26 x_10 + 14 x_11 + 33 x_12 = 1622
	c_5: + 37 x_1 + 27 x_2 + 17 x_3 + 48 x_4 + 41 x_5 + 19 x_6 + 5 x_7 + 31 x_8 + 28 x_9 + 12 x_10 + 14 x_11 + 43 x_12 = 1943
	c_6: + 21 x_1 + 33 x_2 + 18 x_3 + 50 x_4 + 22 x_5 + 8 x_6 + 11 x_7 + 46 x_8 + 15 x_9 + 13 x_10 + 27 x_11 + 46 x_12 = 1784
	c_7: + 30 x_1 + 46 x_2 + 39 x_3 + 8 x_4 + 10 x_5 + 28 x_6 + 31 x_7 + 31 x_8 + 30 x_9 + 48 x_10 + 13 x_11 + 15 x_12 = 1883
	c_8: + 39 x_1 + 27 x_2 + 5 x_3 + 24 x_4 + 28 x_5 + 16 x_6 + 5 x_7 + 12 x_8 + 29 x_9 + 23 x_10 + 34 x_11 + 27 x_12 = 1588
Bounds
  0 <= x_1 <= 10
  0 <= x_2 <= 10
  0 <= x_3 <= 10
  0 <= x_4 <= 10
  0 <= x_5 <= 10
  0 <= x_6 <= 10
  0 <= x_7 <= 10
  0 <= x_8 <= 10
  0 <= x_9 <= 10
  0 <= x_10 <= 10
  0 <= x_11 <= 10
  0 <= x_12 <= 10
End
