Subject To
	c_1: + 32 x_1 + 16 x_2 + 44 x_3 + 18 x_4 + 4 x_5 + 8 x_6 + 25 x_7 + 48 x_8 + 26 x_9 + 41 x_10 + 35 x_11 + 4 x_12 = 2006
	c_2: + 20 x_1 + 9 x_2 + 34 x_3 + 24 x_4 + 22 x_5 + 22 x_6 + 20 x_7 + 45 x_8 + 46 x_9 + 4 x_10 + 23 x_11 + 3 x_12 = 1520
	c_3: + 50 x_1 + 34 x_2 + 22 x_3 + 44 x_4 + 40 x_5 + 33 x_6 + 13 x_7 + 46 x_8 + 26 x_9 + 43 x_10 + 47 x_11 + 1 x_12 = 2093
	c_4: + 4 x_1 + 18 x_2 + 17 x_3 + 5 x_4 + 26 x_5 + 19 x_6 + 11 x_7 + 47 x_8 + 23 x_9 + 43 x_10 + 2 x_11 + 44 x_12 = 1263
	c_5: + 12 x_1 + 7 x_2 + 45 x_3 + 31 x_4 + 38 x_5 + 50 x_6 + 8 x_7 + 19 x_8 + 48 x_9 + 33 x_10 + 43 x_11 + 8 x_12 = 1676
	c_6: + 12 x_1 + 14 x_2 + 8 x_3 + 10 x_4 + 6 x_5 + 28 x_6 + 36 x_7 + 41 x_8 + 14 x_9 + 44 x_10 + 3 x_11 + 45 x_12 = 1277
	c_7: + 38 x_1 + 31 x_2 + 31 x_3 + 1 x_4 + 10 x_5 + 43 x_6 + 39 x_7 + 19 x_8 + 28 x_9 + 44 x_10 + 39 x_11 + 7 x_12 = 1796
	c_8: + 18 x_1 + 25 x_2 + 23 x_3 + 39 x_4 + 39 x_5 + 24 x_6 + 16 x_7 + 34 x_8 + 36 x_9 + 14 x_10 + 42 x_11 + 33 x_12 = 1537
Bounds
  0 <= x_1 <= 10
  0 <= x_2 <= 10
  0 <= x_3 <= 10
  0 <= x_4 <= 10
  0 <= x_5 <= 10
  0 <= x_6 <= 10
  0 <= x_7 <= 10
  0 <= x_8 <= 10
  0 <= x_9 <= 10
  0 <= x_10 <= 10
  0 <= x_11 <= 10
  0 <= x_12 <= 10
End
