Subject To
	c_1: + 17 x_1 + 1 x_2 + 4 x_3 + 7 x_4 + 37 x_5 + 26 x_6 + 36 x_7 + 41 x_8 + 39 x_9 + 2 x_10 + 30 x_11 + 37 x_12 = 1815
	c_2: + 7 x_1 + 16 x_2 + 22 x_3 + 34 x_4 + 2 x_5 + 29 x_6 + 22 x_7 + 45 x_8 + 24 x_9 + 12 x_10 + 38 x_11 + 50 x_12 = 1548
	c_3: + 1 x_1 + 6 x_2 + 26 x_3 + 10 x_4 + 47 x_5 + 34 x_6 + 43 x_7 + 40 x_8 + 35 x_9 + 16 x_10 + 45 x_11 + 30 x_12 = 1923
	c_4: + 11 x_1 + 14 x_2 + 22 x_3 + 30 x_4 + 6 x_5 + 37 x_6 + 2 x_7 + 48 x_8 + 48 x_9 + 24 x_10 + 36 x_11 + 13 x_12 = 1392
	c_5: + 40 x_1 + 32 x_2 + 47 x_3 + 47 x_4 + 20 x_5 + 9 x_6 + 49 x_7 + 35 x_8 + 14 x_9 + 38 x_10 + 25 x_11 + 7 x_12 = 1293
	c_6: + 22 x_1 + 11 x_2 + 47 x_3 + 46 x_4 + 42 x_5 + 12 x_6 + 34 x_7 + 48 x_8 + 29 x_9 + 50 x_10 + 11 x_11 + 24 x_12 = 1578
	c_7: + 7 x_1 + 5 x_2 + 24 x_3 + 28 x_4 + 14 x_5 + 47 x_6 + 21 x_7 + 5 x_8 + 45 x_9 + 19 x_10 + 17 x_11 + 9 x_12 = 1103
	c_8: + 28 x_1 + 19 x_2 + 8 x_3 + 31 x_4 + 8 x_5 + 13 x_6 + 38 x_7 + 32 x_8 + 38 x_9 + 26 x_10 + 49 x_11 + 11 x_12 = 1444
Bounds
  0 <= x_1 <= 10
  0 <= x_2 <= 10
  0 <= x_3 <= 10
  0 <= x_4 <= 10
  0 <= x_5 <= 10
  0 <= x_6 <= 10
  0 <= x_7 <= 10
  0 <= x_8 <= 10
  0 <= x_9 <= 10
  0 <= x_10 <= 10
  0 <= x_11 <= 10
  0 <= x_12 <= 10
End
