Subject To
	c_1: + 27 x_1 + 28 x_2 + 32 x_3 + 21 x_4 + 2 x_5 + 21 x_6 + 37 x_7 + 43 x_8 + 7 x_9 + 1 x_10 + 47 x_11 + 26 x_12 = 1957
	c_2: + 20 x_1 + 8 x_2 + 27 x_3 + 11 x_4 + 1 x_5 + 26 x_6 + 3 x_7 + 33 x_8 + 43 x_9 + 25 x_10 + 26 x_11 + 3 x_12 = 1116
	c_3: + 18 x_1 + 23 x_2 + 40 x_3 + 11 x_4 + 21 x_5 + 33 x_6 + 22 x_7 + 45 x_8 + 47 x_9 + 44 x_10 + 33 x_11 + 12 x_12 = 1679
	c_4: + 29 x_1 + 20 x_2 + 4 x_3 + 22 x_4 + 50 x_5 + 31 x_6 + 23 x_7 + 2 x_8 + 8 x_9 + 20 x_10 + 25 x_11 + 49 x_12 = 1190
	c_5: + 43 x_1 + 28 x_2 + 39 x_3 + 41 x_4 + 29 x_5 + 12 x_6 + 20 x_7 + 20 x_8 + 12 x_9 + 13 x_10 + 32 x_11 + 24 x_12 = 1632
	c_6: + 49 x_1 + 9 x_2 + 24 x_3 + 27 x_4 + 6 x_5 + 17 x_6 + 13 x_7 + 29 x_8 + 35 x_9 + 3 x_10 + 24 x_11 + 31 x_12 = 1429
	c_7: + 44 x_1 + 29 x_2 + 25 x_3 + 23 x_4 + 47 x_5 + 3 x_6 + 25 x_7 + 38 x_8 + 17 x_9 + 18 x_10 + 20 x_11 + 37 x_12 = 1588
	c_8: + 35 x_1 + 29 x_2 + 4 x_3 + 20 x_4 + 36 x_5 + 47 x_6 + 5 x_7 + 43 x_8 + 29 x_9 + 40 x_10 + 39 x_11 + 17 x_12 = 1547
Bounds
  0 <= x_1 <= 10
  0 <= x_2 <= 10
  0 <= x_3 <= 10
  0 <= x_4 <= 10
  0 <= x_5 <= 10
  0 <= x_6 <= 10
  0 <= x_7 <= 10
  0 <= x_8 <= 10
  0 <= x_9 <= 10
  0 <= x_10 <= 10
  0 <= x_11 <= 10
  0 <= x_12 <= 10
End
