Subject To
	c_1: + 38 x_1 + 22 x_2 + 20 x_3 + 19 x_4 + 5 x_5 + 50 x_6 + 8 x_7 + 2 x_8 + 24 x_9 + 24 x_10 + 2 x_11 + 16 x_12 = 1344
	c_2: + 25 x_1 + 41 x_2 + 43 x_3 + 10 x_4 + 16 x_5 + 49 x_6 + 1 x_7 + 17 x_8 + 18 x_9 + 43 x_10 + 1 x_11 + 50 x_12 = 1522
	c_3: + 14 x_1 + 27 x_2 + 13 x_3 + 41 x_4 + 11 x_5 + 21 x_6 + 36 x_7 + 3 x_8 + 29 x_9 + 20 x_10 + 41 x_11 + 20 x_12 = 987
	c_4: + 8 x_1 + 5 x_2 + 18 x_3 + 26 x_4 + 17 x_5 + 40 x_6 + 6 x_7 + 47 x_8 + 25 x_9 + 20 x_10 + 28 x_11 + 4 x_12 = 903
	c_5: + 15 x_1 + 24 x_2 + 9 x_3 + 38 x_4 + 11 x_5 + 18 x_6 + 12 x_7 + 7 x_8 + 31 x_9 + 31 x_10 + 19 x_11 + 5 x_12 = 921
	c_6: + 19 x_1 + 48 x_2 + 18 x_3 + 39 x_4 + 31 x_5 + 39 x_6 + 33 x_7 + 19 x_8 + 4 x_9 + 38 x_10 + 2 x_11 + 24 x_12 = 1277
	c_7: + 17 x_1 + 33 x_2 + 30 x_3 + 32 x_4 + 44 x_5 + 36 x_6 + 14 x_7 + 25 x_8 + 26 x_9 + 28 x_10 + 12 x_11 + 15 x_12 = 1205
	c_8: + 33 x_1 + 37 x_2 + 47 x_3 + 16 x_4 + 43 x_5 + 45 x_6 + 7 x_7 + 5 x_8 + 4 x_9 + 16 x_10 + 3 x_11 + 15 x_12 = 1266
Bounds
  0 <= x_1 <= 10
  0 <= x_2 <= 10
  0 <= x_3 <= 10
  0 <= x_4 <= 10
  0 <= x_5 <= 10
  0 <= x_6 <= 10
  0 <= x_7 <= 10
  0 <= x_8 <= 10
  0 <= x_9 <= 10
  0 <= x_10 <= 10
  0 <= x_11 <= 10
  0 <= x_12 <= 10
End
