Subject To
	c_1: + 16 x_1 + 3 x_2 + 45 x_3 + 15 x_4 + 27 x_5 + 24 x_6 + 9 x_7 + 25 x_8 + 8 x_9 + 29 x_10 + 46 x_11 + 20 x_12 = 1563
	c_2: + 31 x_1 + 22 x_2 + 21 x_3 + 31 x_4 + 16 x_5 + 40 x_6 + 41 x_7 + 5 x_8 + 20 x_9 + 17 x_10 + 1 x_11 + 10 x_12 = 892
	c_3: + 19 x_1 + 2 x_2 + 44 x_3 + 36 x_4 + 44 x_5 + 1 x_6 + 32 x_7 + 46 x_8 + 8 x_9 + 47 x_10 + 9 x_11 + 8 x_12 = 1451
	c_4: + 26 x_1 + 36 x_2 + 2 x_3 + 28 x_4 + 39 x_5 + 7 x_6 + 14 x_7 + 20 x_8 + 45 x_9 + 25 x_10 + 40 x_11 + 38 x_12 = 1231
	c_5: + 28 x_1 + 19 x_2 + 23 x_3 + 21 x_4 + 27 x_5 + 46 x_6 + 46 x_7 + 4 x_8 + 20 x_9 + 11 x_10 + 28 x_11 + 37 x_12 = 1271
	c_6: + 27 x_1 + 4 x_2 + 23 x_3 + 49 x_4 + 37 x_5 + 10 x_6 + 18 x_7 + 29 x_8 + 18 x_9 + 45 x_10 + 23 x_11 + 28 x_12 = 1440
	c_7: + 24 x_1 + 11 x_2 + 28 x_3 + 14 x_4 + 30 x_5 + 10 x_6 + 9 x_7 + 49 x_8 + 41 x_9 + 35 x_10 + 5 x_11 + 23 x_12 = 1208
	c_8: + 48 x_1 + 43 x_2 + 3 x_3 + 14 x_4 + 31 x_5 + 10 x_6 + 13 x_7 + 11 x_8 + 29 x_9 + 27 x_10 + 34 x_11 + 36 x_12 = 1127
Bounds
  0 <= x_1 <= 10
  0 <= x_2 <= 10
  0 <= x_3 <= 10
  0 <= x_4 <= 10
  0 <= x_5 <= 10
  0 <= x_6 <= 10
  0 <= x_7 <= 10
  0 <= x_8 <= 10
  0 <= x_9 <= 10
  0 <= x_10 <= 10
  0 <= x_11 <= 10
  0 <= x_12 <= 10
End
