Subject To
	c_1: + 32 x_1 + 33 x_2 + 7 x_3 + 7 x_4 + 29 x_5 + 10 x_6 + 2 x_7 + 15 x_8 + 32 x_9 + 41 x_10 + 32 x_11 + 39 x_12 = 1700
	c_2: + 18 x_1 + 31 x_2 + 11 x_3 + 25 x_4 + 43 x_5 + 43 x_6 + 16 x_7 + 17 x_8 + 36 x_9 + 40 x_10 + 9 x_11 + 12 x_12 = 1442
	c_3: + 31 x_1 + 18 x_2 + 45 x_3 + 48 x_4 + 30 x_5 + 29 x_6 + 15 x_7 + 15 x_8 + 2 x_9 + 6 x_10 + 13 x_11 + 6 x_12 = 874
	c_4: + 41 x_1 + 34 x_2 + 49 x_3 + 45 x_4 + 31 x_5 + 21 x_6 + 42 x_7 + 24 x_8 + 31 x_9 + 2 x_10 + 4 x_11 + 9 x_12 = 1176
	c_5: + 4 x_1 + 48 x_2 + 45 x_3 + 1 x_4 + 32 x_5 + 9 x_6 + 34 x_7 + 19 x_8 + 36 x_9 + 37 x_10 + 11 x_11 + 29 x_12 = 1483
	c_6: + 17 x_1 + 1 x_2 + 7 x_3 + 23 x_4 + 37 x_5 + 14 x_6 + 50 x_7 + 34 x_8 + 47 x_9 + 14 x_10 + 30 x_11 + 20 x_12 = 1225
	c_7: + 12 x_1 + 3 x_2 + 9 x_3 + 42 x_4 + 6 x_5 + 42 x_6 + 2 x_7 + 31 x_8 + 45 x_9 + 20 x_10 + 22 x_11 + 39 x_12 = 1231
	c_8: + 8 x_1 + 13 x_2 + 2 x_3 + 4 x_4 + 43 x_5 + 14 x_6 + 19 x_7 + 5 x_8 + 44 x_9 + 30 x_10 + 5 x_11 + 19 x_12 = 1132
Bounds
  0 <= x_1 <= 10
  0 <= x_2 <= 10
  0 <= x_3 <= 10
  0 <= x_4 <= 10
  0 <= x_5 <= 10
  0 <= x_6 <= 10
  0 <= x_7 <= 10
  0 <= x_8 <= 10
  0 <= x_9 <= 10
  0 <= x_10 <= 10
  0 <= x_11 <= 10
  0 <= x_12 <= 10
End
