Subject To
	c_1: + 17 x_1 + 10 x_2 + 16 x_3 + 30 x_4 + 19 x_5 + 30 x_6 + 21 x_7 + 48 x_8 + 15 x_9 + 1 x_10 + 7 x_11 + 49 x_12 = 1661
	c_2: + 25 x_1 + 26 x_2 + 43 x_3 + 50 x_4 + 40 x_5 + 34 x_6 + 10 x_7 + 47 x_8 + 13 x_9 + 35 x_10 + 39 x_11 + 12 x_12 = 1628
	c_3: + 41 x_1 + 44 x_2 + 50 x_3 + 6 x_4 + 44 x_5 + 13 x_6 + 45 x_7 + 5 x_8 + 16 x_9 + 47 x_10 + 15 x_11 + 26 x_12 = 1204
	c_4: + 3 x_1 + 23 x_2 + 31 x_3 + 50 x_4 + 11 x_5 + 35 x_6 + 14 x_7 + 48 x_8 + 21 x_9 + 17 x_10 + 25 x_11 + 35 x_12 = 1676
	c_5: + 15 x_1 + 49 x_2 + 17 x_3 + 21 x_4 + 49 x_5 + 5 x_6 + 26 x_7 + 1 x_8 + 47 x_9 + 1 x_10 + 23 x_11 + 47 x_12 = 1294
	c_6: + 31 x_1 + 18 x_2 + 23 x_3 + 15 x_4 + 2 x_5 + 21 x_6 + 4 x_7 + 42 x_8 + 18 x_9 + 20 x_10 + 26 x_11 + 7 x_12 = 1008
	c_7: + 48 x_1 + 25 x_2 + 17 x_3 + 37 x_4 + 32 x_5 + 15 x_6 + 10 x_7 + 44 x_8 + 22 x_9 + 20 x_10 + 43 x_11 + 32 x_12 = 1594
	c_8: + 46 x_1 + 33 x_2 + 6 x_3 + 42 x_4 + 43 x_5 + 29 x_6 + 48 x_7 + 28 x_8 + 20 x_9 + 31 x_10 + 36 x_11 + 8 x_12 = 1468
Bounds
  0 <= x_1 <= 10
  0 <= x_2 <= 10
  0 <= x_3 <= 10
  0 <= x_4 <= 10
  0 <= x_5 <= 10
  0 <= x_6 <= 10
  0 <= x_7 <= 10
  0 <= x_8 <= 10
  0 <= x_9 <= 10
  0 <= x_10 <= 10
  0 <= x_11 <= 10
  0 <= x_12 <= 10
End
