Subject To
	c_1: + 43 x_1 + 7 x_2 + 2 x_3 + 47 x_4 + 39 x_5 + 37 x_6 + 16 x_7 + 18 x_8 + 10 x_9 + 32 x_10 + 49 x_11 + 47 x_12 = 2746
	c_2: + 44 x_1 + 28 x_2 + 11 x_3 + 45 x_4 + 35 x_5 + 21 x_6 + 43 x_7 + 8 x_8 + 44 x_9 + 28 x_10 + 33 x_11 + 45 x_12 = 2511
	c_3: + 5 x_1 + 4 x_2 + 11 x_3 + 13 x_4 + 40 x_5 + 5 x_6 + 35 x_7 + 31 x_8 + 45 x_9 + 14 x_10 + 37 x_11 + 24 x_12 = 1521
	c_4: + 34 x_1 + 34 x_2 + 20 x_3 + 27 x_4 + 26 x_5 + 16 x_6 + 18 x_7 + 50 x_8 + 3 x_9 + 40 x_10 + 44 x_11 + 19 x_12 = 2026
	c_5: + 28 x_1 + 3 x_2 + 26 x_3 + 42 x_4 + 48 x_5 + 32 x_6 + 40 x_7 + 47 x_8 + 31 x_9 + 23 x_10 + 39 x_11 + 16 x_12 = 2326
	c_6: + 4 x_1 + 21 x_2 + 5 x_3 + 32 x_4 + 7 x_5 + 5 x_6 + 13 x_7 + 4 x_8 + 1 x_9 + 46 x_10 + 29 x_11 + 20 x_12 = 1292
	c_7: + 25 x_1 + 2 x_2 + 42 x_3 + 16 x_4 + 21 x_5 + 43 x_6 + 17 x_7 + 26 x_8 + 25 x_9 + 11 x_10 + 14 x_11 + 39 x_12 = 1674
	c_8: + 27 x_1 + 45 x_2 + 44 x_3 + 13 x_4 + 31 x_5 + 28 x_6 + 49 x_7 + 35 x_8 + 6 x_9 + 36 x_10 + 9 x_11 + 30 x_12 = 1760
Bounds
  0 <= x_1 <= 10
  0 <= x_2 <= 10
  0 <= x_3 <= 10
  0 <= x_4 <= 10
  0 <= x_5 <= 10
  0 <= x_6 <= 10
  0 <= x_7 <= 10
  0 <= x_8 <= 10
  0 <= x_9 <= 10
  0 <= x_10 <= 10
  0 <= x_11 <= 10
  0 <= x_12 <= 10
End
