Subject To
	c_1: + 16 x_1 + 18 x_2 + 46 x_3 + 17 x_4 + 18 x_5 + 14 x_6 + 48 x_7 + 36 x_8 + 5 x_9 + 40 x_10 + 25 x_11 + 37 x_12 = 2122
	c_2: + 7 x_1 + 32 x_2 + 32 x_3 + 35 x_4 + 20 x_5 + 48 x_6 + 6 x_7 + 41 x_8 + 16 x_9 + 26 x_10 + 43 x_11 + 27 x_12 = 1652
	c_3: + 41 x_1 + 50 x_2 + 32 x_3 + 44 x_4 + 41 x_5 + 30 x_6 + 32 x_7 + 48 x_8 + 16 x_9 + 29 x_10 + 36 x_11 + 33 x_12 = 2208
	c_4: + 43 x_1 + 18 x_2 + 22 x_3 + 46 x_4 + 12 x_5 + 36 x_6 + 9 x_7 + 44 x_8 + 33 x_9 + 11 x_10 + 46 x_11 + 37 x_12 = 1639
	c_5: + 18 x_1 + 31 x_2 + 21 x_3 + 28 x_4 + 9 x_5 + 35 x_6 + 49 x_7 + 17 x_8 + 1 x_9 + 5 x_10 + 43 x_11 + 24 x_12 = 1573
	c_6: + 15 x_1 + 48 x_2 + 39 x_3 + 2 x_4 + 35 x_5 + 40 x_6 + 28 x_7 + 30 x_8 + 19 x_9 + 30 x_10 + 17 x_11 + 2 x_12 = 1562
	c_7: + 26 x_1 + 21 x_2 + 29 x_3 + 36 x_4 + 25 x_5 + 46 x_6 + 12 x_7 + 45 x_8 + 18 x_9 + 15 x_10 + 10 x_11 + 10 x_12 = 1362
	c_8: + 17 x_1 + 32 x_2 + 3 x_3 + 22 x_4 + 2 x_5 + 4 x_6 + 21 x_7 + 17 x_8 + 42 x_9 + 41 x_10 + 7 x_11 + 35 x_12 = 1226
Bounds
  0 <= x_1 <= 10
  0 <= x_2 <= 10
  0 <= x_3 <= 10
  0 <= x_4 <= 10
  0 <= x_5 <= 10
  0 <= x_6 <= 10
  0 <= x_7 <= 10
  0 <= x_8 <= 10
  0 <= x_9 <= 10
  0 <= x_10 <= 10
  0 <= x_11 <= 10
  0 <= x_12 <= 10
End
