Subject To
	c_1: + 30 x_1 + 49 x_2 + 17 x_3 + 23 x_4 + 40 x_5 + 42 x_6 + 18 x_7 + 32 x_8 + 5 x_9 + 11 x_10 + 44 x_11 + 14 x_12 = 2203
	c_2: + 50 x_1 + 15 x_2 + 24 x_3 + 44 x_4 + 14 x_5 + 11 x_6 + 5 x_7 + 20 x_8 + 36 x_9 + 11 x_10 + 19 x_11 + 46 x_12 = 1329
	c_3: + 45 x_1 + 50 x_2 + 50 x_3 + 8 x_4 + 41 x_5 + 7 x_6 + 2 x_7 + 14 x_8 + 42 x_9 + 5 x_10 + 4 x_11 + 47 x_12 = 1573
	c_4: + 5 x_1 + 43 x_2 + 5 x_3 + 47 x_4 + 18 x_5 + 33 x_6 + 13 x_7 + 1 x_8 + 48 x_9 + 7 x_10 + 33 x_11 + 29 x_12 = 1518
	c_5: + 36 x_1 + 45 x_2 + 29 x_3 + 27 x_4 + 6 x_5 + 28 x_6 + 5 x_7 + 10 x_8 + 48 x_9 + 38 x_10 + 13 x_11 + 4 x_12 = 1437
	c_6: + 26 x_1 + 44 x_2 + 38 x_3 + 28 x_4 + 30 x_5 + 37 x_6 + 25 x_7 + 25 x_8 + 7 x_9 + 17 x_10 + 4 x_11 + 29 x_12 = 1748
	c_7: + 35 x_1 + 33 x_2 + 27 x_3 + 16 x_4 + 26 x_5 + 23 x_6 + 17 x_7 + 47 x_8 + 3 x_9 + 20 x_10 + 5 x_11 + 31 x_12 = 1580
	c_8: + 49 x_1 + 8 x_2 + 4 x_3 + 16 x_4 + 27 x_5 + 46 x_6 + 3 x_7 + 22 x_8 + 17 x_9 + 20 x_10 + 14 x_11 + 10 x_12 = 1407
Bounds
  0 <= x_1 <= 10
  0 <= x_2 <= 10
  0 <= x_3 <= 10
  0 <= x_4 <= 10
  0 <= x_5 <= 10
  0 <= x_6 <= 10
  0 <= x_7 <= 10
  0 <= x_8 <= 10
  0 <= x_9 <= 10
  0 <= x_10 <= 10
  0 <= x_11 <= 10
  0 <= x_12 <= 10
End
