Subject To
	c_1: + 12 x_1 + 47 x_2 + 22 x_3 + 11 x_4 + 43 x_5 + 28 x_6 + 39 x_7 + 4 x_8 + 15 x_9 + 32 x_10 + 29 x_11 + 34 x_12 = 2120
	c_2: + 32 x_1 + 18 x_2 + 41 x_3 + 7 x_4 + 46 x_5 + 33 x_6 + 41 x_7 + 20 x_8 + 31 x_9 + 18 x_10 + 33 x_11 + 24 x_12 = 1929
	c_3: + 40 x_1 + 2 x_2 + 16 x_3 + 18 x_4 + 35 x_5 + 28 x_6 + 15 x_7 + 18 x_8 + 23 x_9 + 14 x_10 + 5 x_11 + 14 x_12 = 1084
	c_4: + 20 x_1 + 32 x_2 + 42 x_3 + 25 x_4 + 22 x_5 + 5 x_6 + 20 x_7 + 12 x_8 + 50 x_9 + 28 x_10 + 41 x_11 + 19 x_12 = 1663
	c_5: + 6 x_1 + 22 x_2 + 36 x_3 + 6 x_4 + 15 x_5 + 26 x_6 + 5 x_7 + 22 x_8 + 12 x_9 + 5 x_10 + 29 x_11 + 16 x_12 = 1071
	c_6: + 4 x_1 + 8 x_2 + 5 x_3 + 12 x_4 + 21 x_5 + 17 x_6 + 20 x_7 + 12 x_8 + 15 x_9 + 49 x_10 + 17 x_11 + 12 x_12 = 1108
	c_7: + 8 x_1 + 17 x_2 + 19 x_3 + 28 x_4 + 50 x_5 + 46 x_6 + 44 x_7 + 26 x_8 + 17 x_9 + 26 x_10 + 42 x_11 + 48 x_12 = 2191
	c_8: + 32 x_1 + 19 x_2 + 4 x_3 + 36 x_4 + 8 x_5 + 49 x_6 + 1 x_7 + 38 x_8 + 35 x_9 + 13 x_10 + 18 x_11 + 11 x_12 = 1084
Bounds
  0 <= x_1 <= 10
  0 <= x_2 <= 10
  0 <= x_3 <= 10
  0 <= x_4 <= 10
  0 <= x_5 <= 10
  0 <= x_6 <= 10
  0 <= x_7 <= 10
  0 <= x_8 <= 10
  0 <= x_9 <= 10
  0 <= x_10 <= 10
  0 <= x_11 <= 10
  0 <= x_12 <= 10
End
