Subject To
	c_1: + 48 x_1 + 19 x_2 + 19 x_3 + 47 x_4 + 46 x_5 + 22 x_6 + 49 x_7 + 21 x_8 + 23 x_9 + 43 x_10 + 46 x_11 + 17 x_12 = 3149
	c_2: + 7 x_1 + 17 x_2 + 40 x_3 + 21 x_4 + 42 x_5 + 25 x_6 + 20 x_7 + 1 x_8 + 46 x_9 + 7 x_10 + 25 x_11 + 31 x_12 = 1757
	c_3: + 11 x_1 + 24 x_2 + 38 x_3 + 32 x_4 + 19 x_5 + 14 x_6 + 38 x_7 + 40 x_8 + 36 x_9 + 27 x_10 + 7 x_11 + 16 x_12 = 1924
	c_4: + 24 x_1 + 16 x_2 + 6 x_3 + 2 x_4 + 43 x_5 + 13 x_6 + 49 x_7 + 10 x_8 + 27 x_9 + 8 x_10 + 2 x_11 + 22 x_12 = 1618
	c_5: + 10 x_1 + 12 x_2 + 19 x_3 + 19 x_4 + 25 x_5 + 21 x_6 + 17 x_7 + 39 x_8 + 20 x_9 + 5 x_10 + 19 x_11 + 3 x_12 = 1360
	c_6: + 3 x_1 + 2 x_2 + 26 x_3 + 24 x_4 + 49 x_5 + 3 x_6 + 20 x_7 + 42 x_8 + 49 x_9 + 46 x_10 + 33 x_11 + 5 x_12 = 2148
	c_7: + 14 x_1 + 26 x_2 + 42 x_3 + 50 x_4 + 27 x_5 + 12 x_6 + 33 x_7 + 4 x_8 + 8 x_9 + 48 x_10 + 37 x_11 + 3 x_12 = 2340
	c_8: + 4 x_1 + 42 x_2 + 41 x_3 + 10 x_4 + 31 x_5 + 12 x_6 + 29 x_7 + 23 x_8 + 4 x_9 + 40 x_10 + 30 x_11 + 30 x_12 = 1907
Bounds
  0 <= x_1 <= 10
  0 <= x_2 <= 10
  0 <= x_3 <= 10
  0 <= x_4 <= 10
  0 <= x_5 <= 10
  0 <= x_6 <= 10
  0 <= x_7 <= 10
  0 <= x_8 <= 10
  0 <= x_9 <= 10
  0 <= x_10 <= 10
  0 <= x_11 <= 10
  0 <= x_12 <= 10
End
