Subject To
	c_1: + 33 x_1 + 32 x_2 + 5 x_3 + 3 x_4 + 38 x_5 + 49 x_6 + 9 x_7 + 22 x_8 + 18 x_9 + 34 x_10 + 50 x_11 + 42 x_12 = 2489
	c_2: + 16 x_1 + 22 x_2 + 2 x_3 + 30 x_4 + 32 x_5 + 26 x_6 + 41 x_7 + 31 x_8 + 11 x_9 + 43 x_10 + 43 x_11 + 8 x_12 = 1763
	c_3: + 16 x_1 + 19 x_2 + 15 x_3 + 13 x_4 + 47 x_5 + 2 x_6 + 48 x_7 + 4 x_8 + 7 x_9 + 43 x_10 + 19 x_11 + 42 x_12 = 1591
	c_4: + 1 x_1 + 32 x_2 + 34 x_3 + 10 x_4 + 44 x_5 + 3 x_6 + 45 x_7 + 28 x_8 + 23 x_9 + 13 x_10 + 48 x_11 + 38 x_12 = 1754
	c_5: + 5 x_1 + 34 x_2 + 10 x_3 + 42 x_4 + 18 x_5 + 41 x_6 + 40 x_7 + 49 x_8 + 41 x_9 + 9 x_10 + 45 x_11 + 14 x_12 = 1801
	c_6: + 45 x_1 + 10 x_2 + 29 x_3 + 38 x_4 + 7 x_5 + 39 x_6 + 13 x_7 + 12 x_8 + 24 x_9 + 2 x_10 + 7 x_11 + 31 x_12 = 1346
	c_7: + 6 x_1 + 44 x_2 + 33 x_3 + 39 x_4 + 3 x_5 + 28 x_6 + 27 x_7 + 9 x_8 + 30 x_9 + 19 x_10 + 43 x_11 + 40 x_12 = 1719
	c_8: + 27 x_1 + 17 x_2 + 13 x_3 + 8 x_4 + 30 x_5 + 24 x_6 + 28 x_7 + 29 x_8 + 6 x_9 + 37 x_10 + 22 x_11 + 16 x_12 = 1569
Bounds
  0 <= x_1 <= 10
  0 <= x_2 <= 10
  0 <= x_3 <= 10
  0 <= x_4 <= 10
  0 <= x_5 <= 10
  0 <= x_6 <= 10
  0 <= x_7 <= 10
  0 <= x_8 <= 10
  0 <= x_9 <= 10
  0 <= x_10 <= 10
  0 <= x_11 <= 10
  0 <= x_12 <= 10
End
