Subject To
	c_1: + 26 x_1 + 24 x_2 + 18 x_3 + 29 x_4 + 13 x_5 + 37 x_6 + 4 x_7 + 25 x_8 + 13 x_9 + 34 x_10 + 34 x_11 + 11 x_12 = 1449
	c_2: + 25 x_1 + 37 x_2 + 28 x_3 + 48 x_4 + 5 x_5 + 31 x_6 + 43 x_7 + 23 x_8 + 12 x_9 + 28 x_10 + 33 x_11 + 3 x_12 = 1512
	c_3: + 50 x_1 + 21 x_2 + 1 x_3 + 8 x_4 + 24 x_5 + 16 x_6 + 37 x_7 + 5 x_8 + 36 x_9 + 21 x_10 + 7 x_11 + 50 x_12 = 975
	c_4: + 30 x_1 + 36 x_2 + 35 x_3 + 8 x_4 + 48 x_5 + 26 x_6 + 29 x_7 + 49 x_8 + 25 x_9 + 50 x_10 + 36 x_11 + 24 x_12 = 1732
	c_5: + 45 x_1 + 45 x_2 + 41 x_3 + 9 x_4 + 23 x_5 + 31 x_6 + 11 x_7 + 42 x_8 + 38 x_9 + 36 x_10 + 9 x_11 + 48 x_12 = 1618
	c_6: + 9 x_1 + 39 x_2 + 32 x_3 + 7 x_4 + 23 x_5 + 26 x_6 + 36 x_7 + 35 x_8 + 6 x_9 + 7 x_10 + 33 x_11 + 47 x_12 = 1193
	c_7: + 15 x_1 + 12 x_2 + 9 x_3 + 2 x_4 + 48 x_5 + 19 x_6 + 39 x_7 + 34 x_8 + 18 x_9 + 28 x_10 + 37 x_11 + 26 x_12 = 1135
	c_8: + 20 x_1 + 18 x_2 + 29 x_3 + 18 x_4 + 10 x_5 + 35 x_6 + 46 x_7 + 46 x_8 + 31 x_9 + 39 x_10 + 20 x_11 + 7 x_12 = 1404
Bounds
  0 <= x_1 <= 10
  0 <= x_2 <= 10
  0 <= x_3 <= 10
  0 <= x_4 <= 10
  0 <= x_5 <= 10
  0 <= x_6 <= 10
  0 <= x_7 <= 10
  0 <= x_8 <= 10
  0 <= x_9 <= 10
  0 <= x_10 <= 10
  0 <= x_11 <= 10
  0 <= x_12 <= 10
End
