Subject To
	c_1: + 44 x_1 + 3 x_2 + 8 x_3 + 8 x_4 + 27 x_5 + 27 x_6 + 42 x_7 + 35 x_8 + 44 x_9 + 29 x_10 + 44 x_11 + 20 x_12 = 2351
	c_2: + 16 x_1 + 2 x_2 + 13 x_3 + 23 x_4 + 5 x_5 + 8 x_6 + 6 x_7 + 11 x_8 + 37 x_9 + 14 x_10 + 5 x_11 + 43 x_12 = 1010
	c_3: + 9 x_1 + 17 x_2 + 45 x_3 + 17 x_4 + 50 x_5 + 21 x_6 + 47 x_7 + 41 x_8 + 43 x_9 + 32 x_10 + 22 x_11 + 20 x_12 = 2065
	c_4: + 40 x_1 + 50 x_2 + 46 x_3 + 17 x_4 + 31 x_5 + 21 x_6 + 48 x_7 + 4 x_8 + 40 x_9 + 7 x_10 + 17 x_11 + 2 x_12 = 1706
	c_5: + 29 x_1 + 40 x_2 + 42 x_3 + 14 x_4 + 28 x_5 + 24 x_6 + 38 x_7 + 11 x_8 + 42 x_9 + 49 x_10 + 28 x_11 + 29 x_12 = 2036
	c_6: + 5 x_1 + 50 x_2 + 15 x_3 + 48 x_4 + 16 x_5 + 18 x_6 + 29 x_7 + 24 x_8 + 40 x_9 + 9 x_10 + 44 x_11 + 11 x_12 = 1561
	c_7: + 20 x_1 + 33 x_2 + 36 x_3 + 34 x_4 + 15 x_5 + 5 x_6 + 4 x_7 + 47 x_8 + 38 x_9 + 3 x_10 + 11 x_11 + 6 x_12 = 1198
	c_8: + 45 x_1 + 24 x_2 + 19 x_3 + 20 x_4 + 1 x_5 + 29 x_6 + 27 x_7 + 5 x_8 + 21 x_9 + 41 x_10 + 30 x_11 + 21 x_12 = 1661
Bounds
  0 <= x_1 <= 10
  0 <= x_2 <= 10
  0 <= x_3 <= 10
  0 <= x_4 <= 10
  0 <= x_5 <= 10
  0 <= x_6 <= 10
  0 <= x_7 <= 10
  0 <= x_8 <= 10
  0 <= x_9 <= 10
  0 <= x_10 <= 10
  0 <= x_11 <= 10
  0 <= x_12 <= 10
End
