Subject To
	c_1: + 24 x_1 + 30 x_2 + 21 x_3 + 1 x_4 + 7 x_5 + 27 x_6 + 2 x_7 + 3 x_8 + 36 x_9 + 8 x_10 + 45 x_11 + 47 x_12 = 1661
	c_2: + 8 x_1 + 24 x_2 + 3 x_3 + 22 x_4 + 2 x_5 + 34 x_6 + 26 x_7 + 49 x_8 + 36 x_9 + 30 x_10 + 16 x_11 + 1 x_12 = 804
	c_3: + 44 x_1 + 13 x_2 + 36 x_3 + 20 x_4 + 10 x_5 + 45 x_6 + 14 x_7 + 9 x_8 + 15 x_9 + 20 x_10 + 28 x_11 + 17 x_12 = 1224
	c_4: + 16 x_1 + 30 x_2 + 3 x_3 + 31 x_4 + 41 x_5 + 26 x_6 + 49 x_7 + 8 x_8 + 17 x_9 + 15 x_10 + 33 x_11 + 44 x_12 = 1314
	c_5: + 40 x_1 + 23 x_2 + 46 x_3 + 34 x_4 + 7 x_5 + 9 x_6 + 23 x_7 + 17 x_8 + 46 x_9 + 48 x_10 + 41 x_11 + 39 x_12 = 1703
	c_6: + 29 x_1 + 46 x_2 + 44 x_3 + 7 x_4 + 27 x_5 + 7 x_6 + 11 x_7 + 42 x_8 + 7 x_9 + 21 x_10 + 50 x_11 + 22 x_12 = 1399
	c_7: + 18 x_1 + 27 x_2 + 20 x_3 + 49 x_4 + 38 x_5 + 43 x_6 + 12 x_7 + 48 x_8 + 34 x_9 + 42 x_10 + 39 x_11 + 19 x_12 = 1406
	c_8: + 13 x_1 + 38 x_2 + 7 x_3 + 2 x_4 + 23 x_5 + 42 x_6 + 5 x_7 + 20 x_8 + 32 x_9 + 46 x_10 + 48 x_11 + 12 x_12 = 1376
Bounds
  0 <= x_1 <= 10
  0 <= x_2 <= 10
  0 <= x_3 <= 10
  0 <= x_4 <= 10
  0 <= x_5 <= 10
  0 <= x_6 <= 10
  0 <= x_7 <= 10
  0 <= x_8 <= 10
  0 <= x_9 <= 10
  0 <= x_10 <= 10
  0 <= x_11 <= 10
  0 <= x_12 <= 10
End
