Subject To
	c_1: + 31 x_1 + 21 x_2 + 28 x_3 + 1 x_4 + 41 x_5 + 48 x_6 + 7 x_7 + 27 x_8 + 23 x_9 + 30 x_10 + 26 x_11 + 42 x_12 = 2168
	c_2: + 12 x_1 + 43 x_2 + 3 x_3 + 20 x_4 + 47 x_5 + 17 x_6 + 22 x_7 + 16 x_8 + 25 x_9 + 38 x_10 + 43 x_11 + 47 x_12 = 1876
	c_3: + 12 x_1 + 47 x_2 + 41 x_3 + 7 x_4 + 13 x_5 + 13 x_6 + 38 x_7 + 20 x_8 + 50 x_9 + 42 x_10 + 37 x_11 + 17 x_12 = 1668
	c_4: + 7 x_1 + 36 x_2 + 39 x_3 + 9 x_4 + 22 x_5 + 32 x_6 + 36 x_7 + 7 x_8 + 21 x_9 + 34 x_10 + 3 x_11 + 7 x_12 = 1353
	c_5: + 22 x_1 + 8 x_2 + 38 x_3 + 21 x_4 + 18 x_5 + 16 x_6 + 35 x_7 + 49 x_8 + 6 x_9 + 23 x_10 + 17 x_11 + 38 x_12 = 1565
	c_6: + 23 x_1 + 37 x_2 + 37 x_3 + 27 x_4 + 2 x_5 + 6 x_6 + 24 x_7 + 32 x_8 + 3 x_9 + 50 x_10 + 16 x_11 + 20 x_12 = 1340
	c_7: + 21 x_1 + 26 x_2 + 4 x_3 + 5 x_4 + 33 x_5 + 26 x_6 + 29 x_7 + 6 x_8 + 39 x_9 + 44 x_10 + 4 x_11 + 17 x_12 = 1430
	c_8: + 28 x_1 + 48 x_2 + 7 x_3 + 33 x_4 + 34 x_5 + 15 x_6 + 34 x_7 + 11 x_8 + 19 x_9 + 42 x_10 + 45 x_11 + 23 x_12 = 1673
Bounds
  0 <= x_1 <= 10
  0 <= x_2 <= 10
  0 <= x_3 <= 10
  0 <= x_4 <= 10
  0 <= x_5 <= 10
  0 <= x_6 <= 10
  0 <= x_7 <= 10
  0 <= x_8 <= 10
  0 <= x_9 <= 10
  0 <= x_10 <= 10
  0 <= x_11 <= 10
  0 <= x_12 <= 10
End
