Subject To
	c_1: + 12 x_1 + 45 x_2 + 28 x_3 + 34 x_4 + 42 x_5 + 7 x_6 + 2 x_7 + 38 x_8 + 34 x_9 + 39 x_10 + 41 x_11 + 16 x_12 = 2491
	c_2: + 25 x_1 + 35 x_2 + 42 x_3 + 6 x_4 + 25 x_5 + 43 x_6 + 22 x_7 + 15 x_8 + 32 x_9 + 1 x_10 + 28 x_11 + 27 x_12 = 1612
	c_3: + 24 x_1 + 1 x_2 + 24 x_3 + 36 x_4 + 4 x_5 + 28 x_6 + 22 x_7 + 24 x_8 + 17 x_9 + 43 x_10 + 47 x_11 + 15 x_12 = 1640
	c_4: + 33 x_1 + 29 x_2 + 46 x_3 + 34 x_4 + 28 x_5 + 7 x_6 + 24 x_7 + 5 x_8 + 35 x_9 + 2 x_10 + 40 x_11 + 48 x_12 = 1905
	c_5: + 16 x_1 + 23 x_2 + 34 x_3 + 7 x_4 + 45 x_5 + 41 x_6 + 17 x_7 + 7 x_8 + 39 x_9 + 41 x_10 + 21 x_11 + 12 x_12 = 1820
	c_6: + 43 x_1 + 34 x_2 + 28 x_3 + 8 x_4 + 41 x_5 + 28 x_6 + 3 x_7 + 13 x_8 + 17 x_9 + 48 x_10 + 36 x_11 + 15 x_12 = 1989
	c_7: + 16 x_1 + 22 x_2 + 24 x_3 + 39 x_4 + 4 x_5 + 44 x_6 + 46 x_7 + 38 x_8 + 10 x_9 + 41 x_10 + 6 x_11 + 45 x_12 = 1618
	c_8: + 41 x_1 + 23 x_2 + 8 x_3 + 7 x_4 + 30 x_5 + 40 x_6 + 14 x_7 + 40 x_8 + 20 x_9 + 21 x_10 + 44 x_11 + 25 x_12 = 1795
Bounds
  0 <= x_1 <= 10
  0 <= x_2 <= 10
  0 <= x_3 <= 10
  0 <= x_4 <= 10
  0 <= x_5 <= 10
  0 <= x_6 <= 10
  0 <= x_7 <= 10
  0 <= x_8 <= 10
  0 <= x_9 <= 10
  0 <= x_10 <= 10
  0 <= x_11 <= 10
  0 <= x_12 <= 10
End
