Subject To
	c_1: + 39 x_1 + 31 x_2 + 30 x_3 + 38 x_4 + 42 x_5 + 13 x_6 + 30 x_7 + 7 x_8 + 14 x_9 + 15 x_10 + 10 x_11 + 14 x_12 = 1708
	c_2: + 7 x_1 + 11 x_2 + 49 x_3 + 50 x_4 + 36 x_5 + 40 x_6 + 21 x_7 + 19 x_8 + 20 x_9 + 13 x_10 + 9 x_11 + 7 x_12 = 1483
	c_3: + 19 x_1 + 29 x_2 + 35 x_3 + 15 x_4 + 33 x_5 + 16 x_6 + 8 x_7 + 31 x_8 + 46 x_9 + 45 x_10 + 31 x_11 + 2 x_12 = 1359
	c_4: + 17 x_1 + 50 x_2 + 6 x_3 + 2 x_4 + 44 x_5 + 21 x_6 + 7 x_7 + 49 x_8 + 17 x_9 + 46 x_10 + 45 x_11 + 48 x_12 = 1423
	c_5: + 26 x_1 + 19 x_2 + 46 x_3 + 5 x_4 + 3 x_5 + 27 x_6 + 5 x_7 + 28 x_8 + 46 x_9 + 24 x_10 + 33 x_11 + 11 x_12 = 1040
	c_6: + 45 x_1 + 37 x_2 + 20 x_3 + 33 x_4 + 11 x_5 + 3 x_6 + 49 x_7 + 27 x_8 + 14 x_9 + 29 x_10 + 43 x_11 + 48 x_12 = 1737
	c_7: + 6 x_1 + 22 x_2 + 17 x_3 + 20 x_4 + 30 x_5 + 10 x_6 + 45 x_7 + 11 x_8 + 27 x_9 + 22 x_10 + 36 x_11 + 20 x_12 = 1265
	c_8: + 14 x_1 + 21 x_2 + 42 x_3 + 24 x_4 + 48 x_5 + 21 x_6 + 44 x_7 + 38 x_8 + 4 x_9 + 18 x_10 + 6 x_11 + 29 x_12 = 1619
Bounds
  0 <= x_1 <= 10
  0 <= x_2 <= 10
  0 <= x_3 <= 10
  0 <= x_4 <= 10
  0 <= x_5 <= 10
  0 <= x_6 <= 10
  0 <= x_7 <= 10
  0 <= x_8 <= 10
  0 <= x_9 <= 10
  0 <= x_10 <= 10
  0 <= x_11 <= 10
  0 <= x_12 <= 10
End
