Subject To
	c_1: + 25 x_1 + 24 x_2 + 19 x_3 + 1 x_4 + 39 x_5 + 30 x_6 + 30 x_7 + 14 x_8 + 23 x_9 + 46 x_10 + 31 x_11 + 29 x_12 = 1914
	c_2: + 41 x_1 + 8 x_2 + 12 x_3 + 1 x_4 + 9 x_5 + 2 x_6 + 11 x_7 + 26 x_8 + 13 x_9 + 43 x_10 + 36 x_11 + 8 x_12 = 1229
	c_3: + 50 x_1 + 47 x_2 + 9 x_3 + 7 x_4 + 15 x_5 + 1 x_6 + 18 x_7 + 28 x_8 + 37 x_9 + 9 x_10 + 5 x_11 + 46 x_12 = 1346
	c_4: + 10 x_1 + 34 x_2 + 40 x_3 + 12 x_4 + 37 x_5 + 21 x_6 + 36 x_7 + 9 x_8 + 21 x_9 + 18 x_10 + 45 x_11 + 5 x_12 = 1560
	c_5: + 46 x_1 + 14 x_2 + 12 x_3 + 5 x_4 + 41 x_5 + 39 x_6 + 41 x_7 + 33 x_8 + 11 x_9 + 32 x_10 + 38 x_11 + 29 x_12 = 1976
	c_6: + 39 x_1 + 39 x_2 + 22 x_3 + 3 x_4 + 7 x_5 + 8 x_6 + 17 x_7 + 35 x_8 + 27 x_9 + 50 x_10 + 5 x_11 + 19 x_12 = 1484
	c_7: + 23 x_1 + 34 x_2 + 35 x_3 + 19 x_4 + 28 x_5 + 29 x_6 + 9 x_7 + 21 x_8 + 10 x_9 + 32 x_10 + 46 x_11 + 34 x_12 = 1724
	c_8: + 45 x_1 + 16 x_2 + 7 x_3 + 39 x_4 + 32 x_5 + 50 x_6 + 34 x_7 + 22 x_8 + 27 x_9 + 37 x_10 + 24 x_11 + 35 x_12 = 1962
Bounds
  0 <= x_1 <= 10
  0 <= x_2 <= 10
  0 <= x_3 <= 10
  0 <= x_4 <= 10
  0 <= x_5 <= 10
  0 <= x_6 <= 10
  0 <= x_7 <= 10
  0 <= x_8 <= 10
  0 <= x_9 <= 10
  0 <= x_10 <= 10
  0 <= x_11 <= 10
  0 <= x_12 <= 10
End
