Subject To
	c_1: + 46 x_1 + 16 x_2 + 31 x_3 + 32 x_4 + 6 x_5 + 5 x_6 + 29 x_7 + 8 x_8 + 11 x_9 + 50 x_10 + 22 x_11 + 39 x_12 = 2028
	c_2: + 34 x_1 + 30 x_2 + 6 x_3 + 23 x_4 + 34 x_5 + 3 x_6 + 29 x_7 + 36 x_8 + 39 x_9 + 39 x_10 + 50 x_11 + 5 x_12 = 1579
	c_3: + 2 x_1 + 22 x_2 + 25 x_3 + 35 x_4 + 38 x_5 + 22 x_6 + 22 x_7 + 41 x_8 + 42 x_9 + 38 x_10 + 1 x_11 + 36 x_12 = 1448
	c_4: + 1 x_1 + 30 x_2 + 28 x_3 + 16 x_4 + 29 x_5 + 47 x_6 + 32 x_7 + 49 x_8 + 44 x_9 + 22 x_10 + 9 x_11 + 39 x_12 = 1306
	c_5: + 15 x_1 + 6 x_2 + 19 x_3 + 41 x_4 + 15 x_5 + 38 x_6 + 9 x_7 + 44 x_8 + 39 x_9 + 50 x_10 + 19 x_11 + 30 x_12 = 1576
	c_6: + 14 x_1 + 28 x_2 + 35 x_3 + 47 x_4 + 29 x_5 + 11 x_6 + 9 x_7 + 40 x_8 + 50 x_9 + 2 x_10 + 12 x_11 + 12 x_12 = 1150
	c_7: + 31 x_1 + 13 x_2 + 43 x_3 + 39 x_4 + 47 x_5 + 50 x_6 + 40 x_7 + 45 x_8 + 39 x_9 + 14 x_10 + 49 x_11 + 9 x_12 = 1698
	c_8: + 12 x_1 + 39 x_2 + 23 x_3 + 44 x_4 + 26 x_5 + 14 x_6 + 35 x_7 + 44 x_8 + 18 x_9 + 40 x_10 + 15 x_11 + 22 x_12 = 1635
Bounds
  0 <= x_1 <= 10
  0 <= x_2 <= 10
  0 <= x_3 <= 10
  0 <= x_4 <= 10
  0 <= x_5 <= 10
  0 <= x_6 <= 10
  0 <= x_7 <= 10
  0 <= x_8 <= 10
  0 <= x_9 <= 10
  0 <= x_10 <= 10
  0 <= x_11 <= 10
  0 <= x_12 <= 10
End
