Subject To
	c_1: + 15 x_1 + 47 x_2 + 14 x_3 + 41 x_4 + 44 x_5 + 26 x_6 + 27 x_7 + 27 x_8 + 11 x_9 + 11 x_10 + 39 x_11 + 41 x_12 = 2351
	c_2: + 49 x_1 + 37 x_2 + 50 x_3 + 31 x_4 + 4 x_5 + 29 x_6 + 34 x_7 + 17 x_8 + 39 x_9 + 35 x_10 + 27 x_11 + 3 x_12 = 1689
	c_3: + 9 x_1 + 26 x_2 + 2 x_3 + 6 x_4 + 11 x_5 + 6 x_6 + 41 x_7 + 6 x_8 + 19 x_9 + 40 x_10 + 40 x_11 + 28 x_12 = 1365
	c_4: + 19 x_1 + 41 x_2 + 22 x_3 + 7 x_4 + 37 x_5 + 20 x_6 + 8 x_7 + 10 x_8 + 27 x_9 + 27 x_10 + 28 x_11 + 44 x_12 = 1774
	c_5: + 9 x_1 + 44 x_2 + 21 x_3 + 23 x_4 + 30 x_5 + 42 x_6 + 19 x_7 + 2 x_8 + 23 x_9 + 14 x_10 + 3 x_11 + 28 x_12 = 1600
	c_6: + 9 x_1 + 23 x_2 + 14 x_3 + 30 x_4 + 45 x_5 + 28 x_6 + 47 x_7 + 29 x_8 + 2 x_9 + 29 x_10 + 14 x_11 + 4 x_12 = 1656
	c_7: + 15 x_1 + 33 x_2 + 23 x_3 + 21 x_4 + 26 x_5 + 49 x_6 + 35 x_7 + 37 x_8 + 1 x_9 + 49 x_10 + 8 x_11 + 1 x_12 = 1600
	c_8: + 19 x_1 + 34 x_2 + 16 x_3 + 36 x_4 + 29 x_5 + 35 x_6 + 32 x_7 + 45 x_8 + 28 x_9 + 28 x_10 + 26 x_11 + 40 x_12 = 2178
Bounds
  0 <= x_1 <= 10
  0 <= x_2 <= 10
  0 <= x_3 <= 10
  0 <= x_4 <= 10
  0 <= x_5 <= 10
  0 <= x_6 <= 10
  0 <= x_7 <= 10
  0 <= x_8 <= 10
  0 <= x_9 <= 10
  0 <= x_10 <= 10
  0 <= x_11 <= 10
  0 <= x_12 <= 10
End
