Subject To
	c_1: + 2 x_1 + 10 x_2 + 19 x_3 + 3 x_4 + 35 x_5 + 2 x_6 + 10 x_7 + 10 x_8 + 37 x_9 + 11 x_10 + 37 x_11 + 4 x_12 = 995
	c_2: + 21 x_1 + 16 x_2 + 27 x_3 + 44 x_4 + 29 x_5 + 11 x_6 + 7 x_7 + 43 x_8 + 26 x_9 + 39 x_10 + 26 x_11 + 47 x_12 = 937
	c_3: + 35 x_1 + 46 x_2 + 16 x_3 + 42 x_4 + 15 x_5 + 15 x_6 + 3 x_7 + 19 x_8 + 5 x_9 + 21 x_10 + 23 x_11 + 34 x_12 = 571
	c_4: + 36 x_1 + 6 x_2 + 19 x_3 + 1 x_4 + 1 x_5 + 28 x_6 + 8 x_7 + 48 x_8 + 25 x_9 + 40 x_10 + 19 x_11 + 49 x_12 = 639
	c_5: + 12 x_1 + 50 x_2 + 49 x_3 + 28 x_4 + 2 x_5 + 15 x_6 + 42 x_7 + 22 x_8 + 32 x_9 + 45 x_10 + 23 x_11 + 36 x_12 = 968
	c_6: + 9 x_1 + 17 x_2 + 27 x_3 + 15 x_4 + 7 x_5 + 12 x_6 + 16 x_7 + 20 x_8 + 35 x_9 + 4 x_10 + 2 x_11 + 30 x_12 = 567
	c_7: + 27 x_1 + 45 x_2 + 23 x_3 + 5 x_4 + 29 x_5 + 16 x_6 + 1 x_7 + 16 x_8 + 41 x_9 + 36 x_10 + 22 x_11 + 8 x_12 = 995
	c_8: + 30 x_1 + 26 x_2 + 25 x_3 + 48 x_4 + 19 x_5 + 5 x_6 + 13 x_7 + 17 x_8 + 36 x_9 + 8 x_10 + 44 x_11 + 43 x_12 = 1001
Bounds
  0 <= x_1 <= 10
  0 <= x_2 <= 10
  0 <= x_3 <= 10
  0 <= x_4 <= 10
  0 <= x_5 <= 10
  0 <= x_6 <= 10
  0 <= x_7 <= 10
  0 <= x_8 <= 10
  0 <= x_9 <= 10
  0 <= x_10 <= 10
  0 <= x_11 <= 10
  0 <= x_12 <= 10
End
