Subject To
	c_1: + 46 x_1 + 34 x_2 + 45 x_3 + 32 x_4 + 10 x_5 + 16 x_6 + 9 x_7 + 41 x_8 + 46 x_9 + 10 x_10 + 30 x_11 + 28 x_12 = 2482
	c_2: + 32 x_1 + 6 x_2 + 20 x_3 + 14 x_4 + 12 x_5 + 30 x_6 + 39 x_7 + 28 x_8 + 25 x_9 + 5 x_10 + 30 x_11 + 22 x_12 = 1550
	c_3: + 40 x_1 + 44 x_2 + 24 x_3 + 21 x_4 + 34 x_5 + 27 x_6 + 44 x_7 + 40 x_8 + 21 x_9 + 4 x_10 + 41 x_11 + 41 x_12 = 2252
	c_4: + 32 x_1 + 43 x_2 + 34 x_3 + 35 x_4 + 43 x_5 + 4 x_6 + 49 x_7 + 3 x_8 + 15 x_9 + 45 x_10 + 27 x_11 + 25 x_12 = 1845
	c_5: + 3 x_1 + 18 x_2 + 24 x_3 + 8 x_4 + 6 x_5 + 46 x_6 + 8 x_7 + 25 x_8 + 22 x_9 + 20 x_10 + 31 x_11 + 4 x_12 = 1226
	c_6: + 48 x_1 + 25 x_2 + 21 x_3 + 36 x_4 + 2 x_5 + 33 x_6 + 8 x_7 + 14 x_8 + 42 x_9 + 35 x_10 + 48 x_11 + 38 x_12 = 2247
	c_7: + 12 x_1 + 32 x_2 + 22 x_3 + 10 x_4 + 18 x_5 + 41 x_6 + 36 x_7 + 1 x_8 + 43 x_9 + 13 x_10 + 4 x_11 + 45 x_12 = 1512
	c_8: + 17 x_1 + 48 x_2 + 11 x_3 + 12 x_4 + 25 x_5 + 13 x_6 + 32 x_7 + 4 x_8 + 17 x_9 + 33 x_10 + 13 x_11 + 2 x_12 = 1139
Bounds
  0 <= x_1 <= 10
  0 <= x_2 <= 10
  0 <= x_3 <= 10
  0 <= x_4 <= 10
  0 <= x_5 <= 10
  0 <= x_6 <= 10
  0 <= x_7 <= 10
  0 <= x_8 <= 10
  0 <= x_9 <= 10
  0 <= x_10 <= 10
  0 <= x_11 <= 10
  0 <= x_12 <= 10
End
