Subject To
	c_1: + 16 x_1 + 43 x_2 + 16 x_3 + 12 x_4 + 14 x_5 + 37 x_6 + 24 x_7 + 30 x_8 + 13 x_9 + 25 x_10 + 15 x_11 + 50 x_12 = 1804
	c_2: + 40 x_1 + 32 x_2 + 12 x_3 + 24 x_4 + 30 x_5 + 34 x_6 + 8 x_7 + 13 x_8 + 21 x_9 + 6 x_10 + 37 x_11 + 50 x_12 = 1621
	c_3: + 43 x_1 + 45 x_2 + 1 x_3 + 17 x_4 + 20 x_5 + 35 x_6 + 25 x_7 + 15 x_8 + 39 x_9 + 19 x_10 + 24 x_11 + 21 x_12 = 1546
	c_4: + 3 x_1 + 35 x_2 + 40 x_3 + 22 x_4 + 14 x_5 + 28 x_6 + 21 x_7 + 9 x_8 + 6 x_9 + 22 x_10 + 22 x_11 + 39 x_12 = 1463
	c_5: + 48 x_1 + 16 x_2 + 13 x_3 + 15 x_4 + 24 x_5 + 9 x_6 + 44 x_7 + 4 x_8 + 13 x_9 + 36 x_10 + 35 x_11 + 31 x_12 = 1357
	c_6: + 50 x_1 + 12 x_2 + 29 x_3 + 31 x_4 + 5 x_5 + 45 x_6 + 2 x_7 + 39 x_8 + 29 x_9 + 27 x_10 + 5 x_11 + 23 x_12 = 1419
	c_7: + 26 x_1 + 35 x_2 + 13 x_3 + 13 x_4 + 17 x_5 + 11 x_6 + 34 x_7 + 50 x_8 + 41 x_9 + 15 x_10 + 13 x_11 + 9 x_12 = 1342
	c_8: + 4 x_1 + 35 x_2 + 30 x_3 + 23 x_4 + 7 x_5 + 36 x_6 + 46 x_7 + 28 x_8 + 5 x_9 + 24 x_10 + 28 x_11 + 6 x_12 = 1408
Bounds
  0 <= x_1 <= 10
  0 <= x_2 <= 10
  0 <= x_3 <= 10
  0 <= x_4 <= 10
  0 <= x_5 <= 10
  0 <= x_6 <= 10
  0 <= x_7 <= 10
  0 <= x_8 <= 10
  0 <= x_9 <= 10
  0 <= x_10 <= 10
  0 <= x_11 <= 10
  0 <= x_12 <= 10
End
