Subject To
	c_1: + 3 x_1 + 16 x_2 + 35 x_3 + 18 x_4 + 28 x_5 + 8 x_6 + 21 x_7 + 11 x_8 + 19 x_9 + 8 x_10 + 30 x_11 + 28 x_12 = 1005
	c_2: + 9 x_1 + 35 x_2 + 31 x_3 + 15 x_4 + 15 x_5 + 24 x_6 + 28 x_7 + 34 x_8 + 48 x_9 + 47 x_10 + 5 x_11 + 23 x_12 = 1030
	c_3: + 31 x_1 + 4 x_2 + 7 x_3 + 3 x_4 + 28 x_5 + 23 x_6 + 28 x_7 + 9 x_8 + 32 x_9 + 44 x_10 + 19 x_11 + 16 x_12 = 729
	c_4: + 15 x_1 + 18 x_2 + 13 x_3 + 8 x_4 + 19 x_5 + 31 x_6 + 32 x_7 + 40 x_8 + 22 x_9 + 8 x_10 + 33 x_11 + 46 x_12 = 1027
	c_5: + 30 x_1 + 20 x_2 + 39 x_3 + 40 x_4 + 6 x_5 + 13 x_6 + 13 x_7 + 2 x_8 + 50 x_9 + 8 x_10 + 24 x_11 + 16 x_12 = 984
	c_6: + 37 x_1 + 36 x_2 + 19 x_3 + 1 x_4 + 2 x_5 + 45 x_6 + 5 x_7 + 47 x_8 + 28 x_9 + 45 x_10 + 10 x_11 + 6 x_12 = 660
	c_7: + 36 x_1 + 37 x_2 + 8 x_3 + 9 x_4 + 9 x_5 + 18 x_6 + 26 x_7 + 48 x_8 + 4 x_9 + 41 x_10 + 23 x_11 + 30 x_12 = 802
	c_8: + 29 x_1 + 26 x_2 + 43 x_3 + 21 x_4 + 41 x_5 + 46 x_6 + 11 x_7 + 18 x_8 + 38 x_9 + 40 x_10 + 27 x_11 + 21 x_12 = 1232
Bounds
  0 <= x_1 <= 10
  0 <= x_2 <= 10
  0 <= x_3 <= 10
  0 <= x_4 <= 10
  0 <= x_5 <= 10
  0 <= x_6 <= 10
  0 <= x_7 <= 10
  0 <= x_8 <= 10
  0 <= x_9 <= 10
  0 <= x_10 <= 10
  0 <= x_11 <= 10
  0 <= x_12 <= 10
End
