Subject To
	c_1: + 16 x_1 + 26 x_2 + 19 x_3 + 4 x_4 + 7 x_5 + 9 x_6 + 10 x_7 + 27 x_8 + 32 x_9 + 23 x_10 + 39 x_11 + 20 x_12 = 1101
	c_2: + 31 x_1 + 39 x_2 + 12 x_3 + 36 x_4 + 17 x_5 + 36 x_6 + 8 x_7 + 38 x_8 + 28 x_9 + 45 x_10 + 40 x_11 + 17 x_12 = 1331
	c_3: + 5 x_1 + 29 x_2 + 26 x_3 + 48 x_4 + 30 x_5 + 22 x_6 + 30 x_7 + 19 x_8 + 43 x_9 + 42 x_10 + 9 x_11 + 7 x_12 = 997
	c_4: + 26 x_1 + 50 x_2 + 5 x_3 + 12 x_4 + 18 x_5 + 22 x_6 + 50 x_7 + 37 x_8 + 12 x_9 + 32 x_10 + 16 x_11 + 30 x_12 = 1121
	c_5: + 4 x_1 + 21 x_2 + 18 x_3 + 33 x_4 + 14 x_5 + 14 x_6 + 13 x_7 + 23 x_8 + 36 x_9 + 30 x_10 + 14 x_11 + 14 x_12 = 862
	c_6: + 40 x_1 + 18 x_2 + 17 x_3 + 33 x_4 + 13 x_5 + 14 x_6 + 30 x_7 + 19 x_8 + 24 x_9 + 8 x_10 + 50 x_11 + 34 x_12 = 1172
	c_7: + 30 x_1 + 4 x_2 + 30 x_3 + 15 x_4 + 21 x_5 + 42 x_6 + 25 x_7 + 29 x_8 + 15 x_9 + 45 x_10 + 26 x_11 + 46 x_12 = 1150
	c_8: + 28 x_1 + 5 x_2 + 45 x_3 + 9 x_4 + 23 x_5 + 3 x_6 + 12 x_7 + 26 x_8 + 1 x_9 + 36 x_10 + 6 x_11 + 46 x_12 = 851
Bounds
  0 <= x_1 <= 10
  0 <= x_2 <= 10
  0 <= x_3 <= 10
  0 <= x_4 <= 10
  0 <= x_5 <= 10
  0 <= x_6 <= 10
  0 <= x_7 <= 10
  0 <= x_8 <= 10
  0 <= x_9 <= 10
  0 <= x_10 <= 10
  0 <= x_11 <= 10
  0 <= x_12 <= 10
End
