Subject To
	c_1: + 30 x_1 + 2 x_2 + 48 x_3 + 35 x_4 + 25 x_5 + 42 x_6 + 9 x_7 + 45 x_8 + 33 x_9 + 46 x_10 + 17 x_11 + 41 x_12 = 2933
	c_2: + 34 x_1 + 20 x_2 + 7 x_3 + 26 x_4 + 7 x_5 + 14 x_6 + 8 x_7 + 6 x_8 + 16 x_9 + 31 x_10 + 50 x_11 + 47 x_12 = 1674
	c_3: + 2 x_1 + 23 x_2 + 39 x_3 + 4 x_4 + 24 x_5 + 16 x_6 + 19 x_7 + 32 x_8 + 36 x_9 + 49 x_10 + 12 x_11 + 37 x_12 = 2112
	c_4: + 30 x_1 + 46 x_2 + 35 x_3 + 11 x_4 + 39 x_5 + 48 x_6 + 31 x_7 + 23 x_8 + 50 x_9 + 40 x_10 + 45 x_11 + 6 x_12 = 2411
	c_5: + 25 x_1 + 5 x_2 + 16 x_3 + 44 x_4 + 5 x_5 + 4 x_6 + 29 x_7 + 32 x_8 + 39 x_9 + 50 x_10 + 18 x_11 + 4 x_12 = 1859
	c_6: + 4 x_1 + 33 x_2 + 2 x_3 + 38 x_4 + 15 x_5 + 2 x_6 + 47 x_7 + 33 x_8 + 10 x_9 + 10 x_10 + 1 x_11 + 3 x_12 = 947
	c_7: + 5 x_1 + 6 x_2 + 4 x_3 + 8 x_4 + 49 x_5 + 9 x_6 + 26 x_7 + 35 x_8 + 24 x_9 + 42 x_10 + 45 x_11 + 32 x_12 = 1804
	c_8: + 9 x_1 + 5 x_2 + 16 x_3 + 27 x_4 + 46 x_5 + 18 x_6 + 37 x_7 + 1 x_8 + 9 x_9 + 6 x_10 + 33 x_11 + 47 x_12 = 1486
Bounds
  0 <= x_1 <= 10
  0 <= x_2 <= 10
  0 <= x_3 <= 10
  0 <= x_4 <= 10
  0 <= x_5 <= 10
  0 <= x_6 <= 10
  0 <= x_7 <= 10
  0 <= x_8 <= 10
  0 <= x_9 <= 10
  0 <= x_10 <= 10
  0 <= x_11 <= 10
  0 <= x_12 <= 10
End
