Subject To
	c_1: + 30 x_1 + 10 x_2 + 30 x_3 + 3 x_4 + 32 x_5 + 48 x_6 + 11 x_7 + 18 x_8 + 30 x_9 + 39 x_10 + 38 x_11 + 23 x_12 = 2029
	c_2: + 45 x_1 + 50 x_2 + 38 x_3 + 45 x_4 + 21 x_5 + 33 x_6 + 12 x_7 + 2 x_8 + 49 x_9 + 7 x_10 + 4 x_11 + 1 x_12 = 1421
	c_3: + 18 x_1 + 48 x_2 + 18 x_3 + 50 x_4 + 21 x_5 + 45 x_6 + 20 x_7 + 15 x_8 + 46 x_9 + 10 x_10 + 47 x_11 + 3 x_12 = 1672
	c_4: + 2 x_1 + 38 x_2 + 8 x_3 + 19 x_4 + 36 x_5 + 47 x_6 + 24 x_7 + 41 x_8 + 12 x_9 + 7 x_10 + 26 x_11 + 4 x_12 = 1311
	c_5: + 35 x_1 + 9 x_2 + 42 x_3 + 13 x_4 + 43 x_5 + 28 x_6 + 24 x_7 + 26 x_8 + 30 x_9 + 13 x_10 + 22 x_11 + 20 x_12 = 1695
	c_6: + 12 x_1 + 41 x_2 + 18 x_3 + 19 x_4 + 8 x_5 + 8 x_6 + 21 x_7 + 6 x_8 + 24 x_9 + 27 x_10 + 28 x_11 + 40 x_12 = 1193
	c_7: + 24 x_1 + 19 x_2 + 21 x_3 + 35 x_4 + 9 x_5 + 39 x_6 + 5 x_7 + 37 x_8 + 47 x_9 + 50 x_10 + 41 x_11 + 46 x_12 = 2094
	c_8: + 14 x_1 + 46 x_2 + 20 x_3 + 28 x_4 + 4 x_5 + 15 x_6 + 33 x_7 + 7 x_8 + 42 x_9 + 50 x_10 + 33 x_11 + 9 x_12 = 1472
Bounds
  0 <= x_1 <= 10
  0 <= x_2 <= 10
  0 <= x_3 <= 10
  0 <= x_4 <= 10
  0 <= x_5 <= 10
  0 <= x_6 <= 10
  0 <= x_7 <= 10
  0 <= x_8 <= 10
  0 <= x_9 <= 10
  0 <= x_10 <= 10
  0 <= x_11 <= 10
  0 <= x_12 <= 10
End
