Subject To
	c_1: + 31 x_1 + 8 x_2 + 40 x_3 + 36 x_4 + 11 x_5 + 26 x_6 + 34 x_7 + 5 x_8 + 23 x_9 + 25 x_10 + 39 x_11 + 9 x_12 = 1699
	c_2: + 30 x_1 + 39 x_2 + 50 x_3 + 35 x_4 + 12 x_5 + 22 x_6 + 33 x_7 + 40 x_8 + 17 x_9 + 33 x_10 + 25 x_11 + 18 x_12 = 1720
	c_3: + 29 x_1 + 45 x_2 + 40 x_3 + 16 x_4 + 3 x_5 + 17 x_6 + 30 x_7 + 26 x_8 + 17 x_9 + 2 x_10 + 43 x_11 + 31 x_12 = 1431
	c_4: + 4 x_1 + 18 x_2 + 10 x_3 + 23 x_4 + 21 x_5 + 18 x_6 + 4 x_7 + 38 x_8 + 6 x_9 + 12 x_10 + 9 x_11 + 22 x_12 = 659
	c_5: + 43 x_1 + 45 x_2 + 45 x_3 + 50 x_4 + 36 x_5 + 12 x_6 + 49 x_7 + 23 x_8 + 3 x_9 + 41 x_10 + 31 x_11 + 19 x_12 = 1995
	c_6: + 21 x_1 + 14 x_2 + 49 x_3 + 50 x_4 + 47 x_5 + 24 x_6 + 17 x_7 + 29 x_8 + 20 x_9 + 22 x_10 + 32 x_11 + 35 x_12 = 1725
	c_7: + 37 x_1 + 38 x_2 + 25 x_3 + 4 x_4 + 3 x_5 + 6 x_6 + 20 x_7 + 31 x_8 + 22 x_9 + 8 x_10 + 22 x_11 + 42 x_12 = 1041
	c_8: + 2 x_1 + 10 x_2 + 15 x_3 + 18 x_4 + 23 x_5 + 48 x_6 + 29 x_7 + 39 x_8 + 14 x_9 + 32 x_10 + 1 x_11 + 49 x_12 = 1069
Bounds
  0 <= x_1 <= 10
  0 <= x_2 <= 10
  0 <= x_3 <= 10
  0 <= x_4 <= 10
  0 <= x_5 <= 10
  0 <= x_6 <= 10
  0 <= x_7 <= 10
  0 <= x_8 <= 10
  0 <= x_9 <= 10
  0 <= x_10 <= 10
  0 <= x_11 <= 10
  0 <= x_12 <= 10
End
