Subject To
	c_1: + 27 x_1 + 33 x_2 + 29 x_3 + 30 x_4 + 32 x_5 + 49 x_6 + 34 x_7 + 16 x_8 + 20 x_9 + 19 x_10 + 22 x_11 + 45 x_12 = 2318
	c_2: + 4 x_1 + 30 x_2 + 45 x_3 + 17 x_4 + 50 x_5 + 1 x_6 + 8 x_7 + 39 x_8 + 31 x_9 + 32 x_10 + 33 x_11 + 37 x_12 = 1770
	c_3: + 32 x_1 + 48 x_2 + 16 x_3 + 2 x_4 + 20 x_5 + 11 x_6 + 44 x_7 + 18 x_8 + 44 x_9 + 17 x_10 + 17 x_11 + 13 x_12 = 1608
	c_4: + 11 x_1 + 48 x_2 + 26 x_3 + 5 x_4 + 5 x_5 + 39 x_6 + 3 x_7 + 21 x_8 + 29 x_9 + 50 x_10 + 47 x_11 + 23 x_12 = 1742
	c_5: + 11 x_1 + 42 x_2 + 48 x_3 + 49 x_4 + 48 x_5 + 5 x_6 + 50 x_7 + 6 x_8 + 40 x_9 + 6 x_10 + 29 x_11 + 37 x_12 = 2264
	c_6: + 44 x_1 + 41 x_2 + 11 x_3 + 49 x_4 + 22 x_5 + 13 x_6 + 44 x_7 + 6 x_8 + 19 x_9 + 48 x_10 + 11 x_11 + 34 x_12 = 2025
	c_7: + 5 x_1 + 33 x_2 + 46 x_3 + 46 x_4 + 42 x_5 + 14 x_6 + 31 x_7 + 28 x_8 + 8 x_9 + 45 x_10 + 16 x_11 + 9 x_12 = 1813
	c_8: + 44 x_1 + 33 x_2 + 31 x_3 + 10 x_4 + 1 x_5 + 25 x_6 + 49 x_7 + 28 x_8 + 27 x_9 + 24 x_10 + 10 x_11 + 13 x_12 = 1717
Bounds
  0 <= x_1 <= 10
  0 <= x_2 <= 10
  0 <= x_3 <= 10
  0 <= x_4 <= 10
  0 <= x_5 <= 10
  0 <= x_6 <= 10
  0 <= x_7 <= 10
  0 <= x_8 <= 10
  0 <= x_9 <= 10
  0 <= x_10 <= 10
  0 <= x_11 <= 10
  0 <= x_12 <= 10
End
