Subject To
	c_1: + 2 x_1 + 16 x_2 + 8 x_3 + 28 x_4 + 14 x_5 + 48 x_6 + 9 x_7 + 13 x_8 + 7 x_9 + 37 x_10 + 32 x_11 + 2 x_12 = 1229
	c_2: + 5 x_1 + 19 x_2 + 32 x_3 + 45 x_4 + 45 x_5 + 29 x_6 + 26 x_7 + 33 x_8 + 21 x_9 + 19 x_10 + 24 x_11 + 40 x_12 = 1108
	c_3: + 12 x_1 + 14 x_2 + 46 x_3 + 45 x_4 + 2 x_5 + 47 x_6 + 21 x_7 + 24 x_8 + 48 x_9 + 16 x_10 + 29 x_11 + 1 x_12 = 1219
	c_4: + 34 x_1 + 30 x_2 + 23 x_3 + 15 x_4 + 11 x_5 + 34 x_6 + 7 x_7 + 49 x_8 + 24 x_9 + 32 x_10 + 15 x_11 + 21 x_12 = 1008
	c_5: + 10 x_1 + 15 x_2 + 13 x_3 + 3 x_4 + 45 x_5 + 43 x_6 + 9 x_7 + 30 x_8 + 12 x_9 + 41 x_10 + 50 x_11 + 8 x_12 = 1311
	c_6: + 36 x_1 + 31 x_2 + 24 x_3 + 46 x_4 + 2 x_5 + 6 x_6 + 22 x_7 + 39 x_8 + 12 x_9 + 1 x_10 + 19 x_11 + 22 x_12 = 663
	c_7: + 23 x_1 + 24 x_2 + 20 x_3 + 7 x_4 + 18 x_5 + 3 x_6 + 25 x_7 + 9 x_8 + 18 x_9 + 47 x_10 + 5 x_11 + 39 x_12 = 618
	c_8: + 22 x_1 + 42 x_2 + 20 x_3 + 6 x_4 + 27 x_5 + 44 x_6 + 3 x_7 + 2 x_8 + 44 x_9 + 20 x_10 + 50 x_11 + 19 x_12 = 1211
Bounds
  0 <= x_1 <= 10
  0 <= x_2 <= 10
  0 <= x_3 <= 10
  0 <= x_4 <= 10
  0 <= x_5 <= 10
  0 <= x_6 <= 10
  0 <= x_7 <= 10
  0 <= x_8 <= 10
  0 <= x_9 <= 10
  0 <= x_10 <= 10
  0 <= x_11 <= 10
  0 <= x_12 <= 10
End
