Subject To
	c_1: + 33 x_1 + 2 x_2 + 38 x_3 + 32 x_4 + 33 x_5 + 31 x_6 + 50 x_7 + 1 x_8 + 46 x_9 + 14 x_10 + 35 x_11 + 38 x_12 = 2649
	c_2: + 50 x_1 + 28 x_2 + 49 x_3 + 40 x_4 + 42 x_5 + 6 x_6 + 19 x_7 + 20 x_8 + 6 x_9 + 47 x_10 + 49 x_11 + 33 x_12 = 2304
	c_3: + 43 x_1 + 25 x_2 + 9 x_3 + 41 x_4 + 33 x_5 + 22 x_6 + 49 x_7 + 35 x_8 + 25 x_9 + 38 x_10 + 19 x_11 + 44 x_12 = 2296
	c_4: + 42 x_1 + 22 x_2 + 27 x_3 + 40 x_4 + 6 x_5 + 42 x_6 + 35 x_7 + 16 x_8 + 48 x_9 + 32 x_10 + 36 x_11 + 45 x_12 = 2534
	c_5: + 5 x_1 + 13 x_2 + 14 x_3 + 50 x_4 + 11 x_5 + 21 x_6 + 8 x_7 + 11 x_8 + 49 x_9 + 2 x_10 + 1 x_11 + 5 x_12 = 1224
	c_6: + 39 x_1 + 36 x_2 + 30 x_3 + 39 x_4 + 35 x_5 + 38 x_6 + 16 x_7 + 31 x_8 + 35 x_9 + 15 x_10 + 27 x_11 + 16 x_12 = 2057
	c_7: + 33 x_1 + 6 x_2 + 7 x_3 + 44 x_4 + 40 x_5 + 20 x_6 + 12 x_7 + 30 x_8 + 12 x_9 + 33 x_10 + 36 x_11 + 9 x_12 = 1602
	c_8: + 7 x_1 + 40 x_2 + 48 x_3 + 5 x_4 + 37 x_5 + 28 x_6 + 15 x_7 + 2 x_8 + 3 x_9 + 20 x_10 + 7 x_11 + 42 x_12 = 1512
Bounds
  0 <= x_1 <= 10
  0 <= x_2 <= 10
  0 <= x_3 <= 10
  0 <= x_4 <= 10
  0 <= x_5 <= 10
  0 <= x_6 <= 10
  0 <= x_7 <= 10
  0 <= x_8 <= 10
  0 <= x_9 <= 10
  0 <= x_10 <= 10
  0 <= x_11 <= 10
  0 <= x_12 <= 10
End
