Subject To
	c_1: + 7 x_1 + 10 x_2 + 18 x_3 + 6 x_4 + 25 x_5 + 27 x_6 + 7 x_7 + 50 x_8 + 36 x_9 + 5 x_10 + 18 x_11 + 1 x_12 = 1160
	c_2: + 9 x_1 + 43 x_2 + 47 x_3 + 50 x_4 + 19 x_5 + 14 x_6 + 1 x_7 + 39 x_8 + 36 x_9 + 20 x_10 + 32 x_11 + 24 x_12 = 1190
	c_3: + 23 x_1 + 7 x_2 + 7 x_3 + 19 x_4 + 12 x_5 + 36 x_6 + 15 x_7 + 37 x_8 + 25 x_9 + 16 x_10 + 14 x_11 + 44 x_12 = 919
	c_4: + 35 x_1 + 50 x_2 + 34 x_3 + 31 x_4 + 43 x_5 + 43 x_6 + 28 x_7 + 13 x_8 + 5 x_9 + 38 x_10 + 34 x_11 + 3 x_12 = 993
	c_5: + 14 x_1 + 6 x_2 + 17 x_3 + 5 x_4 + 27 x_5 + 24 x_6 + 19 x_7 + 1 x_8 + 38 x_9 + 14 x_10 + 12 x_11 + 17 x_12 = 668
	c_6: + 49 x_1 + 8 x_2 + 28 x_3 + 46 x_4 + 29 x_5 + 47 x_6 + 2 x_7 + 6 x_8 + 33 x_9 + 36 x_10 + 2 x_11 + 48 x_12 = 874
	c_7: + 36 x_1 + 35 x_2 + 37 x_3 + 15 x_4 + 18 x_5 + 8 x_6 + 26 x_7 + 13 x_8 + 1 x_9 + 45 x_10 + 3 x_11 + 38 x_12 = 534
	c_8: + 33 x_1 + 48 x_2 + 12 x_3 + 26 x_4 + 10 x_5 + 5 x_6 + 36 x_7 + 26 x_8 + 8 x_9 + 26 x_10 + 13 x_11 + 2 x_12 = 657
Bounds
  0 <= x_1 <= 10
  0 <= x_2 <= 10
  0 <= x_3 <= 10
  0 <= x_4 <= 10
  0 <= x_5 <= 10
  0 <= x_6 <= 10
  0 <= x_7 <= 10
  0 <= x_8 <= 10
  0 <= x_9 <= 10
  0 <= x_10 <= 10
  0 <= x_11 <= 10
  0 <= x_12 <= 10
End
