Subject To
	c_1: + 25 x_1 + 30 x_2 + 48 x_3 + 50 x_4 + 7 x_5 + 29 x_6 + 32 x_7 + 16 x_8 + 8 x_9 + 24 x_10 + 4 x_11 + 38 x_12 = 2170
	c_2: + 4 x_1 + 40 x_2 + 11 x_3 + 34 x_4 + 33 x_5 + 13 x_6 + 6 x_7 + 40 x_8 + 20 x_9 + 16 x_10 + 9 x_11 + 24 x_12 = 1275
	c_3: + 6 x_1 + 23 x_2 + 7 x_3 + 24 x_4 + 38 x_5 + 31 x_6 + 5 x_7 + 16 x_8 + 32 x_9 + 17 x_10 + 21 x_11 + 15 x_12 = 1022
	c_4: + 28 x_1 + 4 x_2 + 21 x_3 + 12 x_4 + 23 x_5 + 47 x_6 + 18 x_7 + 31 x_8 + 13 x_9 + 3 x_10 + 24 x_11 + 8 x_12 = 1110
	c_5: + 31 x_1 + 42 x_2 + 15 x_3 + 14 x_4 + 1 x_5 + 13 x_6 + 32 x_7 + 35 x_8 + 44 x_9 + 31 x_10 + 20 x_11 + 41 x_12 = 1632
	c_6: + 28 x_1 + 26 x_2 + 15 x_3 + 9 x_4 + 25 x_5 + 27 x_6 + 12 x_7 + 31 x_8 + 40 x_9 + 32 x_10 + 8 x_11 + 35 x_12 = 1380
	c_7: + 35 x_1 + 27 x_2 + 6 x_3 + 50 x_4 + 34 x_5 + 15 x_6 + 44 x_7 + 5 x_8 + 34 x_9 + 3 x_10 + 39 x_11 + 36 x_12 = 1681
	c_8: + 6 x_1 + 44 x_2 + 4 x_3 + 37 x_4 + 24 x_5 + 17 x_6 + 32 x_7 + 41 x_8 + 36 x_9 + 3 x_10 + 16 x_11 + 26 x_12 = 1436
Bounds
  0 <= x_1 <= 10
  0 <= x_2 <= 10
  0 <= x_3 <= 10
  0 <= x_4 <= 10
  0 <= x_5 <= 10
  0 <= x_6 <= 10
  0 <= x_7 <= 10
  0 <= x_8 <= 10
  0 <= x_9 <= 10
  0 <= x_10 <= 10
  0 <= x_11 <= 10
  0 <= x_12 <= 10
End
