Subject To
	c_1: + 31 x_1 + 13 x_2 + 31 x_3 + 47 x_4 + 24 x_5 + 45 x_6 + 6 x_7 + 20 x_8 + 33 x_9 + 7 x_10 + 37 x_11 + 44 x_12 = 2372
	c_2: + 50 x_1 + 20 x_2 + 41 x_3 + 34 x_4 + 21 x_5 + 7 x_6 + 31 x_7 + 2 x_8 + 33 x_9 + 48 x_10 + 38 x_11 + 46 x_12 = 2092
	c_3: + 45 x_1 + 44 x_2 + 40 x_3 + 34 x_4 + 15 x_5 + 15 x_6 + 49 x_7 + 47 x_8 + 34 x_9 + 14 x_10 + 27 x_11 + 37 x_12 = 2159
	c_4: + 34 x_1 + 2 x_2 + 34 x_3 + 27 x_4 + 9 x_5 + 2 x_6 + 25 x_7 + 49 x_8 + 17 x_9 + 14 x_10 + 41 x_11 + 15 x_12 = 1521
	c_5: + 42 x_1 + 26 x_2 + 40 x_3 + 3 x_4 + 15 x_5 + 35 x_6 + 31 x_7 + 12 x_8 + 13 x_9 + 18 x_10 + 48 x_11 + 21 x_12 = 1677
	c_6: + 26 x_1 + 34 x_2 + 9 x_3 + 8 x_4 + 16 x_5 + 48 x_6 + 21 x_7 + 4 x_8 + 22 x_9 + 22 x_10 + 34 x_11 + 25 x_12 = 1546
	c_7: + 44 x_1 + 39 x_2 + 38 x_3 + 34 x_4 + 32 x_5 + 31 x_6 + 29 x_7 + 11 x_8 + 26 x_9 + 12 x_10 + 34 x_11 + 5 x_12 = 1899
	c_8: + 19 x_1 + 45 x_2 + 9 x_3 + 26 x_4 + 3 x_5 + 36 x_6 + 4 x_7 + 20 x_8 + 39 x_9 + 11 x_10 + 6 x_11 + 25 x_12 = 1492
Bounds
  0 <= x_1 <= 10
  0 <= x_2 <= 10
  0 <= x_3 <= 10
  0 <= x_4 <= 10
  0 <= x_5 <= 10
  0 <= x_6 <= 10
  0 <= x_7 <= 10
  0 <= x_8 <= 10
  0 <= x_9 <= 10
  0 <= x_10 <= 10
  0 <= x_11 <= 10
  0 <= x_12 <= 10
End
