Subject To
	c_1: + 43 x_1 + 7 x_2 + 6 x_3 + 22 x_4 + 3 x_5 + 48 x_6 + 16 x_7 + 24 x_8 + 38 x_9 + 16 x_10 + 46 x_11 + 14 x_12 = 1944
	c_2: + 3 x_1 + 44 x_2 + 9 x_3 + 20 x_4 + 14 x_5 + 21 x_6 + 34 x_7 + 47 x_8 + 8 x_9 + 41 x_10 + 32 x_11 + 32 x_12 = 1278
	c_3: + 22 x_1 + 22 x_2 + 46 x_3 + 40 x_4 + 46 x_5 + 16 x_6 + 18 x_7 + 26 x_8 + 13 x_9 + 30 x_10 + 20 x_11 + 24 x_12 = 1216
	c_4: + 21 x_1 + 11 x_2 + 6 x_3 + 8 x_4 + 19 x_5 + 6 x_6 + 22 x_7 + 43 x_8 + 30 x_9 + 30 x_10 + 27 x_11 + 4 x_12 = 1164
	c_5: + 25 x_1 + 47 x_2 + 2 x_3 + 46 x_4 + 40 x_5 + 36 x_6 + 21 x_7 + 16 x_8 + 2 x_9 + 10 x_10 + 40 x_11 + 1 x_12 = 1370
	c_6: + 30 x_1 + 10 x_2 + 14 x_3 + 43 x_4 + 25 x_5 + 42 x_6 + 9 x_7 + 21 x_8 + 27 x_9 + 22 x_10 + 48 x_11 + 20 x_12 = 1792
	c_7: + 24 x_1 + 10 x_2 + 36 x_3 + 21 x_4 + 10 x_5 + 34 x_6 + 36 x_7 + 15 x_8 + 41 x_9 + 3 x_10 + 28 x_11 + 31 x_12 = 1551
	c_8: + 13 x_1 + 42 x_2 + 12 x_3 + 50 x_4 + 38 x_5 + 22 x_6 + 38 x_7 + 5 x_8 + 22 x_9 + 43 x_10 + 49 x_11 + 21 x_12 = 1539
Bounds
  0 <= x_1 <= 10
  0 <= x_2 <= 10
  0 <= x_3 <= 10
  0 <= x_4 <= 10
  0 <= x_5 <= 10
  0 <= x_6 <= 10
  0 <= x_7 <= 10
  0 <= x_8 <= 10
  0 <= x_9 <= 10
  0 <= x_10 <= 10
  0 <= x_11 <= 10
  0 <= x_12 <= 10
End
