Subject To
	c_1: + 34 x_1 + 13 x_2 + 44 x_3 + 40 x_4 + 43 x_5 + 12 x_6 + 10 x_7 + 31 x_8 + 17 x_9 + 6 x_10 + 45 x_11 + 16 x_12 = 2107
	c_2: + 28 x_1 + 4 x_2 + 40 x_3 + 45 x_4 + 2 x_5 + 30 x_6 + 32 x_7 + 20 x_8 + 47 x_9 + 18 x_10 + 3 x_11 + 35 x_12 = 1477
	c_3: + 35 x_1 + 39 x_2 + 19 x_3 + 4 x_4 + 34 x_5 + 25 x_6 + 18 x_7 + 46 x_8 + 39 x_9 + 26 x_10 + 50 x_11 + 42 x_12 = 1913
	c_4: + 27 x_1 + 36 x_2 + 29 x_3 + 25 x_4 + 42 x_5 + 18 x_6 + 27 x_7 + 5 x_8 + 25 x_9 + 8 x_10 + 22 x_11 + 43 x_12 = 1630
	c_5: + 45 x_1 + 14 x_2 + 37 x_3 + 6 x_4 + 15 x_5 + 48 x_6 + 3 x_7 + 48 x_8 + 27 x_9 + 27 x_10 + 8 x_11 + 7 x_12 = 1450
	c_6: + 38 x_1 + 14 x_2 + 49 x_3 + 9 x_4 + 14 x_5 + 31 x_6 + 41 x_7 + 39 x_8 + 26 x_9 + 32 x_10 + 17 x_11 + 32 x_12 = 1670
	c_7: + 7 x_1 + 16 x_2 + 45 x_3 + 11 x_4 + 27 x_5 + 37 x_6 + 35 x_7 + 27 x_8 + 1 x_9 + 42 x_10 + 22 x_11 + 4 x_12 = 1378
	c_8: + 34 x_1 + 30 x_2 + 9 x_3 + 19 x_4 + 45 x_5 + 34 x_6 + 25 x_7 + 20 x_8 + 34 x_9 + 34 x_10 + 22 x_11 + 46 x_12 = 1646
Bounds
  0 <= x_1 <= 10
  0 <= x_2 <= 10
  0 <= x_3 <= 10
  0 <= x_4 <= 10
  0 <= x_5 <= 10
  0 <= x_6 <= 10
  0 <= x_7 <= 10
  0 <= x_8 <= 10
  0 <= x_9 <= 10
  0 <= x_10 <= 10
  0 <= x_11 <= 10
  0 <= x_12 <= 10
End
