Subject To
	c_1: + 49 x_1 + 20 x_2 + 20 x_3 + 15 x_4 + 49 x_5 + 10 x_6 + 12 x_7 + 20 x_8 + 3 x_9 + 24 x_10 + 30 x_11 + 43 x_12 = 1996
	c_2: + 25 x_1 + 45 x_2 + 27 x_3 + 36 x_4 + 34 x_5 + 2 x_6 + 13 x_7 + 37 x_8 + 27 x_9 + 8 x_10 + 28 x_11 + 36 x_12 = 1696
	c_3: + 41 x_1 + 28 x_2 + 22 x_3 + 30 x_4 + 16 x_5 + 33 x_6 + 40 x_7 + 38 x_8 + 24 x_9 + 40 x_10 + 1 x_11 + 30 x_12 = 1634
	c_4: + 11 x_1 + 28 x_2 + 24 x_3 + 35 x_4 + 35 x_5 + 22 x_6 + 27 x_7 + 40 x_8 + 37 x_9 + 21 x_10 + 42 x_11 + 29 x_12 = 1649
	c_5: + 25 x_1 + 39 x_2 + 31 x_3 + 31 x_4 + 2 x_5 + 22 x_6 + 47 x_7 + 48 x_8 + 25 x_9 + 47 x_10 + 5 x_11 + 38 x_12 = 1580
	c_6: + 9 x_1 + 48 x_2 + 10 x_3 + 41 x_4 + 28 x_5 + 10 x_6 + 26 x_7 + 29 x_8 + 9 x_9 + 2 x_10 + 37 x_11 + 30 x_12 = 1415
	c_7: + 20 x_1 + 37 x_2 + 48 x_3 + 34 x_4 + 28 x_5 + 9 x_6 + 44 x_7 + 10 x_8 + 25 x_9 + 22 x_10 + 49 x_11 + 30 x_12 = 1742
	c_8: + 49 x_1 + 5 x_2 + 3 x_3 + 15 x_4 + 9 x_5 + 48 x_6 + 18 x_7 + 26 x_8 + 12 x_9 + 16 x_10 + 5 x_11 + 12 x_12 = 1111
Bounds
  0 <= x_1 <= 10
  0 <= x_2 <= 10
  0 <= x_3 <= 10
  0 <= x_4 <= 10
  0 <= x_5 <= 10
  0 <= x_6 <= 10
  0 <= x_7 <= 10
  0 <= x_8 <= 10
  0 <= x_9 <= 10
  0 <= x_10 <= 10
  0 <= x_11 <= 10
  0 <= x_12 <= 10
End
