Subject To
	c_1: + 50 x_1 + 22 x_2 + 20 x_3 + 8 x_4 + 35 x_5 + 30 x_6 + 30 x_7 + 8 x_8 + 38 x_9 + 34 x_10 + 22 x_11 + 19 x_12 = 1976
	c_2: + 29 x_1 + 48 x_2 + 22 x_3 + 34 x_4 + 17 x_5 + 4 x_6 + 15 x_7 + 33 x_8 + 32 x_9 + 50 x_10 + 16 x_11 + 39 x_12 = 1657
	c_3: + 45 x_1 + 10 x_2 + 10 x_3 + 38 x_4 + 42 x_5 + 15 x_6 + 32 x_7 + 34 x_8 + 49 x_9 + 6 x_10 + 47 x_11 + 21 x_12 = 1863
	c_4: + 47 x_1 + 4 x_2 + 7 x_3 + 36 x_4 + 33 x_5 + 44 x_6 + 18 x_7 + 34 x_8 + 27 x_9 + 11 x_10 + 29 x_11 + 2 x_12 = 1602
	c_5: + 23 x_1 + 31 x_2 + 47 x_3 + 2 x_4 + 8 x_5 + 46 x_6 + 38 x_7 + 49 x_8 + 44 x_9 + 37 x_10 + 24 x_11 + 47 x_12 = 2001
	c_6: + 16 x_1 + 20 x_2 + 3 x_3 + 38 x_4 + 4 x_5 + 47 x_6 + 22 x_7 + 43 x_8 + 49 x_9 + 28 x_10 + 13 x_11 + 25 x_12 = 1490
	c_7: + 3 x_1 + 18 x_2 + 48 x_3 + 7 x_4 + 15 x_5 + 2 x_6 + 13 x_7 + 35 x_8 + 34 x_9 + 20 x_10 + 13 x_11 + 8 x_12 = 1019
	c_8: + 49 x_1 + 49 x_2 + 23 x_3 + 25 x_4 + 38 x_5 + 26 x_6 + 36 x_7 + 3 x_8 + 23 x_9 + 38 x_10 + 29 x_11 + 5 x_12 = 2025
Bounds
  0 <= x_1 <= 10
  0 <= x_2 <= 10
  0 <= x_3 <= 10
  0 <= x_4 <= 10
  0 <= x_5 <= 10
  0 <= x_6 <= 10
  0 <= x_7 <= 10
  0 <= x_8 <= 10
  0 <= x_9 <= 10
  0 <= x_10 <= 10
  0 <= x_11 <= 10
  0 <= x_12 <= 10
End
