Subject To
	c_1: + 4 x_1 + 13 x_2 + 46 x_3 + 18 x_4 + 43 x_5 + 22 x_6 + 43 x_7 + 33 x_8 + 17 x_9 + 41 x_10 + 8 x_11 + 25 x_12 = 2145
	c_2: + 48 x_1 + 32 x_2 + 13 x_3 + 9 x_4 + 12 x_5 + 15 x_6 + 35 x_7 + 18 x_8 + 46 x_9 + 39 x_10 + 10 x_11 + 44 x_12 = 1510
	c_3: + 11 x_1 + 14 x_2 + 29 x_3 + 10 x_4 + 37 x_5 + 15 x_6 + 41 x_7 + 22 x_8 + 46 x_9 + 39 x_10 + 21 x_11 + 36 x_12 = 1915
	c_4: + 15 x_1 + 15 x_2 + 1 x_3 + 44 x_4 + 38 x_5 + 7 x_6 + 47 x_7 + 33 x_8 + 49 x_9 + 37 x_10 + 37 x_11 + 10 x_12 = 1726
	c_5: + 27 x_1 + 20 x_2 + 7 x_3 + 25 x_4 + 34 x_5 + 44 x_6 + 4 x_7 + 49 x_8 + 15 x_9 + 20 x_10 + 47 x_11 + 41 x_12 = 1503
	c_6: + 36 x_1 + 37 x_2 + 11 x_3 + 25 x_4 + 7 x_5 + 20 x_6 + 32 x_7 + 9 x_8 + 49 x_9 + 37 x_10 + 42 x_11 + 17 x_12 = 1323
	c_7: + 22 x_1 + 33 x_2 + 7 x_3 + 5 x_4 + 31 x_5 + 34 x_6 + 32 x_7 + 6 x_8 + 9 x_9 + 43 x_10 + 6 x_11 + 24 x_12 = 1393
	c_8: + 47 x_1 + 15 x_2 + 28 x_3 + 4 x_4 + 3 x_5 + 12 x_6 + 2 x_7 + 9 x_8 + 20 x_9 + 47 x_10 + 32 x_11 + 36 x_12 = 1126
Bounds
  0 <= x_1 <= 10
  0 <= x_2 <= 10
  0 <= x_3 <= 10
  0 <= x_4 <= 10
  0 <= x_5 <= 10
  0 <= x_6 <= 10
  0 <= x_7 <= 10
  0 <= x_8 <= 10
  0 <= x_9 <= 10
  0 <= x_10 <= 10
  0 <= x_11 <= 10
  0 <= x_12 <= 10
End
