Subject To
	c_1: + 33 x_1 + 17 x_2 + 34 x_3 + 37 x_4 + 19 x_5 + 20 x_6 + 44 x_7 + 40 x_8 + 9 x_9 + 31 x_10 + 46 x_11 + 50 x_12 = 2797
	c_2: + 32 x_1 + 29 x_2 + 30 x_3 + 6 x_4 + 34 x_5 + 29 x_6 + 35 x_7 + 50 x_8 + 14 x_9 + 9 x_10 + 30 x_11 + 2 x_12 = 1894
	c_3: + 1 x_1 + 3 x_2 + 17 x_3 + 36 x_4 + 45 x_5 + 19 x_6 + 36 x_7 + 35 x_8 + 31 x_9 + 4 x_10 + 46 x_11 + 26 x_12 = 2012
	c_4: + 14 x_1 + 42 x_2 + 46 x_3 + 39 x_4 + 43 x_5 + 13 x_6 + 10 x_7 + 2 x_8 + 38 x_9 + 19 x_10 + 29 x_11 + 42 x_12 = 2021
	c_5: + 27 x_1 + 10 x_2 + 36 x_3 + 46 x_4 + 11 x_5 + 21 x_6 + 18 x_7 + 16 x_8 + 27 x_9 + 20 x_10 + 38 x_11 + 16 x_12 = 1906
	c_6: + 27 x_1 + 22 x_2 + 32 x_3 + 45 x_4 + 7 x_5 + 1 x_6 + 40 x_7 + 9 x_8 + 35 x_9 + 3 x_10 + 8 x_11 + 28 x_12 = 1708
	c_7: + 23 x_1 + 48 x_2 + 47 x_3 + 22 x_4 + 13 x_5 + 6 x_6 + 10 x_7 + 23 x_8 + 10 x_9 + 33 x_10 + 37 x_11 + 43 x_12 = 2131
	c_8: + 48 x_1 + 39 x_2 + 2 x_3 + 49 x_4 + 6 x_5 + 32 x_6 + 48 x_7 + 43 x_8 + 23 x_9 + 44 x_10 + 2 x_11 + 15 x_12 = 2242
Bounds
  0 <= x_1 <= 10
  0 <= x_2 <= 10
  0 <= x_3 <= 10
  0 <= x_4 <= 10
  0 <= x_5 <= 10
  0 <= x_6 <= 10
  0 <= x_7 <= 10
  0 <= x_8 <= 10
  0 <= x_9 <= 10
  0 <= x_10 <= 10
  0 <= x_11 <= 10
  0 <= x_12 <= 10
End
