Subject To
	c_1: + 11 x_1 + 37 x_2 + 41 x_3 + 12 x_4 + 37 x_5 + 47 x_6 + 5 x_7 + 38 x_8 + 26 x_9 + 39 x_10 + 8 x_11 + 46 x_12 = 2572
	c_2: + 1 x_1 + 20 x_2 + 4 x_3 + 7 x_4 + 19 x_5 + 13 x_6 + 21 x_7 + 16 x_8 + 27 x_9 + 40 x_10 + 30 x_11 + 45 x_12 = 1509
	c_3: + 21 x_1 + 40 x_2 + 23 x_3 + 13 x_4 + 15 x_5 + 24 x_6 + 9 x_7 + 26 x_8 + 21 x_9 + 6 x_10 + 7 x_11 + 5 x_12 = 1314
	c_4: + 32 x_1 + 23 x_2 + 38 x_3 + 20 x_4 + 16 x_5 + 21 x_6 + 6 x_7 + 37 x_8 + 12 x_9 + 43 x_10 + 33 x_11 + 33 x_12 = 1943
	c_5: + 50 x_1 + 5 x_2 + 10 x_3 + 5 x_4 + 5 x_5 + 10 x_6 + 35 x_7 + 39 x_8 + 16 x_9 + 39 x_10 + 43 x_11 + 8 x_12 = 1219
	c_6: + 48 x_1 + 31 x_2 + 8 x_3 + 21 x_4 + 50 x_5 + 48 x_6 + 8 x_7 + 4 x_8 + 35 x_9 + 33 x_10 + 30 x_11 + 28 x_12 = 2060
	c_7: + 30 x_1 + 11 x_2 + 47 x_3 + 45 x_4 + 18 x_5 + 47 x_6 + 45 x_7 + 46 x_8 + 20 x_9 + 21 x_10 + 44 x_11 + 39 x_12 = 2293
	c_8: + 13 x_1 + 5 x_2 + 15 x_3 + 14 x_4 + 36 x_5 + 17 x_6 + 18 x_7 + 28 x_8 + 43 x_9 + 16 x_10 + 48 x_11 + 40 x_12 = 1660
Bounds
  0 <= x_1 <= 10
  0 <= x_2 <= 10
  0 <= x_3 <= 10
  0 <= x_4 <= 10
  0 <= x_5 <= 10
  0 <= x_6 <= 10
  0 <= x_7 <= 10
  0 <= x_8 <= 10
  0 <= x_9 <= 10
  0 <= x_10 <= 10
  0 <= x_11 <= 10
  0 <= x_12 <= 10
End
