Subject To
	c_1: + 49 x_1 + 9 x_2 + 8 x_3 + 21 x_4 + 3 x_5 + 10 x_6 + 39 x_7 + 19 x_8 + 10 x_9 + 4 x_10 + 24 x_11 + 32 x_12 = 1321
	c_2: + 21 x_1 + 28 x_2 + 45 x_3 + 29 x_4 + 12 x_5 + 1 x_6 + 36 x_7 + 33 x_8 + 36 x_9 + 43 x_10 + 17 x_11 + 49 x_12 = 1271
	c_3: + 17 x_1 + 38 x_2 + 11 x_3 + 7 x_4 + 11 x_5 + 25 x_6 + 45 x_7 + 21 x_8 + 2 x_9 + 30 x_10 + 41 x_11 + 42 x_12 = 1177
	c_4: + 33 x_1 + 27 x_2 + 7 x_3 + 26 x_4 + 9 x_5 + 36 x_6 + 2 x_7 + 8 x_8 + 25 x_9 + 1 x_10 + 33 x_11 + 44 x_12 = 1031
	c_5: + 17 x_1 + 28 x_2 + 8 x_3 + 11 x_4 + 13 x_5 + 32 x_6 + 48 x_7 + 2 x_8 + 3 x_9 + 16 x_10 + 15 x_11 + 45 x_12 = 1025
	c_6: + 44 x_1 + 26 x_2 + 49 x_3 + 32 x_4 + 20 x_5 + 18 x_6 + 10 x_7 + 46 x_8 + 36 x_9 + 11 x_10 + 15 x_11 + 12 x_12 = 1144
	c_7: + 30 x_1 + 44 x_2 + 16 x_3 + 30 x_4 + 8 x_5 + 5 x_6 + 7 x_7 + 17 x_8 + 1 x_9 + 18 x_10 + 47 x_11 + 48 x_12 = 1134
	c_8: + 49 x_1 + 45 x_2 + 23 x_3 + 13 x_4 + 32 x_5 + 14 x_6 + 5 x_7 + 40 x_8 + 7 x_9 + 26 x_10 + 6 x_11 + 49 x_12 = 1162
Bounds
  0 <= x_1 <= 10
  0 <= x_2 <= 10
  0 <= x_3 <= 10
  0 <= x_4 <= 10
  0 <= x_5 <= 10
  0 <= x_6 <= 10
  0 <= x_7 <= 10
  0 <= x_8 <= 10
  0 <= x_9 <= 10
  0 <= x_10 <= 10
  0 <= x_11 <= 10
  0 <= x_12 <= 10
End
