Subject To
	c_1: + 14 x_1 + 27 x_2 + 30 x_3 + 8 x_4 + 15 x_5 + 29 x_6 + 23 x_7 + 34 x_8 + 31 x_9 + 3 x_10 + 42 x_11 + 30 x_12 = 1644
	c_2: + 20 x_1 + 13 x_2 + 21 x_3 + 27 x_4 + 26 x_5 + 33 x_6 + 39 x_7 + 9 x_8 + 21 x_9 + 41 x_10 + 28 x_11 + 3 x_12 = 1149
	c_3: + 6 x_1 + 35 x_2 + 44 x_3 + 15 x_4 + 32 x_5 + 24 x_6 + 39 x_7 + 29 x_8 + 23 x_9 + 26 x_10 + 15 x_11 + 20 x_12 = 1458
	c_4: + 46 x_1 + 39 x_2 + 47 x_3 + 22 x_4 + 41 x_5 + 18 x_6 + 1 x_7 + 13 x_8 + 27 x_9 + 7 x_10 + 23 x_11 + 34 x_12 = 1490
	c_5: + 24 x_1 + 35 x_2 + 21 x_3 + 17 x_4 + 13 x_5 + 33 x_6 + 43 x_7 + 11 x_8 + 49 x_9 + 4 x_10 + 40 x_11 + 1 x_12 = 1512
	c_6: + 48 x_1 + 38 x_2 + 27 x_3 + 42 x_4 + 44 x_5 + 12 x_6 + 19 x_7 + 24 x_8 + 11 x_9 + 50 x_10 + 6 x_11 + 45 x_12 = 1328
	c_7: + 5 x_1 + 46 x_2 + 30 x_3 + 41 x_4 + 44 x_5 + 19 x_6 + 32 x_7 + 35 x_8 + 8 x_9 + 14 x_10 + 4 x_11 + 47 x_12 = 1446
	c_8: + 43 x_1 + 47 x_2 + 11 x_3 + 13 x_4 + 42 x_5 + 5 x_6 + 38 x_7 + 27 x_8 + 27 x_9 + 49 x_10 + 35 x_11 + 43 x_12 = 1632
Bounds
  0 <= x_1 <= 10
  0 <= x_2 <= 10
  0 <= x_3 <= 10
  0 <= x_4 <= 10
  0 <= x_5 <= 10
  0 <= x_6 <= 10
  0 <= x_7 <= 10
  0 <= x_8 <= 10
  0 <= x_9 <= 10
  0 <= x_10 <= 10
  0 <= x_11 <= 10
  0 <= x_12 <= 10
End
