Subject To
	c_1: + 15 x_1 + 9 x_2 + 38 x_3 + 35 x_4 + 23 x_5 + 10 x_6 + 38 x_7 + 27 x_8 + 3 x_9 + 37 x_10 + 10 x_11 + 9 x_12 = 1465
	c_2: + 1 x_1 + 17 x_2 + 21 x_3 + 32 x_4 + 8 x_5 + 29 x_6 + 38 x_7 + 13 x_8 + 28 x_9 + 14 x_10 + 42 x_11 + 14 x_12 = 1075
	c_3: + 38 x_1 + 4 x_2 + 16 x_3 + 1 x_4 + 44 x_5 + 7 x_6 + 17 x_7 + 13 x_8 + 43 x_9 + 46 x_10 + 30 x_11 + 29 x_12 = 1099
	c_4: + 23 x_1 + 41 x_2 + 2 x_3 + 25 x_4 + 23 x_5 + 30 x_6 + 6 x_7 + 26 x_8 + 33 x_9 + 12 x_10 + 11 x_11 + 10 x_12 = 770
	c_5: + 44 x_1 + 18 x_2 + 10 x_3 + 43 x_4 + 31 x_5 + 5 x_6 + 42 x_7 + 50 x_8 + 20 x_9 + 50 x_10 + 32 x_11 + 32 x_12 = 1728
	c_6: + 9 x_1 + 18 x_2 + 20 x_3 + 30 x_4 + 35 x_5 + 36 x_6 + 8 x_7 + 13 x_8 + 2 x_9 + 47 x_10 + 8 x_11 + 46 x_12 = 1182
	c_7: + 1 x_1 + 32 x_2 + 38 x_3 + 25 x_4 + 18 x_5 + 3 x_6 + 22 x_7 + 33 x_8 + 9 x_9 + 35 x_10 + 23 x_11 + 25 x_12 = 1267
	c_8: + 6 x_1 + 5 x_2 + 5 x_3 + 18 x_4 + 39 x_5 + 43 x_6 + 33 x_7 + 14 x_8 + 31 x_9 + 29 x_10 + 24 x_11 + 38 x_12 = 1093
Bounds
  0 <= x_1 <= 10
  0 <= x_2 <= 10
  0 <= x_3 <= 10
  0 <= x_4 <= 10
  0 <= x_5 <= 10
  0 <= x_6 <= 10
  0 <= x_7 <= 10
  0 <= x_8 <= 10
  0 <= x_9 <= 10
  0 <= x_10 <= 10
  0 <= x_11 <= 10
  0 <= x_12 <= 10
End
