Subject To
	c_1: + 8 x_1 + 42 x_2 + 19 x_3 + 17 x_4 + 6 x_5 + 9 x_6 + 50 x_7 + 4 x_8 + 43 x_9 + 36 x_10 + 33 x_11 + 1 x_12 = 1879
	c_2: + 6 x_1 + 10 x_2 + 7 x_3 + 9 x_4 + 12 x_5 + 16 x_6 + 12 x_7 + 38 x_8 + 45 x_9 + 29 x_10 + 24 x_11 + 2 x_12 = 1068
	c_3: + 10 x_1 + 35 x_2 + 45 x_3 + 28 x_4 + 6 x_5 + 20 x_6 + 17 x_7 + 21 x_8 + 13 x_9 + 15 x_10 + 20 x_11 + 47 x_12 = 1102
	c_4: + 39 x_1 + 30 x_2 + 5 x_3 + 9 x_4 + 49 x_5 + 34 x_6 + 16 x_7 + 28 x_8 + 22 x_9 + 1 x_10 + 21 x_11 + 7 x_12 = 946
	c_5: + 14 x_1 + 31 x_2 + 11 x_3 + 49 x_4 + 16 x_5 + 29 x_6 + 17 x_7 + 11 x_8 + 33 x_9 + 25 x_10 + 12 x_11 + 22 x_12 = 1244
	c_6: + 23 x_1 + 29 x_2 + 26 x_3 + 8 x_4 + 30 x_5 + 6 x_6 + 22 x_7 + 35 x_8 + 28 x_9 + 28 x_10 + 2 x_11 + 9 x_12 = 1104
	c_7: + 20 x_1 + 36 x_2 + 50 x_3 + 19 x_4 + 3 x_5 + 39 x_6 + 48 x_7 + 25 x_8 + 17 x_9 + 36 x_10 + 38 x_11 + 7 x_12 = 1744
	c_8: + 44 x_1 + 46 x_2 + 6 x_3 + 46 x_4 + 49 x_5 + 49 x_6 + 4 x_7 + 44 x_8 + 46 x_9 + 8 x_10 + 40 x_11 + 10 x_12 = 1502
Bounds
  0 <= x_1 <= 10
  0 <= x_2 <= 10
  0 <= x_3 <= 10
  0 <= x_4 <= 10
  0 <= x_5 <= 10
  0 <= x_6 <= 10
  0 <= x_7 <= 10
  0 <= x_8 <= 10
  0 <= x_9 <= 10
  0 <= x_10 <= 10
  0 <= x_11 <= 10
  0 <= x_12 <= 10
End
