Subject To
	c_1: + 38 x_1 + 34 x_2 + 40 x_3 + 28 x_4 + 13 x_5 + 17 x_6 + 30 x_7 + 42 x_8 + 49 x_9 + 48 x_10 + 22 x_11 + 27 x_12 = 2858
	c_2: + 25 x_1 + 36 x_2 + 23 x_3 + 27 x_4 + 34 x_5 + 15 x_6 + 24 x_7 + 21 x_8 + 7 x_9 + 4 x_10 + 46 x_11 + 34 x_12 = 1708
	c_3: + 15 x_1 + 2 x_2 + 18 x_3 + 5 x_4 + 2 x_5 + 49 x_6 + 9 x_7 + 9 x_8 + 10 x_9 + 36 x_10 + 5 x_11 + 44 x_12 = 1294
	c_4: + 2 x_1 + 23 x_2 + 1 x_3 + 32 x_4 + 35 x_5 + 48 x_6 + 47 x_7 + 7 x_8 + 36 x_9 + 30 x_10 + 14 x_11 + 22 x_12 = 1762
	c_5: + 23 x_1 + 49 x_2 + 7 x_3 + 16 x_4 + 11 x_5 + 24 x_6 + 30 x_7 + 8 x_8 + 31 x_9 + 43 x_10 + 37 x_11 + 5 x_12 = 1938
	c_6: + 28 x_1 + 3 x_2 + 34 x_3 + 36 x_4 + 35 x_5 + 36 x_6 + 47 x_7 + 27 x_8 + 2 x_9 + 37 x_10 + 12 x_11 + 18 x_12 = 1964
	c_7: + 44 x_1 + 33 x_2 + 26 x_3 + 37 x_4 + 34 x_5 + 14 x_6 + 9 x_7 + 24 x_8 + 36 x_9 + 23 x_10 + 21 x_11 + 43 x_12 = 2282
	c_8: + 1 x_1 + 40 x_2 + 43 x_3 + 33 x_4 + 45 x_5 + 17 x_6 + 33 x_7 + 28 x_8 + 4 x_9 + 29 x_10 + 16 x_11 + 30 x_12 = 1965
Bounds
  0 <= x_1 <= 10
  0 <= x_2 <= 10
  0 <= x_3 <= 10
  0 <= x_4 <= 10
  0 <= x_5 <= 10
  0 <= x_6 <= 10
  0 <= x_7 <= 10
  0 <= x_8 <= 10
  0 <= x_9 <= 10
  0 <= x_10 <= 10
  0 <= x_11 <= 10
  0 <= x_12 <= 10
End
