Subject To
	c_1: + 27 x_1 + 42 x_2 + 40 x_3 + 14 x_4 + 11 x_5 + 12 x_6 + 28 x_7 + 31 x_8 + 25 x_9 + 39 x_10 + 30 x_11 + 6 x_12 = 1884
	c_2: + 30 x_1 + 46 x_2 + 41 x_3 + 36 x_4 + 23 x_5 + 1 x_6 + 19 x_7 + 11 x_8 + 40 x_9 + 20 x_10 + 46 x_11 + 19 x_12 = 1847
	c_3: + 44 x_1 + 44 x_2 + 40 x_3 + 37 x_4 + 19 x_5 + 37 x_6 + 19 x_7 + 36 x_8 + 21 x_9 + 24 x_10 + 46 x_11 + 1 x_12 = 2026
	c_4: + 11 x_1 + 27 x_2 + 37 x_3 + 33 x_4 + 39 x_5 + 13 x_6 + 19 x_7 + 28 x_8 + 18 x_9 + 1 x_10 + 26 x_11 + 48 x_12 = 1348
	c_5: + 2 x_1 + 28 x_2 + 17 x_3 + 34 x_4 + 36 x_5 + 23 x_6 + 28 x_7 + 42 x_8 + 48 x_9 + 23 x_10 + 37 x_11 + 44 x_12 = 1694
	c_6: + 31 x_1 + 41 x_2 + 41 x_3 + 19 x_4 + 44 x_5 + 17 x_6 + 37 x_7 + 3 x_8 + 40 x_9 + 41 x_10 + 4 x_11 + 22 x_12 = 1826
	c_7: + 14 x_1 + 31 x_2 + 29 x_3 + 18 x_4 + 4 x_5 + 43 x_6 + 44 x_7 + 27 x_8 + 17 x_9 + 50 x_10 + 2 x_11 + 43 x_12 = 1677
	c_8: + 2 x_1 + 9 x_2 + 5 x_3 + 40 x_4 + 40 x_5 + 28 x_6 + 47 x_7 + 9 x_8 + 21 x_9 + 49 x_10 + 31 x_11 + 48 x_12 = 1414
Bounds
  0 <= x_1 <= 10
  0 <= x_2 <= 10
  0 <= x_3 <= 10
  0 <= x_4 <= 10
  0 <= x_5 <= 10
  0 <= x_6 <= 10
  0 <= x_7 <= 10
  0 <= x_8 <= 10
  0 <= x_9 <= 10
  0 <= x_10 <= 10
  0 <= x_11 <= 10
  0 <= x_12 <= 10
End
