Subject To
	c_1: + 12 x_1 + 37 x_2 + 16 x_3 + 24 x_4 + 42 x_5 + 25 x_6 + 13 x_7 + 28 x_8 + 2 x_9 + 28 x_10 + 27 x_11 + 11 x_12 = 1473
	c_2: + 3 x_1 + 38 x_2 + 7 x_3 + 6 x_4 + 45 x_5 + 47 x_6 + 29 x_7 + 25 x_8 + 44 x_9 + 16 x_10 + 37 x_11 + 3 x_12 = 1458
	c_3: + 23 x_1 + 30 x_2 + 12 x_3 + 14 x_4 + 1 x_5 + 22 x_6 + 47 x_7 + 38 x_8 + 29 x_9 + 32 x_10 + 13 x_11 + 39 x_12 = 1138
	c_4: + 19 x_1 + 26 x_2 + 45 x_3 + 28 x_4 + 46 x_5 + 7 x_6 + 11 x_7 + 40 x_8 + 27 x_9 + 20 x_10 + 38 x_11 + 31 x_12 = 1578
	c_5: + 21 x_1 + 10 x_2 + 20 x_3 + 43 x_4 + 23 x_5 + 15 x_6 + 44 x_7 + 22 x_8 + 20 x_9 + 6 x_10 + 23 x_11 + 19 x_12 = 1078
	c_6: + 30 x_1 + 2 x_2 + 8 x_3 + 20 x_4 + 1 x_5 + 33 x_6 + 16 x_7 + 25 x_8 + 42 x_9 + 14 x_10 + 10 x_11 + 2 x_12 = 692
	c_7: + 45 x_1 + 32 x_2 + 13 x_3 + 49 x_4 + 22 x_5 + 42 x_6 + 11 x_7 + 9 x_8 + 19 x_9 + 37 x_10 + 10 x_11 + 13 x_12 = 1380
	c_8: + 16 x_1 + 37 x_2 + 2 x_3 + 27 x_4 + 42 x_5 + 50 x_6 + 4 x_7 + 28 x_8 + 21 x_9 + 32 x_10 + 29 x_11 + 20 x_12 = 1613
Bounds
  0 <= x_1 <= 10
  0 <= x_2 <= 10
  0 <= x_3 <= 10
  0 <= x_4 <= 10
  0 <= x_5 <= 10
  0 <= x_6 <= 10
  0 <= x_7 <= 10
  0 <= x_8 <= 10
  0 <= x_9 <= 10
  0 <= x_10 <= 10
  0 <= x_11 <= 10
  0 <= x_12 <= 10
End
