Subject To
	c_1: + 16 x_1 + 44 x_2 + 14 x_3 + 24 x_4 + 44 x_5 + 46 x_6 + 44 x_7 + 1 x_8 + 23 x_9 + 18 x_10 + 19 x_11 + 43 x_12 = 2467
	c_2: + 11 x_1 + 50 x_2 + 47 x_3 + 38 x_4 + 46 x_5 + 13 x_6 + 19 x_7 + 26 x_8 + 9 x_9 + 32 x_10 + 14 x_11 + 21 x_12 = 1906
	c_3: + 18 x_1 + 4 x_2 + 2 x_3 + 37 x_4 + 46 x_5 + 29 x_6 + 44 x_7 + 20 x_8 + 38 x_9 + 44 x_10 + 3 x_11 + 31 x_12 = 1956
	c_4: + 8 x_1 + 19 x_2 + 32 x_3 + 23 x_4 + 13 x_5 + 5 x_6 + 26 x_7 + 49 x_8 + 14 x_9 + 45 x_10 + 22 x_11 + 10 x_12 = 1176
	c_5: + 37 x_1 + 28 x_2 + 2 x_3 + 39 x_4 + 3 x_5 + 9 x_6 + 49 x_7 + 7 x_8 + 43 x_9 + 20 x_10 + 24 x_11 + 15 x_12 = 1585
	c_6: + 5 x_1 + 2 x_2 + 12 x_3 + 42 x_4 + 7 x_5 + 28 x_6 + 5 x_7 + 6 x_8 + 49 x_9 + 28 x_10 + 33 x_11 + 13 x_12 = 1196
	c_7: + 20 x_1 + 22 x_2 + 47 x_3 + 45 x_4 + 48 x_5 + 47 x_6 + 44 x_7 + 42 x_8 + 49 x_9 + 20 x_10 + 8 x_11 + 2 x_12 = 2228
	c_8: + 38 x_1 + 18 x_2 + 40 x_3 + 30 x_4 + 2 x_5 + 25 x_6 + 47 x_7 + 11 x_8 + 18 x_9 + 20 x_10 + 47 x_11 + 21 x_12 = 1746
Bounds
  0 <= x_1 <= 10
  0 <= x_2 <= 10
  0 <= x_3 <= 10
  0 <= x_4 <= 10
  0 <= x_5 <= 10
  0 <= x_6 <= 10
  0 <= x_7 <= 10
  0 <= x_8 <= 10
  0 <= x_9 <= 10
  0 <= x_10 <= 10
  0 <= x_11 <= 10
  0 <= x_12 <= 10
End
