Subject To
	c_1: + 23 x_1 + 37 x_2 + 38 x_3 + 50 x_4 + 39 x_5 + 9 x_6 + 24 x_7 + 22 x_8 + 20 x_9 + 37 x_10 + 48 x_11 + 7 x_12 = 2547
	c_2: + 33 x_1 + 12 x_2 + 18 x_3 + 3 x_4 + 49 x_5 + 4 x_6 + 20 x_7 + 35 x_8 + 38 x_9 + 1 x_10 + 13 x_11 + 39 x_12 = 1366
	c_3: + 30 x_1 + 27 x_2 + 17 x_3 + 13 x_4 + 15 x_5 + 14 x_6 + 42 x_7 + 46 x_8 + 19 x_9 + 8 x_10 + 26 x_11 + 36 x_12 = 1558
	c_4: + 37 x_1 + 35 x_2 + 40 x_3 + 7 x_4 + 47 x_5 + 14 x_6 + 36 x_7 + 34 x_8 + 5 x_9 + 42 x_10 + 10 x_11 + 43 x_12 = 1981
	c_5: + 29 x_1 + 11 x_2 + 45 x_3 + 34 x_4 + 42 x_5 + 14 x_6 + 15 x_7 + 15 x_8 + 46 x_9 + 20 x_10 + 8 x_11 + 46 x_12 = 1839
	c_6: + 15 x_1 + 20 x_2 + 27 x_3 + 14 x_4 + 23 x_5 + 14 x_6 + 37 x_7 + 11 x_8 + 34 x_9 + 28 x_10 + 15 x_11 + 42 x_12 = 1527
	c_7: + 31 x_1 + 10 x_2 + 11 x_3 + 18 x_4 + 8 x_5 + 8 x_6 + 17 x_7 + 49 x_8 + 35 x_9 + 20 x_10 + 30 x_11 + 6 x_12 = 1411
	c_8: + 29 x_1 + 5 x_2 + 2 x_3 + 1 x_4 + 49 x_5 + 8 x_6 + 24 x_7 + 50 x_8 + 29 x_9 + 14 x_10 + 49 x_11 + 29 x_12 = 1635
Bounds
  0 <= x_1 <= 10
  0 <= x_2 <= 10
  0 <= x_3 <= 10
  0 <= x_4 <= 10
  0 <= x_5 <= 10
  0 <= x_6 <= 10
  0 <= x_7 <= 10
  0 <= x_8 <= 10
  0 <= x_9 <= 10
  0 <= x_10 <= 10
  0 <= x_11 <= 10
  0 <= x_12 <= 10
End
