Subject To
	c_1: + 16 x_1 + 19 x_2 + 50 x_3 + 33 x_4 + 18 x_5 + 14 x_6 + 21 x_7 + 9 x_8 + 38 x_9 + 11 x_10 + 43 x_11 + 48 x_12 = 2223
	c_2: + 25 x_1 + 23 x_2 + 13 x_3 + 1 x_4 + 14 x_5 + 2 x_6 + 11 x_7 + 49 x_8 + 16 x_9 + 21 x_10 + 24 x_11 + 33 x_12 = 1159
	c_3: + 50 x_1 + 30 x_2 + 39 x_3 + 45 x_4 + 1 x_5 + 36 x_6 + 6 x_7 + 46 x_8 + 28 x_9 + 50 x_10 + 37 x_11 + 4 x_12 = 1817
	c_4: + 46 x_1 + 24 x_2 + 36 x_3 + 17 x_4 + 16 x_5 + 44 x_6 + 35 x_7 + 17 x_8 + 3 x_9 + 45 x_10 + 16 x_11 + 48 x_12 = 1744
	c_5: + 12 x_1 + 42 x_2 + 7 x_3 + 35 x_4 + 42 x_5 + 43 x_6 + 33 x_7 + 43 x_8 + 41 x_9 + 17 x_10 + 40 x_11 + 39 x_12 = 2018
	c_6: + 25 x_1 + 27 x_2 + 9 x_3 + 50 x_4 + 45 x_5 + 18 x_6 + 14 x_7 + 15 x_8 + 42 x_9 + 38 x_10 + 15 x_11 + 43 x_12 = 1842
	c_7: + 19 x_1 + 10 x_2 + 11 x_3 + 35 x_4 + 37 x_5 + 45 x_6 + 3 x_7 + 49 x_8 + 16 x_9 + 48 x_10 + 29 x_11 + 47 x_12 = 1669
	c_8: + 4 x_1 + 37 x_2 + 5 x_3 + 49 x_4 + 10 x_5 + 2 x_6 + 2 x_7 + 48 x_8 + 12 x_9 + 23 x_10 + 20 x_11 + 2 x_12 = 985
Bounds
  0 <= x_1 <= 10
  0 <= x_2 <= 10
  0 <= x_3 <= 10
  0 <= x_4 <= 10
  0 <= x_5 <= 10
  0 <= x_6 <= 10
  0 <= x_7 <= 10
  0 <= x_8 <= 10
  0 <= x_9 <= 10
  0 <= x_10 <= 10
  0 <= x_11 <= 10
  0 <= x_12 <= 10
End
