Subject To
	c_1: + 38 x_1 + 4 x_2 + 44 x_3 + 48 x_4 + 50 x_5 + 16 x_6 + 50 x_7 + 43 x_8 + 2 x_9 + 27 x_10 + 45 x_11 + 46 x_12 = 3569
	c_2: + 33 x_1 + 47 x_2 + 23 x_3 + 28 x_4 + 40 x_5 + 22 x_6 + 42 x_7 + 41 x_8 + 22 x_9 + 22 x_10 + 49 x_11 + 3 x_12 = 2584
	c_3: + 36 x_1 + 23 x_2 + 25 x_3 + 49 x_4 + 29 x_5 + 39 x_6 + 9 x_7 + 24 x_8 + 31 x_9 + 27 x_10 + 26 x_11 + 37 x_12 = 2418
	c_4: + 12 x_1 + 41 x_2 + 48 x_3 + 25 x_4 + 43 x_5 + 12 x_6 + 2 x_7 + 3 x_8 + 46 x_9 + 39 x_10 + 20 x_11 + 19 x_12 = 1837
	c_5: + 27 x_1 + 18 x_2 + 37 x_3 + 39 x_4 + 21 x_5 + 2 x_6 + 49 x_7 + 36 x_8 + 4 x_9 + 19 x_10 + 42 x_11 + 1 x_12 = 2451
	c_6: + 29 x_1 + 28 x_2 + 28 x_3 + 8 x_4 + 35 x_5 + 16 x_6 + 40 x_7 + 15 x_8 + 4 x_9 + 24 x_10 + 20 x_11 + 46 x_12 = 2211
	c_7: + 14 x_1 + 9 x_2 + 17 x_3 + 49 x_4 + 44 x_5 + 10 x_6 + 28 x_7 + 31 x_8 + 44 x_9 + 2 x_10 + 41 x_11 + 29 x_12 = 2424
	c_8: + 31 x_1 + 22 x_2 + 40 x_3 + 48 x_4 + 47 x_5 + 1 x_6 + 24 x_7 + 5 x_8 + 17 x_9 + 28 x_10 + 2 x_11 + 27 x_12 = 2247
Bounds
  0 <= x_1 <= 10
  0 <= x_2 <= 10
  0 <= x_3 <= 10
  0 <= x_4 <= 10
  0 <= x_5 <= 10
  0 <= x_6 <= 10
  0 <= x_7 <= 10
  0 <= x_8 <= 10
  0 <= x_9 <= 10
  0 <= x_10 <= 10
  0 <= x_11 <= 10
  0 <= x_12 <= 10
End
