Subject To
	c_1: + 10 x_1 + 12 x_2 + 24 x_3 + 18 x_4 + 6 x_5 + 17 x_6 + 30 x_7 + 30 x_8 + 7 x_9 + 41 x_10 + 25 x_11 + 30 x_12 = 1275
	c_2: + 9 x_1 + 37 x_2 + 32 x_3 + 6 x_4 + 17 x_5 + 29 x_6 + 48 x_7 + 35 x_8 + 5 x_9 + 26 x_10 + 45 x_11 + 38 x_12 = 1538
	c_3: + 37 x_1 + 15 x_2 + 21 x_3 + 35 x_4 + 1 x_5 + 34 x_6 + 6 x_7 + 11 x_8 + 49 x_9 + 41 x_10 + 42 x_11 + 10 x_12 = 1166
	c_4: + 43 x_1 + 30 x_2 + 19 x_3 + 47 x_4 + 24 x_5 + 5 x_6 + 7 x_7 + 40 x_8 + 11 x_9 + 34 x_10 + 41 x_11 + 4 x_12 = 1215
	c_5: + 36 x_1 + 38 x_2 + 9 x_3 + 43 x_4 + 29 x_5 + 28 x_6 + 39 x_7 + 18 x_8 + 14 x_9 + 3 x_10 + 6 x_11 + 45 x_12 = 1115
	c_6: + 13 x_1 + 4 x_2 + 40 x_3 + 41 x_4 + 20 x_5 + 47 x_6 + 50 x_7 + 38 x_8 + 43 x_9 + 6 x_10 + 36 x_11 + 10 x_12 = 1377
	c_7: + 7 x_1 + 32 x_2 + 30 x_3 + 48 x_4 + 22 x_5 + 26 x_6 + 34 x_7 + 27 x_8 + 13 x_9 + 1 x_10 + 41 x_11 + 41 x_12 = 1310
	c_8: + 26 x_1 + 5 x_2 + 5 x_3 + 21 x_4 + 46 x_5 + 47 x_6 + 43 x_7 + 11 x_8 + 40 x_9 + 48 x_10 + 2 x_11 + 46 x_12 = 1371
Bounds
  0 <= x_1 <= 10
  0 <= x_2 <= 10
  0 <= x_3 <= 10
  0 <= x_4 <= 10
  0 <= x_5 <= 10
  0 <= x_6 <= 10
  0 <= x_7 <= 10
  0 <= x_8 <= 10
  0 <= x_9 <= 10
  0 <= x_10 <= 10
  0 <= x_11 <= 10
  0 <= x_12 <= 10
End
