Subject To
	c_1: + 21 x_1 + 25 x_2 + 26 x_3 + 16 x_4 + 22 x_5 + 33 x_6 + 46 x_7 + 32 x_8 + 11 x_9 + 17 x_10 + 35 x_11 + 22 x_12 = 1796
	c_2: + 43 x_1 + 50 x_2 + 36 x_3 + 28 x_4 + 31 x_5 + 9 x_6 + 31 x_7 + 8 x_8 + 24 x_9 + 40 x_10 + 13 x_11 + 47 x_12 = 1686
	c_3: + 16 x_1 + 23 x_2 + 46 x_3 + 46 x_4 + 50 x_5 + 9 x_6 + 14 x_7 + 45 x_8 + 10 x_9 + 16 x_10 + 25 x_11 + 8 x_12 = 1540
	c_4: + 5 x_1 + 19 x_2 + 12 x_3 + 26 x_4 + 22 x_5 + 3 x_6 + 33 x_7 + 33 x_8 + 43 x_9 + 35 x_10 + 21 x_11 + 35 x_12 = 1401
	c_5: + 15 x_1 + 26 x_2 + 35 x_3 + 15 x_4 + 6 x_5 + 44 x_6 + 47 x_7 + 39 x_8 + 23 x_9 + 17 x_10 + 41 x_11 + 48 x_12 = 2061
	c_6: + 6 x_1 + 25 x_2 + 29 x_3 + 8 x_4 + 37 x_5 + 23 x_6 + 31 x_7 + 4 x_8 + 44 x_9 + 35 x_10 + 26 x_11 + 24 x_12 = 1436
	c_7: + 3 x_1 + 19 x_2 + 46 x_3 + 26 x_4 + 3 x_5 + 21 x_6 + 44 x_7 + 19 x_8 + 12 x_9 + 19 x_10 + 17 x_11 + 6 x_12 = 1371
	c_8: + 22 x_1 + 26 x_2 + 48 x_3 + 32 x_4 + 9 x_5 + 1 x_6 + 43 x_7 + 30 x_8 + 46 x_9 + 44 x_10 + 39 x_11 + 6 x_12 = 1758
Bounds
  0 <= x_1 <= 10
  0 <= x_2 <= 10
  0 <= x_3 <= 10
  0 <= x_4 <= 10
  0 <= x_5 <= 10
  0 <= x_6 <= 10
  0 <= x_7 <= 10
  0 <= x_8 <= 10
  0 <= x_9 <= 10
  0 <= x_10 <= 10
  0 <= x_11 <= 10
  0 <= x_12 <= 10
End
