Subject To
	c_1: + 16 x_1 + 6 x_2 + 26 x_3 + 20 x_4 + 7 x_5 + 17 x_6 + 3 x_7 + 38 x_8 + 50 x_9 + 12 x_10 + 22 x_11 + 37 x_12 = 1497
	c_2: + 9 x_1 + 1 x_2 + 27 x_3 + 43 x_4 + 29 x_5 + 9 x_6 + 14 x_7 + 40 x_8 + 15 x_9 + 31 x_10 + 47 x_11 + 35 x_12 = 1356
	c_3: + 4 x_1 + 33 x_2 + 39 x_3 + 7 x_4 + 42 x_5 + 2 x_6 + 50 x_7 + 1 x_8 + 2 x_9 + 4 x_10 + 35 x_11 + 18 x_12 = 618
	c_4: + 27 x_1 + 47 x_2 + 30 x_3 + 48 x_4 + 42 x_5 + 8 x_6 + 29 x_7 + 41 x_8 + 41 x_9 + 39 x_10 + 11 x_11 + 40 x_12 = 1676
	c_5: + 20 x_1 + 30 x_2 + 26 x_3 + 49 x_4 + 8 x_5 + 9 x_6 + 13 x_7 + 42 x_8 + 34 x_9 + 9 x_10 + 33 x_11 + 22 x_12 = 1431
	c_6: + 28 x_1 + 20 x_2 + 33 x_3 + 42 x_4 + 43 x_5 + 27 x_6 + 8 x_7 + 37 x_8 + 43 x_9 + 6 x_10 + 50 x_11 + 4 x_12 = 1527
	c_7: + 3 x_1 + 43 x_2 + 36 x_3 + 3 x_4 + 37 x_5 + 26 x_6 + 28 x_7 + 33 x_8 + 50 x_9 + 35 x_10 + 16 x_11 + 45 x_12 = 1572
	c_8: + 9 x_1 + 5 x_2 + 22 x_3 + 7 x_4 + 8 x_5 + 33 x_6 + 32 x_7 + 31 x_8 + 46 x_9 + 7 x_10 + 14 x_11 + 42 x_12 = 1349
Bounds
  0 <= x_1 <= 10
  0 <= x_2 <= 10
  0 <= x_3 <= 10
  0 <= x_4 <= 10
  0 <= x_5 <= 10
  0 <= x_6 <= 10
  0 <= x_7 <= 10
  0 <= x_8 <= 10
  0 <= x_9 <= 10
  0 <= x_10 <= 10
  0 <= x_11 <= 10
  0 <= x_12 <= 10
End
