Subject To
	c_1: + 14 x_1 + 22 x_2 + 48 x_3 + 38 x_4 + 5 x_5 + 31 x_6 + 33 x_7 + 26 x_8 + 17 x_9 + 31 x_10 + 10 x_11 + 13 x_12 = 1730
	c_2: + 7 x_1 + 46 x_2 + 20 x_3 + 39 x_4 + 39 x_5 + 28 x_6 + 18 x_7 + 25 x_8 + 42 x_9 + 41 x_10 + 7 x_11 + 26 x_12 = 1567
	c_3: + 21 x_1 + 6 x_2 + 50 x_3 + 48 x_4 + 41 x_5 + 26 x_6 + 36 x_7 + 31 x_8 + 36 x_9 + 9 x_10 + 20 x_11 + 44 x_12 = 1803
	c_4: + 25 x_1 + 9 x_2 + 12 x_3 + 25 x_4 + 13 x_5 + 45 x_6 + 15 x_7 + 22 x_8 + 9 x_9 + 35 x_10 + 49 x_11 + 11 x_12 = 1248
	c_5: + 49 x_1 + 27 x_2 + 5 x_3 + 23 x_4 + 36 x_5 + 20 x_6 + 43 x_7 + 18 x_8 + 45 x_9 + 22 x_10 + 8 x_11 + 48 x_12 = 1330
	c_6: + 38 x_1 + 25 x_2 + 37 x_3 + 23 x_4 + 11 x_5 + 28 x_6 + 12 x_7 + 50 x_8 + 16 x_9 + 31 x_10 + 6 x_11 + 48 x_12 = 1574
	c_7: + 3 x_1 + 18 x_2 + 3 x_3 + 37 x_4 + 46 x_5 + 26 x_6 + 20 x_7 + 33 x_8 + 42 x_9 + 44 x_10 + 3 x_11 + 30 x_12 = 1321
	c_8: + 35 x_1 + 11 x_2 + 7 x_3 + 47 x_4 + 29 x_5 + 21 x_6 + 35 x_7 + 28 x_8 + 50 x_9 + 48 x_10 + 11 x_11 + 21 x_12 = 1573
Bounds
  0 <= x_1 <= 10
  0 <= x_2 <= 10
  0 <= x_3 <= 10
  0 <= x_4 <= 10
  0 <= x_5 <= 10
  0 <= x_6 <= 10
  0 <= x_7 <= 10
  0 <= x_8 <= 10
  0 <= x_9 <= 10
  0 <= x_10 <= 10
  0 <= x_11 <= 10
  0 <= x_12 <= 10
End
