Subject To
	c_1: + 9 x_1 + 38 x_2 + 24 x_3 + 10 x_4 + 37 x_5 + 11 x_6 + 28 x_7 + 44 x_8 + 20 x_9 + 41 x_10 + 35 x_11 + 47 x_12 = 2393
	c_2: + 18 x_1 + 46 x_2 + 44 x_3 + 33 x_4 + 27 x_5 + 9 x_6 + 31 x_7 + 17 x_8 + 44 x_9 + 41 x_10 + 10 x_11 + 36 x_12 = 2121
	c_3: + 38 x_1 + 31 x_2 + 14 x_3 + 28 x_4 + 14 x_5 + 13 x_6 + 30 x_7 + 5 x_8 + 4 x_9 + 30 x_10 + 7 x_11 + 49 x_12 = 1526
	c_4: + 46 x_1 + 36 x_2 + 48 x_3 + 47 x_4 + 32 x_5 + 40 x_6 + 16 x_7 + 15 x_8 + 30 x_9 + 49 x_10 + 27 x_11 + 49 x_12 = 2378
	c_5: + 26 x_1 + 24 x_2 + 10 x_3 + 26 x_4 + 36 x_5 + 50 x_6 + 4 x_7 + 24 x_8 + 16 x_9 + 32 x_10 + 21 x_11 + 5 x_12 = 1425
	c_6: + 42 x_1 + 16 x_2 + 16 x_3 + 40 x_4 + 30 x_5 + 49 x_6 + 44 x_7 + 32 x_8 + 22 x_9 + 27 x_10 + 24 x_11 + 46 x_12 = 2078
	c_7: + 9 x_1 + 4 x_2 + 7 x_3 + 44 x_4 + 49 x_5 + 10 x_6 + 36 x_7 + 2 x_8 + 13 x_9 + 6 x_10 + 35 x_11 + 24 x_12 = 1310
	c_8: + 40 x_1 + 6 x_2 + 49 x_3 + 33 x_4 + 32 x_5 + 7 x_6 + 5 x_7 + 30 x_8 + 24 x_9 + 46 x_10 + 10 x_11 + 39 x_12 = 1856
Bounds
  0 <= x_1 <= 10
  0 <= x_2 <= 10
  0 <= x_3 <= 10
  0 <= x_4 <= 10
  0 <= x_5 <= 10
  0 <= x_6 <= 10
  0 <= x_7 <= 10
  0 <= x_8 <= 10
  0 <= x_9 <= 10
  0 <= x_10 <= 10
  0 <= x_11 <= 10
  0 <= x_12 <= 10
End
