Subject To
	c_1: + 15 x_1 + 33 x_2 + 23 x_3 + 48 x_4 + 2 x_5 + 26 x_6 + 21 x_7 + 6 x_8 + 47 x_9 + 36 x_10 + 8 x_11 + 36 x_12 = 2050
	c_2: + 43 x_1 + 45 x_2 + 6 x_3 + 46 x_4 + 42 x_5 + 13 x_6 + 20 x_7 + 37 x_8 + 12 x_9 + 37 x_10 + 14 x_11 + 36 x_12 = 1755
	c_3: + 50 x_1 + 26 x_2 + 36 x_3 + 9 x_4 + 36 x_5 + 20 x_6 + 24 x_7 + 8 x_8 + 30 x_9 + 26 x_10 + 42 x_11 + 32 x_12 = 1518
	c_4: + 31 x_1 + 21 x_2 + 29 x_3 + 16 x_4 + 31 x_5 + 11 x_6 + 3 x_7 + 37 x_8 + 35 x_9 + 14 x_10 + 11 x_11 + 7 x_12 = 1128
	c_5: + 5 x_1 + 35 x_2 + 14 x_3 + 21 x_4 + 46 x_5 + 45 x_6 + 17 x_7 + 41 x_8 + 38 x_9 + 37 x_10 + 16 x_11 + 23 x_12 = 1676
	c_6: + 45 x_1 + 42 x_2 + 17 x_3 + 5 x_4 + 43 x_5 + 7 x_6 + 16 x_7 + 26 x_8 + 37 x_9 + 10 x_10 + 35 x_11 + 22 x_12 = 1301
	c_7: + 22 x_1 + 15 x_2 + 33 x_3 + 22 x_4 + 46 x_5 + 42 x_6 + 20 x_7 + 46 x_8 + 39 x_9 + 49 x_10 + 22 x_11 + 42 x_12 = 1908
	c_8: + 34 x_1 + 31 x_2 + 23 x_3 + 31 x_4 + 32 x_5 + 29 x_6 + 33 x_7 + 42 x_8 + 39 x_9 + 42 x_10 + 33 x_11 + 7 x_12 = 1806
Bounds
  0 <= x_1 <= 10
  0 <= x_2 <= 10
  0 <= x_3 <= 10
  0 <= x_4 <= 10
  0 <= x_5 <= 10
  0 <= x_6 <= 10
  0 <= x_7 <= 10
  0 <= x_8 <= 10
  0 <= x_9 <= 10
  0 <= x_10 <= 10
  0 <= x_11 <= 10
  0 <= x_12 <= 10
End
