Subject To
	c_1: + 27 x_1 + 27 x_2 + 4 x_3 + 38 x_4 + 8 x_5 + 28 x_6 + 19 x_7 + 13 x_8 + 22 x_9 + 33 x_10 + 27 x_11 + 34 x_12 = 1525
	c_2: + 46 x_1 + 25 x_2 + 12 x_3 + 2 x_4 + 5 x_5 + 1 x_6 + 2 x_7 + 21 x_8 + 34 x_9 + 48 x_10 + 8 x_11 + 27 x_12 = 1131
	c_3: + 44 x_1 + 49 x_2 + 31 x_3 + 9 x_4 + 5 x_5 + 5 x_6 + 42 x_7 + 13 x_8 + 46 x_9 + 2 x_10 + 18 x_11 + 47 x_12 = 1341
	c_4: + 49 x_1 + 25 x_2 + 23 x_3 + 18 x_4 + 17 x_5 + 27 x_6 + 29 x_7 + 1 x_8 + 2 x_9 + 39 x_10 + 46 x_11 + 45 x_12 = 1608
	c_5: + 27 x_1 + 5 x_2 + 7 x_3 + 32 x_4 + 43 x_5 + 43 x_6 + 49 x_7 + 2 x_8 + 27 x_9 + 42 x_10 + 19 x_11 + 32 x_12 = 1589
	c_6: + 30 x_1 + 15 x_2 + 45 x_3 + 45 x_4 + 16 x_5 + 14 x_6 + 6 x_7 + 31 x_8 + 7 x_9 + 41 x_10 + 27 x_11 + 37 x_12 = 1474
	c_7: + 25 x_1 + 44 x_2 + 45 x_3 + 36 x_4 + 18 x_5 + 49 x_6 + 47 x_7 + 3 x_8 + 42 x_9 + 36 x_10 + 21 x_11 + 12 x_12 = 1701
	c_8: + 41 x_1 + 26 x_2 + 19 x_3 + 34 x_4 + 27 x_5 + 40 x_6 + 39 x_7 + 46 x_8 + 5 x_9 + 48 x_10 + 4 x_11 + 35 x_12 = 1704
Bounds
  0 <= x_1 <= 10
  0 <= x_2 <= 10
  0 <= x_3 <= 10
  0 <= x_4 <= 10
  0 <= x_5 <= 10
  0 <= x_6 <= 10
  0 <= x_7 <= 10
  0 <= x_8 <= 10
  0 <= x_9 <= 10
  0 <= x_10 <= 10
  0 <= x_11 <= 10
  0 <= x_12 <= 10
End
