Subject To
	c_1: + 50 x_1 + 7 x_2 + 21 x_3 + 33 x_4 + 40 x_5 + 20 x_6 + 34 x_7 + 14 x_8 + 22 x_9 + 48 x_10 + 27 x_11 + 16 x_12 = 2239
	c_2: + 46 x_1 + 46 x_2 + 10 x_3 + 44 x_4 + 31 x_5 + 40 x_6 + 40 x_7 + 31 x_8 + 26 x_9 + 30 x_10 + 25 x_11 + 21 x_12 = 2196
	c_3: + 23 x_1 + 13 x_2 + 31 x_3 + 17 x_4 + 14 x_5 + 34 x_6 + 29 x_7 + 16 x_8 + 19 x_9 + 38 x_10 + 8 x_11 + 43 x_12 = 1594
	c_4: + 2 x_1 + 17 x_2 + 19 x_3 + 34 x_4 + 26 x_5 + 12 x_6 + 20 x_7 + 3 x_8 + 23 x_9 + 35 x_10 + 46 x_11 + 5 x_12 = 1440
	c_5: + 5 x_1 + 47 x_2 + 45 x_3 + 27 x_4 + 7 x_5 + 39 x_6 + 50 x_7 + 29 x_8 + 38 x_9 + 27 x_10 + 12 x_11 + 18 x_12 = 1622
	c_6: + 6 x_1 + 11 x_2 + 37 x_3 + 24 x_4 + 9 x_5 + 12 x_6 + 45 x_7 + 38 x_8 + 10 x_9 + 41 x_10 + 42 x_11 + 5 x_12 = 1573
	c_7: + 33 x_1 + 6 x_2 + 9 x_3 + 22 x_4 + 14 x_5 + 31 x_6 + 30 x_7 + 5 x_8 + 45 x_9 + 15 x_10 + 9 x_11 + 46 x_12 = 1495
	c_8: + 38 x_1 + 27 x_2 + 27 x_3 + 39 x_4 + 43 x_5 + 33 x_6 + 18 x_7 + 47 x_8 + 11 x_9 + 7 x_10 + 22 x_11 + 1 x_12 = 1711
Bounds
  0 <= x_1 <= 10
  0 <= x_2 <= 10
  0 <= x_3 <= 10
  0 <= x_4 <= 10
  0 <= x_5 <= 10
  0 <= x_6 <= 10
  0 <= x_7 <= 10
  0 <= x_8 <= 10
  0 <= x_9 <= 10
  0 <= x_10 <= 10
  0 <= x_11 <= 10
  0 <= x_12 <= 10
End
