Subject To
	c_1: + 20 x_1 + 45 x_2 + 37 x_3 + 32 x_4 + 23 x_5 + 26 x_6 + 8 x_7 + 48 x_8 + 9 x_9 + 1 x_10 + 11 x_11 + 41 x_12 = 2005
	c_2: + 24 x_1 + 13 x_2 + 13 x_3 + 3 x_4 + 13 x_5 + 49 x_6 + 3 x_7 + 34 x_8 + 3 x_9 + 34 x_10 + 15 x_11 + 8 x_12 = 1059
	c_3: + 13 x_1 + 46 x_2 + 47 x_3 + 45 x_4 + 29 x_5 + 16 x_6 + 33 x_7 + 4 x_8 + 11 x_9 + 10 x_10 + 21 x_11 + 17 x_12 = 1523
	c_4: + 43 x_1 + 15 x_2 + 40 x_3 + 39 x_4 + 21 x_5 + 29 x_6 + 46 x_7 + 31 x_8 + 38 x_9 + 12 x_10 + 34 x_11 + 4 x_12 = 1544
	c_5: + 4 x_1 + 31 x_2 + 3 x_3 + 45 x_4 + 7 x_5 + 13 x_6 + 47 x_7 + 30 x_8 + 33 x_9 + 8 x_10 + 19 x_11 + 29 x_12 = 1329
	c_6: + 43 x_1 + 30 x_2 + 6 x_3 + 1 x_4 + 26 x_5 + 41 x_6 + 22 x_7 + 44 x_8 + 47 x_9 + 33 x_10 + 42 x_11 + 6 x_12 = 1440
	c_7: + 37 x_1 + 32 x_2 + 24 x_3 + 44 x_4 + 18 x_5 + 30 x_6 + 9 x_7 + 43 x_8 + 1 x_9 + 46 x_10 + 14 x_11 + 6 x_12 = 1606
	c_8: + 46 x_1 + 1 x_2 + 26 x_3 + 12 x_4 + 45 x_5 + 8 x_6 + 47 x_7 + 27 x_8 + 8 x_9 + 8 x_10 + 32 x_11 + 12 x_12 = 1152
Bounds
  0 <= x_1 <= 10
  0 <= x_2 <= 10
  0 <= x_3 <= 10
  0 <= x_4 <= 10
  0 <= x_5 <= 10
  0 <= x_6 <= 10
  0 <= x_7 <= 10
  0 <= x_8 <= 10
  0 <= x_9 <= 10
  0 <= x_10 <= 10
  0 <= x_11 <= 10
  0 <= x_12 <= 10
End
