Subject To
	c_1: + 38 x_1 + 41 x_2 + 37 x_3 + 43 x_4 + 27 x_5 + 32 x_6 + 34 x_7 + 50 x_8 + 6 x_9 + 24 x_10 + 6 x_11 + 25 x_12 = 2600
	c_2: + 7 x_1 + 6 x_2 + 41 x_3 + 37 x_4 + 35 x_5 + 17 x_6 + 2 x_7 + 5 x_8 + 49 x_9 + 27 x_10 + 29 x_11 + 41 x_12 = 1483
	c_3: + 26 x_1 + 12 x_2 + 24 x_3 + 2 x_4 + 2 x_5 + 7 x_6 + 14 x_7 + 33 x_8 + 50 x_9 + 32 x_10 + 36 x_11 + 39 x_12 = 1411
	c_4: + 22 x_1 + 9 x_2 + 32 x_3 + 42 x_4 + 48 x_5 + 14 x_6 + 11 x_7 + 5 x_8 + 17 x_9 + 20 x_10 + 34 x_11 + 16 x_12 = 1532
	c_5: + 41 x_1 + 30 x_2 + 42 x_3 + 46 x_4 + 27 x_5 + 43 x_6 + 15 x_7 + 7 x_8 + 42 x_9 + 47 x_10 + 37 x_11 + 35 x_12 = 2333
	c_6: + 1 x_1 + 14 x_2 + 27 x_3 + 46 x_4 + 45 x_5 + 34 x_6 + 10 x_7 + 12 x_8 + 37 x_9 + 10 x_10 + 18 x_11 + 33 x_12 = 1612
	c_7: + 49 x_1 + 49 x_2 + 33 x_3 + 20 x_4 + 32 x_5 + 40 x_6 + 12 x_7 + 30 x_8 + 41 x_9 + 19 x_10 + 34 x_11 + 30 x_12 = 2299
	c_8: + 18 x_1 + 11 x_2 + 1 x_3 + 12 x_4 + 48 x_5 + 41 x_6 + 1 x_7 + 2 x_8 + 5 x_9 + 32 x_10 + 8 x_11 + 49 x_12 = 1278
Bounds
  0 <= x_1 <= 10
  0 <= x_2 <= 10
  0 <= x_3 <= 10
  0 <= x_4 <= 10
  0 <= x_5 <= 10
  0 <= x_6 <= 10
  0 <= x_7 <= 10
  0 <= x_8 <= 10
  0 <= x_9 <= 10
  0 <= x_10 <= 10
  0 <= x_11 <= 10
  0 <= x_12 <= 10
End
