Subject To
	c_1: + 1 x_1 + 49 x_2 + 28 x_3 + 13 x_4 + 22 x_5 + 18 x_6 + 3 x_7 + 50 x_8 + 10 x_9 + 18 x_10 + 22 x_11 + 2 x_12 = 1488
	c_2: + 41 x_1 + 25 x_2 + 49 x_3 + 23 x_4 + 45 x_5 + 38 x_6 + 28 x_7 + 32 x_8 + 25 x_9 + 26 x_10 + 50 x_11 + 20 x_12 = 1532
	c_3: + 25 x_1 + 32 x_2 + 10 x_3 + 30 x_4 + 25 x_5 + 13 x_6 + 9 x_7 + 10 x_8 + 4 x_9 + 24 x_10 + 31 x_11 + 26 x_12 = 883
	c_4: + 22 x_1 + 27 x_2 + 44 x_3 + 17 x_4 + 39 x_5 + 36 x_6 + 28 x_7 + 27 x_8 + 11 x_9 + 48 x_10 + 35 x_11 + 16 x_12 = 1408
	c_5: + 28 x_1 + 16 x_2 + 28 x_3 + 4 x_4 + 34 x_5 + 49 x_6 + 14 x_7 + 12 x_8 + 2 x_9 + 11 x_10 + 41 x_11 + 40 x_12 = 940
	c_6: + 38 x_1 + 25 x_2 + 30 x_3 + 15 x_4 + 33 x_5 + 38 x_6 + 49 x_7 + 17 x_8 + 2 x_9 + 21 x_10 + 29 x_11 + 6 x_12 = 1059
	c_7: + 21 x_1 + 21 x_2 + 42 x_3 + 15 x_4 + 48 x_5 + 5 x_6 + 1 x_7 + 47 x_8 + 23 x_9 + 23 x_10 + 48 x_11 + 45 x_12 = 1476
	c_8: + 18 x_1 + 41 x_2 + 48 x_3 + 34 x_4 + 28 x_5 + 34 x_6 + 32 x_7 + 30 x_8 + 46 x_9 + 36 x_10 + 24 x_11 + 39 x_12 = 1576
Bounds
  0 <= x_1 <= 10
  0 <= x_2 <= 10
  0 <= x_3 <= 10
  0 <= x_4 <= 10
  0 <= x_5 <= 10
  0 <= x_6 <= 10
  0 <= x_7 <= 10
  0 <= x_8 <= 10
  0 <= x_9 <= 10
  0 <= x_10 <= 10
  0 <= x_11 <= 10
  0 <= x_12 <= 10
End
