Subject To
	c_1: + 11 x_1 + 13 x_2 + 1 x_3 + 1 x_4 + 31 x_5 + 15 x_6 + 14 x_7 + 22 x_8 + 11 x_9 + 23 x_10 + 11 x_11 + 9 x_12 = 540
	c_2: + 33 x_1 + 43 x_2 + 20 x_3 + 13 x_4 + 19 x_5 + 20 x_6 + 4 x_7 + 2 x_8 + 25 x_9 + 24 x_10 + 20 x_11 + 17 x_12 = 545
	c_3: + 2 x_1 + 11 x_2 + 26 x_3 + 43 x_4 + 42 x_5 + 49 x_6 + 1 x_7 + 3 x_8 + 47 x_9 + 10 x_10 + 15 x_11 + 9 x_12 = 612
	c_4: + 27 x_1 + 13 x_2 + 25 x_3 + 38 x_4 + 28 x_5 + 31 x_6 + 2 x_7 + 8 x_8 + 29 x_9 + 39 x_10 + 42 x_11 + 18 x_12 = 693
	c_5: + 26 x_1 + 47 x_2 + 18 x_3 + 45 x_4 + 36 x_5 + 27 x_6 + 20 x_7 + 15 x_8 + 50 x_9 + 14 x_10 + 44 x_11 + 29 x_12 = 816
	c_6: + 39 x_1 + 46 x_2 + 31 x_3 + 27 x_4 + 43 x_5 + 28 x_6 + 47 x_7 + 44 x_8 + 37 x_9 + 45 x_10 + 37 x_11 + 21 x_12 = 1131
	c_7: + 49 x_1 + 13 x_2 + 22 x_3 + 47 x_4 + 5 x_5 + 6 x_6 + 28 x_7 + 34 x_8 + 35 x_9 + 43 x_10 + 36 x_11 + 19 x_12 = 697
	c_8: + 4 x_1 + 1 x_2 + 15 x_3 + 46 x_4 + 46 x_5 + 48 x_6 + 1 x_7 + 50 x_8 + 47 x_9 + 19 x_10 + 2 x_11 + 30 x_12 = 836
Bounds
  0 <= x_1 <= 10
  0 <= x_2 <= 10
  0 <= x_3 <= 10
  0 <= x_4 <= 10
  0 <= x_5 <= 10
  0 <= x_6 <= 10
  0 <= x_7 <= 10
  0 <= x_8 <= 10
  0 <= x_9 <= 10
  0 <= x_10 <= 10
  0 <= x_11 <= 10
  0 <= x_12 <= 10
End
