Subject To
	c_1: + 45 x_1 + 31 x_2 + 7 x_3 + 42 x_4 + 21 x_5 + 30 x_6 + 50 x_7 + 26 x_8 + 35 x_9 + 9 x_10 + 41 x_11 + 26 x_12 = 2582
	c_2: + 50 x_1 + 42 x_2 + 47 x_3 + 38 x_4 + 41 x_5 + 9 x_6 + 42 x_7 + 4 x_8 + 3 x_9 + 42 x_10 + 21 x_11 + 28 x_12 = 2120
	c_3: + 22 x_1 + 23 x_2 + 23 x_3 + 18 x_4 + 13 x_5 + 20 x_6 + 26 x_7 + 48 x_8 + 40 x_9 + 41 x_10 + 49 x_11 + 23 x_12 = 2021
	c_4: + 31 x_1 + 3 x_2 + 46 x_3 + 38 x_4 + 14 x_5 + 4 x_6 + 23 x_7 + 41 x_8 + 30 x_9 + 1 x_10 + 16 x_11 + 28 x_12 = 1679
	c_5: + 6 x_1 + 50 x_2 + 46 x_3 + 28 x_4 + 4 x_5 + 44 x_6 + 6 x_7 + 39 x_8 + 23 x_9 + 43 x_10 + 1 x_11 + 44 x_12 = 1619
	c_6: + 14 x_1 + 6 x_2 + 26 x_3 + 49 x_4 + 13 x_5 + 46 x_6 + 9 x_7 + 17 x_8 + 36 x_9 + 30 x_10 + 11 x_11 + 19 x_12 = 1597
	c_7: + 33 x_1 + 9 x_2 + 34 x_3 + 3 x_4 + 7 x_5 + 8 x_6 + 14 x_7 + 44 x_8 + 29 x_9 + 30 x_10 + 21 x_11 + 43 x_12 = 1464
	c_8: + 26 x_1 + 24 x_2 + 28 x_3 + 39 x_4 + 36 x_5 + 5 x_6 + 30 x_7 + 44 x_8 + 44 x_9 + 48 x_10 + 1 x_11 + 44 x_12 = 2035
Bounds
  0 <= x_1 <= 10
  0 <= x_2 <= 10
  0 <= x_3 <= 10
  0 <= x_4 <= 10
  0 <= x_5 <= 10
  0 <= x_6 <= 10
  0 <= x_7 <= 10
  0 <= x_8 <= 10
  0 <= x_9 <= 10
  0 <= x_10 <= 10
  0 <= x_11 <= 10
  0 <= x_12 <= 10
End
