Subject To
	c_1: + 14 x_1 + 13 x_2 + 27 x_3 + 43 x_4 + 42 x_5 + 41 x_6 + 25 x_7 + 1 x_8 + 7 x_9 + 45 x_10 + 48 x_11 + 11 x_12 = 2321
	c_2: + 6 x_1 + 20 x_2 + 36 x_3 + 30 x_4 + 34 x_5 + 26 x_6 + 12 x_7 + 28 x_8 + 45 x_9 + 24 x_10 + 32 x_11 + 14 x_12 = 1685
	c_3: + 44 x_1 + 42 x_2 + 36 x_3 + 38 x_4 + 10 x_5 + 8 x_6 + 49 x_7 + 27 x_8 + 18 x_9 + 36 x_10 + 9 x_11 + 19 x_12 = 1563
	c_4: + 49 x_1 + 9 x_2 + 39 x_3 + 7 x_4 + 4 x_5 + 6 x_6 + 48 x_7 + 36 x_8 + 11 x_9 + 34 x_10 + 39 x_11 + 23 x_12 = 1451
	c_5: + 4 x_1 + 47 x_2 + 39 x_3 + 15 x_4 + 37 x_5 + 13 x_6 + 40 x_7 + 25 x_8 + 16 x_9 + 25 x_10 + 27 x_11 + 46 x_12 = 1672
	c_6: + 19 x_1 + 40 x_2 + 24 x_3 + 14 x_4 + 21 x_5 + 28 x_6 + 35 x_7 + 5 x_8 + 44 x_9 + 14 x_10 + 7 x_11 + 25 x_12 = 1242
	c_7: + 21 x_1 + 15 x_2 + 18 x_3 + 13 x_4 + 23 x_5 + 17 x_6 + 35 x_7 + 35 x_8 + 16 x_9 + 28 x_10 + 19 x_11 + 11 x_12 = 1277
	c_8: + 13 x_1 + 26 x_2 + 21 x_3 + 44 x_4 + 40 x_5 + 35 x_6 + 43 x_7 + 29 x_8 + 8 x_9 + 41 x_10 + 40 x_11 + 17 x_12 = 2245
Bounds
  0 <= x_1 <= 10
  0 <= x_2 <= 10
  0 <= x_3 <= 10
  0 <= x_4 <= 10
  0 <= x_5 <= 10
  0 <= x_6 <= 10
  0 <= x_7 <= 10
  0 <= x_8 <= 10
  0 <= x_9 <= 10
  0 <= x_10 <= 10
  0 <= x_11 <= 10
  0 <= x_12 <= 10
End
