Subject To
	c_1: + 45 x_1 + 47 x_2 + 38 x_3 + 6 x_4 + 33 x_5 + 1 x_6 + 2 x_7 + 49 x_8 + 16 x_9 + 33 x_10 + 19 x_11 + 7 x_12 = 2268
	c_2: + 18 x_1 + 18 x_2 + 20 x_3 + 44 x_4 + 35 x_5 + 5 x_6 + 20 x_7 + 31 x_8 + 24 x_9 + 40 x_10 + 29 x_11 + 1 x_12 = 1570
	c_3: + 4 x_1 + 5 x_2 + 41 x_3 + 20 x_4 + 41 x_5 + 46 x_6 + 22 x_7 + 30 x_8 + 8 x_9 + 1 x_10 + 50 x_11 + 46 x_12 = 1298
	c_4: + 3 x_1 + 21 x_2 + 22 x_3 + 46 x_4 + 45 x_5 + 2 x_6 + 13 x_7 + 1 x_8 + 25 x_9 + 2 x_10 + 7 x_11 + 33 x_12 = 934
	c_5: + 19 x_1 + 42 x_2 + 3 x_3 + 26 x_4 + 35 x_5 + 37 x_6 + 1 x_7 + 18 x_8 + 25 x_9 + 2 x_10 + 25 x_11 + 6 x_12 = 1261
	c_6: + 35 x_1 + 24 x_2 + 33 x_3 + 30 x_4 + 41 x_5 + 26 x_6 + 48 x_7 + 27 x_8 + 23 x_9 + 30 x_10 + 25 x_11 + 28 x_12 = 1813
	c_7: + 36 x_1 + 25 x_2 + 8 x_3 + 9 x_4 + 23 x_5 + 9 x_6 + 4 x_7 + 41 x_8 + 31 x_9 + 18 x_10 + 27 x_11 + 19 x_12 = 1564
	c_8: + 22 x_1 + 22 x_2 + 30 x_3 + 42 x_4 + 18 x_5 + 49 x_6 + 11 x_7 + 31 x_8 + 12 x_9 + 50 x_10 + 19 x_11 + 10 x_12 = 1608
Bounds
  0 <= x_1 <= 10
  0 <= x_2 <= 10
  0 <= x_3 <= 10
  0 <= x_4 <= 10
  0 <= x_5 <= 10
  0 <= x_6 <= 10
  0 <= x_7 <= 10
  0 <= x_8 <= 10
  0 <= x_9 <= 10
  0 <= x_10 <= 10
  0 <= x_11 <= 10
  0 <= x_12 <= 10
End
