Subject To
	c_1: + 26 x_1 + 44 x_2 + 16 x_3 + 3 x_4 + 17 x_5 + 38 x_6 + 40 x_7 + 36 x_8 + 29 x_9 + 9 x_10 + 5 x_11 + 24 x_12 = 1804
	c_2: + 42 x_1 + 3 x_2 + 24 x_3 + 2 x_4 + 1 x_5 + 23 x_6 + 33 x_7 + 28 x_8 + 7 x_9 + 48 x_10 + 36 x_11 + 3 x_12 = 1061
	c_3: + 39 x_1 + 12 x_2 + 40 x_3 + 32 x_4 + 24 x_5 + 25 x_6 + 29 x_7 + 13 x_8 + 47 x_9 + 7 x_10 + 10 x_11 + 25 x_12 = 1432
	c_4: + 28 x_1 + 48 x_2 + 49 x_3 + 20 x_4 + 1 x_5 + 11 x_6 + 40 x_7 + 18 x_8 + 27 x_9 + 24 x_10 + 22 x_11 + 19 x_12 = 1537
	c_5: + 9 x_1 + 42 x_2 + 45 x_3 + 40 x_4 + 25 x_5 + 5 x_6 + 9 x_7 + 50 x_8 + 10 x_9 + 37 x_10 + 7 x_11 + 35 x_12 = 1367
	c_6: + 30 x_1 + 22 x_2 + 34 x_3 + 16 x_4 + 35 x_5 + 30 x_6 + 18 x_7 + 25 x_8 + 32 x_9 + 39 x_10 + 6 x_11 + 9 x_12 = 1390
	c_7: + 7 x_1 + 16 x_2 + 42 x_3 + 4 x_4 + 29 x_5 + 4 x_6 + 4 x_7 + 5 x_8 + 24 x_9 + 50 x_10 + 3 x_11 + 35 x_12 = 860
	c_8: + 24 x_1 + 17 x_2 + 3 x_3 + 35 x_4 + 10 x_5 + 42 x_6 + 49 x_7 + 18 x_8 + 8 x_9 + 36 x_10 + 22 x_11 + 23 x_12 = 1365
Bounds
  0 <= x_1 <= 10
  0 <= x_2 <= 10
  0 <= x_3 <= 10
  0 <= x_4 <= 10
  0 <= x_5 <= 10
  0 <= x_6 <= 10
  0 <= x_7 <= 10
  0 <= x_8 <= 10
  0 <= x_9 <= 10
  0 <= x_10 <= 10
  0 <= x_11 <= 10
  0 <= x_12 <= 10
End
