Subject To
	c_1: + 36 x_1 + 12 x_2 + 36 x_3 + 9 x_4 + 36 x_5 + 24 x_6 + 4 x_7 + 45 x_8 + 17 x_9 + 37 x_10 + 35 x_11 + 40 x_12 = 2226
	c_2: + 14 x_1 + 18 x_2 + 31 x_3 + 45 x_4 + 30 x_5 + 31 x_6 + 44 x_7 + 18 x_8 + 35 x_9 + 45 x_10 + 41 x_11 + 2 x_12 = 1691
	c_3: + 34 x_1 + 31 x_2 + 25 x_3 + 1 x_4 + 11 x_5 + 45 x_6 + 19 x_7 + 6 x_8 + 30 x_9 + 2 x_10 + 37 x_11 + 40 x_12 = 1517
	c_4: + 44 x_1 + 17 x_2 + 40 x_3 + 46 x_4 + 25 x_5 + 44 x_6 + 39 x_7 + 36 x_8 + 1 x_9 + 15 x_10 + 13 x_11 + 27 x_12 = 1817
	c_5: + 2 x_1 + 31 x_2 + 23 x_3 + 24 x_4 + 27 x_5 + 44 x_6 + 4 x_7 + 28 x_8 + 40 x_9 + 37 x_10 + 25 x_11 + 29 x_12 = 1745
	c_6: + 34 x_1 + 35 x_2 + 25 x_3 + 23 x_4 + 35 x_5 + 41 x_6 + 21 x_7 + 35 x_8 + 20 x_9 + 18 x_10 + 1 x_11 + 36 x_12 = 1770
	c_7: + 20 x_1 + 16 x_2 + 28 x_3 + 9 x_4 + 31 x_5 + 48 x_6 + 28 x_7 + 24 x_8 + 36 x_9 + 10 x_10 + 5 x_11 + 18 x_12 = 1417
	c_8: + 42 x_1 + 22 x_2 + 29 x_3 + 20 x_4 + 7 x_5 + 49 x_6 + 42 x_7 + 24 x_8 + 40 x_9 + 32 x_10 + 35 x_11 + 42 x_12 = 2028
Bounds
  0 <= x_1 <= 10
  0 <= x_2 <= 10
  0 <= x_3 <= 10
  0 <= x_4 <= 10
  0 <= x_5 <= 10
  0 <= x_6 <= 10
  0 <= x_7 <= 10
  0 <= x_8 <= 10
  0 <= x_9 <= 10
  0 <= x_10 <= 10
  0 <= x_11 <= 10
  0 <= x_12 <= 10
End
