Subject To
	c_1: + 1 x_1 + 21 x_2 + 36 x_3 + 2 x_4 + 27 x_5 + 25 x_6 + 4 x_7 + 36 x_8 + 38 x_9 + 13 x_10 + 47 x_11 + 33 x_12 = 1879
	c_2: + 11 x_1 + 27 x_2 + 6 x_3 + 43 x_4 + 22 x_5 + 30 x_6 + 41 x_7 + 4 x_8 + 13 x_9 + 46 x_10 + 16 x_11 + 47 x_12 = 1123
	c_3: + 31 x_1 + 5 x_2 + 26 x_3 + 28 x_4 + 11 x_5 + 41 x_6 + 5 x_7 + 31 x_8 + 45 x_9 + 13 x_10 + 2 x_11 + 30 x_12 = 1295
	c_4: + 11 x_1 + 36 x_2 + 12 x_3 + 12 x_4 + 5 x_5 + 47 x_6 + 18 x_7 + 13 x_8 + 40 x_9 + 30 x_10 + 39 x_11 + 50 x_12 = 1699
	c_5: + 50 x_1 + 33 x_2 + 46 x_3 + 23 x_4 + 24 x_5 + 37 x_6 + 46 x_7 + 21 x_8 + 43 x_9 + 40 x_10 + 15 x_11 + 23 x_12 = 1641
	c_6: + 8 x_1 + 20 x_2 + 12 x_3 + 15 x_4 + 3 x_5 + 39 x_6 + 50 x_7 + 27 x_8 + 5 x_9 + 33 x_10 + 27 x_11 + 37 x_12 = 1198
	c_7: + 34 x_1 + 3 x_2 + 43 x_3 + 49 x_4 + 15 x_5 + 5 x_6 + 31 x_7 + 4 x_8 + 2 x_9 + 41 x_10 + 24 x_11 + 8 x_12 = 835
	c_8: + 39 x_1 + 17 x_2 + 47 x_3 + 12 x_4 + 22 x_5 + 14 x_6 + 38 x_7 + 27 x_8 + 10 x_9 + 46 x_10 + 3 x_11 + 13 x_12 = 1059
Bounds
  0 <= x_1 <= 10
  0 <= x_2 <= 10
  0 <= x_3 <= 10
  0 <= x_4 <= 10
  0 <= x_5 <= 10
  0 <= x_6 <= 10
  0 <= x_7 <= 10
  0 <= x_8 <= 10
  0 <= x_9 <= 10
  0 <= x_10 <= 10
  0 <= x_11 <= 10
  0 <= x_12 <= 10
End
