Subject To
	c_1: + 1 x_1 + 38 x_2 + 21 x_3 + 31 x_4 + 34 x_5 + 38 x_6 + 43 x_7 + 45 x_8 + 15 x_9 + 26 x_10 + 14 x_11 + 25 x_12 = 2236
	c_2: + 34 x_1 + 47 x_2 + 31 x_3 + 28 x_4 + 1 x_5 + 30 x_6 + 17 x_7 + 9 x_8 + 49 x_9 + 13 x_10 + 50 x_11 + 43 x_12 = 1676
	c_3: + 13 x_1 + 17 x_2 + 4 x_3 + 25 x_4 + 6 x_5 + 21 x_6 + 42 x_7 + 37 x_8 + 42 x_9 + 50 x_10 + 32 x_11 + 7 x_12 = 1698
	c_4: + 37 x_1 + 37 x_2 + 14 x_3 + 31 x_4 + 22 x_5 + 23 x_6 + 15 x_7 + 39 x_8 + 18 x_9 + 35 x_10 + 8 x_11 + 46 x_12 = 1837
	c_5: + 49 x_1 + 40 x_2 + 4 x_3 + 24 x_4 + 46 x_5 + 4 x_6 + 19 x_7 + 41 x_8 + 43 x_9 + 40 x_10 + 40 x_11 + 41 x_12 = 1988
	c_6: + 34 x_1 + 22 x_2 + 25 x_3 + 16 x_4 + 26 x_5 + 14 x_6 + 28 x_7 + 2 x_8 + 13 x_9 + 21 x_10 + 47 x_11 + 42 x_12 = 1384
	c_7: + 33 x_1 + 31 x_2 + 47 x_3 + 50 x_4 + 48 x_5 + 23 x_6 + 43 x_7 + 5 x_8 + 36 x_9 + 2 x_10 + 11 x_11 + 17 x_12 = 1913
	c_8: + 5 x_1 + 50 x_2 + 27 x_3 + 33 x_4 + 26 x_5 + 41 x_6 + 12 x_7 + 10 x_8 + 40 x_9 + 29 x_10 + 4 x_11 + 14 x_12 = 1757
Bounds
  0 <= x_1 <= 10
  0 <= x_2 <= 10
  0 <= x_3 <= 10
  0 <= x_4 <= 10
  0 <= x_5 <= 10
  0 <= x_6 <= 10
  0 <= x_7 <= 10
  0 <= x_8 <= 10
  0 <= x_9 <= 10
  0 <= x_10 <= 10
  0 <= x_11 <= 10
  0 <= x_12 <= 10
End
