Subject To
	c_1: + 39 x_1 + 18 x_2 + 14 x_3 + 48 x_4 + 42 x_5 + 31 x_6 + 6 x_7 + 5 x_8 + 4 x_9 + 31 x_10 + 20 x_11 + 1 x_12 = 1729
	c_2: + 13 x_1 + 25 x_2 + 10 x_3 + 48 x_4 + 3 x_5 + 43 x_6 + 24 x_7 + 4 x_8 + 21 x_9 + 50 x_10 + 8 x_11 + 23 x_12 = 1334
	c_3: + 27 x_1 + 40 x_2 + 8 x_3 + 2 x_4 + 24 x_5 + 37 x_6 + 45 x_7 + 4 x_8 + 6 x_9 + 4 x_10 + 36 x_11 + 33 x_12 = 1035
	c_4: + 29 x_1 + 14 x_2 + 2 x_3 + 11 x_4 + 9 x_5 + 34 x_6 + 20 x_7 + 25 x_8 + 4 x_9 + 3 x_10 + 27 x_11 + 31 x_12 = 846
	c_5: + 11 x_1 + 27 x_2 + 6 x_3 + 2 x_4 + 20 x_5 + 12 x_6 + 5 x_7 + 47 x_8 + 34 x_9 + 26 x_10 + 20 x_11 + 1 x_12 = 747
	c_6: + 13 x_1 + 26 x_2 + 27 x_3 + 48 x_4 + 26 x_5 + 50 x_6 + 40 x_7 + 46 x_8 + 5 x_9 + 39 x_10 + 46 x_11 + 39 x_12 = 1781
	c_7: + 19 x_1 + 8 x_2 + 31 x_3 + 45 x_4 + 24 x_5 + 39 x_6 + 28 x_7 + 10 x_8 + 11 x_9 + 37 x_10 + 21 x_11 + 3 x_12 = 1513
	c_8: + 28 x_1 + 41 x_2 + 5 x_3 + 7 x_4 + 25 x_5 + 45 x_6 + 39 x_7 + 5 x_8 + 50 x_9 + 42 x_10 + 48 x_11 + 17 x_12 = 1415
Bounds
  0 <= x_1 <= 10
  0 <= x_2 <= 10
  0 <= x_3 <= 10
  0 <= x_4 <= 10
  0 <= x_5 <= 10
  0 <= x_6 <= 10
  0 <= x_7 <= 10
  0 <= x_8 <= 10
  0 <= x_9 <= 10
  0 <= x_10 <= 10
  0 <= x_11 <= 10
  0 <= x_12 <= 10
End
