Subject To
	c_1: + 31 x_1 + 29 x_2 + 19 x_3 + 18 x_4 + 19 x_5 + 32 x_6 + 40 x_7 + 41 x_8 + 43 x_9 + 17 x_10 + 37 x_11 + 1 x_12 = 2103
	c_2: + 9 x_1 + 21 x_2 + 28 x_3 + 37 x_4 + 4 x_5 + 5 x_6 + 35 x_7 + 23 x_8 + 9 x_9 + 46 x_10 + 25 x_11 + 46 x_12 = 1307
	c_3: + 30 x_1 + 25 x_2 + 14 x_3 + 1 x_4 + 41 x_5 + 17 x_6 + 47 x_7 + 43 x_8 + 34 x_9 + 4 x_10 + 10 x_11 + 13 x_12 = 1763
	c_4: + 24 x_1 + 9 x_2 + 42 x_3 + 16 x_4 + 1 x_5 + 40 x_6 + 11 x_7 + 8 x_8 + 25 x_9 + 47 x_10 + 17 x_11 + 49 x_12 = 1295
	c_5: + 46 x_1 + 19 x_2 + 31 x_3 + 46 x_4 + 8 x_5 + 14 x_6 + 17 x_7 + 42 x_8 + 24 x_9 + 20 x_10 + 11 x_11 + 23 x_12 = 1593
	c_6: + 45 x_1 + 33 x_2 + 5 x_3 + 32 x_4 + 20 x_5 + 24 x_6 + 12 x_7 + 16 x_8 + 38 x_9 + 18 x_10 + 32 x_11 + 48 x_12 = 1652
	c_7: + 34 x_1 + 19 x_2 + 6 x_3 + 36 x_4 + 21 x_5 + 6 x_6 + 8 x_7 + 18 x_8 + 17 x_9 + 45 x_10 + 2 x_11 + 46 x_12 = 1080
	c_8: + 36 x_1 + 30 x_2 + 44 x_3 + 21 x_4 + 38 x_5 + 4 x_6 + 34 x_7 + 45 x_8 + 47 x_9 + 42 x_10 + 4 x_11 + 38 x_12 = 2020
Bounds
  0 <= x_1 <= 10
  0 <= x_2 <= 10
  0 <= x_3 <= 10
  0 <= x_4 <= 10
  0 <= x_5 <= 10
  0 <= x_6 <= 10
  0 <= x_7 <= 10
  0 <= x_8 <= 10
  0 <= x_9 <= 10
  0 <= x_10 <= 10
  0 <= x_11 <= 10
  0 <= x_12 <= 10
End
