Subject To
	c_1: + 38 x_1 + 2 x_2 + 31 x_3 + 40 x_4 + 14 x_5 + 35 x_6 + 16 x_7 + 45 x_8 + 20 x_9 + 35 x_10 + 30 x_11 + 3 x_12 = 2041
	c_2: + 10 x_1 + 6 x_2 + 32 x_3 + 36 x_4 + 40 x_5 + 7 x_6 + 3 x_7 + 50 x_8 + 30 x_9 + 22 x_10 + 29 x_11 + 29 x_12 = 1596
	c_3: + 28 x_1 + 19 x_2 + 20 x_3 + 21 x_4 + 5 x_5 + 36 x_6 + 2 x_7 + 13 x_8 + 25 x_9 + 42 x_10 + 33 x_11 + 45 x_12 = 1489
	c_4: + 9 x_1 + 18 x_2 + 42 x_3 + 26 x_4 + 26 x_5 + 4 x_6 + 31 x_7 + 13 x_8 + 19 x_9 + 39 x_10 + 40 x_11 + 18 x_12 = 1411
	c_5: + 36 x_1 + 4 x_2 + 10 x_3 + 19 x_4 + 42 x_5 + 39 x_6 + 18 x_7 + 17 x_8 + 2 x_9 + 16 x_10 + 46 x_11 + 18 x_12 = 1460
	c_6: + 22 x_1 + 39 x_2 + 2 x_3 + 39 x_4 + 39 x_5 + 41 x_6 + 25 x_7 + 20 x_8 + 3 x_9 + 3 x_10 + 43 x_11 + 37 x_12 = 1411
	c_7: + 31 x_1 + 26 x_2 + 17 x_3 + 11 x_4 + 31 x_5 + 8 x_6 + 43 x_7 + 10 x_8 + 35 x_9 + 45 x_10 + 28 x_11 + 37 x_12 = 1398
	c_8: + 14 x_1 + 38 x_2 + 49 x_3 + 21 x_4 + 30 x_5 + 12 x_6 + 3 x_7 + 12 x_8 + 13 x_9 + 12 x_10 + 6 x_11 + 21 x_12 = 1007
Bounds
  0 <= x_1 <= 10
  0 <= x_2 <= 10
  0 <= x_3 <= 10
  0 <= x_4 <= 10
  0 <= x_5 <= 10
  0 <= x_6 <= 10
  0 <= x_7 <= 10
  0 <= x_8 <= 10
  0 <= x_9 <= 10
  0 <= x_10 <= 10
  0 <= x_11 <= 10
  0 <= x_12 <= 10
End
