Subject To
	c_1: + 32 x_1 + 35 x_2 + 12 x_3 + 43 x_4 + 49 x_5 + 7 x_6 + 17 x_7 + 39 x_8 + 1 x_9 + 16 x_10 + 34 x_11 + 37 x_12 = 2290
	c_2: + 7 x_1 + 44 x_2 + 4 x_3 + 16 x_4 + 3 x_5 + 17 x_6 + 22 x_7 + 33 x_8 + 11 x_9 + 2 x_10 + 48 x_11 + 36 x_12 = 1509
	c_3: + 4 x_1 + 38 x_2 + 46 x_3 + 36 x_4 + 42 x_5 + 48 x_6 + 39 x_7 + 29 x_8 + 4 x_9 + 50 x_10 + 45 x_11 + 35 x_12 = 2268
	c_4: + 31 x_1 + 6 x_2 + 17 x_3 + 39 x_4 + 7 x_5 + 10 x_6 + 37 x_7 + 38 x_8 + 1 x_9 + 47 x_10 + 27 x_11 + 2 x_12 = 1454
	c_5: + 10 x_1 + 31 x_2 + 40 x_3 + 1 x_4 + 43 x_5 + 10 x_6 + 37 x_7 + 32 x_8 + 14 x_9 + 44 x_10 + 41 x_11 + 4 x_12 = 1624
	c_6: + 36 x_1 + 16 x_2 + 47 x_3 + 42 x_4 + 45 x_5 + 16 x_6 + 24 x_7 + 36 x_8 + 29 x_9 + 43 x_10 + 47 x_11 + 27 x_12 = 2300
	c_7: + 4 x_1 + 48 x_2 + 5 x_3 + 10 x_4 + 48 x_5 + 23 x_6 + 31 x_7 + 26 x_8 + 35 x_9 + 48 x_10 + 6 x_11 + 13 x_12 = 1554
	c_8: + 22 x_1 + 14 x_2 + 46 x_3 + 2 x_4 + 14 x_5 + 15 x_6 + 49 x_7 + 36 x_8 + 39 x_9 + 2 x_10 + 2 x_11 + 41 x_12 = 1278
Bounds
  0 <= x_1 <= 10
  0 <= x_2 <= 10
  0 <= x_3 <= 10
  0 <= x_4 <= 10
  0 <= x_5 <= 10
  0 <= x_6 <= 10
  0 <= x_7 <= 10
  0 <= x_8 <= 10
  0 <= x_9 <= 10
  0 <= x_10 <= 10
  0 <= x_11 <= 10
  0 <= x_12 <= 10
End
