Subject To
	c_1: + 31 x_1 + 32 x_2 + 45 x_3 + 42 x_4 + 15 x_5 + 2 x_6 + 16 x_7 + 37 x_8 + 45 x_9 + 3 x_10 + 40 x_11 + 1 x_12 = 2275
	c_2: + 6 x_1 + 23 x_2 + 29 x_3 + 43 x_4 + 36 x_5 + 20 x_6 + 43 x_7 + 36 x_8 + 36 x_9 + 3 x_10 + 12 x_11 + 21 x_12 = 1767
	c_3: + 33 x_1 + 42 x_2 + 4 x_3 + 2 x_4 + 6 x_5 + 1 x_6 + 7 x_7 + 33 x_8 + 11 x_9 + 32 x_10 + 44 x_11 + 41 x_12 = 1258
	c_4: + 25 x_1 + 26 x_2 + 17 x_3 + 50 x_4 + 27 x_5 + 22 x_6 + 36 x_7 + 43 x_8 + 17 x_9 + 27 x_10 + 39 x_11 + 32 x_12 = 1907
	c_5: + 50 x_1 + 39 x_2 + 5 x_3 + 31 x_4 + 47 x_5 + 43 x_6 + 3 x_7 + 42 x_8 + 7 x_9 + 18 x_10 + 36 x_11 + 40 x_12 = 1695
	c_6: + 3 x_1 + 5 x_2 + 39 x_3 + 30 x_4 + 21 x_5 + 25 x_6 + 23 x_7 + 36 x_8 + 50 x_9 + 36 x_10 + 5 x_11 + 23 x_12 = 1579
	c_7: + 12 x_1 + 45 x_2 + 25 x_3 + 22 x_4 + 40 x_5 + 11 x_6 + 4 x_7 + 23 x_8 + 30 x_9 + 14 x_10 + 15 x_11 + 15 x_12 = 1471
	c_8: + 5 x_1 + 35 x_2 + 38 x_3 + 31 x_4 + 18 x_5 + 12 x_6 + 44 x_7 + 14 x_8 + 31 x_9 + 26 x_10 + 15 x_11 + 47 x_12 = 1558
Bounds
  0 <= x_1 <= 10
  0 <= x_2 <= 10
  0 <= x_3 <= 10
  0 <= x_4 <= 10
  0 <= x_5 <= 10
  0 <= x_6 <= 10
  0 <= x_7 <= 10
  0 <= x_8 <= 10
  0 <= x_9 <= 10
  0 <= x_10 <= 10
  0 <= x_11 <= 10
  0 <= x_12 <= 10
End
