* #variable= 13 #constraint= 79
****************************************
* begin normalizer comments
* category= DEC-SMALLINT-LIN
* end normalizer comments
****************************************
+1 x2 +1 x1 >= 1 ;
+1 x3 +1 x1 >= 1 ;
+1 x3 +1 x2 >= 1 ;
+1 x4 +1 x1 >= 1 ;
+1 x4 +1 x2 >= 1 ;
+1 x4 +1 x3 >= 1 ;
+1 x5 +1 x1 >= 1 ;
+1 x5 +1 x2 >= 1 ;
+1 x5 +1 x3 >= 1 ;
+1 x5 +1 x4 >= 1 ;
+1 x6 +1 x1 >= 1 ;
+1 x6 +1 x2 >= 1 ;
+1 x6 +1 x3 >= 1 ;
+1 x6 +1 x4 >= 1 ;
+1 x6 +1 x5 >= 1 ;
+1 x7 +1 x1 >= 1 ;
+1 x7 +1 x2 >= 1 ;
+1 x7 +1 x3 >= 1 ;
+1 x7 +1 x4 >= 1 ;
+1 x7 +1 x5 >= 1 ;
+1 x7 +1 x6 >= 1 ;
+1 x8 +1 x1 >= 1 ;
+1 x8 +1 x2 >= 1 ;
+1 x8 +1 x3 >= 1 ;
+1 x8 +1 x4 >= 1 ;
+1 x8 +1 x5 >= 1 ;
+1 x8 +1 x6 >= 1 ;
+1 x8 +1 x7 >= 1 ;
+1 x9 +1 x1 >= 1 ;
+1 x9 +1 x2 >= 1 ;
+1 x9 +1 x3 >= 1 ;
+1 x9 +1 x4 >= 1 ;
+1 x9 +1 x5 >= 1 ;
+1 x9 +1 x6 >= 1 ;
+1 x9 +1 x7 >= 1 ;
+1 x9 +1 x8 >= 1 ;
+1 x10 +1 x1 >= 1 ;
+1 x10 +1 x2 >= 1 ;
+1 x10 +1 x3 >= 1 ;
+1 x10 +1 x4 >= 1 ;
+1 x10 +1 x5 >= 1 ;
+1 x10 +1 x6 >= 1 ;
+1 x10 +1 x7 >= 1 ;
+1 x10 +1 x8 >= 1 ;
+1 x10 +1 x9 >= 1 ;
+1 x11 +1 x1 >= 1 ;
+1 x11 +1 x2 >= 1 ;
+1 x11 +1 x3 >= 1 ;
+1 x11 +1 x4 >= 1 ;
+1 x11 +1 x5 >= 1 ;
+1 x11 +1 x6 >= 1 ;
+1 x11 +1 x7 >= 1 ;
+1 x11 +1 x8 >= 1 ;
+1 x11 +1 x9 >= 1 ;
+1 x11 +1 x10 >= 1 ;
+1 x12 +1 x1 >= 1 ;
+1 x12 +1 x2 >= 1 ;
+1 x12 +1 x3 >= 1 ;
+1 x12 +1 x4 >= 1 ;
+1 x12 +1 x5 >= 1 ;
+1 x12 +1 x6 >= 1 ;
+1 x12 +1 x7 >= 1 ;
+1 x12 +1 x8 >= 1 ;
+1 x12 +1 x9 >= 1 ;
+1 x12 +1 x10 >= 1 ;
+1 x12 +1 x11 >= 1 ;
+1 x13 +1 x1 >= 1 ;
+1 x13 +1 x2 >= 1 ;
+1 x13 +1 x3 >= 1 ;
+1 x13 +1 x4 >= 1 ;
+1 x13 +1 x5 >= 1 ;
+1 x13 +1 x6 >= 1 ;
+1 x13 +1 x7 >= 1 ;
+1 x13 +1 x8 >= 1 ;
+1 x13 +1 x9 >= 1 ;
+1 x13 +1 x10 >= 1 ;
+1 x13 +1 x11 >= 1 ;
+1 x13 +1 x12 >= 1 ;
-2 x1 -2 x2 -2 x3 -2 x4 -2 x5 -2 x6 -2 x7 -2 x8 -2 x9 -2 x10 -2 x11 -2 x12 -2 x13 >= -13 ;
