* #variable= 10725 #constraint= 2146
****************************************
* begin normalizer comments
* category= DEC-SMALLINT-LIN
* end normalizer comments
****************************************
+2 x1 +2 x2 +2 x3 +2 x4 +2 x5 >= 5 ;
+2 x6 +2 x7 +2 x8 +2 x9 +2 x10 >= 5 ;
+2 x11 +2 x12 +2 x13 +2 x14 +2 x15 >= 5 ;
+2 x16 +2 x17 +2 x18 +2 x19 +2 x20 >= 5 ;
+2 x21 +2 x22 +2 x23 +2 x24 +2 x25 >= 5 ;
+2 x26 +2 x27 +2 x28 +2 x29 +2 x30 >= 5 ;
+2 x31 +2 x32 +2 x33 +2 x34 +2 x35 >= 5 ;
+2 x36 +2 x37 +2 x38 +2 x39 +2 x40 >= 5 ;
+2 x41 +2 x42 +2 x43 +2 x44 +2 x45 >= 5 ;
+2 x46 +2 x47 +2 x48 +2 x49 +2 x50 >= 5 ;
+2 x51 +2 x52 +2 x53 +2 x54 +2 x55 >= 5 ;
+2 x56 +2 x57 +2 x58 +2 x59 +2 x60 >= 5 ;
+2 x61 +2 x62 +2 x63 +2 x64 +2 x65 >= 5 ;
+2 x66 +2 x67 +2 x68 +2 x69 +2 x70 >= 5 ;
+2 x71 +2 x72 +2 x73 +2 x74 +2 x75 >= 5 ;
+2 x76 +2 x77 +2 x78 +2 x79 +2 x80 >= 5 ;
+2 x81 +2 x82 +2 x83 +2 x84 +2 x85 >= 5 ;
+2 x86 +2 x87 +2 x88 +2 x89 +2 x90 >= 5 ;
+2 x91 +2 x92 +2 x93 +2 x94 +2 x95 >= 5 ;
+2 x96 +2 x97 +2 x98 +2 x99 +2 x100 >= 5 ;
+2 x101 +2 x102 +2 x103 +2 x104 +2 x105 >= 5 ;
+2 x106 +2 x107 +2 x108 +2 x109 +2 x110 >= 5 ;
+2 x111 +2 x112 +2 x113 +2 x114 +2 x115 >= 5 ;
+2 x116 +2 x117 +2 x118 +2 x119 +2 x120 >= 5 ;
+2 x121 +2 x122 +2 x123 +2 x124 +2 x125 >= 5 ;
+2 x126 +2 x127 +2 x128 +2 x129 +2 x130 >= 5 ;
+2 x131 +2 x132 +2 x133 +2 x134 +2 x135 >= 5 ;
+2 x136 +2 x137 +2 x138 +2 x139 +2 x140 >= 5 ;
+2 x141 +2 x142 +2 x143 +2 x144 +2 x145 >= 5 ;
+2 x146 +2 x147 +2 x148 +2 x149 +2 x150 >= 5 ;
+2 x151 +2 x152 +2 x153 +2 x154 +2 x155 >= 5 ;
+2 x156 +2 x157 +2 x158 +2 x159 +2 x160 >= 5 ;
+2 x161 +2 x162 +2 x163 +2 x164 +2 x165 >= 5 ;
+2 x166 +2 x167 +2 x168 +2 x169 +2 x170 >= 5 ;
+2 x171 +2 x172 +2 x173 +2 x174 +2 x175 >= 5 ;
+2 x176 +2 x177 +2 x178 +2 x179 +2 x180 >= 5 ;
+2 x181 +2 x182 +2 x183 +2 x184 +2 x185 >= 5 ;
+2 x186 +2 x187 +2 x188 +2 x189 +2 x190 >= 5 ;
+2 x191 +2 x192 +2 x193 +2 x194 +2 x195 >= 5 ;
+2 x196 +2 x197 +2 x198 +2 x199 +2 x200 >= 5 ;
+2 x201 +2 x202 +2 x203 +2 x204 +2 x205 >= 5 ;
+2 x206 +2 x207 +2 x208 +2 x209 +2 x210 >= 5 ;
+2 x211 +2 x212 +2 x213 +2 x214 +2 x215 >= 5 ;
+2 x216 +2 x217 +2 x218 +2 x219 +2 x220 >= 5 ;
+2 x221 +2 x222 +2 x223 +2 x224 +2 x225 >= 5 ;
+2 x226 +2 x227 +2 x228 +2 x229 +2 x230 >= 5 ;
+2 x231 +2 x232 +2 x233 +2 x234 +2 x235 >= 5 ;
+2 x236 +2 x237 +2 x238 +2 x239 +2 x240 >= 5 ;
+2 x241 +2 x242 +2 x243 +2 x244 +2 x245 >= 5 ;
+2 x246 +2 x247 +2 x248 +2 x249 +2 x250 >= 5 ;
+2 x251 +2 x252 +2 x253 +2 x254 +2 x255 >= 5 ;
+2 x256 +2 x257 +2 x258 +2 x259 +2 x260 >= 5 ;
+2 x261 +2 x262 +2 x263 +2 x264 +2 x265 >= 5 ;
+2 x266 +2 x267 +2 x268 +2 x269 +2 x270 >= 5 ;
+2 x271 +2 x272 +2 x273 +2 x274 +2 x275 >= 5 ;
+2 x276 +2 x277 +2 x278 +2 x279 +2 x280 >= 5 ;
+2 x281 +2 x282 +2 x283 +2 x284 +2 x285 >= 5 ;
+2 x286 +2 x287 +2 x288 +2 x289 +2 x290 >= 5 ;
+2 x291 +2 x292 +2 x293 +2 x294 +2 x295 >= 5 ;
+2 x296 +2 x297 +2 x298 +2 x299 +2 x300 >= 5 ;
+2 x301 +2 x302 +2 x303 +2 x304 +2 x305 >= 5 ;
+2 x306 +2 x307 +2 x308 +2 x309 +2 x310 >= 5 ;
+2 x311 +2 x312 +2 x313 +2 x314 +2 x315 >= 5 ;
+2 x316 +2 x317 +2 x318 +2 x319 +2 x320 >= 5 ;
+2 x321 +2 x322 +2 x323 +2 x324 +2 x325 >= 5 ;
+2 x326 +2 x327 +2 x328 +2 x329 +2 x330 -1 x1 -1 x2 -1 x3 -1 x4 -1 x5 -1 x6 -1 x7 -1 x8 -1 x9 -1 x10 >= 0 ;
+2 x331 +2 x332 +2 x333 +2 x334 +2 x335 -1 x6 -1 x7 -1 x8 -1 x9 -1 x10 -1 x11 -1 x12 -1 x13 -1 x14 -1 x15 >= 0 ;
+2 x336 +2 x337 +2 x338 +2 x339 +2 x340 -1 x11 -1 x12 -1 x13 -1 x14 -1 x15 -1 x16 -1 x17 -1 x18 -1 x19 -1 x20 >= 0 ;
+2 x341 +2 x342 +2 x343 +2 x344 +2 x345 -1 x16 -1 x17 -1 x18 -1 x19 -1 x20 -1 x21 -1 x22 -1 x23 -1 x24 -1 x25 >= 0 ;
+2 x346 +2 x347 +2 x348 +2 x349 +2 x350 -1 x21 -1 x22 -1 x23 -1 x24 -1 x25 -1 x26 -1 x27 -1 x28 -1 x29 -1 x30 >= 0 ;
+2 x351 +2 x352 +2 x353 +2 x354 +2 x355 -1 x26 -1 x27 -1 x28 -1 x29 -1 x30 -1 x31 -1 x32 -1 x33 -1 x34 -1 x35 >= 0 ;
+2 x356 +2 x357 +2 x358 +2 x359 +2 x360 -1 x31 -1 x32 -1 x33 -1 x34 -1 x35 -1 x36 -1 x37 -1 x38 -1 x39 -1 x40 >= 0 ;
+2 x361 +2 x362 +2 x363 +2 x364 +2 x365 -1 x36 -1 x37 -1 x38 -1 x39 -1 x40 -1 x41 -1 x42 -1 x43 -1 x44 -1 x45 >= 0 ;
+2 x366 +2 x367 +2 x368 +2 x369 +2 x370 -1 x41 -1 x42 -1 x43 -1 x44 -1 x45 -1 x46 -1 x47 -1 x48 -1 x49 -1 x50 >= 0 ;
+2 x371 +2 x372 +2 x373 +2 x374 +2 x375 -1 x46 -1 x47 -1 x48 -1 x49 -1 x50 -1 x51 -1 x52 -1 x53 -1 x54 -1 x55 >= 0 ;
+2 x376 +2 x377 +2 x378 +2 x379 +2 x380 -1 x51 -1 x52 -1 x53 -1 x54 -1 x55 -1 x56 -1 x57 -1 x58 -1 x59 -1 x60 >= 0 ;
+2 x381 +2 x382 +2 x383 +2 x384 +2 x385 -1 x56 -1 x57 -1 x58 -1 x59 -1 x60 -1 x61 -1 x62 -1 x63 -1 x64 -1 x65 >= 0 ;
+2 x386 +2 x387 +2 x388 +2 x389 +2 x390 -1 x61 -1 x62 -1 x63 -1 x64 -1 x65 -1 x66 -1 x67 -1 x68 -1 x69 -1 x70 >= 0 ;
+2 x391 +2 x392 +2 x393 +2 x394 +2 x395 -1 x66 -1 x67 -1 x68 -1 x69 -1 x70 -1 x71 -1 x72 -1 x73 -1 x74 -1 x75 >= 0 ;
+2 x396 +2 x397 +2 x398 +2 x399 +2 x400 -1 x71 -1 x72 -1 x73 -1 x74 -1 x75 -1 x76 -1 x77 -1 x78 -1 x79 -1 x80 >= 0 ;
+2 x401 +2 x402 +2 x403 +2 x404 +2 x405 -1 x76 -1 x77 -1 x78 -1 x79 -1 x80 -1 x81 -1 x82 -1 x83 -1 x84 -1 x85 >= 0 ;
+2 x406 +2 x407 +2 x408 +2 x409 +2 x410 -1 x81 -1 x82 -1 x83 -1 x84 -1 x85 -1 x86 -1 x87 -1 x88 -1 x89 -1 x90 >= 0 ;
+2 x411 +2 x412 +2 x413 +2 x414 +2 x415 -1 x86 -1 x87 -1 x88 -1 x89 -1 x90 -1 x91 -1 x92 -1 x93 -1 x94 -1 x95 >= 0 ;
+2 x416 +2 x417 +2 x418 +2 x419 +2 x420 -1 x91 -1 x92 -1 x93 -1 x94 -1 x95 -1 x96 -1 x97 -1 x98 -1 x99 -1 x100 >= 0 ;
+2 x421 +2 x422 +2 x423 +2 x424 +2 x425 -1 x96 -1 x97 -1 x98 -1 x99 -1 x100 -1 x101 -1 x102 -1 x103 -1 x104 -1 x105 >= 0 ;
+2 x426 +2 x427 +2 x428 +2 x429 +2 x430 -1 x101 -1 x102 -1 x103 -1 x104 -1 x105 -1 x106 -1 x107 -1 x108 -1 x109 -1 x110 >= 0 ;
+2 x431 +2 x432 +2 x433 +2 x434 +2 x435 -1 x106 -1 x107 -1 x108 -1 x109 -1 x110 -1 x111 -1 x112 -1 x113 -1 x114 -1 x115 >= 0 ;
+2 x436 +2 x437 +2 x438 +2 x439 +2 x440 -1 x111 -1 x112 -1 x113 -1 x114 -1 x115 -1 x116 -1 x117 -1 x118 -1 x119 -1 x120 >= 0 ;
+2 x441 +2 x442 +2 x443 +2 x444 +2 x445 -1 x116 -1 x117 -1 x118 -1 x119 -1 x120 -1 x121 -1 x122 -1 x123 -1 x124 -1 x125 >= 0 ;
+2 x446 +2 x447 +2 x448 +2 x449 +2 x450 -1 x121 -1 x122 -1 x123 -1 x124 -1 x125 -1 x126 -1 x127 -1 x128 -1 x129 -1 x130 >= 0 ;
+2 x451 +2 x452 +2 x453 +2 x454 +2 x455 -1 x126 -1 x127 -1 x128 -1 x129 -1 x130 -1 x131 -1 x132 -1 x133 -1 x134 -1 x135 >= 0 ;
+2 x456 +2 x457 +2 x458 +2 x459 +2 x460 -1 x131 -1 x132 -1 x133 -1 x134 -1 x135 -1 x136 -1 x137 -1 x138 -1 x139 -1 x140 >= 0 ;
+2 x461 +2 x462 +2 x463 +2 x464 +2 x465 -1 x136 -1 x137 -1 x138 -1 x139 -1 x140 -1 x141 -1 x142 -1 x143 -1 x144 -1 x145 >= 0 ;
+2 x466 +2 x467 +2 x468 +2 x469 +2 x470 -1 x141 -1 x142 -1 x143 -1 x144 -1 x145 -1 x146 -1 x147 -1 x148 -1 x149 -1 x150 >= 0 ;
+2 x471 +2 x472 +2 x473 +2 x474 +2 x475 -1 x146 -1 x147 -1 x148 -1 x149 -1 x150 -1 x151 -1 x152 -1 x153 -1 x154 -1 x155 >= 0 ;
+2 x476 +2 x477 +2 x478 +2 x479 +2 x480 -1 x151 -1 x152 -1 x153 -1 x154 -1 x155 -1 x156 -1 x157 -1 x158 -1 x159 -1 x160 >= 0 ;
+2 x481 +2 x482 +2 x483 +2 x484 +2 x485 -1 x156 -1 x157 -1 x158 -1 x159 -1 x160 -1 x161 -1 x162 -1 x163 -1 x164 -1 x165 >= 0 ;
+2 x486 +2 x487 +2 x488 +2 x489 +2 x490 -1 x161 -1 x162 -1 x163 -1 x164 -1 x165 -1 x166 -1 x167 -1 x168 -1 x169 -1 x170 >= 0 ;
+2 x491 +2 x492 +2 x493 +2 x494 +2 x495 -1 x166 -1 x167 -1 x168 -1 x169 -1 x170 -1 x171 -1 x172 -1 x173 -1 x174 -1 x175 >= 0 ;
+2 x496 +2 x497 +2 x498 +2 x499 +2 x500 -1 x171 -1 x172 -1 x173 -1 x174 -1 x175 -1 x176 -1 x177 -1 x178 -1 x179 -1 x180 >= 0 ;
+2 x501 +2 x502 +2 x503 +2 x504 +2 x505 -1 x176 -1 x177 -1 x178 -1 x179 -1 x180 -1 x181 -1 x182 -1 x183 -1 x184 -1 x185 >= 0 ;
+2 x506 +2 x507 +2 x508 +2 x509 +2 x510 -1 x181 -1 x182 -1 x183 -1 x184 -1 x185 -1 x186 -1 x187 -1 x188 -1 x189 -1 x190 >= 0 ;
+2 x511 +2 x512 +2 x513 +2 x514 +2 x515 -1 x186 -1 x187 -1 x188 -1 x189 -1 x190 -1 x191 -1 x192 -1 x193 -1 x194 -1 x195 >= 0 ;
+2 x516 +2 x517 +2 x518 +2 x519 +2 x520 -1 x191 -1 x192 -1 x193 -1 x194 -1 x195 -1 x196 -1 x197 -1 x198 -1 x199 -1 x200 >= 0 ;
+2 x521 +2 x522 +2 x523 +2 x524 +2 x525 -1 x196 -1 x197 -1 x198 -1 x199 -1 x200 -1 x201 -1 x202 -1 x203 -1 x204 -1 x205 >= 0 ;
+2 x526 +2 x527 +2 x528 +2 x529 +2 x530 -1 x201 -1 x202 -1 x203 -1 x204 -1 x205 -1 x206 -1 x207 -1 x208 -1 x209 -1 x210 >= 0 ;
+2 x531 +2 x532 +2 x533 +2 x534 +2 x535 -1 x206 -1 x207 -1 x208 -1 x209 -1 x210 -1 x211 -1 x212 -1 x213 -1 x214 -1 x215 >= 0 ;
+2 x536 +2 x537 +2 x538 +2 x539 +2 x540 -1 x211 -1 x212 -1 x213 -1 x214 -1 x215 -1 x216 -1 x217 -1 x218 -1 x219 -1 x220 >= 0 ;
+2 x541 +2 x542 +2 x543 +2 x544 +2 x545 -1 x216 -1 x217 -1 x218 -1 x219 -1 x220 -1 x221 -1 x222 -1 x223 -1 x224 -1 x225 >= 0 ;
+2 x546 +2 x547 +2 x548 +2 x549 +2 x550 -1 x221 -1 x222 -1 x223 -1 x224 -1 x225 -1 x226 -1 x227 -1 x228 -1 x229 -1 x230 >= 0 ;
+2 x551 +2 x552 +2 x553 +2 x554 +2 x555 -1 x226 -1 x227 -1 x228 -1 x229 -1 x230 -1 x231 -1 x232 -1 x233 -1 x234 -1 x235 >= 0 ;
+2 x556 +2 x557 +2 x558 +2 x559 +2 x560 -1 x231 -1 x232 -1 x233 -1 x234 -1 x235 -1 x236 -1 x237 -1 x238 -1 x239 -1 x240 >= 0 ;
+2 x561 +2 x562 +2 x563 +2 x564 +2 x565 -1 x236 -1 x237 -1 x238 -1 x239 -1 x240 -1 x241 -1 x242 -1 x243 -1 x244 -1 x245 >= 0 ;
+2 x566 +2 x567 +2 x568 +2 x569 +2 x570 -1 x241 -1 x242 -1 x243 -1 x244 -1 x245 -1 x246 -1 x247 -1 x248 -1 x249 -1 x250 >= 0 ;
+2 x571 +2 x572 +2 x573 +2 x574 +2 x575 -1 x246 -1 x247 -1 x248 -1 x249 -1 x250 -1 x251 -1 x252 -1 x253 -1 x254 -1 x255 >= 0 ;
+2 x576 +2 x577 +2 x578 +2 x579 +2 x580 -1 x251 -1 x252 -1 x253 -1 x254 -1 x255 -1 x256 -1 x257 -1 x258 -1 x259 -1 x260 >= 0 ;
+2 x581 +2 x582 +2 x583 +2 x584 +2 x585 -1 x256 -1 x257 -1 x258 -1 x259 -1 x260 -1 x261 -1 x262 -1 x263 -1 x264 -1 x265 >= 0 ;
+2 x586 +2 x587 +2 x588 +2 x589 +2 x590 -1 x261 -1 x262 -1 x263 -1 x264 -1 x265 -1 x266 -1 x267 -1 x268 -1 x269 -1 x270 >= 0 ;
+2 x591 +2 x592 +2 x593 +2 x594 +2 x595 -1 x266 -1 x267 -1 x268 -1 x269 -1 x270 -1 x271 -1 x272 -1 x273 -1 x274 -1 x275 >= 0 ;
+2 x596 +2 x597 +2 x598 +2 x599 +2 x600 -1 x271 -1 x272 -1 x273 -1 x274 -1 x275 -1 x276 -1 x277 -1 x278 -1 x279 -1 x280 >= 0 ;
+2 x601 +2 x602 +2 x603 +2 x604 +2 x605 -1 x276 -1 x277 -1 x278 -1 x279 -1 x280 -1 x281 -1 x282 -1 x283 -1 x284 -1 x285 >= 0 ;
+2 x606 +2 x607 +2 x608 +2 x609 +2 x610 -1 x281 -1 x282 -1 x283 -1 x284 -1 x285 -1 x286 -1 x287 -1 x288 -1 x289 -1 x290 >= 0 ;
+2 x611 +2 x612 +2 x613 +2 x614 +2 x615 -1 x286 -1 x287 -1 x288 -1 x289 -1 x290 -1 x291 -1 x292 -1 x293 -1 x294 -1 x295 >= 0 ;
+2 x616 +2 x617 +2 x618 +2 x619 +2 x620 -1 x291 -1 x292 -1 x293 -1 x294 -1 x295 -1 x296 -1 x297 -1 x298 -1 x299 -1 x300 >= 0 ;
+2 x621 +2 x622 +2 x623 +2 x624 +2 x625 -1 x296 -1 x297 -1 x298 -1 x299 -1 x300 -1 x301 -1 x302 -1 x303 -1 x304 -1 x305 >= 0 ;
+2 x626 +2 x627 +2 x628 +2 x629 +2 x630 -1 x301 -1 x302 -1 x303 -1 x304 -1 x305 -1 x306 -1 x307 -1 x308 -1 x309 -1 x310 >= 0 ;
+2 x631 +2 x632 +2 x633 +2 x634 +2 x635 -1 x306 -1 x307 -1 x308 -1 x309 -1 x310 -1 x311 -1 x312 -1 x313 -1 x314 -1 x315 >= 0 ;
+2 x636 +2 x637 +2 x638 +2 x639 +2 x640 -1 x311 -1 x312 -1 x313 -1 x314 -1 x315 -1 x316 -1 x317 -1 x318 -1 x319 -1 x320 >= 0 ;
+2 x641 +2 x642 +2 x643 +2 x644 +2 x645 -1 x316 -1 x317 -1 x318 -1 x319 -1 x320 -1 x321 -1 x322 -1 x323 -1 x324 -1 x325 >= 0 ;
+2 x646 +2 x647 +2 x648 +2 x649 +2 x650 -1 x326 -1 x327 -1 x328 -1 x329 -1 x330 -1 x331 -1 x332 -1 x333 -1 x334 -1 x335 >= 0 ;
+2 x651 +2 x652 +2 x653 +2 x654 +2 x655 -1 x331 -1 x332 -1 x333 -1 x334 -1 x335 -1 x336 -1 x337 -1 x338 -1 x339 -1 x340 >= 0 ;
+2 x656 +2 x657 +2 x658 +2 x659 +2 x660 -1 x336 -1 x337 -1 x338 -1 x339 -1 x340 -1 x341 -1 x342 -1 x343 -1 x344 -1 x345 >= 0 ;
+2 x661 +2 x662 +2 x663 +2 x664 +2 x665 -1 x341 -1 x342 -1 x343 -1 x344 -1 x345 -1 x346 -1 x347 -1 x348 -1 x349 -1 x350 >= 0 ;
+2 x666 +2 x667 +2 x668 +2 x669 +2 x670 -1 x346 -1 x347 -1 x348 -1 x349 -1 x350 -1 x351 -1 x352 -1 x353 -1 x354 -1 x355 >= 0 ;
+2 x671 +2 x672 +2 x673 +2 x674 +2 x675 -1 x351 -1 x352 -1 x353 -1 x354 -1 x355 -1 x356 -1 x357 -1 x358 -1 x359 -1 x360 >= 0 ;
+2 x676 +2 x677 +2 x678 +2 x679 +2 x680 -1 x356 -1 x357 -1 x358 -1 x359 -1 x360 -1 x361 -1 x362 -1 x363 -1 x364 -1 x365 >= 0 ;
+2 x681 +2 x682 +2 x683 +2 x684 +2 x685 -1 x361 -1 x362 -1 x363 -1 x364 -1 x365 -1 x366 -1 x367 -1 x368 -1 x369 -1 x370 >= 0 ;
+2 x686 +2 x687 +2 x688 +2 x689 +2 x690 -1 x366 -1 x367 -1 x368 -1 x369 -1 x370 -1 x371 -1 x372 -1 x373 -1 x374 -1 x375 >= 0 ;
+2 x691 +2 x692 +2 x693 +2 x694 +2 x695 -1 x371 -1 x372 -1 x373 -1 x374 -1 x375 -1 x376 -1 x377 -1 x378 -1 x379 -1 x380 >= 0 ;
+2 x696 +2 x697 +2 x698 +2 x699 +2 x700 -1 x376 -1 x377 -1 x378 -1 x379 -1 x380 -1 x381 -1 x382 -1 x383 -1 x384 -1 x385 >= 0 ;
+2 x701 +2 x702 +2 x703 +2 x704 +2 x705 -1 x381 -1 x382 -1 x383 -1 x384 -1 x385 -1 x386 -1 x387 -1 x388 -1 x389 -1 x390 >= 0 ;
+2 x706 +2 x707 +2 x708 +2 x709 +2 x710 -1 x386 -1 x387 -1 x388 -1 x389 -1 x390 -1 x391 -1 x392 -1 x393 -1 x394 -1 x395 >= 0 ;
+2 x711 +2 x712 +2 x713 +2 x714 +2 x715 -1 x391 -1 x392 -1 x393 -1 x394 -1 x395 -1 x396 -1 x397 -1 x398 -1 x399 -1 x400 >= 0 ;
+2 x716 +2 x717 +2 x718 +2 x719 +2 x720 -1 x396 -1 x397 -1 x398 -1 x399 -1 x400 -1 x401 -1 x402 -1 x403 -1 x404 -1 x405 >= 0 ;
+2 x721 +2 x722 +2 x723 +2 x724 +2 x725 -1 x401 -1 x402 -1 x403 -1 x404 -1 x405 -1 x406 -1 x407 -1 x408 -1 x409 -1 x410 >= 0 ;
+2 x726 +2 x727 +2 x728 +2 x729 +2 x730 -1 x406 -1 x407 -1 x408 -1 x409 -1 x410 -1 x411 -1 x412 -1 x413 -1 x414 -1 x415 >= 0 ;
+2 x731 +2 x732 +2 x733 +2 x734 +2 x735 -1 x411 -1 x412 -1 x413 -1 x414 -1 x415 -1 x416 -1 x417 -1 x418 -1 x419 -1 x420 >= 0 ;
+2 x736 +2 x737 +2 x738 +2 x739 +2 x740 -1 x416 -1 x417 -1 x418 -1 x419 -1 x420 -1 x421 -1 x422 -1 x423 -1 x424 -1 x425 >= 0 ;
+2 x741 +2 x742 +2 x743 +2 x744 +2 x745 -1 x421 -1 x422 -1 x423 -1 x424 -1 x425 -1 x426 -1 x427 -1 x428 -1 x429 -1 x430 >= 0 ;
+2 x746 +2 x747 +2 x748 +2 x749 +2 x750 -1 x426 -1 x427 -1 x428 -1 x429 -1 x430 -1 x431 -1 x432 -1 x433 -1 x434 -1 x435 >= 0 ;
+2 x751 +2 x752 +2 x753 +2 x754 +2 x755 -1 x431 -1 x432 -1 x433 -1 x434 -1 x435 -1 x436 -1 x437 -1 x438 -1 x439 -1 x440 >= 0 ;
+2 x756 +2 x757 +2 x758 +2 x759 +2 x760 -1 x436 -1 x437 -1 x438 -1 x439 -1 x440 -1 x441 -1 x442 -1 x443 -1 x444 -1 x445 >= 0 ;
+2 x761 +2 x762 +2 x763 +2 x764 +2 x765 -1 x441 -1 x442 -1 x443 -1 x444 -1 x445 -1 x446 -1 x447 -1 x448 -1 x449 -1 x450 >= 0 ;
+2 x766 +2 x767 +2 x768 +2 x769 +2 x770 -1 x446 -1 x447 -1 x448 -1 x449 -1 x450 -1 x451 -1 x452 -1 x453 -1 x454 -1 x455 >= 0 ;
+2 x771 +2 x772 +2 x773 +2 x774 +2 x775 -1 x451 -1 x452 -1 x453 -1 x454 -1 x455 -1 x456 -1 x457 -1 x458 -1 x459 -1 x460 >= 0 ;
+2 x776 +2 x777 +2 x778 +2 x779 +2 x780 -1 x456 -1 x457 -1 x458 -1 x459 -1 x460 -1 x461 -1 x462 -1 x463 -1 x464 -1 x465 >= 0 ;
+2 x781 +2 x782 +2 x783 +2 x784 +2 x785 -1 x461 -1 x462 -1 x463 -1 x464 -1 x465 -1 x466 -1 x467 -1 x468 -1 x469 -1 x470 >= 0 ;
+2 x786 +2 x787 +2 x788 +2 x789 +2 x790 -1 x466 -1 x467 -1 x468 -1 x469 -1 x470 -1 x471 -1 x472 -1 x473 -1 x474 -1 x475 >= 0 ;
+2 x791 +2 x792 +2 x793 +2 x794 +2 x795 -1 x471 -1 x472 -1 x473 -1 x474 -1 x475 -1 x476 -1 x477 -1 x478 -1 x479 -1 x480 >= 0 ;
+2 x796 +2 x797 +2 x798 +2 x799 +2 x800 -1 x476 -1 x477 -1 x478 -1 x479 -1 x480 -1 x481 -1 x482 -1 x483 -1 x484 -1 x485 >= 0 ;
+2 x801 +2 x802 +2 x803 +2 x804 +2 x805 -1 x481 -1 x482 -1 x483 -1 x484 -1 x485 -1 x486 -1 x487 -1 x488 -1 x489 -1 x490 >= 0 ;
+2 x806 +2 x807 +2 x808 +2 x809 +2 x810 -1 x486 -1 x487 -1 x488 -1 x489 -1 x490 -1 x491 -1 x492 -1 x493 -1 x494 -1 x495 >= 0 ;
+2 x811 +2 x812 +2 x813 +2 x814 +2 x815 -1 x491 -1 x492 -1 x493 -1 x494 -1 x495 -1 x496 -1 x497 -1 x498 -1 x499 -1 x500 >= 0 ;
+2 x816 +2 x817 +2 x818 +2 x819 +2 x820 -1 x496 -1 x497 -1 x498 -1 x499 -1 x500 -1 x501 -1 x502 -1 x503 -1 x504 -1 x505 >= 0 ;
+2 x821 +2 x822 +2 x823 +2 x824 +2 x825 -1 x501 -1 x502 -1 x503 -1 x504 -1 x505 -1 x506 -1 x507 -1 x508 -1 x509 -1 x510 >= 0 ;
+2 x826 +2 x827 +2 x828 +2 x829 +2 x830 -1 x506 -1 x507 -1 x508 -1 x509 -1 x510 -1 x511 -1 x512 -1 x513 -1 x514 -1 x515 >= 0 ;
+2 x831 +2 x832 +2 x833 +2 x834 +2 x835 -1 x511 -1 x512 -1 x513 -1 x514 -1 x515 -1 x516 -1 x517 -1 x518 -1 x519 -1 x520 >= 0 ;
+2 x836 +2 x837 +2 x838 +2 x839 +2 x840 -1 x516 -1 x517 -1 x518 -1 x519 -1 x520 -1 x521 -1 x522 -1 x523 -1 x524 -1 x525 >= 0 ;
+2 x841 +2 x842 +2 x843 +2 x844 +2 x845 -1 x521 -1 x522 -1 x523 -1 x524 -1 x525 -1 x526 -1 x527 -1 x528 -1 x529 -1 x530 >= 0 ;
+2 x846 +2 x847 +2 x848 +2 x849 +2 x850 -1 x526 -1 x527 -1 x528 -1 x529 -1 x530 -1 x531 -1 x532 -1 x533 -1 x534 -1 x535 >= 0 ;
+2 x851 +2 x852 +2 x853 +2 x854 +2 x855 -1 x531 -1 x532 -1 x533 -1 x534 -1 x535 -1 x536 -1 x537 -1 x538 -1 x539 -1 x540 >= 0 ;
+2 x856 +2 x857 +2 x858 +2 x859 +2 x860 -1 x536 -1 x537 -1 x538 -1 x539 -1 x540 -1 x541 -1 x542 -1 x543 -1 x544 -1 x545 >= 0 ;
+2 x861 +2 x862 +2 x863 +2 x864 +2 x865 -1 x541 -1 x542 -1 x543 -1 x544 -1 x545 -1 x546 -1 x547 -1 x548 -1 x549 -1 x550 >= 0 ;
+2 x866 +2 x867 +2 x868 +2 x869 +2 x870 -1 x546 -1 x547 -1 x548 -1 x549 -1 x550 -1 x551 -1 x552 -1 x553 -1 x554 -1 x555 >= 0 ;
+2 x871 +2 x872 +2 x873 +2 x874 +2 x875 -1 x551 -1 x552 -1 x553 -1 x554 -1 x555 -1 x556 -1 x557 -1 x558 -1 x559 -1 x560 >= 0 ;
+2 x876 +2 x877 +2 x878 +2 x879 +2 x880 -1 x556 -1 x557 -1 x558 -1 x559 -1 x560 -1 x561 -1 x562 -1 x563 -1 x564 -1 x565 >= 0 ;
+2 x881 +2 x882 +2 x883 +2 x884 +2 x885 -1 x561 -1 x562 -1 x563 -1 x564 -1 x565 -1 x566 -1 x567 -1 x568 -1 x569 -1 x570 >= 0 ;
+2 x886 +2 x887 +2 x888 +2 x889 +2 x890 -1 x566 -1 x567 -1 x568 -1 x569 -1 x570 -1 x571 -1 x572 -1 x573 -1 x574 -1 x575 >= 0 ;
+2 x891 +2 x892 +2 x893 +2 x894 +2 x895 -1 x571 -1 x572 -1 x573 -1 x574 -1 x575 -1 x576 -1 x577 -1 x578 -1 x579 -1 x580 >= 0 ;
+2 x896 +2 x897 +2 x898 +2 x899 +2 x900 -1 x576 -1 x577 -1 x578 -1 x579 -1 x580 -1 x581 -1 x582 -1 x583 -1 x584 -1 x585 >= 0 ;
+2 x901 +2 x902 +2 x903 +2 x904 +2 x905 -1 x581 -1 x582 -1 x583 -1 x584 -1 x585 -1 x586 -1 x587 -1 x588 -1 x589 -1 x590 >= 0 ;
+2 x906 +2 x907 +2 x908 +2 x909 +2 x910 -1 x586 -1 x587 -1 x588 -1 x589 -1 x590 -1 x591 -1 x592 -1 x593 -1 x594 -1 x595 >= 0 ;
+2 x911 +2 x912 +2 x913 +2 x914 +2 x915 -1 x591 -1 x592 -1 x593 -1 x594 -1 x595 -1 x596 -1 x597 -1 x598 -1 x599 -1 x600 >= 0 ;
+2 x916 +2 x917 +2 x918 +2 x919 +2 x920 -1 x596 -1 x597 -1 x598 -1 x599 -1 x600 -1 x601 -1 x602 -1 x603 -1 x604 -1 x605 >= 0 ;
+2 x921 +2 x922 +2 x923 +2 x924 +2 x925 -1 x601 -1 x602 -1 x603 -1 x604 -1 x605 -1 x606 -1 x607 -1 x608 -1 x609 -1 x610 >= 0 ;
+2 x926 +2 x927 +2 x928 +2 x929 +2 x930 -1 x606 -1 x607 -1 x608 -1 x609 -1 x610 -1 x611 -1 x612 -1 x613 -1 x614 -1 x615 >= 0 ;
+2 x931 +2 x932 +2 x933 +2 x934 +2 x935 -1 x611 -1 x612 -1 x613 -1 x614 -1 x615 -1 x616 -1 x617 -1 x618 -1 x619 -1 x620 >= 0 ;
+2 x936 +2 x937 +2 x938 +2 x939 +2 x940 -1 x616 -1 x617 -1 x618 -1 x619 -1 x620 -1 x621 -1 x622 -1 x623 -1 x624 -1 x625 >= 0 ;
+2 x941 +2 x942 +2 x943 +2 x944 +2 x945 -1 x621 -1 x622 -1 x623 -1 x624 -1 x625 -1 x626 -1 x627 -1 x628 -1 x629 -1 x630 >= 0 ;
+2 x946 +2 x947 +2 x948 +2 x949 +2 x950 -1 x626 -1 x627 -1 x628 -1 x629 -1 x630 -1 x631 -1 x632 -1 x633 -1 x634 -1 x635 >= 0 ;
+2 x951 +2 x952 +2 x953 +2 x954 +2 x955 -1 x631 -1 x632 -1 x633 -1 x634 -1 x635 -1 x636 -1 x637 -1 x638 -1 x639 -1 x640 >= 0 ;
+2 x956 +2 x957 +2 x958 +2 x959 +2 x960 -1 x636 -1 x637 -1 x638 -1 x639 -1 x640 -1 x641 -1 x642 -1 x643 -1 x644 -1 x645 >= 0 ;
+2 x961 +2 x962 +2 x963 +2 x964 +2 x965 -1 x646 -1 x647 -1 x648 -1 x649 -1 x650 -1 x651 -1 x652 -1 x653 -1 x654 -1 x655 >= 0 ;
+2 x966 +2 x967 +2 x968 +2 x969 +2 x970 -1 x651 -1 x652 -1 x653 -1 x654 -1 x655 -1 x656 -1 x657 -1 x658 -1 x659 -1 x660 >= 0 ;
+2 x971 +2 x972 +2 x973 +2 x974 +2 x975 -1 x656 -1 x657 -1 x658 -1 x659 -1 x660 -1 x661 -1 x662 -1 x663 -1 x664 -1 x665 >= 0 ;
+2 x976 +2 x977 +2 x978 +2 x979 +2 x980 -1 x661 -1 x662 -1 x663 -1 x664 -1 x665 -1 x666 -1 x667 -1 x668 -1 x669 -1 x670 >= 0 ;
+2 x981 +2 x982 +2 x983 +2 x984 +2 x985 -1 x666 -1 x667 -1 x668 -1 x669 -1 x670 -1 x671 -1 x672 -1 x673 -1 x674 -1 x675 >= 0 ;
+2 x986 +2 x987 +2 x988 +2 x989 +2 x990 -1 x671 -1 x672 -1 x673 -1 x674 -1 x675 -1 x676 -1 x677 -1 x678 -1 x679 -1 x680 >= 0 ;
+2 x991 +2 x992 +2 x993 +2 x994 +2 x995 -1 x676 -1 x677 -1 x678 -1 x679 -1 x680 -1 x681 -1 x682 -1 x683 -1 x684 -1 x685 >= 0 ;
+2 x996 +2 x997 +2 x998 +2 x999 +2 x1000 -1 x681 -1 x682 -1 x683 -1 x684 -1 x685 -1 x686 -1 x687 -1 x688 -1 x689 -1 x690 >= 0 ;
+2 x1001 +2 x1002 +2 x1003 +2 x1004 +2 x1005 -1 x686 -1 x687 -1 x688 -1 x689 -1 x690 -1 x691 -1 x692 -1 x693 -1 x694 -1 x695 >= 0 ;
+2 x1006 +2 x1007 +2 x1008 +2 x1009 +2 x1010 -1 x691 -1 x692 -1 x693 -1 x694 -1 x695 -1 x696 -1 x697 -1 x698 -1 x699 -1 x700 >= 0 ;
+2 x1011 +2 x1012 +2 x1013 +2 x1014 +2 x1015 -1 x696 -1 x697 -1 x698 -1 x699 -1 x700 -1 x701 -1 x702 -1 x703 -1 x704 -1 x705 >= 0 ;
+2 x1016 +2 x1017 +2 x1018 +2 x1019 +2 x1020 -1 x701 -1 x702 -1 x703 -1 x704 -1 x705 -1 x706 -1 x707 -1 x708 -1 x709 -1 x710 >= 0 ;
+2 x1021 +2 x1022 +2 x1023 +2 x1024 +2 x1025 -1 x706 -1 x707 -1 x708 -1 x709 -1 x710 -1 x711 -1 x712 -1 x713 -1 x714 -1 x715 >= 0 ;
+2 x1026 +2 x1027 +2 x1028 +2 x1029 +2 x1030 -1 x711 -1 x712 -1 x713 -1 x714 -1 x715 -1 x716 -1 x717 -1 x718 -1 x719 -1 x720 >= 0 ;
+2 x1031 +2 x1032 +2 x1033 +2 x1034 +2 x1035 -1 x716 -1 x717 -1 x718 -1 x719 -1 x720 -1 x721 -1 x722 -1 x723 -1 x724 -1 x725 >= 0 ;
+2 x1036 +2 x1037 +2 x1038 +2 x1039 +2 x1040 -1 x721 -1 x722 -1 x723 -1 x724 -1 x725 -1 x726 -1 x727 -1 x728 -1 x729 -1 x730 >= 0 ;
+2 x1041 +2 x1042 +2 x1043 +2 x1044 +2 x1045 -1 x726 -1 x727 -1 x728 -1 x729 -1 x730 -1 x731 -1 x732 -1 x733 -1 x734 -1 x735 >= 0 ;
+2 x1046 +2 x1047 +2 x1048 +2 x1049 +2 x1050 -1 x731 -1 x732 -1 x733 -1 x734 -1 x735 -1 x736 -1 x737 -1 x738 -1 x739 -1 x740 >= 0 ;
+2 x1051 +2 x1052 +2 x1053 +2 x1054 +2 x1055 -1 x736 -1 x737 -1 x738 -1 x739 -1 x740 -1 x741 -1 x742 -1 x743 -1 x744 -1 x745 >= 0 ;
+2 x1056 +2 x1057 +2 x1058 +2 x1059 +2 x1060 -1 x741 -1 x742 -1 x743 -1 x744 -1 x745 -1 x746 -1 x747 -1 x748 -1 x749 -1 x750 >= 0 ;
+2 x1061 +2 x1062 +2 x1063 +2 x1064 +2 x1065 -1 x746 -1 x747 -1 x748 -1 x749 -1 x750 -1 x751 -1 x752 -1 x753 -1 x754 -1 x755 >= 0 ;
+2 x1066 +2 x1067 +2 x1068 +2 x1069 +2 x1070 -1 x751 -1 x752 -1 x753 -1 x754 -1 x755 -1 x756 -1 x757 -1 x758 -1 x759 -1 x760 >= 0 ;
+2 x1071 +2 x1072 +2 x1073 +2 x1074 +2 x1075 -1 x756 -1 x757 -1 x758 -1 x759 -1 x760 -1 x761 -1 x762 -1 x763 -1 x764 -1 x765 >= 0 ;
+2 x1076 +2 x1077 +2 x1078 +2 x1079 +2 x1080 -1 x761 -1 x762 -1 x763 -1 x764 -1 x765 -1 x766 -1 x767 -1 x768 -1 x769 -1 x770 >= 0 ;
+2 x1081 +2 x1082 +2 x1083 +2 x1084 +2 x1085 -1 x766 -1 x767 -1 x768 -1 x769 -1 x770 -1 x771 -1 x772 -1 x773 -1 x774 -1 x775 >= 0 ;
+2 x1086 +2 x1087 +2 x1088 +2 x1089 +2 x1090 -1 x771 -1 x772 -1 x773 -1 x774 -1 x775 -1 x776 -1 x777 -1 x778 -1 x779 -1 x780 >= 0 ;
+2 x1091 +2 x1092 +2 x1093 +2 x1094 +2 x1095 -1 x776 -1 x777 -1 x778 -1 x779 -1 x780 -1 x781 -1 x782 -1 x783 -1 x784 -1 x785 >= 0 ;
+2 x1096 +2 x1097 +2 x1098 +2 x1099 +2 x1100 -1 x781 -1 x782 -1 x783 -1 x784 -1 x785 -1 x786 -1 x787 -1 x788 -1 x789 -1 x790 >= 0 ;
+2 x1101 +2 x1102 +2 x1103 +2 x1104 +2 x1105 -1 x786 -1 x787 -1 x788 -1 x789 -1 x790 -1 x791 -1 x792 -1 x793 -1 x794 -1 x795 >= 0 ;
+2 x1106 +2 x1107 +2 x1108 +2 x1109 +2 x1110 -1 x791 -1 x792 -1 x793 -1 x794 -1 x795 -1 x796 -1 x797 -1 x798 -1 x799 -1 x800 >= 0 ;
+2 x1111 +2 x1112 +2 x1113 +2 x1114 +2 x1115 -1 x796 -1 x797 -1 x798 -1 x799 -1 x800 -1 x801 -1 x802 -1 x803 -1 x804 -1 x805 >= 0 ;
+2 x1116 +2 x1117 +2 x1118 +2 x1119 +2 x1120 -1 x801 -1 x802 -1 x803 -1 x804 -1 x805 -1 x806 -1 x807 -1 x808 -1 x809 -1 x810 >= 0 ;
+2 x1121 +2 x1122 +2 x1123 +2 x1124 +2 x1125 -1 x806 -1 x807 -1 x808 -1 x809 -1 x810 -1 x811 -1 x812 -1 x813 -1 x814 -1 x815 >= 0 ;
+2 x1126 +2 x1127 +2 x1128 +2 x1129 +2 x1130 -1 x811 -1 x812 -1 x813 -1 x814 -1 x815 -1 x816 -1 x817 -1 x818 -1 x819 -1 x820 >= 0 ;
+2 x1131 +2 x1132 +2 x1133 +2 x1134 +2 x1135 -1 x816 -1 x817 -1 x818 -1 x819 -1 x820 -1 x821 -1 x822 -1 x823 -1 x824 -1 x825 >= 0 ;
+2 x1136 +2 x1137 +2 x1138 +2 x1139 +2 x1140 -1 x821 -1 x822 -1 x823 -1 x824 -1 x825 -1 x826 -1 x827 -1 x828 -1 x829 -1 x830 >= 0 ;
+2 x1141 +2 x1142 +2 x1143 +2 x1144 +2 x1145 -1 x826 -1 x827 -1 x828 -1 x829 -1 x830 -1 x831 -1 x832 -1 x833 -1 x834 -1 x835 >= 0 ;
+2 x1146 +2 x1147 +2 x1148 +2 x1149 +2 x1150 -1 x831 -1 x832 -1 x833 -1 x834 -1 x835 -1 x836 -1 x837 -1 x838 -1 x839 -1 x840 >= 0 ;
+2 x1151 +2 x1152 +2 x1153 +2 x1154 +2 x1155 -1 x836 -1 x837 -1 x838 -1 x839 -1 x840 -1 x841 -1 x842 -1 x843 -1 x844 -1 x845 >= 0 ;
+2 x1156 +2 x1157 +2 x1158 +2 x1159 +2 x1160 -1 x841 -1 x842 -1 x843 -1 x844 -1 x845 -1 x846 -1 x847 -1 x848 -1 x849 -1 x850 >= 0 ;
+2 x1161 +2 x1162 +2 x1163 +2 x1164 +2 x1165 -1 x846 -1 x847 -1 x848 -1 x849 -1 x850 -1 x851 -1 x852 -1 x853 -1 x854 -1 x855 >= 0 ;
+2 x1166 +2 x1167 +2 x1168 +2 x1169 +2 x1170 -1 x851 -1 x852 -1 x853 -1 x854 -1 x855 -1 x856 -1 x857 -1 x858 -1 x859 -1 x860 >= 0 ;
+2 x1171 +2 x1172 +2 x1173 +2 x1174 +2 x1175 -1 x856 -1 x857 -1 x858 -1 x859 -1 x860 -1 x861 -1 x862 -1 x863 -1 x864 -1 x865 >= 0 ;
+2 x1176 +2 x1177 +2 x1178 +2 x1179 +2 x1180 -1 x861 -1 x862 -1 x863 -1 x864 -1 x865 -1 x866 -1 x867 -1 x868 -1 x869 -1 x870 >= 0 ;
+2 x1181 +2 x1182 +2 x1183 +2 x1184 +2 x1185 -1 x866 -1 x867 -1 x868 -1 x869 -1 x870 -1 x871 -1 x872 -1 x873 -1 x874 -1 x875 >= 0 ;
+2 x1186 +2 x1187 +2 x1188 +2 x1189 +2 x1190 -1 x871 -1 x872 -1 x873 -1 x874 -1 x875 -1 x876 -1 x877 -1 x878 -1 x879 -1 x880 >= 0 ;
+2 x1191 +2 x1192 +2 x1193 +2 x1194 +2 x1195 -1 x876 -1 x877 -1 x878 -1 x879 -1 x880 -1 x881 -1 x882 -1 x883 -1 x884 -1 x885 >= 0 ;
+2 x1196 +2 x1197 +2 x1198 +2 x1199 +2 x1200 -1 x881 -1 x882 -1 x883 -1 x884 -1 x885 -1 x886 -1 x887 -1 x888 -1 x889 -1 x890 >= 0 ;
+2 x1201 +2 x1202 +2 x1203 +2 x1204 +2 x1205 -1 x886 -1 x887 -1 x888 -1 x889 -1 x890 -1 x891 -1 x892 -1 x893 -1 x894 -1 x895 >= 0 ;
+2 x1206 +2 x1207 +2 x1208 +2 x1209 +2 x1210 -1 x891 -1 x892 -1 x893 -1 x894 -1 x895 -1 x896 -1 x897 -1 x898 -1 x899 -1 x900 >= 0 ;
+2 x1211 +2 x1212 +2 x1213 +2 x1214 +2 x1215 -1 x896 -1 x897 -1 x898 -1 x899 -1 x900 -1 x901 -1 x902 -1 x903 -1 x904 -1 x905 >= 0 ;
+2 x1216 +2 x1217 +2 x1218 +2 x1219 +2 x1220 -1 x901 -1 x902 -1 x903 -1 x904 -1 x905 -1 x906 -1 x907 -1 x908 -1 x909 -1 x910 >= 0 ;
+2 x1221 +2 x1222 +2 x1223 +2 x1224 +2 x1225 -1 x906 -1 x907 -1 x908 -1 x909 -1 x910 -1 x911 -1 x912 -1 x913 -1 x914 -1 x915 >= 0 ;
+2 x1226 +2 x1227 +2 x1228 +2 x1229 +2 x1230 -1 x911 -1 x912 -1 x913 -1 x914 -1 x915 -1 x916 -1 x917 -1 x918 -1 x919 -1 x920 >= 0 ;
+2 x1231 +2 x1232 +2 x1233 +2 x1234 +2 x1235 -1 x916 -1 x917 -1 x918 -1 x919 -1 x920 -1 x921 -1 x922 -1 x923 -1 x924 -1 x925 >= 0 ;
+2 x1236 +2 x1237 +2 x1238 +2 x1239 +2 x1240 -1 x921 -1 x922 -1 x923 -1 x924 -1 x925 -1 x926 -1 x927 -1 x928 -1 x929 -1 x930 >= 0 ;
+2 x1241 +2 x1242 +2 x1243 +2 x1244 +2 x1245 -1 x926 -1 x927 -1 x928 -1 x929 -1 x930 -1 x931 -1 x932 -1 x933 -1 x934 -1 x935 >= 0 ;
+2 x1246 +2 x1247 +2 x1248 +2 x1249 +2 x1250 -1 x931 -1 x932 -1 x933 -1 x934 -1 x935 -1 x936 -1 x937 -1 x938 -1 x939 -1 x940 >= 0 ;
+2 x1251 +2 x1252 +2 x1253 +2 x1254 +2 x1255 -1 x936 -1 x937 -1 x938 -1 x939 -1 x940 -1 x941 -1 x942 -1 x943 -1 x944 -1 x945 >= 0 ;
+2 x1256 +2 x1257 +2 x1258 +2 x1259 +2 x1260 -1 x941 -1 x942 -1 x943 -1 x944 -1 x945 -1 x946 -1 x947 -1 x948 -1 x949 -1 x950 >= 0 ;
+2 x1261 +2 x1262 +2 x1263 +2 x1264 +2 x1265 -1 x946 -1 x947 -1 x948 -1 x949 -1 x950 -1 x951 -1 x952 -1 x953 -1 x954 -1 x955 >= 0 ;
+2 x1266 +2 x1267 +2 x1268 +2 x1269 +2 x1270 -1 x951 -1 x952 -1 x953 -1 x954 -1 x955 -1 x956 -1 x957 -1 x958 -1 x959 -1 x960 >= 0 ;
+2 x1271 +2 x1272 +2 x1273 +2 x1274 +2 x1275 -1 x961 -1 x962 -1 x963 -1 x964 -1 x965 -1 x966 -1 x967 -1 x968 -1 x969 -1 x970 >= 0 ;
+2 x1276 +2 x1277 +2 x1278 +2 x1279 +2 x1280 -1 x966 -1 x967 -1 x968 -1 x969 -1 x970 -1 x971 -1 x972 -1 x973 -1 x974 -1 x975 >= 0 ;
+2 x1281 +2 x1282 +2 x1283 +2 x1284 +2 x1285 -1 x971 -1 x972 -1 x973 -1 x974 -1 x975 -1 x976 -1 x977 -1 x978 -1 x979 -1 x980 >= 0 ;
+2 x1286 +2 x1287 +2 x1288 +2 x1289 +2 x1290 -1 x976 -1 x977 -1 x978 -1 x979 -1 x980 -1 x981 -1 x982 -1 x983 -1 x984 -1 x985 >= 0 ;
+2 x1291 +2 x1292 +2 x1293 +2 x1294 +2 x1295 -1 x981 -1 x982 -1 x983 -1 x984 -1 x985 -1 x986 -1 x987 -1 x988 -1 x989 -1 x990 >= 0 ;
+2 x1296 +2 x1297 +2 x1298 +2 x1299 +2 x1300 -1 x986 -1 x987 -1 x988 -1 x989 -1 x990 -1 x991 -1 x992 -1 x993 -1 x994 -1 x995 >= 0 ;
+2 x1301 +2 x1302 +2 x1303 +2 x1304 +2 x1305 -1 x991 -1 x992 -1 x993 -1 x994 -1 x995 -1 x996 -1 x997 -1 x998 -1 x999 -1 x1000 >= 0 ;
+2 x1306 +2 x1307 +2 x1308 +2 x1309 +2 x1310 -1 x996 -1 x997 -1 x998 -1 x999 -1 x1000 -1 x1001 -1 x1002 -1 x1003 -1 x1004 -1 x1005 >= 0 ;
+2 x1311 +2 x1312 +2 x1313 +2 x1314 +2 x1315 -1 x1001 -1 x1002 -1 x1003 -1 x1004 -1 x1005 -1 x1006 -1 x1007 -1 x1008 -1 x1009 -1 x1010 >= 0 ;
+2 x1316 +2 x1317 +2 x1318 +2 x1319 +2 x1320 -1 x1006 -1 x1007 -1 x1008 -1 x1009 -1 x1010 -1 x1011 -1 x1012 -1 x1013 -1 x1014 -1 x1015 >= 0 ;
+2 x1321 +2 x1322 +2 x1323 +2 x1324 +2 x1325 -1 x1011 -1 x1012 -1 x1013 -1 x1014 -1 x1015 -1 x1016 -1 x1017 -1 x1018 -1 x1019 -1 x1020 >= 0 ;
+2 x1326 +2 x1327 +2 x1328 +2 x1329 +2 x1330 -1 x1016 -1 x1017 -1 x1018 -1 x1019 -1 x1020 -1 x1021 -1 x1022 -1 x1023 -1 x1024 -1 x1025 >= 0 ;
+2 x1331 +2 x1332 +2 x1333 +2 x1334 +2 x1335 -1 x1021 -1 x1022 -1 x1023 -1 x1024 -1 x1025 -1 x1026 -1 x1027 -1 x1028 -1 x1029 -1 x1030 >= 0 ;
+2 x1336 +2 x1337 +2 x1338 +2 x1339 +2 x1340 -1 x1026 -1 x1027 -1 x1028 -1 x1029 -1 x1030 -1 x1031 -1 x1032 -1 x1033 -1 x1034 -1 x1035 >= 0 ;
+2 x1341 +2 x1342 +2 x1343 +2 x1344 +2 x1345 -1 x1031 -1 x1032 -1 x1033 -1 x1034 -1 x1035 -1 x1036 -1 x1037 -1 x1038 -1 x1039 -1 x1040 >= 0 ;
+2 x1346 +2 x1347 +2 x1348 +2 x1349 +2 x1350 -1 x1036 -1 x1037 -1 x1038 -1 x1039 -1 x1040 -1 x1041 -1 x1042 -1 x1043 -1 x1044 -1 x1045 >= 0 ;
+2 x1351 +2 x1352 +2 x1353 +2 x1354 +2 x1355 -1 x1041 -1 x1042 -1 x1043 -1 x1044 -1 x1045 -1 x1046 -1 x1047 -1 x1048 -1 x1049 -1 x1050 >= 0 ;
+2 x1356 +2 x1357 +2 x1358 +2 x1359 +2 x1360 -1 x1046 -1 x1047 -1 x1048 -1 x1049 -1 x1050 -1 x1051 -1 x1052 -1 x1053 -1 x1054 -1 x1055 >= 0 ;
+2 x1361 +2 x1362 +2 x1363 +2 x1364 +2 x1365 -1 x1051 -1 x1052 -1 x1053 -1 x1054 -1 x1055 -1 x1056 -1 x1057 -1 x1058 -1 x1059 -1 x1060 >= 0 ;
+2 x1366 +2 x1367 +2 x1368 +2 x1369 +2 x1370 -1 x1056 -1 x1057 -1 x1058 -1 x1059 -1 x1060 -1 x1061 -1 x1062 -1 x1063 -1 x1064 -1 x1065 >= 0 ;
+2 x1371 +2 x1372 +2 x1373 +2 x1374 +2 x1375 -1 x1061 -1 x1062 -1 x1063 -1 x1064 -1 x1065 -1 x1066 -1 x1067 -1 x1068 -1 x1069 -1 x1070 >= 0 ;
+2 x1376 +2 x1377 +2 x1378 +2 x1379 +2 x1380 -1 x1066 -1 x1067 -1 x1068 -1 x1069 -1 x1070 -1 x1071 -1 x1072 -1 x1073 -1 x1074 -1 x1075 >= 0 ;
+2 x1381 +2 x1382 +2 x1383 +2 x1384 +2 x1385 -1 x1071 -1 x1072 -1 x1073 -1 x1074 -1 x1075 -1 x1076 -1 x1077 -1 x1078 -1 x1079 -1 x1080 >= 0 ;
+2 x1386 +2 x1387 +2 x1388 +2 x1389 +2 x1390 -1 x1076 -1 x1077 -1 x1078 -1 x1079 -1 x1080 -1 x1081 -1 x1082 -1 x1083 -1 x1084 -1 x1085 >= 0 ;
+2 x1391 +2 x1392 +2 x1393 +2 x1394 +2 x1395 -1 x1081 -1 x1082 -1 x1083 -1 x1084 -1 x1085 -1 x1086 -1 x1087 -1 x1088 -1 x1089 -1 x1090 >= 0 ;
+2 x1396 +2 x1397 +2 x1398 +2 x1399 +2 x1400 -1 x1086 -1 x1087 -1 x1088 -1 x1089 -1 x1090 -1 x1091 -1 x1092 -1 x1093 -1 x1094 -1 x1095 >= 0 ;
+2 x1401 +2 x1402 +2 x1403 +2 x1404 +2 x1405 -1 x1091 -1 x1092 -1 x1093 -1 x1094 -1 x1095 -1 x1096 -1 x1097 -1 x1098 -1 x1099 -1 x1100 >= 0 ;
+2 x1406 +2 x1407 +2 x1408 +2 x1409 +2 x1410 -1 x1096 -1 x1097 -1 x1098 -1 x1099 -1 x1100 -1 x1101 -1 x1102 -1 x1103 -1 x1104 -1 x1105 >= 0 ;
+2 x1411 +2 x1412 +2 x1413 +2 x1414 +2 x1415 -1 x1101 -1 x1102 -1 x1103 -1 x1104 -1 x1105 -1 x1106 -1 x1107 -1 x1108 -1 x1109 -1 x1110 >= 0 ;
+2 x1416 +2 x1417 +2 x1418 +2 x1419 +2 x1420 -1 x1106 -1 x1107 -1 x1108 -1 x1109 -1 x1110 -1 x1111 -1 x1112 -1 x1113 -1 x1114 -1 x1115 >= 0 ;
+2 x1421 +2 x1422 +2 x1423 +2 x1424 +2 x1425 -1 x1111 -1 x1112 -1 x1113 -1 x1114 -1 x1115 -1 x1116 -1 x1117 -1 x1118 -1 x1119 -1 x1120 >= 0 ;
+2 x1426 +2 x1427 +2 x1428 +2 x1429 +2 x1430 -1 x1116 -1 x1117 -1 x1118 -1 x1119 -1 x1120 -1 x1121 -1 x1122 -1 x1123 -1 x1124 -1 x1125 >= 0 ;
+2 x1431 +2 x1432 +2 x1433 +2 x1434 +2 x1435 -1 x1121 -1 x1122 -1 x1123 -1 x1124 -1 x1125 -1 x1126 -1 x1127 -1 x1128 -1 x1129 -1 x1130 >= 0 ;
+2 x1436 +2 x1437 +2 x1438 +2 x1439 +2 x1440 -1 x1126 -1 x1127 -1 x1128 -1 x1129 -1 x1130 -1 x1131 -1 x1132 -1 x1133 -1 x1134 -1 x1135 >= 0 ;
+2 x1441 +2 x1442 +2 x1443 +2 x1444 +2 x1445 -1 x1131 -1 x1132 -1 x1133 -1 x1134 -1 x1135 -1 x1136 -1 x1137 -1 x1138 -1 x1139 -1 x1140 >= 0 ;
+2 x1446 +2 x1447 +2 x1448 +2 x1449 +2 x1450 -1 x1136 -1 x1137 -1 x1138 -1 x1139 -1 x1140 -1 x1141 -1 x1142 -1 x1143 -1 x1144 -1 x1145 >= 0 ;
+2 x1451 +2 x1452 +2 x1453 +2 x1454 +2 x1455 -1 x1141 -1 x1142 -1 x1143 -1 x1144 -1 x1145 -1 x1146 -1 x1147 -1 x1148 -1 x1149 -1 x1150 >= 0 ;
+2 x1456 +2 x1457 +2 x1458 +2 x1459 +2 x1460 -1 x1146 -1 x1147 -1 x1148 -1 x1149 -1 x1150 -1 x1151 -1 x1152 -1 x1153 -1 x1154 -1 x1155 >= 0 ;
+2 x1461 +2 x1462 +2 x1463 +2 x1464 +2 x1465 -1 x1151 -1 x1152 -1 x1153 -1 x1154 -1 x1155 -1 x1156 -1 x1157 -1 x1158 -1 x1159 -1 x1160 >= 0 ;
+2 x1466 +2 x1467 +2 x1468 +2 x1469 +2 x1470 -1 x1156 -1 x1157 -1 x1158 -1 x1159 -1 x1160 -1 x1161 -1 x1162 -1 x1163 -1 x1164 -1 x1165 >= 0 ;
+2 x1471 +2 x1472 +2 x1473 +2 x1474 +2 x1475 -1 x1161 -1 x1162 -1 x1163 -1 x1164 -1 x1165 -1 x1166 -1 x1167 -1 x1168 -1 x1169 -1 x1170 >= 0 ;
+2 x1476 +2 x1477 +2 x1478 +2 x1479 +2 x1480 -1 x1166 -1 x1167 -1 x1168 -1 x1169 -1 x1170 -1 x1171 -1 x1172 -1 x1173 -1 x1174 -1 x1175 >= 0 ;
+2 x1481 +2 x1482 +2 x1483 +2 x1484 +2 x1485 -1 x1171 -1 x1172 -1 x1173 -1 x1174 -1 x1175 -1 x1176 -1 x1177 -1 x1178 -1 x1179 -1 x1180 >= 0 ;
+2 x1486 +2 x1487 +2 x1488 +2 x1489 +2 x1490 -1 x1176 -1 x1177 -1 x1178 -1 x1179 -1 x1180 -1 x1181 -1 x1182 -1 x1183 -1 x1184 -1 x1185 >= 0 ;
+2 x1491 +2 x1492 +2 x1493 +2 x1494 +2 x1495 -1 x1181 -1 x1182 -1 x1183 -1 x1184 -1 x1185 -1 x1186 -1 x1187 -1 x1188 -1 x1189 -1 x1190 >= 0 ;
+2 x1496 +2 x1497 +2 x1498 +2 x1499 +2 x1500 -1 x1186 -1 x1187 -1 x1188 -1 x1189 -1 x1190 -1 x1191 -1 x1192 -1 x1193 -1 x1194 -1 x1195 >= 0 ;
+2 x1501 +2 x1502 +2 x1503 +2 x1504 +2 x1505 -1 x1191 -1 x1192 -1 x1193 -1 x1194 -1 x1195 -1 x1196 -1 x1197 -1 x1198 -1 x1199 -1 x1200 >= 0 ;
+2 x1506 +2 x1507 +2 x1508 +2 x1509 +2 x1510 -1 x1196 -1 x1197 -1 x1198 -1 x1199 -1 x1200 -1 x1201 -1 x1202 -1 x1203 -1 x1204 -1 x1205 >= 0 ;
+2 x1511 +2 x1512 +2 x1513 +2 x1514 +2 x1515 -1 x1201 -1 x1202 -1 x1203 -1 x1204 -1 x1205 -1 x1206 -1 x1207 -1 x1208 -1 x1209 -1 x1210 >= 0 ;
+2 x1516 +2 x1517 +2 x1518 +2 x1519 +2 x1520 -1 x1206 -1 x1207 -1 x1208 -1 x1209 -1 x1210 -1 x1211 -1 x1212 -1 x1213 -1 x1214 -1 x1215 >= 0 ;
+2 x1521 +2 x1522 +2 x1523 +2 x1524 +2 x1525 -1 x1211 -1 x1212 -1 x1213 -1 x1214 -1 x1215 -1 x1216 -1 x1217 -1 x1218 -1 x1219 -1 x1220 >= 0 ;
+2 x1526 +2 x1527 +2 x1528 +2 x1529 +2 x1530 -1 x1216 -1 x1217 -1 x1218 -1 x1219 -1 x1220 -1 x1221 -1 x1222 -1 x1223 -1 x1224 -1 x1225 >= 0 ;
+2 x1531 +2 x1532 +2 x1533 +2 x1534 +2 x1535 -1 x1221 -1 x1222 -1 x1223 -1 x1224 -1 x1225 -1 x1226 -1 x1227 -1 x1228 -1 x1229 -1 x1230 >= 0 ;
+2 x1536 +2 x1537 +2 x1538 +2 x1539 +2 x1540 -1 x1226 -1 x1227 -1 x1228 -1 x1229 -1 x1230 -1 x1231 -1 x1232 -1 x1233 -1 x1234 -1 x1235 >= 0 ;
+2 x1541 +2 x1542 +2 x1543 +2 x1544 +2 x1545 -1 x1231 -1 x1232 -1 x1233 -1 x1234 -1 x1235 -1 x1236 -1 x1237 -1 x1238 -1 x1239 -1 x1240 >= 0 ;
+2 x1546 +2 x1547 +2 x1548 +2 x1549 +2 x1550 -1 x1236 -1 x1237 -1 x1238 -1 x1239 -1 x1240 -1 x1241 -1 x1242 -1 x1243 -1 x1244 -1 x1245 >= 0 ;
+2 x1551 +2 x1552 +2 x1553 +2 x1554 +2 x1555 -1 x1241 -1 x1242 -1 x1243 -1 x1244 -1 x1245 -1 x1246 -1 x1247 -1 x1248 -1 x1249 -1 x1250 >= 0 ;
+2 x1556 +2 x1557 +2 x1558 +2 x1559 +2 x1560 -1 x1246 -1 x1247 -1 x1248 -1 x1249 -1 x1250 -1 x1251 -1 x1252 -1 x1253 -1 x1254 -1 x1255 >= 0 ;
+2 x1561 +2 x1562 +2 x1563 +2 x1564 +2 x1565 -1 x1251 -1 x1252 -1 x1253 -1 x1254 -1 x1255 -1 x1256 -1 x1257 -1 x1258 -1 x1259 -1 x1260 >= 0 ;
+2 x1566 +2 x1567 +2 x1568 +2 x1569 +2 x1570 -1 x1256 -1 x1257 -1 x1258 -1 x1259 -1 x1260 -1 x1261 -1 x1262 -1 x1263 -1 x1264 -1 x1265 >= 0 ;
+2 x1571 +2 x1572 +2 x1573 +2 x1574 +2 x1575 -1 x1261 -1 x1262 -1 x1263 -1 x1264 -1 x1265 -1 x1266 -1 x1267 -1 x1268 -1 x1269 -1 x1270 >= 0 ;
+2 x1576 +2 x1577 +2 x1578 +2 x1579 +2 x1580 -1 x1271 -1 x1272 -1 x1273 -1 x1274 -1 x1275 -1 x1276 -1 x1277 -1 x1278 -1 x1279 -1 x1280 >= 0 ;
+2 x1581 +2 x1582 +2 x1583 +2 x1584 +2 x1585 -1 x1276 -1 x1277 -1 x1278 -1 x1279 -1 x1280 -1 x1281 -1 x1282 -1 x1283 -1 x1284 -1 x1285 >= 0 ;
+2 x1586 +2 x1587 +2 x1588 +2 x1589 +2 x1590 -1 x1281 -1 x1282 -1 x1283 -1 x1284 -1 x1285 -1 x1286 -1 x1287 -1 x1288 -1 x1289 -1 x1290 >= 0 ;
+2 x1591 +2 x1592 +2 x1593 +2 x1594 +2 x1595 -1 x1286 -1 x1287 -1 x1288 -1 x1289 -1 x1290 -1 x1291 -1 x1292 -1 x1293 -1 x1294 -1 x1295 >= 0 ;
+2 x1596 +2 x1597 +2 x1598 +2 x1599 +2 x1600 -1 x1291 -1 x1292 -1 x1293 -1 x1294 -1 x1295 -1 x1296 -1 x1297 -1 x1298 -1 x1299 -1 x1300 >= 0 ;
+2 x1601 +2 x1602 +2 x1603 +2 x1604 +2 x1605 -1 x1296 -1 x1297 -1 x1298 -1 x1299 -1 x1300 -1 x1301 -1 x1302 -1 x1303 -1 x1304 -1 x1305 >= 0 ;
+2 x1606 +2 x1607 +2 x1608 +2 x1609 +2 x1610 -1 x1301 -1 x1302 -1 x1303 -1 x1304 -1 x1305 -1 x1306 -1 x1307 -1 x1308 -1 x1309 -1 x1310 >= 0 ;
+2 x1611 +2 x1612 +2 x1613 +2 x1614 +2 x1615 -1 x1306 -1 x1307 -1 x1308 -1 x1309 -1 x1310 -1 x1311 -1 x1312 -1 x1313 -1 x1314 -1 x1315 >= 0 ;
+2 x1616 +2 x1617 +2 x1618 +2 x1619 +2 x1620 -1 x1311 -1 x1312 -1 x1313 -1 x1314 -1 x1315 -1 x1316 -1 x1317 -1 x1318 -1 x1319 -1 x1320 >= 0 ;
+2 x1621 +2 x1622 +2 x1623 +2 x1624 +2 x1625 -1 x1316 -1 x1317 -1 x1318 -1 x1319 -1 x1320 -1 x1321 -1 x1322 -1 x1323 -1 x1324 -1 x1325 >= 0 ;
+2 x1626 +2 x1627 +2 x1628 +2 x1629 +2 x1630 -1 x1321 -1 x1322 -1 x1323 -1 x1324 -1 x1325 -1 x1326 -1 x1327 -1 x1328 -1 x1329 -1 x1330 >= 0 ;
+2 x1631 +2 x1632 +2 x1633 +2 x1634 +2 x1635 -1 x1326 -1 x1327 -1 x1328 -1 x1329 -1 x1330 -1 x1331 -1 x1332 -1 x1333 -1 x1334 -1 x1335 >= 0 ;
+2 x1636 +2 x1637 +2 x1638 +2 x1639 +2 x1640 -1 x1331 -1 x1332 -1 x1333 -1 x1334 -1 x1335 -1 x1336 -1 x1337 -1 x1338 -1 x1339 -1 x1340 >= 0 ;
+2 x1641 +2 x1642 +2 x1643 +2 x1644 +2 x1645 -1 x1336 -1 x1337 -1 x1338 -1 x1339 -1 x1340 -1 x1341 -1 x1342 -1 x1343 -1 x1344 -1 x1345 >= 0 ;
+2 x1646 +2 x1647 +2 x1648 +2 x1649 +2 x1650 -1 x1341 -1 x1342 -1 x1343 -1 x1344 -1 x1345 -1 x1346 -1 x1347 -1 x1348 -1 x1349 -1 x1350 >= 0 ;
+2 x1651 +2 x1652 +2 x1653 +2 x1654 +2 x1655 -1 x1346 -1 x1347 -1 x1348 -1 x1349 -1 x1350 -1 x1351 -1 x1352 -1 x1353 -1 x1354 -1 x1355 >= 0 ;
+2 x1656 +2 x1657 +2 x1658 +2 x1659 +2 x1660 -1 x1351 -1 x1352 -1 x1353 -1 x1354 -1 x1355 -1 x1356 -1 x1357 -1 x1358 -1 x1359 -1 x1360 >= 0 ;
+2 x1661 +2 x1662 +2 x1663 +2 x1664 +2 x1665 -1 x1356 -1 x1357 -1 x1358 -1 x1359 -1 x1360 -1 x1361 -1 x1362 -1 x1363 -1 x1364 -1 x1365 >= 0 ;
+2 x1666 +2 x1667 +2 x1668 +2 x1669 +2 x1670 -1 x1361 -1 x1362 -1 x1363 -1 x1364 -1 x1365 -1 x1366 -1 x1367 -1 x1368 -1 x1369 -1 x1370 >= 0 ;
+2 x1671 +2 x1672 +2 x1673 +2 x1674 +2 x1675 -1 x1366 -1 x1367 -1 x1368 -1 x1369 -1 x1370 -1 x1371 -1 x1372 -1 x1373 -1 x1374 -1 x1375 >= 0 ;
+2 x1676 +2 x1677 +2 x1678 +2 x1679 +2 x1680 -1 x1371 -1 x1372 -1 x1373 -1 x1374 -1 x1375 -1 x1376 -1 x1377 -1 x1378 -1 x1379 -1 x1380 >= 0 ;
+2 x1681 +2 x1682 +2 x1683 +2 x1684 +2 x1685 -1 x1376 -1 x1377 -1 x1378 -1 x1379 -1 x1380 -1 x1381 -1 x1382 -1 x1383 -1 x1384 -1 x1385 >= 0 ;
+2 x1686 +2 x1687 +2 x1688 +2 x1689 +2 x1690 -1 x1381 -1 x1382 -1 x1383 -1 x1384 -1 x1385 -1 x1386 -1 x1387 -1 x1388 -1 x1389 -1 x1390 >= 0 ;
+2 x1691 +2 x1692 +2 x1693 +2 x1694 +2 x1695 -1 x1386 -1 x1387 -1 x1388 -1 x1389 -1 x1390 -1 x1391 -1 x1392 -1 x1393 -1 x1394 -1 x1395 >= 0 ;
+2 x1696 +2 x1697 +2 x1698 +2 x1699 +2 x1700 -1 x1391 -1 x1392 -1 x1393 -1 x1394 -1 x1395 -1 x1396 -1 x1397 -1 x1398 -1 x1399 -1 x1400 >= 0 ;
+2 x1701 +2 x1702 +2 x1703 +2 x1704 +2 x1705 -1 x1396 -1 x1397 -1 x1398 -1 x1399 -1 x1400 -1 x1401 -1 x1402 -1 x1403 -1 x1404 -1 x1405 >= 0 ;
+2 x1706 +2 x1707 +2 x1708 +2 x1709 +2 x1710 -1 x1401 -1 x1402 -1 x1403 -1 x1404 -1 x1405 -1 x1406 -1 x1407 -1 x1408 -1 x1409 -1 x1410 >= 0 ;
+2 x1711 +2 x1712 +2 x1713 +2 x1714 +2 x1715 -1 x1406 -1 x1407 -1 x1408 -1 x1409 -1 x1410 -1 x1411 -1 x1412 -1 x1413 -1 x1414 -1 x1415 >= 0 ;
+2 x1716 +2 x1717 +2 x1718 +2 x1719 +2 x1720 -1 x1411 -1 x1412 -1 x1413 -1 x1414 -1 x1415 -1 x1416 -1 x1417 -1 x1418 -1 x1419 -1 x1420 >= 0 ;
+2 x1721 +2 x1722 +2 x1723 +2 x1724 +2 x1725 -1 x1416 -1 x1417 -1 x1418 -1 x1419 -1 x1420 -1 x1421 -1 x1422 -1 x1423 -1 x1424 -1 x1425 >= 0 ;
+2 x1726 +2 x1727 +2 x1728 +2 x1729 +2 x1730 -1 x1421 -1 x1422 -1 x1423 -1 x1424 -1 x1425 -1 x1426 -1 x1427 -1 x1428 -1 x1429 -1 x1430 >= 0 ;
+2 x1731 +2 x1732 +2 x1733 +2 x1734 +2 x1735 -1 x1426 -1 x1427 -1 x1428 -1 x1429 -1 x1430 -1 x1431 -1 x1432 -1 x1433 -1 x1434 -1 x1435 >= 0 ;
+2 x1736 +2 x1737 +2 x1738 +2 x1739 +2 x1740 -1 x1431 -1 x1432 -1 x1433 -1 x1434 -1 x1435 -1 x1436 -1 x1437 -1 x1438 -1 x1439 -1 x1440 >= 0 ;
+2 x1741 +2 x1742 +2 x1743 +2 x1744 +2 x1745 -1 x1436 -1 x1437 -1 x1438 -1 x1439 -1 x1440 -1 x1441 -1 x1442 -1 x1443 -1 x1444 -1 x1445 >= 0 ;
+2 x1746 +2 x1747 +2 x1748 +2 x1749 +2 x1750 -1 x1441 -1 x1442 -1 x1443 -1 x1444 -1 x1445 -1 x1446 -1 x1447 -1 x1448 -1 x1449 -1 x1450 >= 0 ;
+2 x1751 +2 x1752 +2 x1753 +2 x1754 +2 x1755 -1 x1446 -1 x1447 -1 x1448 -1 x1449 -1 x1450 -1 x1451 -1 x1452 -1 x1453 -1 x1454 -1 x1455 >= 0 ;
+2 x1756 +2 x1757 +2 x1758 +2 x1759 +2 x1760 -1 x1451 -1 x1452 -1 x1453 -1 x1454 -1 x1455 -1 x1456 -1 x1457 -1 x1458 -1 x1459 -1 x1460 >= 0 ;
+2 x1761 +2 x1762 +2 x1763 +2 x1764 +2 x1765 -1 x1456 -1 x1457 -1 x1458 -1 x1459 -1 x1460 -1 x1461 -1 x1462 -1 x1463 -1 x1464 -1 x1465 >= 0 ;
+2 x1766 +2 x1767 +2 x1768 +2 x1769 +2 x1770 -1 x1461 -1 x1462 -1 x1463 -1 x1464 -1 x1465 -1 x1466 -1 x1467 -1 x1468 -1 x1469 -1 x1470 >= 0 ;
+2 x1771 +2 x1772 +2 x1773 +2 x1774 +2 x1775 -1 x1466 -1 x1467 -1 x1468 -1 x1469 -1 x1470 -1 x1471 -1 x1472 -1 x1473 -1 x1474 -1 x1475 >= 0 ;
+2 x1776 +2 x1777 +2 x1778 +2 x1779 +2 x1780 -1 x1471 -1 x1472 -1 x1473 -1 x1474 -1 x1475 -1 x1476 -1 x1477 -1 x1478 -1 x1479 -1 x1480 >= 0 ;
+2 x1781 +2 x1782 +2 x1783 +2 x1784 +2 x1785 -1 x1476 -1 x1477 -1 x1478 -1 x1479 -1 x1480 -1 x1481 -1 x1482 -1 x1483 -1 x1484 -1 x1485 >= 0 ;
+2 x1786 +2 x1787 +2 x1788 +2 x1789 +2 x1790 -1 x1481 -1 x1482 -1 x1483 -1 x1484 -1 x1485 -1 x1486 -1 x1487 -1 x1488 -1 x1489 -1 x1490 >= 0 ;
+2 x1791 +2 x1792 +2 x1793 +2 x1794 +2 x1795 -1 x1486 -1 x1487 -1 x1488 -1 x1489 -1 x1490 -1 x1491 -1 x1492 -1 x1493 -1 x1494 -1 x1495 >= 0 ;
+2 x1796 +2 x1797 +2 x1798 +2 x1799 +2 x1800 -1 x1491 -1 x1492 -1 x1493 -1 x1494 -1 x1495 -1 x1496 -1 x1497 -1 x1498 -1 x1499 -1 x1500 >= 0 ;
+2 x1801 +2 x1802 +2 x1803 +2 x1804 +2 x1805 -1 x1496 -1 x1497 -1 x1498 -1 x1499 -1 x1500 -1 x1501 -1 x1502 -1 x1503 -1 x1504 -1 x1505 >= 0 ;
+2 x1806 +2 x1807 +2 x1808 +2 x1809 +2 x1810 -1 x1501 -1 x1502 -1 x1503 -1 x1504 -1 x1505 -1 x1506 -1 x1507 -1 x1508 -1 x1509 -1 x1510 >= 0 ;
+2 x1811 +2 x1812 +2 x1813 +2 x1814 +2 x1815 -1 x1506 -1 x1507 -1 x1508 -1 x1509 -1 x1510 -1 x1511 -1 x1512 -1 x1513 -1 x1514 -1 x1515 >= 0 ;
+2 x1816 +2 x1817 +2 x1818 +2 x1819 +2 x1820 -1 x1511 -1 x1512 -1 x1513 -1 x1514 -1 x1515 -1 x1516 -1 x1517 -1 x1518 -1 x1519 -1 x1520 >= 0 ;
+2 x1821 +2 x1822 +2 x1823 +2 x1824 +2 x1825 -1 x1516 -1 x1517 -1 x1518 -1 x1519 -1 x1520 -1 x1521 -1 x1522 -1 x1523 -1 x1524 -1 x1525 >= 0 ;
+2 x1826 +2 x1827 +2 x1828 +2 x1829 +2 x1830 -1 x1521 -1 x1522 -1 x1523 -1 x1524 -1 x1525 -1 x1526 -1 x1527 -1 x1528 -1 x1529 -1 x1530 >= 0 ;
+2 x1831 +2 x1832 +2 x1833 +2 x1834 +2 x1835 -1 x1526 -1 x1527 -1 x1528 -1 x1529 -1 x1530 -1 x1531 -1 x1532 -1 x1533 -1 x1534 -1 x1535 >= 0 ;
+2 x1836 +2 x1837 +2 x1838 +2 x1839 +2 x1840 -1 x1531 -1 x1532 -1 x1533 -1 x1534 -1 x1535 -1 x1536 -1 x1537 -1 x1538 -1 x1539 -1 x1540 >= 0 ;
+2 x1841 +2 x1842 +2 x1843 +2 x1844 +2 x1845 -1 x1536 -1 x1537 -1 x1538 -1 x1539 -1 x1540 -1 x1541 -1 x1542 -1 x1543 -1 x1544 -1 x1545 >= 0 ;
+2 x1846 +2 x1847 +2 x1848 +2 x1849 +2 x1850 -1 x1541 -1 x1542 -1 x1543 -1 x1544 -1 x1545 -1 x1546 -1 x1547 -1 x1548 -1 x1549 -1 x1550 >= 0 ;
+2 x1851 +2 x1852 +2 x1853 +2 x1854 +2 x1855 -1 x1546 -1 x1547 -1 x1548 -1 x1549 -1 x1550 -1 x1551 -1 x1552 -1 x1553 -1 x1554 -1 x1555 >= 0 ;
+2 x1856 +2 x1857 +2 x1858 +2 x1859 +2 x1860 -1 x1551 -1 x1552 -1 x1553 -1 x1554 -1 x1555 -1 x1556 -1 x1557 -1 x1558 -1 x1559 -1 x1560 >= 0 ;
+2 x1861 +2 x1862 +2 x1863 +2 x1864 +2 x1865 -1 x1556 -1 x1557 -1 x1558 -1 x1559 -1 x1560 -1 x1561 -1 x1562 -1 x1563 -1 x1564 -1 x1565 >= 0 ;
+2 x1866 +2 x1867 +2 x1868 +2 x1869 +2 x1870 -1 x1561 -1 x1562 -1 x1563 -1 x1564 -1 x1565 -1 x1566 -1 x1567 -1 x1568 -1 x1569 -1 x1570 >= 0 ;
+2 x1871 +2 x1872 +2 x1873 +2 x1874 +2 x1875 -1 x1566 -1 x1567 -1 x1568 -1 x1569 -1 x1570 -1 x1571 -1 x1572 -1 x1573 -1 x1574 -1 x1575 >= 0 ;
+2 x1876 +2 x1877 +2 x1878 +2 x1879 +2 x1880 -1 x1576 -1 x1577 -1 x1578 -1 x1579 -1 x1580 -1 x1581 -1 x1582 -1 x1583 -1 x1584 -1 x1585 >= 0 ;
+2 x1881 +2 x1882 +2 x1883 +2 x1884 +2 x1885 -1 x1581 -1 x1582 -1 x1583 -1 x1584 -1 x1585 -1 x1586 -1 x1587 -1 x1588 -1 x1589 -1 x1590 >= 0 ;
+2 x1886 +2 x1887 +2 x1888 +2 x1889 +2 x1890 -1 x1586 -1 x1587 -1 x1588 -1 x1589 -1 x1590 -1 x1591 -1 x1592 -1 x1593 -1 x1594 -1 x1595 >= 0 ;
+2 x1891 +2 x1892 +2 x1893 +2 x1894 +2 x1895 -1 x1591 -1 x1592 -1 x1593 -1 x1594 -1 x1595 -1 x1596 -1 x1597 -1 x1598 -1 x1599 -1 x1600 >= 0 ;
+2 x1896 +2 x1897 +2 x1898 +2 x1899 +2 x1900 -1 x1596 -1 x1597 -1 x1598 -1 x1599 -1 x1600 -1 x1601 -1 x1602 -1 x1603 -1 x1604 -1 x1605 >= 0 ;
+2 x1901 +2 x1902 +2 x1903 +2 x1904 +2 x1905 -1 x1601 -1 x1602 -1 x1603 -1 x1604 -1 x1605 -1 x1606 -1 x1607 -1 x1608 -1 x1609 -1 x1610 >= 0 ;
+2 x1906 +2 x1907 +2 x1908 +2 x1909 +2 x1910 -1 x1606 -1 x1607 -1 x1608 -1 x1609 -1 x1610 -1 x1611 -1 x1612 -1 x1613 -1 x1614 -1 x1615 >= 0 ;
+2 x1911 +2 x1912 +2 x1913 +2 x1914 +2 x1915 -1 x1611 -1 x1612 -1 x1613 -1 x1614 -1 x1615 -1 x1616 -1 x1617 -1 x1618 -1 x1619 -1 x1620 >= 0 ;
+2 x1916 +2 x1917 +2 x1918 +2 x1919 +2 x1920 -1 x1616 -1 x1617 -1 x1618 -1 x1619 -1 x1620 -1 x1621 -1 x1622 -1 x1623 -1 x1624 -1 x1625 >= 0 ;
+2 x1921 +2 x1922 +2 x1923 +2 x1924 +2 x1925 -1 x1621 -1 x1622 -1 x1623 -1 x1624 -1 x1625 -1 x1626 -1 x1627 -1 x1628 -1 x1629 -1 x1630 >= 0 ;
+2 x1926 +2 x1927 +2 x1928 +2 x1929 +2 x1930 -1 x1626 -1 x1627 -1 x1628 -1 x1629 -1 x1630 -1 x1631 -1 x1632 -1 x1633 -1 x1634 -1 x1635 >= 0 ;
+2 x1931 +2 x1932 +2 x1933 +2 x1934 +2 x1935 -1 x1631 -1 x1632 -1 x1633 -1 x1634 -1 x1635 -1 x1636 -1 x1637 -1 x1638 -1 x1639 -1 x1640 >= 0 ;
+2 x1936 +2 x1937 +2 x1938 +2 x1939 +2 x1940 -1 x1636 -1 x1637 -1 x1638 -1 x1639 -1 x1640 -1 x1641 -1 x1642 -1 x1643 -1 x1644 -1 x1645 >= 0 ;
+2 x1941 +2 x1942 +2 x1943 +2 x1944 +2 x1945 -1 x1641 -1 x1642 -1 x1643 -1 x1644 -1 x1645 -1 x1646 -1 x1647 -1 x1648 -1 x1649 -1 x1650 >= 0 ;
+2 x1946 +2 x1947 +2 x1948 +2 x1949 +2 x1950 -1 x1646 -1 x1647 -1 x1648 -1 x1649 -1 x1650 -1 x1651 -1 x1652 -1 x1653 -1 x1654 -1 x1655 >= 0 ;
+2 x1951 +2 x1952 +2 x1953 +2 x1954 +2 x1955 -1 x1651 -1 x1652 -1 x1653 -1 x1654 -1 x1655 -1 x1656 -1 x1657 -1 x1658 -1 x1659 -1 x1660 >= 0 ;
+2 x1956 +2 x1957 +2 x1958 +2 x1959 +2 x1960 -1 x1656 -1 x1657 -1 x1658 -1 x1659 -1 x1660 -1 x1661 -1 x1662 -1 x1663 -1 x1664 -1 x1665 >= 0 ;
+2 x1961 +2 x1962 +2 x1963 +2 x1964 +2 x1965 -1 x1661 -1 x1662 -1 x1663 -1 x1664 -1 x1665 -1 x1666 -1 x1667 -1 x1668 -1 x1669 -1 x1670 >= 0 ;
+2 x1966 +2 x1967 +2 x1968 +2 x1969 +2 x1970 -1 x1666 -1 x1667 -1 x1668 -1 x1669 -1 x1670 -1 x1671 -1 x1672 -1 x1673 -1 x1674 -1 x1675 >= 0 ;
+2 x1971 +2 x1972 +2 x1973 +2 x1974 +2 x1975 -1 x1671 -1 x1672 -1 x1673 -1 x1674 -1 x1675 -1 x1676 -1 x1677 -1 x1678 -1 x1679 -1 x1680 >= 0 ;
+2 x1976 +2 x1977 +2 x1978 +2 x1979 +2 x1980 -1 x1676 -1 x1677 -1 x1678 -1 x1679 -1 x1680 -1 x1681 -1 x1682 -1 x1683 -1 x1684 -1 x1685 >= 0 ;
+2 x1981 +2 x1982 +2 x1983 +2 x1984 +2 x1985 -1 x1681 -1 x1682 -1 x1683 -1 x1684 -1 x1685 -1 x1686 -1 x1687 -1 x1688 -1 x1689 -1 x1690 >= 0 ;
+2 x1986 +2 x1987 +2 x1988 +2 x1989 +2 x1990 -1 x1686 -1 x1687 -1 x1688 -1 x1689 -1 x1690 -1 x1691 -1 x1692 -1 x1693 -1 x1694 -1 x1695 >= 0 ;
+2 x1991 +2 x1992 +2 x1993 +2 x1994 +2 x1995 -1 x1691 -1 x1692 -1 x1693 -1 x1694 -1 x1695 -1 x1696 -1 x1697 -1 x1698 -1 x1699 -1 x1700 >= 0 ;
+2 x1996 +2 x1997 +2 x1998 +2 x1999 +2 x2000 -1 x1696 -1 x1697 -1 x1698 -1 x1699 -1 x1700 -1 x1701 -1 x1702 -1 x1703 -1 x1704 -1 x1705 >= 0 ;
+2 x2001 +2 x2002 +2 x2003 +2 x2004 +2 x2005 -1 x1701 -1 x1702 -1 x1703 -1 x1704 -1 x1705 -1 x1706 -1 x1707 -1 x1708 -1 x1709 -1 x1710 >= 0 ;
+2 x2006 +2 x2007 +2 x2008 +2 x2009 +2 x2010 -1 x1706 -1 x1707 -1 x1708 -1 x1709 -1 x1710 -1 x1711 -1 x1712 -1 x1713 -1 x1714 -1 x1715 >= 0 ;
+2 x2011 +2 x2012 +2 x2013 +2 x2014 +2 x2015 -1 x1711 -1 x1712 -1 x1713 -1 x1714 -1 x1715 -1 x1716 -1 x1717 -1 x1718 -1 x1719 -1 x1720 >= 0 ;
+2 x2016 +2 x2017 +2 x2018 +2 x2019 +2 x2020 -1 x1716 -1 x1717 -1 x1718 -1 x1719 -1 x1720 -1 x1721 -1 x1722 -1 x1723 -1 x1724 -1 x1725 >= 0 ;
+2 x2021 +2 x2022 +2 x2023 +2 x2024 +2 x2025 -1 x1721 -1 x1722 -1 x1723 -1 x1724 -1 x1725 -1 x1726 -1 x1727 -1 x1728 -1 x1729 -1 x1730 >= 0 ;
+2 x2026 +2 x2027 +2 x2028 +2 x2029 +2 x2030 -1 x1726 -1 x1727 -1 x1728 -1 x1729 -1 x1730 -1 x1731 -1 x1732 -1 x1733 -1 x1734 -1 x1735 >= 0 ;
+2 x2031 +2 x2032 +2 x2033 +2 x2034 +2 x2035 -1 x1731 -1 x1732 -1 x1733 -1 x1734 -1 x1735 -1 x1736 -1 x1737 -1 x1738 -1 x1739 -1 x1740 >= 0 ;
+2 x2036 +2 x2037 +2 x2038 +2 x2039 +2 x2040 -1 x1736 -1 x1737 -1 x1738 -1 x1739 -1 x1740 -1 x1741 -1 x1742 -1 x1743 -1 x1744 -1 x1745 >= 0 ;
+2 x2041 +2 x2042 +2 x2043 +2 x2044 +2 x2045 -1 x1741 -1 x1742 -1 x1743 -1 x1744 -1 x1745 -1 x1746 -1 x1747 -1 x1748 -1 x1749 -1 x1750 >= 0 ;
+2 x2046 +2 x2047 +2 x2048 +2 x2049 +2 x2050 -1 x1746 -1 x1747 -1 x1748 -1 x1749 -1 x1750 -1 x1751 -1 x1752 -1 x1753 -1 x1754 -1 x1755 >= 0 ;
+2 x2051 +2 x2052 +2 x2053 +2 x2054 +2 x2055 -1 x1751 -1 x1752 -1 x1753 -1 x1754 -1 x1755 -1 x1756 -1 x1757 -1 x1758 -1 x1759 -1 x1760 >= 0 ;
+2 x2056 +2 x2057 +2 x2058 +2 x2059 +2 x2060 -1 x1756 -1 x1757 -1 x1758 -1 x1759 -1 x1760 -1 x1761 -1 x1762 -1 x1763 -1 x1764 -1 x1765 >= 0 ;
+2 x2061 +2 x2062 +2 x2063 +2 x2064 +2 x2065 -1 x1761 -1 x1762 -1 x1763 -1 x1764 -1 x1765 -1 x1766 -1 x1767 -1 x1768 -1 x1769 -1 x1770 >= 0 ;
+2 x2066 +2 x2067 +2 x2068 +2 x2069 +2 x2070 -1 x1766 -1 x1767 -1 x1768 -1 x1769 -1 x1770 -1 x1771 -1 x1772 -1 x1773 -1 x1774 -1 x1775 >= 0 ;
+2 x2071 +2 x2072 +2 x2073 +2 x2074 +2 x2075 -1 x1771 -1 x1772 -1 x1773 -1 x1774 -1 x1775 -1 x1776 -1 x1777 -1 x1778 -1 x1779 -1 x1780 >= 0 ;
+2 x2076 +2 x2077 +2 x2078 +2 x2079 +2 x2080 -1 x1776 -1 x1777 -1 x1778 -1 x1779 -1 x1780 -1 x1781 -1 x1782 -1 x1783 -1 x1784 -1 x1785 >= 0 ;
+2 x2081 +2 x2082 +2 x2083 +2 x2084 +2 x2085 -1 x1781 -1 x1782 -1 x1783 -1 x1784 -1 x1785 -1 x1786 -1 x1787 -1 x1788 -1 x1789 -1 x1790 >= 0 ;
+2 x2086 +2 x2087 +2 x2088 +2 x2089 +2 x2090 -1 x1786 -1 x1787 -1 x1788 -1 x1789 -1 x1790 -1 x1791 -1 x1792 -1 x1793 -1 x1794 -1 x1795 >= 0 ;
+2 x2091 +2 x2092 +2 x2093 +2 x2094 +2 x2095 -1 x1791 -1 x1792 -1 x1793 -1 x1794 -1 x1795 -1 x1796 -1 x1797 -1 x1798 -1 x1799 -1 x1800 >= 0 ;
+2 x2096 +2 x2097 +2 x2098 +2 x2099 +2 x2100 -1 x1796 -1 x1797 -1 x1798 -1 x1799 -1 x1800 -1 x1801 -1 x1802 -1 x1803 -1 x1804 -1 x1805 >= 0 ;
+2 x2101 +2 x2102 +2 x2103 +2 x2104 +2 x2105 -1 x1801 -1 x1802 -1 x1803 -1 x1804 -1 x1805 -1 x1806 -1 x1807 -1 x1808 -1 x1809 -1 x1810 >= 0 ;
+2 x2106 +2 x2107 +2 x2108 +2 x2109 +2 x2110 -1 x1806 -1 x1807 -1 x1808 -1 x1809 -1 x1810 -1 x1811 -1 x1812 -1 x1813 -1 x1814 -1 x1815 >= 0 ;
+2 x2111 +2 x2112 +2 x2113 +2 x2114 +2 x2115 -1 x1811 -1 x1812 -1 x1813 -1 x1814 -1 x1815 -1 x1816 -1 x1817 -1 x1818 -1 x1819 -1 x1820 >= 0 ;
+2 x2116 +2 x2117 +2 x2118 +2 x2119 +2 x2120 -1 x1816 -1 x1817 -1 x1818 -1 x1819 -1 x1820 -1 x1821 -1 x1822 -1 x1823 -1 x1824 -1 x1825 >= 0 ;
+2 x2121 +2 x2122 +2 x2123 +2 x2124 +2 x2125 -1 x1821 -1 x1822 -1 x1823 -1 x1824 -1 x1825 -1 x1826 -1 x1827 -1 x1828 -1 x1829 -1 x1830 >= 0 ;
+2 x2126 +2 x2127 +2 x2128 +2 x2129 +2 x2130 -1 x1826 -1 x1827 -1 x1828 -1 x1829 -1 x1830 -1 x1831 -1 x1832 -1 x1833 -1 x1834 -1 x1835 >= 0 ;
+2 x2131 +2 x2132 +2 x2133 +2 x2134 +2 x2135 -1 x1831 -1 x1832 -1 x1833 -1 x1834 -1 x1835 -1 x1836 -1 x1837 -1 x1838 -1 x1839 -1 x1840 >= 0 ;
+2 x2136 +2 x2137 +2 x2138 +2 x2139 +2 x2140 -1 x1836 -1 x1837 -1 x1838 -1 x1839 -1 x1840 -1 x1841 -1 x1842 -1 x1843 -1 x1844 -1 x1845 >= 0 ;
+2 x2141 +2 x2142 +2 x2143 +2 x2144 +2 x2145 -1 x1841 -1 x1842 -1 x1843 -1 x1844 -1 x1845 -1 x1846 -1 x1847 -1 x1848 -1 x1849 -1 x1850 >= 0 ;
+2 x2146 +2 x2147 +2 x2148 +2 x2149 +2 x2150 -1 x1846 -1 x1847 -1 x1848 -1 x1849 -1 x1850 -1 x1851 -1 x1852 -1 x1853 -1 x1854 -1 x1855 >= 0 ;
+2 x2151 +2 x2152 +2 x2153 +2 x2154 +2 x2155 -1 x1851 -1 x1852 -1 x1853 -1 x1854 -1 x1855 -1 x1856 -1 x1857 -1 x1858 -1 x1859 -1 x1860 >= 0 ;
+2 x2156 +2 x2157 +2 x2158 +2 x2159 +2 x2160 -1 x1856 -1 x1857 -1 x1858 -1 x1859 -1 x1860 -1 x1861 -1 x1862 -1 x1863 -1 x1864 -1 x1865 >= 0 ;
+2 x2161 +2 x2162 +2 x2163 +2 x2164 +2 x2165 -1 x1861 -1 x1862 -1 x1863 -1 x1864 -1 x1865 -1 x1866 -1 x1867 -1 x1868 -1 x1869 -1 x1870 >= 0 ;
+2 x2166 +2 x2167 +2 x2168 +2 x2169 +2 x2170 -1 x1866 -1 x1867 -1 x1868 -1 x1869 -1 x1870 -1 x1871 -1 x1872 -1 x1873 -1 x1874 -1 x1875 >= 0 ;
+2 x2171 +2 x2172 +2 x2173 +2 x2174 +2 x2175 -1 x1876 -1 x1877 -1 x1878 -1 x1879 -1 x1880 -1 x1881 -1 x1882 -1 x1883 -1 x1884 -1 x1885 >= 0 ;
+2 x2176 +2 x2177 +2 x2178 +2 x2179 +2 x2180 -1 x1881 -1 x1882 -1 x1883 -1 x1884 -1 x1885 -1 x1886 -1 x1887 -1 x1888 -1 x1889 -1 x1890 >= 0 ;
+2 x2181 +2 x2182 +2 x2183 +2 x2184 +2 x2185 -1 x1886 -1 x1887 -1 x1888 -1 x1889 -1 x1890 -1 x1891 -1 x1892 -1 x1893 -1 x1894 -1 x1895 >= 0 ;
+2 x2186 +2 x2187 +2 x2188 +2 x2189 +2 x2190 -1 x1891 -1 x1892 -1 x1893 -1 x1894 -1 x1895 -1 x1896 -1 x1897 -1 x1898 -1 x1899 -1 x1900 >= 0 ;
+2 x2191 +2 x2192 +2 x2193 +2 x2194 +2 x2195 -1 x1896 -1 x1897 -1 x1898 -1 x1899 -1 x1900 -1 x1901 -1 x1902 -1 x1903 -1 x1904 -1 x1905 >= 0 ;
+2 x2196 +2 x2197 +2 x2198 +2 x2199 +2 x2200 -1 x1901 -1 x1902 -1 x1903 -1 x1904 -1 x1905 -1 x1906 -1 x1907 -1 x1908 -1 x1909 -1 x1910 >= 0 ;
+2 x2201 +2 x2202 +2 x2203 +2 x2204 +2 x2205 -1 x1906 -1 x1907 -1 x1908 -1 x1909 -1 x1910 -1 x1911 -1 x1912 -1 x1913 -1 x1914 -1 x1915 >= 0 ;
+2 x2206 +2 x2207 +2 x2208 +2 x2209 +2 x2210 -1 x1911 -1 x1912 -1 x1913 -1 x1914 -1 x1915 -1 x1916 -1 x1917 -1 x1918 -1 x1919 -1 x1920 >= 0 ;
+2 x2211 +2 x2212 +2 x2213 +2 x2214 +2 x2215 -1 x1916 -1 x1917 -1 x1918 -1 x1919 -1 x1920 -1 x1921 -1 x1922 -1 x1923 -1 x1924 -1 x1925 >= 0 ;
+2 x2216 +2 x2217 +2 x2218 +2 x2219 +2 x2220 -1 x1921 -1 x1922 -1 x1923 -1 x1924 -1 x1925 -1 x1926 -1 x1927 -1 x1928 -1 x1929 -1 x1930 >= 0 ;
+2 x2221 +2 x2222 +2 x2223 +2 x2224 +2 x2225 -1 x1926 -1 x1927 -1 x1928 -1 x1929 -1 x1930 -1 x1931 -1 x1932 -1 x1933 -1 x1934 -1 x1935 >= 0 ;
+2 x2226 +2 x2227 +2 x2228 +2 x2229 +2 x2230 -1 x1931 -1 x1932 -1 x1933 -1 x1934 -1 x1935 -1 x1936 -1 x1937 -1 x1938 -1 x1939 -1 x1940 >= 0 ;
+2 x2231 +2 x2232 +2 x2233 +2 x2234 +2 x2235 -1 x1936 -1 x1937 -1 x1938 -1 x1939 -1 x1940 -1 x1941 -1 x1942 -1 x1943 -1 x1944 -1 x1945 >= 0 ;
+2 x2236 +2 x2237 +2 x2238 +2 x2239 +2 x2240 -1 x1941 -1 x1942 -1 x1943 -1 x1944 -1 x1945 -1 x1946 -1 x1947 -1 x1948 -1 x1949 -1 x1950 >= 0 ;
+2 x2241 +2 x2242 +2 x2243 +2 x2244 +2 x2245 -1 x1946 -1 x1947 -1 x1948 -1 x1949 -1 x1950 -1 x1951 -1 x1952 -1 x1953 -1 x1954 -1 x1955 >= 0 ;
+2 x2246 +2 x2247 +2 x2248 +2 x2249 +2 x2250 -1 x1951 -1 x1952 -1 x1953 -1 x1954 -1 x1955 -1 x1956 -1 x1957 -1 x1958 -1 x1959 -1 x1960 >= 0 ;
+2 x2251 +2 x2252 +2 x2253 +2 x2254 +2 x2255 -1 x1956 -1 x1957 -1 x1958 -1 x1959 -1 x1960 -1 x1961 -1 x1962 -1 x1963 -1 x1964 -1 x1965 >= 0 ;
+2 x2256 +2 x2257 +2 x2258 +2 x2259 +2 x2260 -1 x1961 -1 x1962 -1 x1963 -1 x1964 -1 x1965 -1 x1966 -1 x1967 -1 x1968 -1 x1969 -1 x1970 >= 0 ;
+2 x2261 +2 x2262 +2 x2263 +2 x2264 +2 x2265 -1 x1966 -1 x1967 -1 x1968 -1 x1969 -1 x1970 -1 x1971 -1 x1972 -1 x1973 -1 x1974 -1 x1975 >= 0 ;
+2 x2266 +2 x2267 +2 x2268 +2 x2269 +2 x2270 -1 x1971 -1 x1972 -1 x1973 -1 x1974 -1 x1975 -1 x1976 -1 x1977 -1 x1978 -1 x1979 -1 x1980 >= 0 ;
+2 x2271 +2 x2272 +2 x2273 +2 x2274 +2 x2275 -1 x1976 -1 x1977 -1 x1978 -1 x1979 -1 x1980 -1 x1981 -1 x1982 -1 x1983 -1 x1984 -1 x1985 >= 0 ;
+2 x2276 +2 x2277 +2 x2278 +2 x2279 +2 x2280 -1 x1981 -1 x1982 -1 x1983 -1 x1984 -1 x1985 -1 x1986 -1 x1987 -1 x1988 -1 x1989 -1 x1990 >= 0 ;
+2 x2281 +2 x2282 +2 x2283 +2 x2284 +2 x2285 -1 x1986 -1 x1987 -1 x1988 -1 x1989 -1 x1990 -1 x1991 -1 x1992 -1 x1993 -1 x1994 -1 x1995 >= 0 ;
+2 x2286 +2 x2287 +2 x2288 +2 x2289 +2 x2290 -1 x1991 -1 x1992 -1 x1993 -1 x1994 -1 x1995 -1 x1996 -1 x1997 -1 x1998 -1 x1999 -1 x2000 >= 0 ;
+2 x2291 +2 x2292 +2 x2293 +2 x2294 +2 x2295 -1 x1996 -1 x1997 -1 x1998 -1 x1999 -1 x2000 -1 x2001 -1 x2002 -1 x2003 -1 x2004 -1 x2005 >= 0 ;
+2 x2296 +2 x2297 +2 x2298 +2 x2299 +2 x2300 -1 x2001 -1 x2002 -1 x2003 -1 x2004 -1 x2005 -1 x2006 -1 x2007 -1 x2008 -1 x2009 -1 x2010 >= 0 ;
+2 x2301 +2 x2302 +2 x2303 +2 x2304 +2 x2305 -1 x2006 -1 x2007 -1 x2008 -1 x2009 -1 x2010 -1 x2011 -1 x2012 -1 x2013 -1 x2014 -1 x2015 >= 0 ;
+2 x2306 +2 x2307 +2 x2308 +2 x2309 +2 x2310 -1 x2011 -1 x2012 -1 x2013 -1 x2014 -1 x2015 -1 x2016 -1 x2017 -1 x2018 -1 x2019 -1 x2020 >= 0 ;
+2 x2311 +2 x2312 +2 x2313 +2 x2314 +2 x2315 -1 x2016 -1 x2017 -1 x2018 -1 x2019 -1 x2020 -1 x2021 -1 x2022 -1 x2023 -1 x2024 -1 x2025 >= 0 ;
+2 x2316 +2 x2317 +2 x2318 +2 x2319 +2 x2320 -1 x2021 -1 x2022 -1 x2023 -1 x2024 -1 x2025 -1 x2026 -1 x2027 -1 x2028 -1 x2029 -1 x2030 >= 0 ;
+2 x2321 +2 x2322 +2 x2323 +2 x2324 +2 x2325 -1 x2026 -1 x2027 -1 x2028 -1 x2029 -1 x2030 -1 x2031 -1 x2032 -1 x2033 -1 x2034 -1 x2035 >= 0 ;
+2 x2326 +2 x2327 +2 x2328 +2 x2329 +2 x2330 -1 x2031 -1 x2032 -1 x2033 -1 x2034 -1 x2035 -1 x2036 -1 x2037 -1 x2038 -1 x2039 -1 x2040 >= 0 ;
+2 x2331 +2 x2332 +2 x2333 +2 x2334 +2 x2335 -1 x2036 -1 x2037 -1 x2038 -1 x2039 -1 x2040 -1 x2041 -1 x2042 -1 x2043 -1 x2044 -1 x2045 >= 0 ;
+2 x2336 +2 x2337 +2 x2338 +2 x2339 +2 x2340 -1 x2041 -1 x2042 -1 x2043 -1 x2044 -1 x2045 -1 x2046 -1 x2047 -1 x2048 -1 x2049 -1 x2050 >= 0 ;
+2 x2341 +2 x2342 +2 x2343 +2 x2344 +2 x2345 -1 x2046 -1 x2047 -1 x2048 -1 x2049 -1 x2050 -1 x2051 -1 x2052 -1 x2053 -1 x2054 -1 x2055 >= 0 ;
+2 x2346 +2 x2347 +2 x2348 +2 x2349 +2 x2350 -1 x2051 -1 x2052 -1 x2053 -1 x2054 -1 x2055 -1 x2056 -1 x2057 -1 x2058 -1 x2059 -1 x2060 >= 0 ;
+2 x2351 +2 x2352 +2 x2353 +2 x2354 +2 x2355 -1 x2056 -1 x2057 -1 x2058 -1 x2059 -1 x2060 -1 x2061 -1 x2062 -1 x2063 -1 x2064 -1 x2065 >= 0 ;
+2 x2356 +2 x2357 +2 x2358 +2 x2359 +2 x2360 -1 x2061 -1 x2062 -1 x2063 -1 x2064 -1 x2065 -1 x2066 -1 x2067 -1 x2068 -1 x2069 -1 x2070 >= 0 ;
+2 x2361 +2 x2362 +2 x2363 +2 x2364 +2 x2365 -1 x2066 -1 x2067 -1 x2068 -1 x2069 -1 x2070 -1 x2071 -1 x2072 -1 x2073 -1 x2074 -1 x2075 >= 0 ;
+2 x2366 +2 x2367 +2 x2368 +2 x2369 +2 x2370 -1 x2071 -1 x2072 -1 x2073 -1 x2074 -1 x2075 -1 x2076 -1 x2077 -1 x2078 -1 x2079 -1 x2080 >= 0 ;
+2 x2371 +2 x2372 +2 x2373 +2 x2374 +2 x2375 -1 x2076 -1 x2077 -1 x2078 -1 x2079 -1 x2080 -1 x2081 -1 x2082 -1 x2083 -1 x2084 -1 x2085 >= 0 ;
+2 x2376 +2 x2377 +2 x2378 +2 x2379 +2 x2380 -1 x2081 -1 x2082 -1 x2083 -1 x2084 -1 x2085 -1 x2086 -1 x2087 -1 x2088 -1 x2089 -1 x2090 >= 0 ;
+2 x2381 +2 x2382 +2 x2383 +2 x2384 +2 x2385 -1 x2086 -1 x2087 -1 x2088 -1 x2089 -1 x2090 -1 x2091 -1 x2092 -1 x2093 -1 x2094 -1 x2095 >= 0 ;
+2 x2386 +2 x2387 +2 x2388 +2 x2389 +2 x2390 -1 x2091 -1 x2092 -1 x2093 -1 x2094 -1 x2095 -1 x2096 -1 x2097 -1 x2098 -1 x2099 -1 x2100 >= 0 ;
+2 x2391 +2 x2392 +2 x2393 +2 x2394 +2 x2395 -1 x2096 -1 x2097 -1 x2098 -1 x2099 -1 x2100 -1 x2101 -1 x2102 -1 x2103 -1 x2104 -1 x2105 >= 0 ;
+2 x2396 +2 x2397 +2 x2398 +2 x2399 +2 x2400 -1 x2101 -1 x2102 -1 x2103 -1 x2104 -1 x2105 -1 x2106 -1 x2107 -1 x2108 -1 x2109 -1 x2110 >= 0 ;
+2 x2401 +2 x2402 +2 x2403 +2 x2404 +2 x2405 -1 x2106 -1 x2107 -1 x2108 -1 x2109 -1 x2110 -1 x2111 -1 x2112 -1 x2113 -1 x2114 -1 x2115 >= 0 ;
+2 x2406 +2 x2407 +2 x2408 +2 x2409 +2 x2410 -1 x2111 -1 x2112 -1 x2113 -1 x2114 -1 x2115 -1 x2116 -1 x2117 -1 x2118 -1 x2119 -1 x2120 >= 0 ;
+2 x2411 +2 x2412 +2 x2413 +2 x2414 +2 x2415 -1 x2116 -1 x2117 -1 x2118 -1 x2119 -1 x2120 -1 x2121 -1 x2122 -1 x2123 -1 x2124 -1 x2125 >= 0 ;
+2 x2416 +2 x2417 +2 x2418 +2 x2419 +2 x2420 -1 x2121 -1 x2122 -1 x2123 -1 x2124 -1 x2125 -1 x2126 -1 x2127 -1 x2128 -1 x2129 -1 x2130 >= 0 ;
+2 x2421 +2 x2422 +2 x2423 +2 x2424 +2 x2425 -1 x2126 -1 x2127 -1 x2128 -1 x2129 -1 x2130 -1 x2131 -1 x2132 -1 x2133 -1 x2134 -1 x2135 >= 0 ;
+2 x2426 +2 x2427 +2 x2428 +2 x2429 +2 x2430 -1 x2131 -1 x2132 -1 x2133 -1 x2134 -1 x2135 -1 x2136 -1 x2137 -1 x2138 -1 x2139 -1 x2140 >= 0 ;
+2 x2431 +2 x2432 +2 x2433 +2 x2434 +2 x2435 -1 x2136 -1 x2137 -1 x2138 -1 x2139 -1 x2140 -1 x2141 -1 x2142 -1 x2143 -1 x2144 -1 x2145 >= 0 ;
+2 x2436 +2 x2437 +2 x2438 +2 x2439 +2 x2440 -1 x2141 -1 x2142 -1 x2143 -1 x2144 -1 x2145 -1 x2146 -1 x2147 -1 x2148 -1 x2149 -1 x2150 >= 0 ;
+2 x2441 +2 x2442 +2 x2443 +2 x2444 +2 x2445 -1 x2146 -1 x2147 -1 x2148 -1 x2149 -1 x2150 -1 x2151 -1 x2152 -1 x2153 -1 x2154 -1 x2155 >= 0 ;
+2 x2446 +2 x2447 +2 x2448 +2 x2449 +2 x2450 -1 x2151 -1 x2152 -1 x2153 -1 x2154 -1 x2155 -1 x2156 -1 x2157 -1 x2158 -1 x2159 -1 x2160 >= 0 ;
+2 x2451 +2 x2452 +2 x2453 +2 x2454 +2 x2455 -1 x2156 -1 x2157 -1 x2158 -1 x2159 -1 x2160 -1 x2161 -1 x2162 -1 x2163 -1 x2164 -1 x2165 >= 0 ;
+2 x2456 +2 x2457 +2 x2458 +2 x2459 +2 x2460 -1 x2161 -1 x2162 -1 x2163 -1 x2164 -1 x2165 -1 x2166 -1 x2167 -1 x2168 -1 x2169 -1 x2170 >= 0 ;
+2 x2461 +2 x2462 +2 x2463 +2 x2464 +2 x2465 -1 x2171 -1 x2172 -1 x2173 -1 x2174 -1 x2175 -1 x2176 -1 x2177 -1 x2178 -1 x2179 -1 x2180 >= 0 ;
+2 x2466 +2 x2467 +2 x2468 +2 x2469 +2 x2470 -1 x2176 -1 x2177 -1 x2178 -1 x2179 -1 x2180 -1 x2181 -1 x2182 -1 x2183 -1 x2184 -1 x2185 >= 0 ;
+2 x2471 +2 x2472 +2 x2473 +2 x2474 +2 x2475 -1 x2181 -1 x2182 -1 x2183 -1 x2184 -1 x2185 -1 x2186 -1 x2187 -1 x2188 -1 x2189 -1 x2190 >= 0 ;
+2 x2476 +2 x2477 +2 x2478 +2 x2479 +2 x2480 -1 x2186 -1 x2187 -1 x2188 -1 x2189 -1 x2190 -1 x2191 -1 x2192 -1 x2193 -1 x2194 -1 x2195 >= 0 ;
+2 x2481 +2 x2482 +2 x2483 +2 x2484 +2 x2485 -1 x2191 -1 x2192 -1 x2193 -1 x2194 -1 x2195 -1 x2196 -1 x2197 -1 x2198 -1 x2199 -1 x2200 >= 0 ;
+2 x2486 +2 x2487 +2 x2488 +2 x2489 +2 x2490 -1 x2196 -1 x2197 -1 x2198 -1 x2199 -1 x2200 -1 x2201 -1 x2202 -1 x2203 -1 x2204 -1 x2205 >= 0 ;
+2 x2491 +2 x2492 +2 x2493 +2 x2494 +2 x2495 -1 x2201 -1 x2202 -1 x2203 -1 x2204 -1 x2205 -1 x2206 -1 x2207 -1 x2208 -1 x2209 -1 x2210 >= 0 ;
+2 x2496 +2 x2497 +2 x2498 +2 x2499 +2 x2500 -1 x2206 -1 x2207 -1 x2208 -1 x2209 -1 x2210 -1 x2211 -1 x2212 -1 x2213 -1 x2214 -1 x2215 >= 0 ;
+2 x2501 +2 x2502 +2 x2503 +2 x2504 +2 x2505 -1 x2211 -1 x2212 -1 x2213 -1 x2214 -1 x2215 -1 x2216 -1 x2217 -1 x2218 -1 x2219 -1 x2220 >= 0 ;
+2 x2506 +2 x2507 +2 x2508 +2 x2509 +2 x2510 -1 x2216 -1 x2217 -1 x2218 -1 x2219 -1 x2220 -1 x2221 -1 x2222 -1 x2223 -1 x2224 -1 x2225 >= 0 ;
+2 x2511 +2 x2512 +2 x2513 +2 x2514 +2 x2515 -1 x2221 -1 x2222 -1 x2223 -1 x2224 -1 x2225 -1 x2226 -1 x2227 -1 x2228 -1 x2229 -1 x2230 >= 0 ;
+2 x2516 +2 x2517 +2 x2518 +2 x2519 +2 x2520 -1 x2226 -1 x2227 -1 x2228 -1 x2229 -1 x2230 -1 x2231 -1 x2232 -1 x2233 -1 x2234 -1 x2235 >= 0 ;
+2 x2521 +2 x2522 +2 x2523 +2 x2524 +2 x2525 -1 x2231 -1 x2232 -1 x2233 -1 x2234 -1 x2235 -1 x2236 -1 x2237 -1 x2238 -1 x2239 -1 x2240 >= 0 ;
+2 x2526 +2 x2527 +2 x2528 +2 x2529 +2 x2530 -1 x2236 -1 x2237 -1 x2238 -1 x2239 -1 x2240 -1 x2241 -1 x2242 -1 x2243 -1 x2244 -1 x2245 >= 0 ;
+2 x2531 +2 x2532 +2 x2533 +2 x2534 +2 x2535 -1 x2241 -1 x2242 -1 x2243 -1 x2244 -1 x2245 -1 x2246 -1 x2247 -1 x2248 -1 x2249 -1 x2250 >= 0 ;
+2 x2536 +2 x2537 +2 x2538 +2 x2539 +2 x2540 -1 x2246 -1 x2247 -1 x2248 -1 x2249 -1 x2250 -1 x2251 -1 x2252 -1 x2253 -1 x2254 -1 x2255 >= 0 ;
+2 x2541 +2 x2542 +2 x2543 +2 x2544 +2 x2545 -1 x2251 -1 x2252 -1 x2253 -1 x2254 -1 x2255 -1 x2256 -1 x2257 -1 x2258 -1 x2259 -1 x2260 >= 0 ;
+2 x2546 +2 x2547 +2 x2548 +2 x2549 +2 x2550 -1 x2256 -1 x2257 -1 x2258 -1 x2259 -1 x2260 -1 x2261 -1 x2262 -1 x2263 -1 x2264 -1 x2265 >= 0 ;
+2 x2551 +2 x2552 +2 x2553 +2 x2554 +2 x2555 -1 x2261 -1 x2262 -1 x2263 -1 x2264 -1 x2265 -1 x2266 -1 x2267 -1 x2268 -1 x2269 -1 x2270 >= 0 ;
+2 x2556 +2 x2557 +2 x2558 +2 x2559 +2 x2560 -1 x2266 -1 x2267 -1 x2268 -1 x2269 -1 x2270 -1 x2271 -1 x2272 -1 x2273 -1 x2274 -1 x2275 >= 0 ;
+2 x2561 +2 x2562 +2 x2563 +2 x2564 +2 x2565 -1 x2271 -1 x2272 -1 x2273 -1 x2274 -1 x2275 -1 x2276 -1 x2277 -1 x2278 -1 x2279 -1 x2280 >= 0 ;
+2 x2566 +2 x2567 +2 x2568 +2 x2569 +2 x2570 -1 x2276 -1 x2277 -1 x2278 -1 x2279 -1 x2280 -1 x2281 -1 x2282 -1 x2283 -1 x2284 -1 x2285 >= 0 ;
+2 x2571 +2 x2572 +2 x2573 +2 x2574 +2 x2575 -1 x2281 -1 x2282 -1 x2283 -1 x2284 -1 x2285 -1 x2286 -1 x2287 -1 x2288 -1 x2289 -1 x2290 >= 0 ;
+2 x2576 +2 x2577 +2 x2578 +2 x2579 +2 x2580 -1 x2286 -1 x2287 -1 x2288 -1 x2289 -1 x2290 -1 x2291 -1 x2292 -1 x2293 -1 x2294 -1 x2295 >= 0 ;
+2 x2581 +2 x2582 +2 x2583 +2 x2584 +2 x2585 -1 x2291 -1 x2292 -1 x2293 -1 x2294 -1 x2295 -1 x2296 -1 x2297 -1 x2298 -1 x2299 -1 x2300 >= 0 ;
+2 x2586 +2 x2587 +2 x2588 +2 x2589 +2 x2590 -1 x2296 -1 x2297 -1 x2298 -1 x2299 -1 x2300 -1 x2301 -1 x2302 -1 x2303 -1 x2304 -1 x2305 >= 0 ;
+2 x2591 +2 x2592 +2 x2593 +2 x2594 +2 x2595 -1 x2301 -1 x2302 -1 x2303 -1 x2304 -1 x2305 -1 x2306 -1 x2307 -1 x2308 -1 x2309 -1 x2310 >= 0 ;
+2 x2596 +2 x2597 +2 x2598 +2 x2599 +2 x2600 -1 x2306 -1 x2307 -1 x2308 -1 x2309 -1 x2310 -1 x2311 -1 x2312 -1 x2313 -1 x2314 -1 x2315 >= 0 ;
+2 x2601 +2 x2602 +2 x2603 +2 x2604 +2 x2605 -1 x2311 -1 x2312 -1 x2313 -1 x2314 -1 x2315 -1 x2316 -1 x2317 -1 x2318 -1 x2319 -1 x2320 >= 0 ;
+2 x2606 +2 x2607 +2 x2608 +2 x2609 +2 x2610 -1 x2316 -1 x2317 -1 x2318 -1 x2319 -1 x2320 -1 x2321 -1 x2322 -1 x2323 -1 x2324 -1 x2325 >= 0 ;
+2 x2611 +2 x2612 +2 x2613 +2 x2614 +2 x2615 -1 x2321 -1 x2322 -1 x2323 -1 x2324 -1 x2325 -1 x2326 -1 x2327 -1 x2328 -1 x2329 -1 x2330 >= 0 ;
+2 x2616 +2 x2617 +2 x2618 +2 x2619 +2 x2620 -1 x2326 -1 x2327 -1 x2328 -1 x2329 -1 x2330 -1 x2331 -1 x2332 -1 x2333 -1 x2334 -1 x2335 >= 0 ;
+2 x2621 +2 x2622 +2 x2623 +2 x2624 +2 x2625 -1 x2331 -1 x2332 -1 x2333 -1 x2334 -1 x2335 -1 x2336 -1 x2337 -1 x2338 -1 x2339 -1 x2340 >= 0 ;
+2 x2626 +2 x2627 +2 x2628 +2 x2629 +2 x2630 -1 x2336 -1 x2337 -1 x2338 -1 x2339 -1 x2340 -1 x2341 -1 x2342 -1 x2343 -1 x2344 -1 x2345 >= 0 ;
+2 x2631 +2 x2632 +2 x2633 +2 x2634 +2 x2635 -1 x2341 -1 x2342 -1 x2343 -1 x2344 -1 x2345 -1 x2346 -1 x2347 -1 x2348 -1 x2349 -1 x2350 >= 0 ;
+2 x2636 +2 x2637 +2 x2638 +2 x2639 +2 x2640 -1 x2346 -1 x2347 -1 x2348 -1 x2349 -1 x2350 -1 x2351 -1 x2352 -1 x2353 -1 x2354 -1 x2355 >= 0 ;
+2 x2641 +2 x2642 +2 x2643 +2 x2644 +2 x2645 -1 x2351 -1 x2352 -1 x2353 -1 x2354 -1 x2355 -1 x2356 -1 x2357 -1 x2358 -1 x2359 -1 x2360 >= 0 ;
+2 x2646 +2 x2647 +2 x2648 +2 x2649 +2 x2650 -1 x2356 -1 x2357 -1 x2358 -1 x2359 -1 x2360 -1 x2361 -1 x2362 -1 x2363 -1 x2364 -1 x2365 >= 0 ;
+2 x2651 +2 x2652 +2 x2653 +2 x2654 +2 x2655 -1 x2361 -1 x2362 -1 x2363 -1 x2364 -1 x2365 -1 x2366 -1 x2367 -1 x2368 -1 x2369 -1 x2370 >= 0 ;
+2 x2656 +2 x2657 +2 x2658 +2 x2659 +2 x2660 -1 x2366 -1 x2367 -1 x2368 -1 x2369 -1 x2370 -1 x2371 -1 x2372 -1 x2373 -1 x2374 -1 x2375 >= 0 ;
+2 x2661 +2 x2662 +2 x2663 +2 x2664 +2 x2665 -1 x2371 -1 x2372 -1 x2373 -1 x2374 -1 x2375 -1 x2376 -1 x2377 -1 x2378 -1 x2379 -1 x2380 >= 0 ;
+2 x2666 +2 x2667 +2 x2668 +2 x2669 +2 x2670 -1 x2376 -1 x2377 -1 x2378 -1 x2379 -1 x2380 -1 x2381 -1 x2382 -1 x2383 -1 x2384 -1 x2385 >= 0 ;
+2 x2671 +2 x2672 +2 x2673 +2 x2674 +2 x2675 -1 x2381 -1 x2382 -1 x2383 -1 x2384 -1 x2385 -1 x2386 -1 x2387 -1 x2388 -1 x2389 -1 x2390 >= 0 ;
+2 x2676 +2 x2677 +2 x2678 +2 x2679 +2 x2680 -1 x2386 -1 x2387 -1 x2388 -1 x2389 -1 x2390 -1 x2391 -1 x2392 -1 x2393 -1 x2394 -1 x2395 >= 0 ;
+2 x2681 +2 x2682 +2 x2683 +2 x2684 +2 x2685 -1 x2391 -1 x2392 -1 x2393 -1 x2394 -1 x2395 -1 x2396 -1 x2397 -1 x2398 -1 x2399 -1 x2400 >= 0 ;
+2 x2686 +2 x2687 +2 x2688 +2 x2689 +2 x2690 -1 x2396 -1 x2397 -1 x2398 -1 x2399 -1 x2400 -1 x2401 -1 x2402 -1 x2403 -1 x2404 -1 x2405 >= 0 ;
+2 x2691 +2 x2692 +2 x2693 +2 x2694 +2 x2695 -1 x2401 -1 x2402 -1 x2403 -1 x2404 -1 x2405 -1 x2406 -1 x2407 -1 x2408 -1 x2409 -1 x2410 >= 0 ;
+2 x2696 +2 x2697 +2 x2698 +2 x2699 +2 x2700 -1 x2406 -1 x2407 -1 x2408 -1 x2409 -1 x2410 -1 x2411 -1 x2412 -1 x2413 -1 x2414 -1 x2415 >= 0 ;
+2 x2701 +2 x2702 +2 x2703 +2 x2704 +2 x2705 -1 x2411 -1 x2412 -1 x2413 -1 x2414 -1 x2415 -1 x2416 -1 x2417 -1 x2418 -1 x2419 -1 x2420 >= 0 ;
+2 x2706 +2 x2707 +2 x2708 +2 x2709 +2 x2710 -1 x2416 -1 x2417 -1 x2418 -1 x2419 -1 x2420 -1 x2421 -1 x2422 -1 x2423 -1 x2424 -1 x2425 >= 0 ;
+2 x2711 +2 x2712 +2 x2713 +2 x2714 +2 x2715 -1 x2421 -1 x2422 -1 x2423 -1 x2424 -1 x2425 -1 x2426 -1 x2427 -1 x2428 -1 x2429 -1 x2430 >= 0 ;
+2 x2716 +2 x2717 +2 x2718 +2 x2719 +2 x2720 -1 x2426 -1 x2427 -1 x2428 -1 x2429 -1 x2430 -1 x2431 -1 x2432 -1 x2433 -1 x2434 -1 x2435 >= 0 ;
+2 x2721 +2 x2722 +2 x2723 +2 x2724 +2 x2725 -1 x2431 -1 x2432 -1 x2433 -1 x2434 -1 x2435 -1 x2436 -1 x2437 -1 x2438 -1 x2439 -1 x2440 >= 0 ;
+2 x2726 +2 x2727 +2 x2728 +2 x2729 +2 x2730 -1 x2436 -1 x2437 -1 x2438 -1 x2439 -1 x2440 -1 x2441 -1 x2442 -1 x2443 -1 x2444 -1 x2445 >= 0 ;
+2 x2731 +2 x2732 +2 x2733 +2 x2734 +2 x2735 -1 x2441 -1 x2442 -1 x2443 -1 x2444 -1 x2445 -1 x2446 -1 x2447 -1 x2448 -1 x2449 -1 x2450 >= 0 ;
+2 x2736 +2 x2737 +2 x2738 +2 x2739 +2 x2740 -1 x2446 -1 x2447 -1 x2448 -1 x2449 -1 x2450 -1 x2451 -1 x2452 -1 x2453 -1 x2454 -1 x2455 >= 0 ;
+2 x2741 +2 x2742 +2 x2743 +2 x2744 +2 x2745 -1 x2451 -1 x2452 -1 x2453 -1 x2454 -1 x2455 -1 x2456 -1 x2457 -1 x2458 -1 x2459 -1 x2460 >= 0 ;
+2 x2746 +2 x2747 +2 x2748 +2 x2749 +2 x2750 -1 x2461 -1 x2462 -1 x2463 -1 x2464 -1 x2465 -1 x2466 -1 x2467 -1 x2468 -1 x2469 -1 x2470 >= 0 ;
+2 x2751 +2 x2752 +2 x2753 +2 x2754 +2 x2755 -1 x2466 -1 x2467 -1 x2468 -1 x2469 -1 x2470 -1 x2471 -1 x2472 -1 x2473 -1 x2474 -1 x2475 >= 0 ;
+2 x2756 +2 x2757 +2 x2758 +2 x2759 +2 x2760 -1 x2471 -1 x2472 -1 x2473 -1 x2474 -1 x2475 -1 x2476 -1 x2477 -1 x2478 -1 x2479 -1 x2480 >= 0 ;
+2 x2761 +2 x2762 +2 x2763 +2 x2764 +2 x2765 -1 x2476 -1 x2477 -1 x2478 -1 x2479 -1 x2480 -1 x2481 -1 x2482 -1 x2483 -1 x2484 -1 x2485 >= 0 ;
+2 x2766 +2 x2767 +2 x2768 +2 x2769 +2 x2770 -1 x2481 -1 x2482 -1 x2483 -1 x2484 -1 x2485 -1 x2486 -1 x2487 -1 x2488 -1 x2489 -1 x2490 >= 0 ;
+2 x2771 +2 x2772 +2 x2773 +2 x2774 +2 x2775 -1 x2486 -1 x2487 -1 x2488 -1 x2489 -1 x2490 -1 x2491 -1 x2492 -1 x2493 -1 x2494 -1 x2495 >= 0 ;
+2 x2776 +2 x2777 +2 x2778 +2 x2779 +2 x2780 -1 x2491 -1 x2492 -1 x2493 -1 x2494 -1 x2495 -1 x2496 -1 x2497 -1 x2498 -1 x2499 -1 x2500 >= 0 ;
+2 x2781 +2 x2782 +2 x2783 +2 x2784 +2 x2785 -1 x2496 -1 x2497 -1 x2498 -1 x2499 -1 x2500 -1 x2501 -1 x2502 -1 x2503 -1 x2504 -1 x2505 >= 0 ;
+2 x2786 +2 x2787 +2 x2788 +2 x2789 +2 x2790 -1 x2501 -1 x2502 -1 x2503 -1 x2504 -1 x2505 -1 x2506 -1 x2507 -1 x2508 -1 x2509 -1 x2510 >= 0 ;
+2 x2791 +2 x2792 +2 x2793 +2 x2794 +2 x2795 -1 x2506 -1 x2507 -1 x2508 -1 x2509 -1 x2510 -1 x2511 -1 x2512 -1 x2513 -1 x2514 -1 x2515 >= 0 ;
+2 x2796 +2 x2797 +2 x2798 +2 x2799 +2 x2800 -1 x2511 -1 x2512 -1 x2513 -1 x2514 -1 x2515 -1 x2516 -1 x2517 -1 x2518 -1 x2519 -1 x2520 >= 0 ;
+2 x2801 +2 x2802 +2 x2803 +2 x2804 +2 x2805 -1 x2516 -1 x2517 -1 x2518 -1 x2519 -1 x2520 -1 x2521 -1 x2522 -1 x2523 -1 x2524 -1 x2525 >= 0 ;
+2 x2806 +2 x2807 +2 x2808 +2 x2809 +2 x2810 -1 x2521 -1 x2522 -1 x2523 -1 x2524 -1 x2525 -1 x2526 -1 x2527 -1 x2528 -1 x2529 -1 x2530 >= 0 ;
+2 x2811 +2 x2812 +2 x2813 +2 x2814 +2 x2815 -1 x2526 -1 x2527 -1 x2528 -1 x2529 -1 x2530 -1 x2531 -1 x2532 -1 x2533 -1 x2534 -1 x2535 >= 0 ;
+2 x2816 +2 x2817 +2 x2818 +2 x2819 +2 x2820 -1 x2531 -1 x2532 -1 x2533 -1 x2534 -1 x2535 -1 x2536 -1 x2537 -1 x2538 -1 x2539 -1 x2540 >= 0 ;
+2 x2821 +2 x2822 +2 x2823 +2 x2824 +2 x2825 -1 x2536 -1 x2537 -1 x2538 -1 x2539 -1 x2540 -1 x2541 -1 x2542 -1 x2543 -1 x2544 -1 x2545 >= 0 ;
+2 x2826 +2 x2827 +2 x2828 +2 x2829 +2 x2830 -1 x2541 -1 x2542 -1 x2543 -1 x2544 -1 x2545 -1 x2546 -1 x2547 -1 x2548 -1 x2549 -1 x2550 >= 0 ;
+2 x2831 +2 x2832 +2 x2833 +2 x2834 +2 x2835 -1 x2546 -1 x2547 -1 x2548 -1 x2549 -1 x2550 -1 x2551 -1 x2552 -1 x2553 -1 x2554 -1 x2555 >= 0 ;
+2 x2836 +2 x2837 +2 x2838 +2 x2839 +2 x2840 -1 x2551 -1 x2552 -1 x2553 -1 x2554 -1 x2555 -1 x2556 -1 x2557 -1 x2558 -1 x2559 -1 x2560 >= 0 ;
+2 x2841 +2 x2842 +2 x2843 +2 x2844 +2 x2845 -1 x2556 -1 x2557 -1 x2558 -1 x2559 -1 x2560 -1 x2561 -1 x2562 -1 x2563 -1 x2564 -1 x2565 >= 0 ;
+2 x2846 +2 x2847 +2 x2848 +2 x2849 +2 x2850 -1 x2561 -1 x2562 -1 x2563 -1 x2564 -1 x2565 -1 x2566 -1 x2567 -1 x2568 -1 x2569 -1 x2570 >= 0 ;
+2 x2851 +2 x2852 +2 x2853 +2 x2854 +2 x2855 -1 x2566 -1 x2567 -1 x2568 -1 x2569 -1 x2570 -1 x2571 -1 x2572 -1 x2573 -1 x2574 -1 x2575 >= 0 ;
+2 x2856 +2 x2857 +2 x2858 +2 x2859 +2 x2860 -1 x2571 -1 x2572 -1 x2573 -1 x2574 -1 x2575 -1 x2576 -1 x2577 -1 x2578 -1 x2579 -1 x2580 >= 0 ;
+2 x2861 +2 x2862 +2 x2863 +2 x2864 +2 x2865 -1 x2576 -1 x2577 -1 x2578 -1 x2579 -1 x2580 -1 x2581 -1 x2582 -1 x2583 -1 x2584 -1 x2585 >= 0 ;
+2 x2866 +2 x2867 +2 x2868 +2 x2869 +2 x2870 -1 x2581 -1 x2582 -1 x2583 -1 x2584 -1 x2585 -1 x2586 -1 x2587 -1 x2588 -1 x2589 -1 x2590 >= 0 ;
+2 x2871 +2 x2872 +2 x2873 +2 x2874 +2 x2875 -1 x2586 -1 x2587 -1 x2588 -1 x2589 -1 x2590 -1 x2591 -1 x2592 -1 x2593 -1 x2594 -1 x2595 >= 0 ;
+2 x2876 +2 x2877 +2 x2878 +2 x2879 +2 x2880 -1 x2591 -1 x2592 -1 x2593 -1 x2594 -1 x2595 -1 x2596 -1 x2597 -1 x2598 -1 x2599 -1 x2600 >= 0 ;
+2 x2881 +2 x2882 +2 x2883 +2 x2884 +2 x2885 -1 x2596 -1 x2597 -1 x2598 -1 x2599 -1 x2600 -1 x2601 -1 x2602 -1 x2603 -1 x2604 -1 x2605 >= 0 ;
+2 x2886 +2 x2887 +2 x2888 +2 x2889 +2 x2890 -1 x2601 -1 x2602 -1 x2603 -1 x2604 -1 x2605 -1 x2606 -1 x2607 -1 x2608 -1 x2609 -1 x2610 >= 0 ;
+2 x2891 +2 x2892 +2 x2893 +2 x2894 +2 x2895 -1 x2606 -1 x2607 -1 x2608 -1 x2609 -1 x2610 -1 x2611 -1 x2612 -1 x2613 -1 x2614 -1 x2615 >= 0 ;
+2 x2896 +2 x2897 +2 x2898 +2 x2899 +2 x2900 -1 x2611 -1 x2612 -1 x2613 -1 x2614 -1 x2615 -1 x2616 -1 x2617 -1 x2618 -1 x2619 -1 x2620 >= 0 ;
+2 x2901 +2 x2902 +2 x2903 +2 x2904 +2 x2905 -1 x2616 -1 x2617 -1 x2618 -1 x2619 -1 x2620 -1 x2621 -1 x2622 -1 x2623 -1 x2624 -1 x2625 >= 0 ;
+2 x2906 +2 x2907 +2 x2908 +2 x2909 +2 x2910 -1 x2621 -1 x2622 -1 x2623 -1 x2624 -1 x2625 -1 x2626 -1 x2627 -1 x2628 -1 x2629 -1 x2630 >= 0 ;
+2 x2911 +2 x2912 +2 x2913 +2 x2914 +2 x2915 -1 x2626 -1 x2627 -1 x2628 -1 x2629 -1 x2630 -1 x2631 -1 x2632 -1 x2633 -1 x2634 -1 x2635 >= 0 ;
+2 x2916 +2 x2917 +2 x2918 +2 x2919 +2 x2920 -1 x2631 -1 x2632 -1 x2633 -1 x2634 -1 x2635 -1 x2636 -1 x2637 -1 x2638 -1 x2639 -1 x2640 >= 0 ;
+2 x2921 +2 x2922 +2 x2923 +2 x2924 +2 x2925 -1 x2636 -1 x2637 -1 x2638 -1 x2639 -1 x2640 -1 x2641 -1 x2642 -1 x2643 -1 x2644 -1 x2645 >= 0 ;
+2 x2926 +2 x2927 +2 x2928 +2 x2929 +2 x2930 -1 x2641 -1 x2642 -1 x2643 -1 x2644 -1 x2645 -1 x2646 -1 x2647 -1 x2648 -1 x2649 -1 x2650 >= 0 ;
+2 x2931 +2 x2932 +2 x2933 +2 x2934 +2 x2935 -1 x2646 -1 x2647 -1 x2648 -1 x2649 -1 x2650 -1 x2651 -1 x2652 -1 x2653 -1 x2654 -1 x2655 >= 0 ;
+2 x2936 +2 x2937 +2 x2938 +2 x2939 +2 x2940 -1 x2651 -1 x2652 -1 x2653 -1 x2654 -1 x2655 -1 x2656 -1 x2657 -1 x2658 -1 x2659 -1 x2660 >= 0 ;
+2 x2941 +2 x2942 +2 x2943 +2 x2944 +2 x2945 -1 x2656 -1 x2657 -1 x2658 -1 x2659 -1 x2660 -1 x2661 -1 x2662 -1 x2663 -1 x2664 -1 x2665 >= 0 ;
+2 x2946 +2 x2947 +2 x2948 +2 x2949 +2 x2950 -1 x2661 -1 x2662 -1 x2663 -1 x2664 -1 x2665 -1 x2666 -1 x2667 -1 x2668 -1 x2669 -1 x2670 >= 0 ;
+2 x2951 +2 x2952 +2 x2953 +2 x2954 +2 x2955 -1 x2666 -1 x2667 -1 x2668 -1 x2669 -1 x2670 -1 x2671 -1 x2672 -1 x2673 -1 x2674 -1 x2675 >= 0 ;
+2 x2956 +2 x2957 +2 x2958 +2 x2959 +2 x2960 -1 x2671 -1 x2672 -1 x2673 -1 x2674 -1 x2675 -1 x2676 -1 x2677 -1 x2678 -1 x2679 -1 x2680 >= 0 ;
+2 x2961 +2 x2962 +2 x2963 +2 x2964 +2 x2965 -1 x2676 -1 x2677 -1 x2678 -1 x2679 -1 x2680 -1 x2681 -1 x2682 -1 x2683 -1 x2684 -1 x2685 >= 0 ;
+2 x2966 +2 x2967 +2 x2968 +2 x2969 +2 x2970 -1 x2681 -1 x2682 -1 x2683 -1 x2684 -1 x2685 -1 x2686 -1 x2687 -1 x2688 -1 x2689 -1 x2690 >= 0 ;
+2 x2971 +2 x2972 +2 x2973 +2 x2974 +2 x2975 -1 x2686 -1 x2687 -1 x2688 -1 x2689 -1 x2690 -1 x2691 -1 x2692 -1 x2693 -1 x2694 -1 x2695 >= 0 ;
+2 x2976 +2 x2977 +2 x2978 +2 x2979 +2 x2980 -1 x2691 -1 x2692 -1 x2693 -1 x2694 -1 x2695 -1 x2696 -1 x2697 -1 x2698 -1 x2699 -1 x2700 >= 0 ;
+2 x2981 +2 x2982 +2 x2983 +2 x2984 +2 x2985 -1 x2696 -1 x2697 -1 x2698 -1 x2699 -1 x2700 -1 x2701 -1 x2702 -1 x2703 -1 x2704 -1 x2705 >= 0 ;
+2 x2986 +2 x2987 +2 x2988 +2 x2989 +2 x2990 -1 x2701 -1 x2702 -1 x2703 -1 x2704 -1 x2705 -1 x2706 -1 x2707 -1 x2708 -1 x2709 -1 x2710 >= 0 ;
+2 x2991 +2 x2992 +2 x2993 +2 x2994 +2 x2995 -1 x2706 -1 x2707 -1 x2708 -1 x2709 -1 x2710 -1 x2711 -1 x2712 -1 x2713 -1 x2714 -1 x2715 >= 0 ;
+2 x2996 +2 x2997 +2 x2998 +2 x2999 +2 x3000 -1 x2711 -1 x2712 -1 x2713 -1 x2714 -1 x2715 -1 x2716 -1 x2717 -1 x2718 -1 x2719 -1 x2720 >= 0 ;
+2 x3001 +2 x3002 +2 x3003 +2 x3004 +2 x3005 -1 x2716 -1 x2717 -1 x2718 -1 x2719 -1 x2720 -1 x2721 -1 x2722 -1 x2723 -1 x2724 -1 x2725 >= 0 ;
+2 x3006 +2 x3007 +2 x3008 +2 x3009 +2 x3010 -1 x2721 -1 x2722 -1 x2723 -1 x2724 -1 x2725 -1 x2726 -1 x2727 -1 x2728 -1 x2729 -1 x2730 >= 0 ;
+2 x3011 +2 x3012 +2 x3013 +2 x3014 +2 x3015 -1 x2726 -1 x2727 -1 x2728 -1 x2729 -1 x2730 -1 x2731 -1 x2732 -1 x2733 -1 x2734 -1 x2735 >= 0 ;
+2 x3016 +2 x3017 +2 x3018 +2 x3019 +2 x3020 -1 x2731 -1 x2732 -1 x2733 -1 x2734 -1 x2735 -1 x2736 -1 x2737 -1 x2738 -1 x2739 -1 x2740 >= 0 ;
+2 x3021 +2 x3022 +2 x3023 +2 x3024 +2 x3025 -1 x2736 -1 x2737 -1 x2738 -1 x2739 -1 x2740 -1 x2741 -1 x2742 -1 x2743 -1 x2744 -1 x2745 >= 0 ;
+2 x3026 +2 x3027 +2 x3028 +2 x3029 +2 x3030 -1 x2746 -1 x2747 -1 x2748 -1 x2749 -1 x2750 -1 x2751 -1 x2752 -1 x2753 -1 x2754 -1 x2755 >= 0 ;
+2 x3031 +2 x3032 +2 x3033 +2 x3034 +2 x3035 -1 x2751 -1 x2752 -1 x2753 -1 x2754 -1 x2755 -1 x2756 -1 x2757 -1 x2758 -1 x2759 -1 x2760 >= 0 ;
+2 x3036 +2 x3037 +2 x3038 +2 x3039 +2 x3040 -1 x2756 -1 x2757 -1 x2758 -1 x2759 -1 x2760 -1 x2761 -1 x2762 -1 x2763 -1 x2764 -1 x2765 >= 0 ;
+2 x3041 +2 x3042 +2 x3043 +2 x3044 +2 x3045 -1 x2761 -1 x2762 -1 x2763 -1 x2764 -1 x2765 -1 x2766 -1 x2767 -1 x2768 -1 x2769 -1 x2770 >= 0 ;
+2 x3046 +2 x3047 +2 x3048 +2 x3049 +2 x3050 -1 x2766 -1 x2767 -1 x2768 -1 x2769 -1 x2770 -1 x2771 -1 x2772 -1 x2773 -1 x2774 -1 x2775 >= 0 ;
+2 x3051 +2 x3052 +2 x3053 +2 x3054 +2 x3055 -1 x2771 -1 x2772 -1 x2773 -1 x2774 -1 x2775 -1 x2776 -1 x2777 -1 x2778 -1 x2779 -1 x2780 >= 0 ;
+2 x3056 +2 x3057 +2 x3058 +2 x3059 +2 x3060 -1 x2776 -1 x2777 -1 x2778 -1 x2779 -1 x2780 -1 x2781 -1 x2782 -1 x2783 -1 x2784 -1 x2785 >= 0 ;
+2 x3061 +2 x3062 +2 x3063 +2 x3064 +2 x3065 -1 x2781 -1 x2782 -1 x2783 -1 x2784 -1 x2785 -1 x2786 -1 x2787 -1 x2788 -1 x2789 -1 x2790 >= 0 ;
+2 x3066 +2 x3067 +2 x3068 +2 x3069 +2 x3070 -1 x2786 -1 x2787 -1 x2788 -1 x2789 -1 x2790 -1 x2791 -1 x2792 -1 x2793 -1 x2794 -1 x2795 >= 0 ;
+2 x3071 +2 x3072 +2 x3073 +2 x3074 +2 x3075 -1 x2791 -1 x2792 -1 x2793 -1 x2794 -1 x2795 -1 x2796 -1 x2797 -1 x2798 -1 x2799 -1 x2800 >= 0 ;
+2 x3076 +2 x3077 +2 x3078 +2 x3079 +2 x3080 -1 x2796 -1 x2797 -1 x2798 -1 x2799 -1 x2800 -1 x2801 -1 x2802 -1 x2803 -1 x2804 -1 x2805 >= 0 ;
+2 x3081 +2 x3082 +2 x3083 +2 x3084 +2 x3085 -1 x2801 -1 x2802 -1 x2803 -1 x2804 -1 x2805 -1 x2806 -1 x2807 -1 x2808 -1 x2809 -1 x2810 >= 0 ;
+2 x3086 +2 x3087 +2 x3088 +2 x3089 +2 x3090 -1 x2806 -1 x2807 -1 x2808 -1 x2809 -1 x2810 -1 x2811 -1 x2812 -1 x2813 -1 x2814 -1 x2815 >= 0 ;
+2 x3091 +2 x3092 +2 x3093 +2 x3094 +2 x3095 -1 x2811 -1 x2812 -1 x2813 -1 x2814 -1 x2815 -1 x2816 -1 x2817 -1 x2818 -1 x2819 -1 x2820 >= 0 ;
+2 x3096 +2 x3097 +2 x3098 +2 x3099 +2 x3100 -1 x2816 -1 x2817 -1 x2818 -1 x2819 -1 x2820 -1 x2821 -1 x2822 -1 x2823 -1 x2824 -1 x2825 >= 0 ;
+2 x3101 +2 x3102 +2 x3103 +2 x3104 +2 x3105 -1 x2821 -1 x2822 -1 x2823 -1 x2824 -1 x2825 -1 x2826 -1 x2827 -1 x2828 -1 x2829 -1 x2830 >= 0 ;
+2 x3106 +2 x3107 +2 x3108 +2 x3109 +2 x3110 -1 x2826 -1 x2827 -1 x2828 -1 x2829 -1 x2830 -1 x2831 -1 x2832 -1 x2833 -1 x2834 -1 x2835 >= 0 ;
+2 x3111 +2 x3112 +2 x3113 +2 x3114 +2 x3115 -1 x2831 -1 x2832 -1 x2833 -1 x2834 -1 x2835 -1 x2836 -1 x2837 -1 x2838 -1 x2839 -1 x2840 >= 0 ;
+2 x3116 +2 x3117 +2 x3118 +2 x3119 +2 x3120 -1 x2836 -1 x2837 -1 x2838 -1 x2839 -1 x2840 -1 x2841 -1 x2842 -1 x2843 -1 x2844 -1 x2845 >= 0 ;
+2 x3121 +2 x3122 +2 x3123 +2 x3124 +2 x3125 -1 x2841 -1 x2842 -1 x2843 -1 x2844 -1 x2845 -1 x2846 -1 x2847 -1 x2848 -1 x2849 -1 x2850 >= 0 ;
+2 x3126 +2 x3127 +2 x3128 +2 x3129 +2 x3130 -1 x2846 -1 x2847 -1 x2848 -1 x2849 -1 x2850 -1 x2851 -1 x2852 -1 x2853 -1 x2854 -1 x2855 >= 0 ;
+2 x3131 +2 x3132 +2 x3133 +2 x3134 +2 x3135 -1 x2851 -1 x2852 -1 x2853 -1 x2854 -1 x2855 -1 x2856 -1 x2857 -1 x2858 -1 x2859 -1 x2860 >= 0 ;
+2 x3136 +2 x3137 +2 x3138 +2 x3139 +2 x3140 -1 x2856 -1 x2857 -1 x2858 -1 x2859 -1 x2860 -1 x2861 -1 x2862 -1 x2863 -1 x2864 -1 x2865 >= 0 ;
+2 x3141 +2 x3142 +2 x3143 +2 x3144 +2 x3145 -1 x2861 -1 x2862 -1 x2863 -1 x2864 -1 x2865 -1 x2866 -1 x2867 -1 x2868 -1 x2869 -1 x2870 >= 0 ;
+2 x3146 +2 x3147 +2 x3148 +2 x3149 +2 x3150 -1 x2866 -1 x2867 -1 x2868 -1 x2869 -1 x2870 -1 x2871 -1 x2872 -1 x2873 -1 x2874 -1 x2875 >= 0 ;
+2 x3151 +2 x3152 +2 x3153 +2 x3154 +2 x3155 -1 x2871 -1 x2872 -1 x2873 -1 x2874 -1 x2875 -1 x2876 -1 x2877 -1 x2878 -1 x2879 -1 x2880 >= 0 ;
+2 x3156 +2 x3157 +2 x3158 +2 x3159 +2 x3160 -1 x2876 -1 x2877 -1 x2878 -1 x2879 -1 x2880 -1 x2881 -1 x2882 -1 x2883 -1 x2884 -1 x2885 >= 0 ;
+2 x3161 +2 x3162 +2 x3163 +2 x3164 +2 x3165 -1 x2881 -1 x2882 -1 x2883 -1 x2884 -1 x2885 -1 x2886 -1 x2887 -1 x2888 -1 x2889 -1 x2890 >= 0 ;
+2 x3166 +2 x3167 +2 x3168 +2 x3169 +2 x3170 -1 x2886 -1 x2887 -1 x2888 -1 x2889 -1 x2890 -1 x2891 -1 x2892 -1 x2893 -1 x2894 -1 x2895 >= 0 ;
+2 x3171 +2 x3172 +2 x3173 +2 x3174 +2 x3175 -1 x2891 -1 x2892 -1 x2893 -1 x2894 -1 x2895 -1 x2896 -1 x2897 -1 x2898 -1 x2899 -1 x2900 >= 0 ;
+2 x3176 +2 x3177 +2 x3178 +2 x3179 +2 x3180 -1 x2896 -1 x2897 -1 x2898 -1 x2899 -1 x2900 -1 x2901 -1 x2902 -1 x2903 -1 x2904 -1 x2905 >= 0 ;
+2 x3181 +2 x3182 +2 x3183 +2 x3184 +2 x3185 -1 x2901 -1 x2902 -1 x2903 -1 x2904 -1 x2905 -1 x2906 -1 x2907 -1 x2908 -1 x2909 -1 x2910 >= 0 ;
+2 x3186 +2 x3187 +2 x3188 +2 x3189 +2 x3190 -1 x2906 -1 x2907 -1 x2908 -1 x2909 -1 x2910 -1 x2911 -1 x2912 -1 x2913 -1 x2914 -1 x2915 >= 0 ;
+2 x3191 +2 x3192 +2 x3193 +2 x3194 +2 x3195 -1 x2911 -1 x2912 -1 x2913 -1 x2914 -1 x2915 -1 x2916 -1 x2917 -1 x2918 -1 x2919 -1 x2920 >= 0 ;
+2 x3196 +2 x3197 +2 x3198 +2 x3199 +2 x3200 -1 x2916 -1 x2917 -1 x2918 -1 x2919 -1 x2920 -1 x2921 -1 x2922 -1 x2923 -1 x2924 -1 x2925 >= 0 ;
+2 x3201 +2 x3202 +2 x3203 +2 x3204 +2 x3205 -1 x2921 -1 x2922 -1 x2923 -1 x2924 -1 x2925 -1 x2926 -1 x2927 -1 x2928 -1 x2929 -1 x2930 >= 0 ;
+2 x3206 +2 x3207 +2 x3208 +2 x3209 +2 x3210 -1 x2926 -1 x2927 -1 x2928 -1 x2929 -1 x2930 -1 x2931 -1 x2932 -1 x2933 -1 x2934 -1 x2935 >= 0 ;
+2 x3211 +2 x3212 +2 x3213 +2 x3214 +2 x3215 -1 x2931 -1 x2932 -1 x2933 -1 x2934 -1 x2935 -1 x2936 -1 x2937 -1 x2938 -1 x2939 -1 x2940 >= 0 ;
+2 x3216 +2 x3217 +2 x3218 +2 x3219 +2 x3220 -1 x2936 -1 x2937 -1 x2938 -1 x2939 -1 x2940 -1 x2941 -1 x2942 -1 x2943 -1 x2944 -1 x2945 >= 0 ;
+2 x3221 +2 x3222 +2 x3223 +2 x3224 +2 x3225 -1 x2941 -1 x2942 -1 x2943 -1 x2944 -1 x2945 -1 x2946 -1 x2947 -1 x2948 -1 x2949 -1 x2950 >= 0 ;
+2 x3226 +2 x3227 +2 x3228 +2 x3229 +2 x3230 -1 x2946 -1 x2947 -1 x2948 -1 x2949 -1 x2950 -1 x2951 -1 x2952 -1 x2953 -1 x2954 -1 x2955 >= 0 ;
+2 x3231 +2 x3232 +2 x3233 +2 x3234 +2 x3235 -1 x2951 -1 x2952 -1 x2953 -1 x2954 -1 x2955 -1 x2956 -1 x2957 -1 x2958 -1 x2959 -1 x2960 >= 0 ;
+2 x3236 +2 x3237 +2 x3238 +2 x3239 +2 x3240 -1 x2956 -1 x2957 -1 x2958 -1 x2959 -1 x2960 -1 x2961 -1 x2962 -1 x2963 -1 x2964 -1 x2965 >= 0 ;
+2 x3241 +2 x3242 +2 x3243 +2 x3244 +2 x3245 -1 x2961 -1 x2962 -1 x2963 -1 x2964 -1 x2965 -1 x2966 -1 x2967 -1 x2968 -1 x2969 -1 x2970 >= 0 ;
+2 x3246 +2 x3247 +2 x3248 +2 x3249 +2 x3250 -1 x2966 -1 x2967 -1 x2968 -1 x2969 -1 x2970 -1 x2971 -1 x2972 -1 x2973 -1 x2974 -1 x2975 >= 0 ;
+2 x3251 +2 x3252 +2 x3253 +2 x3254 +2 x3255 -1 x2971 -1 x2972 -1 x2973 -1 x2974 -1 x2975 -1 x2976 -1 x2977 -1 x2978 -1 x2979 -1 x2980 >= 0 ;
+2 x3256 +2 x3257 +2 x3258 +2 x3259 +2 x3260 -1 x2976 -1 x2977 -1 x2978 -1 x2979 -1 x2980 -1 x2981 -1 x2982 -1 x2983 -1 x2984 -1 x2985 >= 0 ;
+2 x3261 +2 x3262 +2 x3263 +2 x3264 +2 x3265 -1 x2981 -1 x2982 -1 x2983 -1 x2984 -1 x2985 -1 x2986 -1 x2987 -1 x2988 -1 x2989 -1 x2990 >= 0 ;
+2 x3266 +2 x3267 +2 x3268 +2 x3269 +2 x3270 -1 x2986 -1 x2987 -1 x2988 -1 x2989 -1 x2990 -1 x2991 -1 x2992 -1 x2993 -1 x2994 -1 x2995 >= 0 ;
+2 x3271 +2 x3272 +2 x3273 +2 x3274 +2 x3275 -1 x2991 -1 x2992 -1 x2993 -1 x2994 -1 x2995 -1 x2996 -1 x2997 -1 x2998 -1 x2999 -1 x3000 >= 0 ;
+2 x3276 +2 x3277 +2 x3278 +2 x3279 +2 x3280 -1 x2996 -1 x2997 -1 x2998 -1 x2999 -1 x3000 -1 x3001 -1 x3002 -1 x3003 -1 x3004 -1 x3005 >= 0 ;
+2 x3281 +2 x3282 +2 x3283 +2 x3284 +2 x3285 -1 x3001 -1 x3002 -1 x3003 -1 x3004 -1 x3005 -1 x3006 -1 x3007 -1 x3008 -1 x3009 -1 x3010 >= 0 ;
+2 x3286 +2 x3287 +2 x3288 +2 x3289 +2 x3290 -1 x3006 -1 x3007 -1 x3008 -1 x3009 -1 x3010 -1 x3011 -1 x3012 -1 x3013 -1 x3014 -1 x3015 >= 0 ;
+2 x3291 +2 x3292 +2 x3293 +2 x3294 +2 x3295 -1 x3011 -1 x3012 -1 x3013 -1 x3014 -1 x3015 -1 x3016 -1 x3017 -1 x3018 -1 x3019 -1 x3020 >= 0 ;
+2 x3296 +2 x3297 +2 x3298 +2 x3299 +2 x3300 -1 x3016 -1 x3017 -1 x3018 -1 x3019 -1 x3020 -1 x3021 -1 x3022 -1 x3023 -1 x3024 -1 x3025 >= 0 ;
+2 x3301 +2 x3302 +2 x3303 +2 x3304 +2 x3305 -1 x3026 -1 x3027 -1 x3028 -1 x3029 -1 x3030 -1 x3031 -1 x3032 -1 x3033 -1 x3034 -1 x3035 >= 0 ;
+2 x3306 +2 x3307 +2 x3308 +2 x3309 +2 x3310 -1 x3031 -1 x3032 -1 x3033 -1 x3034 -1 x3035 -1 x3036 -1 x3037 -1 x3038 -1 x3039 -1 x3040 >= 0 ;
+2 x3311 +2 x3312 +2 x3313 +2 x3314 +2 x3315 -1 x3036 -1 x3037 -1 x3038 -1 x3039 -1 x3040 -1 x3041 -1 x3042 -1 x3043 -1 x3044 -1 x3045 >= 0 ;
+2 x3316 +2 x3317 +2 x3318 +2 x3319 +2 x3320 -1 x3041 -1 x3042 -1 x3043 -1 x3044 -1 x3045 -1 x3046 -1 x3047 -1 x3048 -1 x3049 -1 x3050 >= 0 ;
+2 x3321 +2 x3322 +2 x3323 +2 x3324 +2 x3325 -1 x3046 -1 x3047 -1 x3048 -1 x3049 -1 x3050 -1 x3051 -1 x3052 -1 x3053 -1 x3054 -1 x3055 >= 0 ;
+2 x3326 +2 x3327 +2 x3328 +2 x3329 +2 x3330 -1 x3051 -1 x3052 -1 x3053 -1 x3054 -1 x3055 -1 x3056 -1 x3057 -1 x3058 -1 x3059 -1 x3060 >= 0 ;
+2 x3331 +2 x3332 +2 x3333 +2 x3334 +2 x3335 -1 x3056 -1 x3057 -1 x3058 -1 x3059 -1 x3060 -1 x3061 -1 x3062 -1 x3063 -1 x3064 -1 x3065 >= 0 ;
+2 x3336 +2 x3337 +2 x3338 +2 x3339 +2 x3340 -1 x3061 -1 x3062 -1 x3063 -1 x3064 -1 x3065 -1 x3066 -1 x3067 -1 x3068 -1 x3069 -1 x3070 >= 0 ;
+2 x3341 +2 x3342 +2 x3343 +2 x3344 +2 x3345 -1 x3066 -1 x3067 -1 x3068 -1 x3069 -1 x3070 -1 x3071 -1 x3072 -1 x3073 -1 x3074 -1 x3075 >= 0 ;
+2 x3346 +2 x3347 +2 x3348 +2 x3349 +2 x3350 -1 x3071 -1 x3072 -1 x3073 -1 x3074 -1 x3075 -1 x3076 -1 x3077 -1 x3078 -1 x3079 -1 x3080 >= 0 ;
+2 x3351 +2 x3352 +2 x3353 +2 x3354 +2 x3355 -1 x3076 -1 x3077 -1 x3078 -1 x3079 -1 x3080 -1 x3081 -1 x3082 -1 x3083 -1 x3084 -1 x3085 >= 0 ;
+2 x3356 +2 x3357 +2 x3358 +2 x3359 +2 x3360 -1 x3081 -1 x3082 -1 x3083 -1 x3084 -1 x3085 -1 x3086 -1 x3087 -1 x3088 -1 x3089 -1 x3090 >= 0 ;
+2 x3361 +2 x3362 +2 x3363 +2 x3364 +2 x3365 -1 x3086 -1 x3087 -1 x3088 -1 x3089 -1 x3090 -1 x3091 -1 x3092 -1 x3093 -1 x3094 -1 x3095 >= 0 ;
+2 x3366 +2 x3367 +2 x3368 +2 x3369 +2 x3370 -1 x3091 -1 x3092 -1 x3093 -1 x3094 -1 x3095 -1 x3096 -1 x3097 -1 x3098 -1 x3099 -1 x3100 >= 0 ;
+2 x3371 +2 x3372 +2 x3373 +2 x3374 +2 x3375 -1 x3096 -1 x3097 -1 x3098 -1 x3099 -1 x3100 -1 x3101 -1 x3102 -1 x3103 -1 x3104 -1 x3105 >= 0 ;
+2 x3376 +2 x3377 +2 x3378 +2 x3379 +2 x3380 -1 x3101 -1 x3102 -1 x3103 -1 x3104 -1 x3105 -1 x3106 -1 x3107 -1 x3108 -1 x3109 -1 x3110 >= 0 ;
+2 x3381 +2 x3382 +2 x3383 +2 x3384 +2 x3385 -1 x3106 -1 x3107 -1 x3108 -1 x3109 -1 x3110 -1 x3111 -1 x3112 -1 x3113 -1 x3114 -1 x3115 >= 0 ;
+2 x3386 +2 x3387 +2 x3388 +2 x3389 +2 x3390 -1 x3111 -1 x3112 -1 x3113 -1 x3114 -1 x3115 -1 x3116 -1 x3117 -1 x3118 -1 x3119 -1 x3120 >= 0 ;
+2 x3391 +2 x3392 +2 x3393 +2 x3394 +2 x3395 -1 x3116 -1 x3117 -1 x3118 -1 x3119 -1 x3120 -1 x3121 -1 x3122 -1 x3123 -1 x3124 -1 x3125 >= 0 ;
+2 x3396 +2 x3397 +2 x3398 +2 x3399 +2 x3400 -1 x3121 -1 x3122 -1 x3123 -1 x3124 -1 x3125 -1 x3126 -1 x3127 -1 x3128 -1 x3129 -1 x3130 >= 0 ;
+2 x3401 +2 x3402 +2 x3403 +2 x3404 +2 x3405 -1 x3126 -1 x3127 -1 x3128 -1 x3129 -1 x3130 -1 x3131 -1 x3132 -1 x3133 -1 x3134 -1 x3135 >= 0 ;
+2 x3406 +2 x3407 +2 x3408 +2 x3409 +2 x3410 -1 x3131 -1 x3132 -1 x3133 -1 x3134 -1 x3135 -1 x3136 -1 x3137 -1 x3138 -1 x3139 -1 x3140 >= 0 ;
+2 x3411 +2 x3412 +2 x3413 +2 x3414 +2 x3415 -1 x3136 -1 x3137 -1 x3138 -1 x3139 -1 x3140 -1 x3141 -1 x3142 -1 x3143 -1 x3144 -1 x3145 >= 0 ;
+2 x3416 +2 x3417 +2 x3418 +2 x3419 +2 x3420 -1 x3141 -1 x3142 -1 x3143 -1 x3144 -1 x3145 -1 x3146 -1 x3147 -1 x3148 -1 x3149 -1 x3150 >= 0 ;
+2 x3421 +2 x3422 +2 x3423 +2 x3424 +2 x3425 -1 x3146 -1 x3147 -1 x3148 -1 x3149 -1 x3150 -1 x3151 -1 x3152 -1 x3153 -1 x3154 -1 x3155 >= 0 ;
+2 x3426 +2 x3427 +2 x3428 +2 x3429 +2 x3430 -1 x3151 -1 x3152 -1 x3153 -1 x3154 -1 x3155 -1 x3156 -1 x3157 -1 x3158 -1 x3159 -1 x3160 >= 0 ;
+2 x3431 +2 x3432 +2 x3433 +2 x3434 +2 x3435 -1 x3156 -1 x3157 -1 x3158 -1 x3159 -1 x3160 -1 x3161 -1 x3162 -1 x3163 -1 x3164 -1 x3165 >= 0 ;
+2 x3436 +2 x3437 +2 x3438 +2 x3439 +2 x3440 -1 x3161 -1 x3162 -1 x3163 -1 x3164 -1 x3165 -1 x3166 -1 x3167 -1 x3168 -1 x3169 -1 x3170 >= 0 ;
+2 x3441 +2 x3442 +2 x3443 +2 x3444 +2 x3445 -1 x3166 -1 x3167 -1 x3168 -1 x3169 -1 x3170 -1 x3171 -1 x3172 -1 x3173 -1 x3174 -1 x3175 >= 0 ;
+2 x3446 +2 x3447 +2 x3448 +2 x3449 +2 x3450 -1 x3171 -1 x3172 -1 x3173 -1 x3174 -1 x3175 -1 x3176 -1 x3177 -1 x3178 -1 x3179 -1 x3180 >= 0 ;
+2 x3451 +2 x3452 +2 x3453 +2 x3454 +2 x3455 -1 x3176 -1 x3177 -1 x3178 -1 x3179 -1 x3180 -1 x3181 -1 x3182 -1 x3183 -1 x3184 -1 x3185 >= 0 ;
+2 x3456 +2 x3457 +2 x3458 +2 x3459 +2 x3460 -1 x3181 -1 x3182 -1 x3183 -1 x3184 -1 x3185 -1 x3186 -1 x3187 -1 x3188 -1 x3189 -1 x3190 >= 0 ;
+2 x3461 +2 x3462 +2 x3463 +2 x3464 +2 x3465 -1 x3186 -1 x3187 -1 x3188 -1 x3189 -1 x3190 -1 x3191 -1 x3192 -1 x3193 -1 x3194 -1 x3195 >= 0 ;
+2 x3466 +2 x3467 +2 x3468 +2 x3469 +2 x3470 -1 x3191 -1 x3192 -1 x3193 -1 x3194 -1 x3195 -1 x3196 -1 x3197 -1 x3198 -1 x3199 -1 x3200 >= 0 ;
+2 x3471 +2 x3472 +2 x3473 +2 x3474 +2 x3475 -1 x3196 -1 x3197 -1 x3198 -1 x3199 -1 x3200 -1 x3201 -1 x3202 -1 x3203 -1 x3204 -1 x3205 >= 0 ;
+2 x3476 +2 x3477 +2 x3478 +2 x3479 +2 x3480 -1 x3201 -1 x3202 -1 x3203 -1 x3204 -1 x3205 -1 x3206 -1 x3207 -1 x3208 -1 x3209 -1 x3210 >= 0 ;
+2 x3481 +2 x3482 +2 x3483 +2 x3484 +2 x3485 -1 x3206 -1 x3207 -1 x3208 -1 x3209 -1 x3210 -1 x3211 -1 x3212 -1 x3213 -1 x3214 -1 x3215 >= 0 ;
+2 x3486 +2 x3487 +2 x3488 +2 x3489 +2 x3490 -1 x3211 -1 x3212 -1 x3213 -1 x3214 -1 x3215 -1 x3216 -1 x3217 -1 x3218 -1 x3219 -1 x3220 >= 0 ;
+2 x3491 +2 x3492 +2 x3493 +2 x3494 +2 x3495 -1 x3216 -1 x3217 -1 x3218 -1 x3219 -1 x3220 -1 x3221 -1 x3222 -1 x3223 -1 x3224 -1 x3225 >= 0 ;
+2 x3496 +2 x3497 +2 x3498 +2 x3499 +2 x3500 -1 x3221 -1 x3222 -1 x3223 -1 x3224 -1 x3225 -1 x3226 -1 x3227 -1 x3228 -1 x3229 -1 x3230 >= 0 ;
+2 x3501 +2 x3502 +2 x3503 +2 x3504 +2 x3505 -1 x3226 -1 x3227 -1 x3228 -1 x3229 -1 x3230 -1 x3231 -1 x3232 -1 x3233 -1 x3234 -1 x3235 >= 0 ;
+2 x3506 +2 x3507 +2 x3508 +2 x3509 +2 x3510 -1 x3231 -1 x3232 -1 x3233 -1 x3234 -1 x3235 -1 x3236 -1 x3237 -1 x3238 -1 x3239 -1 x3240 >= 0 ;
+2 x3511 +2 x3512 +2 x3513 +2 x3514 +2 x3515 -1 x3236 -1 x3237 -1 x3238 -1 x3239 -1 x3240 -1 x3241 -1 x3242 -1 x3243 -1 x3244 -1 x3245 >= 0 ;
+2 x3516 +2 x3517 +2 x3518 +2 x3519 +2 x3520 -1 x3241 -1 x3242 -1 x3243 -1 x3244 -1 x3245 -1 x3246 -1 x3247 -1 x3248 -1 x3249 -1 x3250 >= 0 ;
+2 x3521 +2 x3522 +2 x3523 +2 x3524 +2 x3525 -1 x3246 -1 x3247 -1 x3248 -1 x3249 -1 x3250 -1 x3251 -1 x3252 -1 x3253 -1 x3254 -1 x3255 >= 0 ;
+2 x3526 +2 x3527 +2 x3528 +2 x3529 +2 x3530 -1 x3251 -1 x3252 -1 x3253 -1 x3254 -1 x3255 -1 x3256 -1 x3257 -1 x3258 -1 x3259 -1 x3260 >= 0 ;
+2 x3531 +2 x3532 +2 x3533 +2 x3534 +2 x3535 -1 x3256 -1 x3257 -1 x3258 -1 x3259 -1 x3260 -1 x3261 -1 x3262 -1 x3263 -1 x3264 -1 x3265 >= 0 ;
+2 x3536 +2 x3537 +2 x3538 +2 x3539 +2 x3540 -1 x3261 -1 x3262 -1 x3263 -1 x3264 -1 x3265 -1 x3266 -1 x3267 -1 x3268 -1 x3269 -1 x3270 >= 0 ;
+2 x3541 +2 x3542 +2 x3543 +2 x3544 +2 x3545 -1 x3266 -1 x3267 -1 x3268 -1 x3269 -1 x3270 -1 x3271 -1 x3272 -1 x3273 -1 x3274 -1 x3275 >= 0 ;
+2 x3546 +2 x3547 +2 x3548 +2 x3549 +2 x3550 -1 x3271 -1 x3272 -1 x3273 -1 x3274 -1 x3275 -1 x3276 -1 x3277 -1 x3278 -1 x3279 -1 x3280 >= 0 ;
+2 x3551 +2 x3552 +2 x3553 +2 x3554 +2 x3555 -1 x3276 -1 x3277 -1 x3278 -1 x3279 -1 x3280 -1 x3281 -1 x3282 -1 x3283 -1 x3284 -1 x3285 >= 0 ;
+2 x3556 +2 x3557 +2 x3558 +2 x3559 +2 x3560 -1 x3281 -1 x3282 -1 x3283 -1 x3284 -1 x3285 -1 x3286 -1 x3287 -1 x3288 -1 x3289 -1 x3290 >= 0 ;
+2 x3561 +2 x3562 +2 x3563 +2 x3564 +2 x3565 -1 x3286 -1 x3287 -1 x3288 -1 x3289 -1 x3290 -1 x3291 -1 x3292 -1 x3293 -1 x3294 -1 x3295 >= 0 ;
+2 x3566 +2 x3567 +2 x3568 +2 x3569 +2 x3570 -1 x3291 -1 x3292 -1 x3293 -1 x3294 -1 x3295 -1 x3296 -1 x3297 -1 x3298 -1 x3299 -1 x3300 >= 0 ;
+2 x3571 +2 x3572 +2 x3573 +2 x3574 +2 x3575 -1 x3301 -1 x3302 -1 x3303 -1 x3304 -1 x3305 -1 x3306 -1 x3307 -1 x3308 -1 x3309 -1 x3310 >= 0 ;
+2 x3576 +2 x3577 +2 x3578 +2 x3579 +2 x3580 -1 x3306 -1 x3307 -1 x3308 -1 x3309 -1 x3310 -1 x3311 -1 x3312 -1 x3313 -1 x3314 -1 x3315 >= 0 ;
+2 x3581 +2 x3582 +2 x3583 +2 x3584 +2 x3585 -1 x3311 -1 x3312 -1 x3313 -1 x3314 -1 x3315 -1 x3316 -1 x3317 -1 x3318 -1 x3319 -1 x3320 >= 0 ;
+2 x3586 +2 x3587 +2 x3588 +2 x3589 +2 x3590 -1 x3316 -1 x3317 -1 x3318 -1 x3319 -1 x3320 -1 x3321 -1 x3322 -1 x3323 -1 x3324 -1 x3325 >= 0 ;
+2 x3591 +2 x3592 +2 x3593 +2 x3594 +2 x3595 -1 x3321 -1 x3322 -1 x3323 -1 x3324 -1 x3325 -1 x3326 -1 x3327 -1 x3328 -1 x3329 -1 x3330 >= 0 ;
+2 x3596 +2 x3597 +2 x3598 +2 x3599 +2 x3600 -1 x3326 -1 x3327 -1 x3328 -1 x3329 -1 x3330 -1 x3331 -1 x3332 -1 x3333 -1 x3334 -1 x3335 >= 0 ;
+2 x3601 +2 x3602 +2 x3603 +2 x3604 +2 x3605 -1 x3331 -1 x3332 -1 x3333 -1 x3334 -1 x3335 -1 x3336 -1 x3337 -1 x3338 -1 x3339 -1 x3340 >= 0 ;
+2 x3606 +2 x3607 +2 x3608 +2 x3609 +2 x3610 -1 x3336 -1 x3337 -1 x3338 -1 x3339 -1 x3340 -1 x3341 -1 x3342 -1 x3343 -1 x3344 -1 x3345 >= 0 ;
+2 x3611 +2 x3612 +2 x3613 +2 x3614 +2 x3615 -1 x3341 -1 x3342 -1 x3343 -1 x3344 -1 x3345 -1 x3346 -1 x3347 -1 x3348 -1 x3349 -1 x3350 >= 0 ;
+2 x3616 +2 x3617 +2 x3618 +2 x3619 +2 x3620 -1 x3346 -1 x3347 -1 x3348 -1 x3349 -1 x3350 -1 x3351 -1 x3352 -1 x3353 -1 x3354 -1 x3355 >= 0 ;
+2 x3621 +2 x3622 +2 x3623 +2 x3624 +2 x3625 -1 x3351 -1 x3352 -1 x3353 -1 x3354 -1 x3355 -1 x3356 -1 x3357 -1 x3358 -1 x3359 -1 x3360 >= 0 ;
+2 x3626 +2 x3627 +2 x3628 +2 x3629 +2 x3630 -1 x3356 -1 x3357 -1 x3358 -1 x3359 -1 x3360 -1 x3361 -1 x3362 -1 x3363 -1 x3364 -1 x3365 >= 0 ;
+2 x3631 +2 x3632 +2 x3633 +2 x3634 +2 x3635 -1 x3361 -1 x3362 -1 x3363 -1 x3364 -1 x3365 -1 x3366 -1 x3367 -1 x3368 -1 x3369 -1 x3370 >= 0 ;
+2 x3636 +2 x3637 +2 x3638 +2 x3639 +2 x3640 -1 x3366 -1 x3367 -1 x3368 -1 x3369 -1 x3370 -1 x3371 -1 x3372 -1 x3373 -1 x3374 -1 x3375 >= 0 ;
+2 x3641 +2 x3642 +2 x3643 +2 x3644 +2 x3645 -1 x3371 -1 x3372 -1 x3373 -1 x3374 -1 x3375 -1 x3376 -1 x3377 -1 x3378 -1 x3379 -1 x3380 >= 0 ;
+2 x3646 +2 x3647 +2 x3648 +2 x3649 +2 x3650 -1 x3376 -1 x3377 -1 x3378 -1 x3379 -1 x3380 -1 x3381 -1 x3382 -1 x3383 -1 x3384 -1 x3385 >= 0 ;
+2 x3651 +2 x3652 +2 x3653 +2 x3654 +2 x3655 -1 x3381 -1 x3382 -1 x3383 -1 x3384 -1 x3385 -1 x3386 -1 x3387 -1 x3388 -1 x3389 -1 x3390 >= 0 ;
+2 x3656 +2 x3657 +2 x3658 +2 x3659 +2 x3660 -1 x3386 -1 x3387 -1 x3388 -1 x3389 -1 x3390 -1 x3391 -1 x3392 -1 x3393 -1 x3394 -1 x3395 >= 0 ;
+2 x3661 +2 x3662 +2 x3663 +2 x3664 +2 x3665 -1 x3391 -1 x3392 -1 x3393 -1 x3394 -1 x3395 -1 x3396 -1 x3397 -1 x3398 -1 x3399 -1 x3400 >= 0 ;
+2 x3666 +2 x3667 +2 x3668 +2 x3669 +2 x3670 -1 x3396 -1 x3397 -1 x3398 -1 x3399 -1 x3400 -1 x3401 -1 x3402 -1 x3403 -1 x3404 -1 x3405 >= 0 ;
+2 x3671 +2 x3672 +2 x3673 +2 x3674 +2 x3675 -1 x3401 -1 x3402 -1 x3403 -1 x3404 -1 x3405 -1 x3406 -1 x3407 -1 x3408 -1 x3409 -1 x3410 >= 0 ;
+2 x3676 +2 x3677 +2 x3678 +2 x3679 +2 x3680 -1 x3406 -1 x3407 -1 x3408 -1 x3409 -1 x3410 -1 x3411 -1 x3412 -1 x3413 -1 x3414 -1 x3415 >= 0 ;
+2 x3681 +2 x3682 +2 x3683 +2 x3684 +2 x3685 -1 x3411 -1 x3412 -1 x3413 -1 x3414 -1 x3415 -1 x3416 -1 x3417 -1 x3418 -1 x3419 -1 x3420 >= 0 ;
+2 x3686 +2 x3687 +2 x3688 +2 x3689 +2 x3690 -1 x3416 -1 x3417 -1 x3418 -1 x3419 -1 x3420 -1 x3421 -1 x3422 -1 x3423 -1 x3424 -1 x3425 >= 0 ;
+2 x3691 +2 x3692 +2 x3693 +2 x3694 +2 x3695 -1 x3421 -1 x3422 -1 x3423 -1 x3424 -1 x3425 -1 x3426 -1 x3427 -1 x3428 -1 x3429 -1 x3430 >= 0 ;
+2 x3696 +2 x3697 +2 x3698 +2 x3699 +2 x3700 -1 x3426 -1 x3427 -1 x3428 -1 x3429 -1 x3430 -1 x3431 -1 x3432 -1 x3433 -1 x3434 -1 x3435 >= 0 ;
+2 x3701 +2 x3702 +2 x3703 +2 x3704 +2 x3705 -1 x3431 -1 x3432 -1 x3433 -1 x3434 -1 x3435 -1 x3436 -1 x3437 -1 x3438 -1 x3439 -1 x3440 >= 0 ;
+2 x3706 +2 x3707 +2 x3708 +2 x3709 +2 x3710 -1 x3436 -1 x3437 -1 x3438 -1 x3439 -1 x3440 -1 x3441 -1 x3442 -1 x3443 -1 x3444 -1 x3445 >= 0 ;
+2 x3711 +2 x3712 +2 x3713 +2 x3714 +2 x3715 -1 x3441 -1 x3442 -1 x3443 -1 x3444 -1 x3445 -1 x3446 -1 x3447 -1 x3448 -1 x3449 -1 x3450 >= 0 ;
+2 x3716 +2 x3717 +2 x3718 +2 x3719 +2 x3720 -1 x3446 -1 x3447 -1 x3448 -1 x3449 -1 x3450 -1 x3451 -1 x3452 -1 x3453 -1 x3454 -1 x3455 >= 0 ;
+2 x3721 +2 x3722 +2 x3723 +2 x3724 +2 x3725 -1 x3451 -1 x3452 -1 x3453 -1 x3454 -1 x3455 -1 x3456 -1 x3457 -1 x3458 -1 x3459 -1 x3460 >= 0 ;
+2 x3726 +2 x3727 +2 x3728 +2 x3729 +2 x3730 -1 x3456 -1 x3457 -1 x3458 -1 x3459 -1 x3460 -1 x3461 -1 x3462 -1 x3463 -1 x3464 -1 x3465 >= 0 ;
+2 x3731 +2 x3732 +2 x3733 +2 x3734 +2 x3735 -1 x3461 -1 x3462 -1 x3463 -1 x3464 -1 x3465 -1 x3466 -1 x3467 -1 x3468 -1 x3469 -1 x3470 >= 0 ;
+2 x3736 +2 x3737 +2 x3738 +2 x3739 +2 x3740 -1 x3466 -1 x3467 -1 x3468 -1 x3469 -1 x3470 -1 x3471 -1 x3472 -1 x3473 -1 x3474 -1 x3475 >= 0 ;
+2 x3741 +2 x3742 +2 x3743 +2 x3744 +2 x3745 -1 x3471 -1 x3472 -1 x3473 -1 x3474 -1 x3475 -1 x3476 -1 x3477 -1 x3478 -1 x3479 -1 x3480 >= 0 ;
+2 x3746 +2 x3747 +2 x3748 +2 x3749 +2 x3750 -1 x3476 -1 x3477 -1 x3478 -1 x3479 -1 x3480 -1 x3481 -1 x3482 -1 x3483 -1 x3484 -1 x3485 >= 0 ;
+2 x3751 +2 x3752 +2 x3753 +2 x3754 +2 x3755 -1 x3481 -1 x3482 -1 x3483 -1 x3484 -1 x3485 -1 x3486 -1 x3487 -1 x3488 -1 x3489 -1 x3490 >= 0 ;
+2 x3756 +2 x3757 +2 x3758 +2 x3759 +2 x3760 -1 x3486 -1 x3487 -1 x3488 -1 x3489 -1 x3490 -1 x3491 -1 x3492 -1 x3493 -1 x3494 -1 x3495 >= 0 ;
+2 x3761 +2 x3762 +2 x3763 +2 x3764 +2 x3765 -1 x3491 -1 x3492 -1 x3493 -1 x3494 -1 x3495 -1 x3496 -1 x3497 -1 x3498 -1 x3499 -1 x3500 >= 0 ;
+2 x3766 +2 x3767 +2 x3768 +2 x3769 +2 x3770 -1 x3496 -1 x3497 -1 x3498 -1 x3499 -1 x3500 -1 x3501 -1 x3502 -1 x3503 -1 x3504 -1 x3505 >= 0 ;
+2 x3771 +2 x3772 +2 x3773 +2 x3774 +2 x3775 -1 x3501 -1 x3502 -1 x3503 -1 x3504 -1 x3505 -1 x3506 -1 x3507 -1 x3508 -1 x3509 -1 x3510 >= 0 ;
+2 x3776 +2 x3777 +2 x3778 +2 x3779 +2 x3780 -1 x3506 -1 x3507 -1 x3508 -1 x3509 -1 x3510 -1 x3511 -1 x3512 -1 x3513 -1 x3514 -1 x3515 >= 0 ;
+2 x3781 +2 x3782 +2 x3783 +2 x3784 +2 x3785 -1 x3511 -1 x3512 -1 x3513 -1 x3514 -1 x3515 -1 x3516 -1 x3517 -1 x3518 -1 x3519 -1 x3520 >= 0 ;
+2 x3786 +2 x3787 +2 x3788 +2 x3789 +2 x3790 -1 x3516 -1 x3517 -1 x3518 -1 x3519 -1 x3520 -1 x3521 -1 x3522 -1 x3523 -1 x3524 -1 x3525 >= 0 ;
+2 x3791 +2 x3792 +2 x3793 +2 x3794 +2 x3795 -1 x3521 -1 x3522 -1 x3523 -1 x3524 -1 x3525 -1 x3526 -1 x3527 -1 x3528 -1 x3529 -1 x3530 >= 0 ;
+2 x3796 +2 x3797 +2 x3798 +2 x3799 +2 x3800 -1 x3526 -1 x3527 -1 x3528 -1 x3529 -1 x3530 -1 x3531 -1 x3532 -1 x3533 -1 x3534 -1 x3535 >= 0 ;
+2 x3801 +2 x3802 +2 x3803 +2 x3804 +2 x3805 -1 x3531 -1 x3532 -1 x3533 -1 x3534 -1 x3535 -1 x3536 -1 x3537 -1 x3538 -1 x3539 -1 x3540 >= 0 ;
+2 x3806 +2 x3807 +2 x3808 +2 x3809 +2 x3810 -1 x3536 -1 x3537 -1 x3538 -1 x3539 -1 x3540 -1 x3541 -1 x3542 -1 x3543 -1 x3544 -1 x3545 >= 0 ;
+2 x3811 +2 x3812 +2 x3813 +2 x3814 +2 x3815 -1 x3541 -1 x3542 -1 x3543 -1 x3544 -1 x3545 -1 x3546 -1 x3547 -1 x3548 -1 x3549 -1 x3550 >= 0 ;
+2 x3816 +2 x3817 +2 x3818 +2 x3819 +2 x3820 -1 x3546 -1 x3547 -1 x3548 -1 x3549 -1 x3550 -1 x3551 -1 x3552 -1 x3553 -1 x3554 -1 x3555 >= 0 ;
+2 x3821 +2 x3822 +2 x3823 +2 x3824 +2 x3825 -1 x3551 -1 x3552 -1 x3553 -1 x3554 -1 x3555 -1 x3556 -1 x3557 -1 x3558 -1 x3559 -1 x3560 >= 0 ;
+2 x3826 +2 x3827 +2 x3828 +2 x3829 +2 x3830 -1 x3556 -1 x3557 -1 x3558 -1 x3559 -1 x3560 -1 x3561 -1 x3562 -1 x3563 -1 x3564 -1 x3565 >= 0 ;
+2 x3831 +2 x3832 +2 x3833 +2 x3834 +2 x3835 -1 x3561 -1 x3562 -1 x3563 -1 x3564 -1 x3565 -1 x3566 -1 x3567 -1 x3568 -1 x3569 -1 x3570 >= 0 ;
+2 x3836 +2 x3837 +2 x3838 +2 x3839 +2 x3840 -1 x3571 -1 x3572 -1 x3573 -1 x3574 -1 x3575 -1 x3576 -1 x3577 -1 x3578 -1 x3579 -1 x3580 >= 0 ;
+2 x3841 +2 x3842 +2 x3843 +2 x3844 +2 x3845 -1 x3576 -1 x3577 -1 x3578 -1 x3579 -1 x3580 -1 x3581 -1 x3582 -1 x3583 -1 x3584 -1 x3585 >= 0 ;
+2 x3846 +2 x3847 +2 x3848 +2 x3849 +2 x3850 -1 x3581 -1 x3582 -1 x3583 -1 x3584 -1 x3585 -1 x3586 -1 x3587 -1 x3588 -1 x3589 -1 x3590 >= 0 ;
+2 x3851 +2 x3852 +2 x3853 +2 x3854 +2 x3855 -1 x3586 -1 x3587 -1 x3588 -1 x3589 -1 x3590 -1 x3591 -1 x3592 -1 x3593 -1 x3594 -1 x3595 >= 0 ;
+2 x3856 +2 x3857 +2 x3858 +2 x3859 +2 x3860 -1 x3591 -1 x3592 -1 x3593 -1 x3594 -1 x3595 -1 x3596 -1 x3597 -1 x3598 -1 x3599 -1 x3600 >= 0 ;
+2 x3861 +2 x3862 +2 x3863 +2 x3864 +2 x3865 -1 x3596 -1 x3597 -1 x3598 -1 x3599 -1 x3600 -1 x3601 -1 x3602 -1 x3603 -1 x3604 -1 x3605 >= 0 ;
+2 x3866 +2 x3867 +2 x3868 +2 x3869 +2 x3870 -1 x3601 -1 x3602 -1 x3603 -1 x3604 -1 x3605 -1 x3606 -1 x3607 -1 x3608 -1 x3609 -1 x3610 >= 0 ;
+2 x3871 +2 x3872 +2 x3873 +2 x3874 +2 x3875 -1 x3606 -1 x3607 -1 x3608 -1 x3609 -1 x3610 -1 x3611 -1 x3612 -1 x3613 -1 x3614 -1 x3615 >= 0 ;
+2 x3876 +2 x3877 +2 x3878 +2 x3879 +2 x3880 -1 x3611 -1 x3612 -1 x3613 -1 x3614 -1 x3615 -1 x3616 -1 x3617 -1 x3618 -1 x3619 -1 x3620 >= 0 ;
+2 x3881 +2 x3882 +2 x3883 +2 x3884 +2 x3885 -1 x3616 -1 x3617 -1 x3618 -1 x3619 -1 x3620 -1 x3621 -1 x3622 -1 x3623 -1 x3624 -1 x3625 >= 0 ;
+2 x3886 +2 x3887 +2 x3888 +2 x3889 +2 x3890 -1 x3621 -1 x3622 -1 x3623 -1 x3624 -1 x3625 -1 x3626 -1 x3627 -1 x3628 -1 x3629 -1 x3630 >= 0 ;
+2 x3891 +2 x3892 +2 x3893 +2 x3894 +2 x3895 -1 x3626 -1 x3627 -1 x3628 -1 x3629 -1 x3630 -1 x3631 -1 x3632 -1 x3633 -1 x3634 -1 x3635 >= 0 ;
+2 x3896 +2 x3897 +2 x3898 +2 x3899 +2 x3900 -1 x3631 -1 x3632 -1 x3633 -1 x3634 -1 x3635 -1 x3636 -1 x3637 -1 x3638 -1 x3639 -1 x3640 >= 0 ;
+2 x3901 +2 x3902 +2 x3903 +2 x3904 +2 x3905 -1 x3636 -1 x3637 -1 x3638 -1 x3639 -1 x3640 -1 x3641 -1 x3642 -1 x3643 -1 x3644 -1 x3645 >= 0 ;
+2 x3906 +2 x3907 +2 x3908 +2 x3909 +2 x3910 -1 x3641 -1 x3642 -1 x3643 -1 x3644 -1 x3645 -1 x3646 -1 x3647 -1 x3648 -1 x3649 -1 x3650 >= 0 ;
+2 x3911 +2 x3912 +2 x3913 +2 x3914 +2 x3915 -1 x3646 -1 x3647 -1 x3648 -1 x3649 -1 x3650 -1 x3651 -1 x3652 -1 x3653 -1 x3654 -1 x3655 >= 0 ;
+2 x3916 +2 x3917 +2 x3918 +2 x3919 +2 x3920 -1 x3651 -1 x3652 -1 x3653 -1 x3654 -1 x3655 -1 x3656 -1 x3657 -1 x3658 -1 x3659 -1 x3660 >= 0 ;
+2 x3921 +2 x3922 +2 x3923 +2 x3924 +2 x3925 -1 x3656 -1 x3657 -1 x3658 -1 x3659 -1 x3660 -1 x3661 -1 x3662 -1 x3663 -1 x3664 -1 x3665 >= 0 ;
+2 x3926 +2 x3927 +2 x3928 +2 x3929 +2 x3930 -1 x3661 -1 x3662 -1 x3663 -1 x3664 -1 x3665 -1 x3666 -1 x3667 -1 x3668 -1 x3669 -1 x3670 >= 0 ;
+2 x3931 +2 x3932 +2 x3933 +2 x3934 +2 x3935 -1 x3666 -1 x3667 -1 x3668 -1 x3669 -1 x3670 -1 x3671 -1 x3672 -1 x3673 -1 x3674 -1 x3675 >= 0 ;
+2 x3936 +2 x3937 +2 x3938 +2 x3939 +2 x3940 -1 x3671 -1 x3672 -1 x3673 -1 x3674 -1 x3675 -1 x3676 -1 x3677 -1 x3678 -1 x3679 -1 x3680 >= 0 ;
+2 x3941 +2 x3942 +2 x3943 +2 x3944 +2 x3945 -1 x3676 -1 x3677 -1 x3678 -1 x3679 -1 x3680 -1 x3681 -1 x3682 -1 x3683 -1 x3684 -1 x3685 >= 0 ;
+2 x3946 +2 x3947 +2 x3948 +2 x3949 +2 x3950 -1 x3681 -1 x3682 -1 x3683 -1 x3684 -1 x3685 -1 x3686 -1 x3687 -1 x3688 -1 x3689 -1 x3690 >= 0 ;
+2 x3951 +2 x3952 +2 x3953 +2 x3954 +2 x3955 -1 x3686 -1 x3687 -1 x3688 -1 x3689 -1 x3690 -1 x3691 -1 x3692 -1 x3693 -1 x3694 -1 x3695 >= 0 ;
+2 x3956 +2 x3957 +2 x3958 +2 x3959 +2 x3960 -1 x3691 -1 x3692 -1 x3693 -1 x3694 -1 x3695 -1 x3696 -1 x3697 -1 x3698 -1 x3699 -1 x3700 >= 0 ;
+2 x3961 +2 x3962 +2 x3963 +2 x3964 +2 x3965 -1 x3696 -1 x3697 -1 x3698 -1 x3699 -1 x3700 -1 x3701 -1 x3702 -1 x3703 -1 x3704 -1 x3705 >= 0 ;
+2 x3966 +2 x3967 +2 x3968 +2 x3969 +2 x3970 -1 x3701 -1 x3702 -1 x3703 -1 x3704 -1 x3705 -1 x3706 -1 x3707 -1 x3708 -1 x3709 -1 x3710 >= 0 ;
+2 x3971 +2 x3972 +2 x3973 +2 x3974 +2 x3975 -1 x3706 -1 x3707 -1 x3708 -1 x3709 -1 x3710 -1 x3711 -1 x3712 -1 x3713 -1 x3714 -1 x3715 >= 0 ;
+2 x3976 +2 x3977 +2 x3978 +2 x3979 +2 x3980 -1 x3711 -1 x3712 -1 x3713 -1 x3714 -1 x3715 -1 x3716 -1 x3717 -1 x3718 -1 x3719 -1 x3720 >= 0 ;
+2 x3981 +2 x3982 +2 x3983 +2 x3984 +2 x3985 -1 x3716 -1 x3717 -1 x3718 -1 x3719 -1 x3720 -1 x3721 -1 x3722 -1 x3723 -1 x3724 -1 x3725 >= 0 ;
+2 x3986 +2 x3987 +2 x3988 +2 x3989 +2 x3990 -1 x3721 -1 x3722 -1 x3723 -1 x3724 -1 x3725 -1 x3726 -1 x3727 -1 x3728 -1 x3729 -1 x3730 >= 0 ;
+2 x3991 +2 x3992 +2 x3993 +2 x3994 +2 x3995 -1 x3726 -1 x3727 -1 x3728 -1 x3729 -1 x3730 -1 x3731 -1 x3732 -1 x3733 -1 x3734 -1 x3735 >= 0 ;
+2 x3996 +2 x3997 +2 x3998 +2 x3999 +2 x4000 -1 x3731 -1 x3732 -1 x3733 -1 x3734 -1 x3735 -1 x3736 -1 x3737 -1 x3738 -1 x3739 -1 x3740 >= 0 ;
+2 x4001 +2 x4002 +2 x4003 +2 x4004 +2 x4005 -1 x3736 -1 x3737 -1 x3738 -1 x3739 -1 x3740 -1 x3741 -1 x3742 -1 x3743 -1 x3744 -1 x3745 >= 0 ;
+2 x4006 +2 x4007 +2 x4008 +2 x4009 +2 x4010 -1 x3741 -1 x3742 -1 x3743 -1 x3744 -1 x3745 -1 x3746 -1 x3747 -1 x3748 -1 x3749 -1 x3750 >= 0 ;
+2 x4011 +2 x4012 +2 x4013 +2 x4014 +2 x4015 -1 x3746 -1 x3747 -1 x3748 -1 x3749 -1 x3750 -1 x3751 -1 x3752 -1 x3753 -1 x3754 -1 x3755 >= 0 ;
+2 x4016 +2 x4017 +2 x4018 +2 x4019 +2 x4020 -1 x3751 -1 x3752 -1 x3753 -1 x3754 -1 x3755 -1 x3756 -1 x3757 -1 x3758 -1 x3759 -1 x3760 >= 0 ;
+2 x4021 +2 x4022 +2 x4023 +2 x4024 +2 x4025 -1 x3756 -1 x3757 -1 x3758 -1 x3759 -1 x3760 -1 x3761 -1 x3762 -1 x3763 -1 x3764 -1 x3765 >= 0 ;
+2 x4026 +2 x4027 +2 x4028 +2 x4029 +2 x4030 -1 x3761 -1 x3762 -1 x3763 -1 x3764 -1 x3765 -1 x3766 -1 x3767 -1 x3768 -1 x3769 -1 x3770 >= 0 ;
+2 x4031 +2 x4032 +2 x4033 +2 x4034 +2 x4035 -1 x3766 -1 x3767 -1 x3768 -1 x3769 -1 x3770 -1 x3771 -1 x3772 -1 x3773 -1 x3774 -1 x3775 >= 0 ;
+2 x4036 +2 x4037 +2 x4038 +2 x4039 +2 x4040 -1 x3771 -1 x3772 -1 x3773 -1 x3774 -1 x3775 -1 x3776 -1 x3777 -1 x3778 -1 x3779 -1 x3780 >= 0 ;
+2 x4041 +2 x4042 +2 x4043 +2 x4044 +2 x4045 -1 x3776 -1 x3777 -1 x3778 -1 x3779 -1 x3780 -1 x3781 -1 x3782 -1 x3783 -1 x3784 -1 x3785 >= 0 ;
+2 x4046 +2 x4047 +2 x4048 +2 x4049 +2 x4050 -1 x3781 -1 x3782 -1 x3783 -1 x3784 -1 x3785 -1 x3786 -1 x3787 -1 x3788 -1 x3789 -1 x3790 >= 0 ;
+2 x4051 +2 x4052 +2 x4053 +2 x4054 +2 x4055 -1 x3786 -1 x3787 -1 x3788 -1 x3789 -1 x3790 -1 x3791 -1 x3792 -1 x3793 -1 x3794 -1 x3795 >= 0 ;
+2 x4056 +2 x4057 +2 x4058 +2 x4059 +2 x4060 -1 x3791 -1 x3792 -1 x3793 -1 x3794 -1 x3795 -1 x3796 -1 x3797 -1 x3798 -1 x3799 -1 x3800 >= 0 ;
+2 x4061 +2 x4062 +2 x4063 +2 x4064 +2 x4065 -1 x3796 -1 x3797 -1 x3798 -1 x3799 -1 x3800 -1 x3801 -1 x3802 -1 x3803 -1 x3804 -1 x3805 >= 0 ;
+2 x4066 +2 x4067 +2 x4068 +2 x4069 +2 x4070 -1 x3801 -1 x3802 -1 x3803 -1 x3804 -1 x3805 -1 x3806 -1 x3807 -1 x3808 -1 x3809 -1 x3810 >= 0 ;
+2 x4071 +2 x4072 +2 x4073 +2 x4074 +2 x4075 -1 x3806 -1 x3807 -1 x3808 -1 x3809 -1 x3810 -1 x3811 -1 x3812 -1 x3813 -1 x3814 -1 x3815 >= 0 ;
+2 x4076 +2 x4077 +2 x4078 +2 x4079 +2 x4080 -1 x3811 -1 x3812 -1 x3813 -1 x3814 -1 x3815 -1 x3816 -1 x3817 -1 x3818 -1 x3819 -1 x3820 >= 0 ;
+2 x4081 +2 x4082 +2 x4083 +2 x4084 +2 x4085 -1 x3816 -1 x3817 -1 x3818 -1 x3819 -1 x3820 -1 x3821 -1 x3822 -1 x3823 -1 x3824 -1 x3825 >= 0 ;
+2 x4086 +2 x4087 +2 x4088 +2 x4089 +2 x4090 -1 x3821 -1 x3822 -1 x3823 -1 x3824 -1 x3825 -1 x3826 -1 x3827 -1 x3828 -1 x3829 -1 x3830 >= 0 ;
+2 x4091 +2 x4092 +2 x4093 +2 x4094 +2 x4095 -1 x3826 -1 x3827 -1 x3828 -1 x3829 -1 x3830 -1 x3831 -1 x3832 -1 x3833 -1 x3834 -1 x3835 >= 0 ;
+2 x4096 +2 x4097 +2 x4098 +2 x4099 +2 x4100 -1 x3836 -1 x3837 -1 x3838 -1 x3839 -1 x3840 -1 x3841 -1 x3842 -1 x3843 -1 x3844 -1 x3845 >= 0 ;
+2 x4101 +2 x4102 +2 x4103 +2 x4104 +2 x4105 -1 x3841 -1 x3842 -1 x3843 -1 x3844 -1 x3845 -1 x3846 -1 x3847 -1 x3848 -1 x3849 -1 x3850 >= 0 ;
+2 x4106 +2 x4107 +2 x4108 +2 x4109 +2 x4110 -1 x3846 -1 x3847 -1 x3848 -1 x3849 -1 x3850 -1 x3851 -1 x3852 -1 x3853 -1 x3854 -1 x3855 >= 0 ;
+2 x4111 +2 x4112 +2 x4113 +2 x4114 +2 x4115 -1 x3851 -1 x3852 -1 x3853 -1 x3854 -1 x3855 -1 x3856 -1 x3857 -1 x3858 -1 x3859 -1 x3860 >= 0 ;
+2 x4116 +2 x4117 +2 x4118 +2 x4119 +2 x4120 -1 x3856 -1 x3857 -1 x3858 -1 x3859 -1 x3860 -1 x3861 -1 x3862 -1 x3863 -1 x3864 -1 x3865 >= 0 ;
+2 x4121 +2 x4122 +2 x4123 +2 x4124 +2 x4125 -1 x3861 -1 x3862 -1 x3863 -1 x3864 -1 x3865 -1 x3866 -1 x3867 -1 x3868 -1 x3869 -1 x3870 >= 0 ;
+2 x4126 +2 x4127 +2 x4128 +2 x4129 +2 x4130 -1 x3866 -1 x3867 -1 x3868 -1 x3869 -1 x3870 -1 x3871 -1 x3872 -1 x3873 -1 x3874 -1 x3875 >= 0 ;
+2 x4131 +2 x4132 +2 x4133 +2 x4134 +2 x4135 -1 x3871 -1 x3872 -1 x3873 -1 x3874 -1 x3875 -1 x3876 -1 x3877 -1 x3878 -1 x3879 -1 x3880 >= 0 ;
+2 x4136 +2 x4137 +2 x4138 +2 x4139 +2 x4140 -1 x3876 -1 x3877 -1 x3878 -1 x3879 -1 x3880 -1 x3881 -1 x3882 -1 x3883 -1 x3884 -1 x3885 >= 0 ;
+2 x4141 +2 x4142 +2 x4143 +2 x4144 +2 x4145 -1 x3881 -1 x3882 -1 x3883 -1 x3884 -1 x3885 -1 x3886 -1 x3887 -1 x3888 -1 x3889 -1 x3890 >= 0 ;
+2 x4146 +2 x4147 +2 x4148 +2 x4149 +2 x4150 -1 x3886 -1 x3887 -1 x3888 -1 x3889 -1 x3890 -1 x3891 -1 x3892 -1 x3893 -1 x3894 -1 x3895 >= 0 ;
+2 x4151 +2 x4152 +2 x4153 +2 x4154 +2 x4155 -1 x3891 -1 x3892 -1 x3893 -1 x3894 -1 x3895 -1 x3896 -1 x3897 -1 x3898 -1 x3899 -1 x3900 >= 0 ;
+2 x4156 +2 x4157 +2 x4158 +2 x4159 +2 x4160 -1 x3896 -1 x3897 -1 x3898 -1 x3899 -1 x3900 -1 x3901 -1 x3902 -1 x3903 -1 x3904 -1 x3905 >= 0 ;
+2 x4161 +2 x4162 +2 x4163 +2 x4164 +2 x4165 -1 x3901 -1 x3902 -1 x3903 -1 x3904 -1 x3905 -1 x3906 -1 x3907 -1 x3908 -1 x3909 -1 x3910 >= 0 ;
+2 x4166 +2 x4167 +2 x4168 +2 x4169 +2 x4170 -1 x3906 -1 x3907 -1 x3908 -1 x3909 -1 x3910 -1 x3911 -1 x3912 -1 x3913 -1 x3914 -1 x3915 >= 0 ;
+2 x4171 +2 x4172 +2 x4173 +2 x4174 +2 x4175 -1 x3911 -1 x3912 -1 x3913 -1 x3914 -1 x3915 -1 x3916 -1 x3917 -1 x3918 -1 x3919 -1 x3920 >= 0 ;
+2 x4176 +2 x4177 +2 x4178 +2 x4179 +2 x4180 -1 x3916 -1 x3917 -1 x3918 -1 x3919 -1 x3920 -1 x3921 -1 x3922 -1 x3923 -1 x3924 -1 x3925 >= 0 ;
+2 x4181 +2 x4182 +2 x4183 +2 x4184 +2 x4185 -1 x3921 -1 x3922 -1 x3923 -1 x3924 -1 x3925 -1 x3926 -1 x3927 -1 x3928 -1 x3929 -1 x3930 >= 0 ;
+2 x4186 +2 x4187 +2 x4188 +2 x4189 +2 x4190 -1 x3926 -1 x3927 -1 x3928 -1 x3929 -1 x3930 -1 x3931 -1 x3932 -1 x3933 -1 x3934 -1 x3935 >= 0 ;
+2 x4191 +2 x4192 +2 x4193 +2 x4194 +2 x4195 -1 x3931 -1 x3932 -1 x3933 -1 x3934 -1 x3935 -1 x3936 -1 x3937 -1 x3938 -1 x3939 -1 x3940 >= 0 ;
+2 x4196 +2 x4197 +2 x4198 +2 x4199 +2 x4200 -1 x3936 -1 x3937 -1 x3938 -1 x3939 -1 x3940 -1 x3941 -1 x3942 -1 x3943 -1 x3944 -1 x3945 >= 0 ;
+2 x4201 +2 x4202 +2 x4203 +2 x4204 +2 x4205 -1 x3941 -1 x3942 -1 x3943 -1 x3944 -1 x3945 -1 x3946 -1 x3947 -1 x3948 -1 x3949 -1 x3950 >= 0 ;
+2 x4206 +2 x4207 +2 x4208 +2 x4209 +2 x4210 -1 x3946 -1 x3947 -1 x3948 -1 x3949 -1 x3950 -1 x3951 -1 x3952 -1 x3953 -1 x3954 -1 x3955 >= 0 ;
+2 x4211 +2 x4212 +2 x4213 +2 x4214 +2 x4215 -1 x3951 -1 x3952 -1 x3953 -1 x3954 -1 x3955 -1 x3956 -1 x3957 -1 x3958 -1 x3959 -1 x3960 >= 0 ;
+2 x4216 +2 x4217 +2 x4218 +2 x4219 +2 x4220 -1 x3956 -1 x3957 -1 x3958 -1 x3959 -1 x3960 -1 x3961 -1 x3962 -1 x3963 -1 x3964 -1 x3965 >= 0 ;
+2 x4221 +2 x4222 +2 x4223 +2 x4224 +2 x4225 -1 x3961 -1 x3962 -1 x3963 -1 x3964 -1 x3965 -1 x3966 -1 x3967 -1 x3968 -1 x3969 -1 x3970 >= 0 ;
+2 x4226 +2 x4227 +2 x4228 +2 x4229 +2 x4230 -1 x3966 -1 x3967 -1 x3968 -1 x3969 -1 x3970 -1 x3971 -1 x3972 -1 x3973 -1 x3974 -1 x3975 >= 0 ;
+2 x4231 +2 x4232 +2 x4233 +2 x4234 +2 x4235 -1 x3971 -1 x3972 -1 x3973 -1 x3974 -1 x3975 -1 x3976 -1 x3977 -1 x3978 -1 x3979 -1 x3980 >= 0 ;
+2 x4236 +2 x4237 +2 x4238 +2 x4239 +2 x4240 -1 x3976 -1 x3977 -1 x3978 -1 x3979 -1 x3980 -1 x3981 -1 x3982 -1 x3983 -1 x3984 -1 x3985 >= 0 ;
+2 x4241 +2 x4242 +2 x4243 +2 x4244 +2 x4245 -1 x3981 -1 x3982 -1 x3983 -1 x3984 -1 x3985 -1 x3986 -1 x3987 -1 x3988 -1 x3989 -1 x3990 >= 0 ;
+2 x4246 +2 x4247 +2 x4248 +2 x4249 +2 x4250 -1 x3986 -1 x3987 -1 x3988 -1 x3989 -1 x3990 -1 x3991 -1 x3992 -1 x3993 -1 x3994 -1 x3995 >= 0 ;
+2 x4251 +2 x4252 +2 x4253 +2 x4254 +2 x4255 -1 x3991 -1 x3992 -1 x3993 -1 x3994 -1 x3995 -1 x3996 -1 x3997 -1 x3998 -1 x3999 -1 x4000 >= 0 ;
+2 x4256 +2 x4257 +2 x4258 +2 x4259 +2 x4260 -1 x3996 -1 x3997 -1 x3998 -1 x3999 -1 x4000 -1 x4001 -1 x4002 -1 x4003 -1 x4004 -1 x4005 >= 0 ;
+2 x4261 +2 x4262 +2 x4263 +2 x4264 +2 x4265 -1 x4001 -1 x4002 -1 x4003 -1 x4004 -1 x4005 -1 x4006 -1 x4007 -1 x4008 -1 x4009 -1 x4010 >= 0 ;
+2 x4266 +2 x4267 +2 x4268 +2 x4269 +2 x4270 -1 x4006 -1 x4007 -1 x4008 -1 x4009 -1 x4010 -1 x4011 -1 x4012 -1 x4013 -1 x4014 -1 x4015 >= 0 ;
+2 x4271 +2 x4272 +2 x4273 +2 x4274 +2 x4275 -1 x4011 -1 x4012 -1 x4013 -1 x4014 -1 x4015 -1 x4016 -1 x4017 -1 x4018 -1 x4019 -1 x4020 >= 0 ;
+2 x4276 +2 x4277 +2 x4278 +2 x4279 +2 x4280 -1 x4016 -1 x4017 -1 x4018 -1 x4019 -1 x4020 -1 x4021 -1 x4022 -1 x4023 -1 x4024 -1 x4025 >= 0 ;
+2 x4281 +2 x4282 +2 x4283 +2 x4284 +2 x4285 -1 x4021 -1 x4022 -1 x4023 -1 x4024 -1 x4025 -1 x4026 -1 x4027 -1 x4028 -1 x4029 -1 x4030 >= 0 ;
+2 x4286 +2 x4287 +2 x4288 +2 x4289 +2 x4290 -1 x4026 -1 x4027 -1 x4028 -1 x4029 -1 x4030 -1 x4031 -1 x4032 -1 x4033 -1 x4034 -1 x4035 >= 0 ;
+2 x4291 +2 x4292 +2 x4293 +2 x4294 +2 x4295 -1 x4031 -1 x4032 -1 x4033 -1 x4034 -1 x4035 -1 x4036 -1 x4037 -1 x4038 -1 x4039 -1 x4040 >= 0 ;
+2 x4296 +2 x4297 +2 x4298 +2 x4299 +2 x4300 -1 x4036 -1 x4037 -1 x4038 -1 x4039 -1 x4040 -1 x4041 -1 x4042 -1 x4043 -1 x4044 -1 x4045 >= 0 ;
+2 x4301 +2 x4302 +2 x4303 +2 x4304 +2 x4305 -1 x4041 -1 x4042 -1 x4043 -1 x4044 -1 x4045 -1 x4046 -1 x4047 -1 x4048 -1 x4049 -1 x4050 >= 0 ;
+2 x4306 +2 x4307 +2 x4308 +2 x4309 +2 x4310 -1 x4046 -1 x4047 -1 x4048 -1 x4049 -1 x4050 -1 x4051 -1 x4052 -1 x4053 -1 x4054 -1 x4055 >= 0 ;
+2 x4311 +2 x4312 +2 x4313 +2 x4314 +2 x4315 -1 x4051 -1 x4052 -1 x4053 -1 x4054 -1 x4055 -1 x4056 -1 x4057 -1 x4058 -1 x4059 -1 x4060 >= 0 ;
+2 x4316 +2 x4317 +2 x4318 +2 x4319 +2 x4320 -1 x4056 -1 x4057 -1 x4058 -1 x4059 -1 x4060 -1 x4061 -1 x4062 -1 x4063 -1 x4064 -1 x4065 >= 0 ;
+2 x4321 +2 x4322 +2 x4323 +2 x4324 +2 x4325 -1 x4061 -1 x4062 -1 x4063 -1 x4064 -1 x4065 -1 x4066 -1 x4067 -1 x4068 -1 x4069 -1 x4070 >= 0 ;
+2 x4326 +2 x4327 +2 x4328 +2 x4329 +2 x4330 -1 x4066 -1 x4067 -1 x4068 -1 x4069 -1 x4070 -1 x4071 -1 x4072 -1 x4073 -1 x4074 -1 x4075 >= 0 ;
+2 x4331 +2 x4332 +2 x4333 +2 x4334 +2 x4335 -1 x4071 -1 x4072 -1 x4073 -1 x4074 -1 x4075 -1 x4076 -1 x4077 -1 x4078 -1 x4079 -1 x4080 >= 0 ;
+2 x4336 +2 x4337 +2 x4338 +2 x4339 +2 x4340 -1 x4076 -1 x4077 -1 x4078 -1 x4079 -1 x4080 -1 x4081 -1 x4082 -1 x4083 -1 x4084 -1 x4085 >= 0 ;
+2 x4341 +2 x4342 +2 x4343 +2 x4344 +2 x4345 -1 x4081 -1 x4082 -1 x4083 -1 x4084 -1 x4085 -1 x4086 -1 x4087 -1 x4088 -1 x4089 -1 x4090 >= 0 ;
+2 x4346 +2 x4347 +2 x4348 +2 x4349 +2 x4350 -1 x4086 -1 x4087 -1 x4088 -1 x4089 -1 x4090 -1 x4091 -1 x4092 -1 x4093 -1 x4094 -1 x4095 >= 0 ;
+2 x4351 +2 x4352 +2 x4353 +2 x4354 +2 x4355 -1 x4096 -1 x4097 -1 x4098 -1 x4099 -1 x4100 -1 x4101 -1 x4102 -1 x4103 -1 x4104 -1 x4105 >= 0 ;
+2 x4356 +2 x4357 +2 x4358 +2 x4359 +2 x4360 -1 x4101 -1 x4102 -1 x4103 -1 x4104 -1 x4105 -1 x4106 -1 x4107 -1 x4108 -1 x4109 -1 x4110 >= 0 ;
+2 x4361 +2 x4362 +2 x4363 +2 x4364 +2 x4365 -1 x4106 -1 x4107 -1 x4108 -1 x4109 -1 x4110 -1 x4111 -1 x4112 -1 x4113 -1 x4114 -1 x4115 >= 0 ;
+2 x4366 +2 x4367 +2 x4368 +2 x4369 +2 x4370 -1 x4111 -1 x4112 -1 x4113 -1 x4114 -1 x4115 -1 x4116 -1 x4117 -1 x4118 -1 x4119 -1 x4120 >= 0 ;
+2 x4371 +2 x4372 +2 x4373 +2 x4374 +2 x4375 -1 x4116 -1 x4117 -1 x4118 -1 x4119 -1 x4120 -1 x4121 -1 x4122 -1 x4123 -1 x4124 -1 x4125 >= 0 ;
+2 x4376 +2 x4377 +2 x4378 +2 x4379 +2 x4380 -1 x4121 -1 x4122 -1 x4123 -1 x4124 -1 x4125 -1 x4126 -1 x4127 -1 x4128 -1 x4129 -1 x4130 >= 0 ;
+2 x4381 +2 x4382 +2 x4383 +2 x4384 +2 x4385 -1 x4126 -1 x4127 -1 x4128 -1 x4129 -1 x4130 -1 x4131 -1 x4132 -1 x4133 -1 x4134 -1 x4135 >= 0 ;
+2 x4386 +2 x4387 +2 x4388 +2 x4389 +2 x4390 -1 x4131 -1 x4132 -1 x4133 -1 x4134 -1 x4135 -1 x4136 -1 x4137 -1 x4138 -1 x4139 -1 x4140 >= 0 ;
+2 x4391 +2 x4392 +2 x4393 +2 x4394 +2 x4395 -1 x4136 -1 x4137 -1 x4138 -1 x4139 -1 x4140 -1 x4141 -1 x4142 -1 x4143 -1 x4144 -1 x4145 >= 0 ;
+2 x4396 +2 x4397 +2 x4398 +2 x4399 +2 x4400 -1 x4141 -1 x4142 -1 x4143 -1 x4144 -1 x4145 -1 x4146 -1 x4147 -1 x4148 -1 x4149 -1 x4150 >= 0 ;
+2 x4401 +2 x4402 +2 x4403 +2 x4404 +2 x4405 -1 x4146 -1 x4147 -1 x4148 -1 x4149 -1 x4150 -1 x4151 -1 x4152 -1 x4153 -1 x4154 -1 x4155 >= 0 ;
+2 x4406 +2 x4407 +2 x4408 +2 x4409 +2 x4410 -1 x4151 -1 x4152 -1 x4153 -1 x4154 -1 x4155 -1 x4156 -1 x4157 -1 x4158 -1 x4159 -1 x4160 >= 0 ;
+2 x4411 +2 x4412 +2 x4413 +2 x4414 +2 x4415 -1 x4156 -1 x4157 -1 x4158 -1 x4159 -1 x4160 -1 x4161 -1 x4162 -1 x4163 -1 x4164 -1 x4165 >= 0 ;
+2 x4416 +2 x4417 +2 x4418 +2 x4419 +2 x4420 -1 x4161 -1 x4162 -1 x4163 -1 x4164 -1 x4165 -1 x4166 -1 x4167 -1 x4168 -1 x4169 -1 x4170 >= 0 ;
+2 x4421 +2 x4422 +2 x4423 +2 x4424 +2 x4425 -1 x4166 -1 x4167 -1 x4168 -1 x4169 -1 x4170 -1 x4171 -1 x4172 -1 x4173 -1 x4174 -1 x4175 >= 0 ;
+2 x4426 +2 x4427 +2 x4428 +2 x4429 +2 x4430 -1 x4171 -1 x4172 -1 x4173 -1 x4174 -1 x4175 -1 x4176 -1 x4177 -1 x4178 -1 x4179 -1 x4180 >= 0 ;
+2 x4431 +2 x4432 +2 x4433 +2 x4434 +2 x4435 -1 x4176 -1 x4177 -1 x4178 -1 x4179 -1 x4180 -1 x4181 -1 x4182 -1 x4183 -1 x4184 -1 x4185 >= 0 ;
+2 x4436 +2 x4437 +2 x4438 +2 x4439 +2 x4440 -1 x4181 -1 x4182 -1 x4183 -1 x4184 -1 x4185 -1 x4186 -1 x4187 -1 x4188 -1 x4189 -1 x4190 >= 0 ;
+2 x4441 +2 x4442 +2 x4443 +2 x4444 +2 x4445 -1 x4186 -1 x4187 -1 x4188 -1 x4189 -1 x4190 -1 x4191 -1 x4192 -1 x4193 -1 x4194 -1 x4195 >= 0 ;
+2 x4446 +2 x4447 +2 x4448 +2 x4449 +2 x4450 -1 x4191 -1 x4192 -1 x4193 -1 x4194 -1 x4195 -1 x4196 -1 x4197 -1 x4198 -1 x4199 -1 x4200 >= 0 ;
+2 x4451 +2 x4452 +2 x4453 +2 x4454 +2 x4455 -1 x4196 -1 x4197 -1 x4198 -1 x4199 -1 x4200 -1 x4201 -1 x4202 -1 x4203 -1 x4204 -1 x4205 >= 0 ;
+2 x4456 +2 x4457 +2 x4458 +2 x4459 +2 x4460 -1 x4201 -1 x4202 -1 x4203 -1 x4204 -1 x4205 -1 x4206 -1 x4207 -1 x4208 -1 x4209 -1 x4210 >= 0 ;
+2 x4461 +2 x4462 +2 x4463 +2 x4464 +2 x4465 -1 x4206 -1 x4207 -1 x4208 -1 x4209 -1 x4210 -1 x4211 -1 x4212 -1 x4213 -1 x4214 -1 x4215 >= 0 ;
+2 x4466 +2 x4467 +2 x4468 +2 x4469 +2 x4470 -1 x4211 -1 x4212 -1 x4213 -1 x4214 -1 x4215 -1 x4216 -1 x4217 -1 x4218 -1 x4219 -1 x4220 >= 0 ;
+2 x4471 +2 x4472 +2 x4473 +2 x4474 +2 x4475 -1 x4216 -1 x4217 -1 x4218 -1 x4219 -1 x4220 -1 x4221 -1 x4222 -1 x4223 -1 x4224 -1 x4225 >= 0 ;
+2 x4476 +2 x4477 +2 x4478 +2 x4479 +2 x4480 -1 x4221 -1 x4222 -1 x4223 -1 x4224 -1 x4225 -1 x4226 -1 x4227 -1 x4228 -1 x4229 -1 x4230 >= 0 ;
+2 x4481 +2 x4482 +2 x4483 +2 x4484 +2 x4485 -1 x4226 -1 x4227 -1 x4228 -1 x4229 -1 x4230 -1 x4231 -1 x4232 -1 x4233 -1 x4234 -1 x4235 >= 0 ;
+2 x4486 +2 x4487 +2 x4488 +2 x4489 +2 x4490 -1 x4231 -1 x4232 -1 x4233 -1 x4234 -1 x4235 -1 x4236 -1 x4237 -1 x4238 -1 x4239 -1 x4240 >= 0 ;
+2 x4491 +2 x4492 +2 x4493 +2 x4494 +2 x4495 -1 x4236 -1 x4237 -1 x4238 -1 x4239 -1 x4240 -1 x4241 -1 x4242 -1 x4243 -1 x4244 -1 x4245 >= 0 ;
+2 x4496 +2 x4497 +2 x4498 +2 x4499 +2 x4500 -1 x4241 -1 x4242 -1 x4243 -1 x4244 -1 x4245 -1 x4246 -1 x4247 -1 x4248 -1 x4249 -1 x4250 >= 0 ;
+2 x4501 +2 x4502 +2 x4503 +2 x4504 +2 x4505 -1 x4246 -1 x4247 -1 x4248 -1 x4249 -1 x4250 -1 x4251 -1 x4252 -1 x4253 -1 x4254 -1 x4255 >= 0 ;
+2 x4506 +2 x4507 +2 x4508 +2 x4509 +2 x4510 -1 x4251 -1 x4252 -1 x4253 -1 x4254 -1 x4255 -1 x4256 -1 x4257 -1 x4258 -1 x4259 -1 x4260 >= 0 ;
+2 x4511 +2 x4512 +2 x4513 +2 x4514 +2 x4515 -1 x4256 -1 x4257 -1 x4258 -1 x4259 -1 x4260 -1 x4261 -1 x4262 -1 x4263 -1 x4264 -1 x4265 >= 0 ;
+2 x4516 +2 x4517 +2 x4518 +2 x4519 +2 x4520 -1 x4261 -1 x4262 -1 x4263 -1 x4264 -1 x4265 -1 x4266 -1 x4267 -1 x4268 -1 x4269 -1 x4270 >= 0 ;
+2 x4521 +2 x4522 +2 x4523 +2 x4524 +2 x4525 -1 x4266 -1 x4267 -1 x4268 -1 x4269 -1 x4270 -1 x4271 -1 x4272 -1 x4273 -1 x4274 -1 x4275 >= 0 ;
+2 x4526 +2 x4527 +2 x4528 +2 x4529 +2 x4530 -1 x4271 -1 x4272 -1 x4273 -1 x4274 -1 x4275 -1 x4276 -1 x4277 -1 x4278 -1 x4279 -1 x4280 >= 0 ;
+2 x4531 +2 x4532 +2 x4533 +2 x4534 +2 x4535 -1 x4276 -1 x4277 -1 x4278 -1 x4279 -1 x4280 -1 x4281 -1 x4282 -1 x4283 -1 x4284 -1 x4285 >= 0 ;
+2 x4536 +2 x4537 +2 x4538 +2 x4539 +2 x4540 -1 x4281 -1 x4282 -1 x4283 -1 x4284 -1 x4285 -1 x4286 -1 x4287 -1 x4288 -1 x4289 -1 x4290 >= 0 ;
+2 x4541 +2 x4542 +2 x4543 +2 x4544 +2 x4545 -1 x4286 -1 x4287 -1 x4288 -1 x4289 -1 x4290 -1 x4291 -1 x4292 -1 x4293 -1 x4294 -1 x4295 >= 0 ;
+2 x4546 +2 x4547 +2 x4548 +2 x4549 +2 x4550 -1 x4291 -1 x4292 -1 x4293 -1 x4294 -1 x4295 -1 x4296 -1 x4297 -1 x4298 -1 x4299 -1 x4300 >= 0 ;
+2 x4551 +2 x4552 +2 x4553 +2 x4554 +2 x4555 -1 x4296 -1 x4297 -1 x4298 -1 x4299 -1 x4300 -1 x4301 -1 x4302 -1 x4303 -1 x4304 -1 x4305 >= 0 ;
+2 x4556 +2 x4557 +2 x4558 +2 x4559 +2 x4560 -1 x4301 -1 x4302 -1 x4303 -1 x4304 -1 x4305 -1 x4306 -1 x4307 -1 x4308 -1 x4309 -1 x4310 >= 0 ;
+2 x4561 +2 x4562 +2 x4563 +2 x4564 +2 x4565 -1 x4306 -1 x4307 -1 x4308 -1 x4309 -1 x4310 -1 x4311 -1 x4312 -1 x4313 -1 x4314 -1 x4315 >= 0 ;
+2 x4566 +2 x4567 +2 x4568 +2 x4569 +2 x4570 -1 x4311 -1 x4312 -1 x4313 -1 x4314 -1 x4315 -1 x4316 -1 x4317 -1 x4318 -1 x4319 -1 x4320 >= 0 ;
+2 x4571 +2 x4572 +2 x4573 +2 x4574 +2 x4575 -1 x4316 -1 x4317 -1 x4318 -1 x4319 -1 x4320 -1 x4321 -1 x4322 -1 x4323 -1 x4324 -1 x4325 >= 0 ;
+2 x4576 +2 x4577 +2 x4578 +2 x4579 +2 x4580 -1 x4321 -1 x4322 -1 x4323 -1 x4324 -1 x4325 -1 x4326 -1 x4327 -1 x4328 -1 x4329 -1 x4330 >= 0 ;
+2 x4581 +2 x4582 +2 x4583 +2 x4584 +2 x4585 -1 x4326 -1 x4327 -1 x4328 -1 x4329 -1 x4330 -1 x4331 -1 x4332 -1 x4333 -1 x4334 -1 x4335 >= 0 ;
+2 x4586 +2 x4587 +2 x4588 +2 x4589 +2 x4590 -1 x4331 -1 x4332 -1 x4333 -1 x4334 -1 x4335 -1 x4336 -1 x4337 -1 x4338 -1 x4339 -1 x4340 >= 0 ;
+2 x4591 +2 x4592 +2 x4593 +2 x4594 +2 x4595 -1 x4336 -1 x4337 -1 x4338 -1 x4339 -1 x4340 -1 x4341 -1 x4342 -1 x4343 -1 x4344 -1 x4345 >= 0 ;
+2 x4596 +2 x4597 +2 x4598 +2 x4599 +2 x4600 -1 x4341 -1 x4342 -1 x4343 -1 x4344 -1 x4345 -1 x4346 -1 x4347 -1 x4348 -1 x4349 -1 x4350 >= 0 ;
+2 x4601 +2 x4602 +2 x4603 +2 x4604 +2 x4605 -1 x4351 -1 x4352 -1 x4353 -1 x4354 -1 x4355 -1 x4356 -1 x4357 -1 x4358 -1 x4359 -1 x4360 >= 0 ;
+2 x4606 +2 x4607 +2 x4608 +2 x4609 +2 x4610 -1 x4356 -1 x4357 -1 x4358 -1 x4359 -1 x4360 -1 x4361 -1 x4362 -1 x4363 -1 x4364 -1 x4365 >= 0 ;
+2 x4611 +2 x4612 +2 x4613 +2 x4614 +2 x4615 -1 x4361 -1 x4362 -1 x4363 -1 x4364 -1 x4365 -1 x4366 -1 x4367 -1 x4368 -1 x4369 -1 x4370 >= 0 ;
+2 x4616 +2 x4617 +2 x4618 +2 x4619 +2 x4620 -1 x4366 -1 x4367 -1 x4368 -1 x4369 -1 x4370 -1 x4371 -1 x4372 -1 x4373 -1 x4374 -1 x4375 >= 0 ;
+2 x4621 +2 x4622 +2 x4623 +2 x4624 +2 x4625 -1 x4371 -1 x4372 -1 x4373 -1 x4374 -1 x4375 -1 x4376 -1 x4377 -1 x4378 -1 x4379 -1 x4380 >= 0 ;
+2 x4626 +2 x4627 +2 x4628 +2 x4629 +2 x4630 -1 x4376 -1 x4377 -1 x4378 -1 x4379 -1 x4380 -1 x4381 -1 x4382 -1 x4383 -1 x4384 -1 x4385 >= 0 ;
+2 x4631 +2 x4632 +2 x4633 +2 x4634 +2 x4635 -1 x4381 -1 x4382 -1 x4383 -1 x4384 -1 x4385 -1 x4386 -1 x4387 -1 x4388 -1 x4389 -1 x4390 >= 0 ;
+2 x4636 +2 x4637 +2 x4638 +2 x4639 +2 x4640 -1 x4386 -1 x4387 -1 x4388 -1 x4389 -1 x4390 -1 x4391 -1 x4392 -1 x4393 -1 x4394 -1 x4395 >= 0 ;
+2 x4641 +2 x4642 +2 x4643 +2 x4644 +2 x4645 -1 x4391 -1 x4392 -1 x4393 -1 x4394 -1 x4395 -1 x4396 -1 x4397 -1 x4398 -1 x4399 -1 x4400 >= 0 ;
+2 x4646 +2 x4647 +2 x4648 +2 x4649 +2 x4650 -1 x4396 -1 x4397 -1 x4398 -1 x4399 -1 x4400 -1 x4401 -1 x4402 -1 x4403 -1 x4404 -1 x4405 >= 0 ;
+2 x4651 +2 x4652 +2 x4653 +2 x4654 +2 x4655 -1 x4401 -1 x4402 -1 x4403 -1 x4404 -1 x4405 -1 x4406 -1 x4407 -1 x4408 -1 x4409 -1 x4410 >= 0 ;
+2 x4656 +2 x4657 +2 x4658 +2 x4659 +2 x4660 -1 x4406 -1 x4407 -1 x4408 -1 x4409 -1 x4410 -1 x4411 -1 x4412 -1 x4413 -1 x4414 -1 x4415 >= 0 ;
+2 x4661 +2 x4662 +2 x4663 +2 x4664 +2 x4665 -1 x4411 -1 x4412 -1 x4413 -1 x4414 -1 x4415 -1 x4416 -1 x4417 -1 x4418 -1 x4419 -1 x4420 >= 0 ;
+2 x4666 +2 x4667 +2 x4668 +2 x4669 +2 x4670 -1 x4416 -1 x4417 -1 x4418 -1 x4419 -1 x4420 -1 x4421 -1 x4422 -1 x4423 -1 x4424 -1 x4425 >= 0 ;
+2 x4671 +2 x4672 +2 x4673 +2 x4674 +2 x4675 -1 x4421 -1 x4422 -1 x4423 -1 x4424 -1 x4425 -1 x4426 -1 x4427 -1 x4428 -1 x4429 -1 x4430 >= 0 ;
+2 x4676 +2 x4677 +2 x4678 +2 x4679 +2 x4680 -1 x4426 -1 x4427 -1 x4428 -1 x4429 -1 x4430 -1 x4431 -1 x4432 -1 x4433 -1 x4434 -1 x4435 >= 0 ;
+2 x4681 +2 x4682 +2 x4683 +2 x4684 +2 x4685 -1 x4431 -1 x4432 -1 x4433 -1 x4434 -1 x4435 -1 x4436 -1 x4437 -1 x4438 -1 x4439 -1 x4440 >= 0 ;
+2 x4686 +2 x4687 +2 x4688 +2 x4689 +2 x4690 -1 x4436 -1 x4437 -1 x4438 -1 x4439 -1 x4440 -1 x4441 -1 x4442 -1 x4443 -1 x4444 -1 x4445 >= 0 ;
+2 x4691 +2 x4692 +2 x4693 +2 x4694 +2 x4695 -1 x4441 -1 x4442 -1 x4443 -1 x4444 -1 x4445 -1 x4446 -1 x4447 -1 x4448 -1 x4449 -1 x4450 >= 0 ;
+2 x4696 +2 x4697 +2 x4698 +2 x4699 +2 x4700 -1 x4446 -1 x4447 -1 x4448 -1 x4449 -1 x4450 -1 x4451 -1 x4452 -1 x4453 -1 x4454 -1 x4455 >= 0 ;
+2 x4701 +2 x4702 +2 x4703 +2 x4704 +2 x4705 -1 x4451 -1 x4452 -1 x4453 -1 x4454 -1 x4455 -1 x4456 -1 x4457 -1 x4458 -1 x4459 -1 x4460 >= 0 ;
+2 x4706 +2 x4707 +2 x4708 +2 x4709 +2 x4710 -1 x4456 -1 x4457 -1 x4458 -1 x4459 -1 x4460 -1 x4461 -1 x4462 -1 x4463 -1 x4464 -1 x4465 >= 0 ;
+2 x4711 +2 x4712 +2 x4713 +2 x4714 +2 x4715 -1 x4461 -1 x4462 -1 x4463 -1 x4464 -1 x4465 -1 x4466 -1 x4467 -1 x4468 -1 x4469 -1 x4470 >= 0 ;
+2 x4716 +2 x4717 +2 x4718 +2 x4719 +2 x4720 -1 x4466 -1 x4467 -1 x4468 -1 x4469 -1 x4470 -1 x4471 -1 x4472 -1 x4473 -1 x4474 -1 x4475 >= 0 ;
+2 x4721 +2 x4722 +2 x4723 +2 x4724 +2 x4725 -1 x4471 -1 x4472 -1 x4473 -1 x4474 -1 x4475 -1 x4476 -1 x4477 -1 x4478 -1 x4479 -1 x4480 >= 0 ;
+2 x4726 +2 x4727 +2 x4728 +2 x4729 +2 x4730 -1 x4476 -1 x4477 -1 x4478 -1 x4479 -1 x4480 -1 x4481 -1 x4482 -1 x4483 -1 x4484 -1 x4485 >= 0 ;
+2 x4731 +2 x4732 +2 x4733 +2 x4734 +2 x4735 -1 x4481 -1 x4482 -1 x4483 -1 x4484 -1 x4485 -1 x4486 -1 x4487 -1 x4488 -1 x4489 -1 x4490 >= 0 ;
+2 x4736 +2 x4737 +2 x4738 +2 x4739 +2 x4740 -1 x4486 -1 x4487 -1 x4488 -1 x4489 -1 x4490 -1 x4491 -1 x4492 -1 x4493 -1 x4494 -1 x4495 >= 0 ;
+2 x4741 +2 x4742 +2 x4743 +2 x4744 +2 x4745 -1 x4491 -1 x4492 -1 x4493 -1 x4494 -1 x4495 -1 x4496 -1 x4497 -1 x4498 -1 x4499 -1 x4500 >= 0 ;
+2 x4746 +2 x4747 +2 x4748 +2 x4749 +2 x4750 -1 x4496 -1 x4497 -1 x4498 -1 x4499 -1 x4500 -1 x4501 -1 x4502 -1 x4503 -1 x4504 -1 x4505 >= 0 ;
+2 x4751 +2 x4752 +2 x4753 +2 x4754 +2 x4755 -1 x4501 -1 x4502 -1 x4503 -1 x4504 -1 x4505 -1 x4506 -1 x4507 -1 x4508 -1 x4509 -1 x4510 >= 0 ;
+2 x4756 +2 x4757 +2 x4758 +2 x4759 +2 x4760 -1 x4506 -1 x4507 -1 x4508 -1 x4509 -1 x4510 -1 x4511 -1 x4512 -1 x4513 -1 x4514 -1 x4515 >= 0 ;
+2 x4761 +2 x4762 +2 x4763 +2 x4764 +2 x4765 -1 x4511 -1 x4512 -1 x4513 -1 x4514 -1 x4515 -1 x4516 -1 x4517 -1 x4518 -1 x4519 -1 x4520 >= 0 ;
+2 x4766 +2 x4767 +2 x4768 +2 x4769 +2 x4770 -1 x4516 -1 x4517 -1 x4518 -1 x4519 -1 x4520 -1 x4521 -1 x4522 -1 x4523 -1 x4524 -1 x4525 >= 0 ;
+2 x4771 +2 x4772 +2 x4773 +2 x4774 +2 x4775 -1 x4521 -1 x4522 -1 x4523 -1 x4524 -1 x4525 -1 x4526 -1 x4527 -1 x4528 -1 x4529 -1 x4530 >= 0 ;
+2 x4776 +2 x4777 +2 x4778 +2 x4779 +2 x4780 -1 x4526 -1 x4527 -1 x4528 -1 x4529 -1 x4530 -1 x4531 -1 x4532 -1 x4533 -1 x4534 -1 x4535 >= 0 ;
+2 x4781 +2 x4782 +2 x4783 +2 x4784 +2 x4785 -1 x4531 -1 x4532 -1 x4533 -1 x4534 -1 x4535 -1 x4536 -1 x4537 -1 x4538 -1 x4539 -1 x4540 >= 0 ;
+2 x4786 +2 x4787 +2 x4788 +2 x4789 +2 x4790 -1 x4536 -1 x4537 -1 x4538 -1 x4539 -1 x4540 -1 x4541 -1 x4542 -1 x4543 -1 x4544 -1 x4545 >= 0 ;
+2 x4791 +2 x4792 +2 x4793 +2 x4794 +2 x4795 -1 x4541 -1 x4542 -1 x4543 -1 x4544 -1 x4545 -1 x4546 -1 x4547 -1 x4548 -1 x4549 -1 x4550 >= 0 ;
+2 x4796 +2 x4797 +2 x4798 +2 x4799 +2 x4800 -1 x4546 -1 x4547 -1 x4548 -1 x4549 -1 x4550 -1 x4551 -1 x4552 -1 x4553 -1 x4554 -1 x4555 >= 0 ;
+2 x4801 +2 x4802 +2 x4803 +2 x4804 +2 x4805 -1 x4551 -1 x4552 -1 x4553 -1 x4554 -1 x4555 -1 x4556 -1 x4557 -1 x4558 -1 x4559 -1 x4560 >= 0 ;
+2 x4806 +2 x4807 +2 x4808 +2 x4809 +2 x4810 -1 x4556 -1 x4557 -1 x4558 -1 x4559 -1 x4560 -1 x4561 -1 x4562 -1 x4563 -1 x4564 -1 x4565 >= 0 ;
+2 x4811 +2 x4812 +2 x4813 +2 x4814 +2 x4815 -1 x4561 -1 x4562 -1 x4563 -1 x4564 -1 x4565 -1 x4566 -1 x4567 -1 x4568 -1 x4569 -1 x4570 >= 0 ;
+2 x4816 +2 x4817 +2 x4818 +2 x4819 +2 x4820 -1 x4566 -1 x4567 -1 x4568 -1 x4569 -1 x4570 -1 x4571 -1 x4572 -1 x4573 -1 x4574 -1 x4575 >= 0 ;
+2 x4821 +2 x4822 +2 x4823 +2 x4824 +2 x4825 -1 x4571 -1 x4572 -1 x4573 -1 x4574 -1 x4575 -1 x4576 -1 x4577 -1 x4578 -1 x4579 -1 x4580 >= 0 ;
+2 x4826 +2 x4827 +2 x4828 +2 x4829 +2 x4830 -1 x4576 -1 x4577 -1 x4578 -1 x4579 -1 x4580 -1 x4581 -1 x4582 -1 x4583 -1 x4584 -1 x4585 >= 0 ;
+2 x4831 +2 x4832 +2 x4833 +2 x4834 +2 x4835 -1 x4581 -1 x4582 -1 x4583 -1 x4584 -1 x4585 -1 x4586 -1 x4587 -1 x4588 -1 x4589 -1 x4590 >= 0 ;
+2 x4836 +2 x4837 +2 x4838 +2 x4839 +2 x4840 -1 x4586 -1 x4587 -1 x4588 -1 x4589 -1 x4590 -1 x4591 -1 x4592 -1 x4593 -1 x4594 -1 x4595 >= 0 ;
+2 x4841 +2 x4842 +2 x4843 +2 x4844 +2 x4845 -1 x4591 -1 x4592 -1 x4593 -1 x4594 -1 x4595 -1 x4596 -1 x4597 -1 x4598 -1 x4599 -1 x4600 >= 0 ;
+2 x4846 +2 x4847 +2 x4848 +2 x4849 +2 x4850 -1 x4601 -1 x4602 -1 x4603 -1 x4604 -1 x4605 -1 x4606 -1 x4607 -1 x4608 -1 x4609 -1 x4610 >= 0 ;
+2 x4851 +2 x4852 +2 x4853 +2 x4854 +2 x4855 -1 x4606 -1 x4607 -1 x4608 -1 x4609 -1 x4610 -1 x4611 -1 x4612 -1 x4613 -1 x4614 -1 x4615 >= 0 ;
+2 x4856 +2 x4857 +2 x4858 +2 x4859 +2 x4860 -1 x4611 -1 x4612 -1 x4613 -1 x4614 -1 x4615 -1 x4616 -1 x4617 -1 x4618 -1 x4619 -1 x4620 >= 0 ;
+2 x4861 +2 x4862 +2 x4863 +2 x4864 +2 x4865 -1 x4616 -1 x4617 -1 x4618 -1 x4619 -1 x4620 -1 x4621 -1 x4622 -1 x4623 -1 x4624 -1 x4625 >= 0 ;
+2 x4866 +2 x4867 +2 x4868 +2 x4869 +2 x4870 -1 x4621 -1 x4622 -1 x4623 -1 x4624 -1 x4625 -1 x4626 -1 x4627 -1 x4628 -1 x4629 -1 x4630 >= 0 ;
+2 x4871 +2 x4872 +2 x4873 +2 x4874 +2 x4875 -1 x4626 -1 x4627 -1 x4628 -1 x4629 -1 x4630 -1 x4631 -1 x4632 -1 x4633 -1 x4634 -1 x4635 >= 0 ;
+2 x4876 +2 x4877 +2 x4878 +2 x4879 +2 x4880 -1 x4631 -1 x4632 -1 x4633 -1 x4634 -1 x4635 -1 x4636 -1 x4637 -1 x4638 -1 x4639 -1 x4640 >= 0 ;
+2 x4881 +2 x4882 +2 x4883 +2 x4884 +2 x4885 -1 x4636 -1 x4637 -1 x4638 -1 x4639 -1 x4640 -1 x4641 -1 x4642 -1 x4643 -1 x4644 -1 x4645 >= 0 ;
+2 x4886 +2 x4887 +2 x4888 +2 x4889 +2 x4890 -1 x4641 -1 x4642 -1 x4643 -1 x4644 -1 x4645 -1 x4646 -1 x4647 -1 x4648 -1 x4649 -1 x4650 >= 0 ;
+2 x4891 +2 x4892 +2 x4893 +2 x4894 +2 x4895 -1 x4646 -1 x4647 -1 x4648 -1 x4649 -1 x4650 -1 x4651 -1 x4652 -1 x4653 -1 x4654 -1 x4655 >= 0 ;
+2 x4896 +2 x4897 +2 x4898 +2 x4899 +2 x4900 -1 x4651 -1 x4652 -1 x4653 -1 x4654 -1 x4655 -1 x4656 -1 x4657 -1 x4658 -1 x4659 -1 x4660 >= 0 ;
+2 x4901 +2 x4902 +2 x4903 +2 x4904 +2 x4905 -1 x4656 -1 x4657 -1 x4658 -1 x4659 -1 x4660 -1 x4661 -1 x4662 -1 x4663 -1 x4664 -1 x4665 >= 0 ;
+2 x4906 +2 x4907 +2 x4908 +2 x4909 +2 x4910 -1 x4661 -1 x4662 -1 x4663 -1 x4664 -1 x4665 -1 x4666 -1 x4667 -1 x4668 -1 x4669 -1 x4670 >= 0 ;
+2 x4911 +2 x4912 +2 x4913 +2 x4914 +2 x4915 -1 x4666 -1 x4667 -1 x4668 -1 x4669 -1 x4670 -1 x4671 -1 x4672 -1 x4673 -1 x4674 -1 x4675 >= 0 ;
+2 x4916 +2 x4917 +2 x4918 +2 x4919 +2 x4920 -1 x4671 -1 x4672 -1 x4673 -1 x4674 -1 x4675 -1 x4676 -1 x4677 -1 x4678 -1 x4679 -1 x4680 >= 0 ;
+2 x4921 +2 x4922 +2 x4923 +2 x4924 +2 x4925 -1 x4676 -1 x4677 -1 x4678 -1 x4679 -1 x4680 -1 x4681 -1 x4682 -1 x4683 -1 x4684 -1 x4685 >= 0 ;
+2 x4926 +2 x4927 +2 x4928 +2 x4929 +2 x4930 -1 x4681 -1 x4682 -1 x4683 -1 x4684 -1 x4685 -1 x4686 -1 x4687 -1 x4688 -1 x4689 -1 x4690 >= 0 ;
+2 x4931 +2 x4932 +2 x4933 +2 x4934 +2 x4935 -1 x4686 -1 x4687 -1 x4688 -1 x4689 -1 x4690 -1 x4691 -1 x4692 -1 x4693 -1 x4694 -1 x4695 >= 0 ;
+2 x4936 +2 x4937 +2 x4938 +2 x4939 +2 x4940 -1 x4691 -1 x4692 -1 x4693 -1 x4694 -1 x4695 -1 x4696 -1 x4697 -1 x4698 -1 x4699 -1 x4700 >= 0 ;
+2 x4941 +2 x4942 +2 x4943 +2 x4944 +2 x4945 -1 x4696 -1 x4697 -1 x4698 -1 x4699 -1 x4700 -1 x4701 -1 x4702 -1 x4703 -1 x4704 -1 x4705 >= 0 ;
+2 x4946 +2 x4947 +2 x4948 +2 x4949 +2 x4950 -1 x4701 -1 x4702 -1 x4703 -1 x4704 -1 x4705 -1 x4706 -1 x4707 -1 x4708 -1 x4709 -1 x4710 >= 0 ;
+2 x4951 +2 x4952 +2 x4953 +2 x4954 +2 x4955 -1 x4706 -1 x4707 -1 x4708 -1 x4709 -1 x4710 -1 x4711 -1 x4712 -1 x4713 -1 x4714 -1 x4715 >= 0 ;
+2 x4956 +2 x4957 +2 x4958 +2 x4959 +2 x4960 -1 x4711 -1 x4712 -1 x4713 -1 x4714 -1 x4715 -1 x4716 -1 x4717 -1 x4718 -1 x4719 -1 x4720 >= 0 ;
+2 x4961 +2 x4962 +2 x4963 +2 x4964 +2 x4965 -1 x4716 -1 x4717 -1 x4718 -1 x4719 -1 x4720 -1 x4721 -1 x4722 -1 x4723 -1 x4724 -1 x4725 >= 0 ;
+2 x4966 +2 x4967 +2 x4968 +2 x4969 +2 x4970 -1 x4721 -1 x4722 -1 x4723 -1 x4724 -1 x4725 -1 x4726 -1 x4727 -1 x4728 -1 x4729 -1 x4730 >= 0 ;
+2 x4971 +2 x4972 +2 x4973 +2 x4974 +2 x4975 -1 x4726 -1 x4727 -1 x4728 -1 x4729 -1 x4730 -1 x4731 -1 x4732 -1 x4733 -1 x4734 -1 x4735 >= 0 ;
+2 x4976 +2 x4977 +2 x4978 +2 x4979 +2 x4980 -1 x4731 -1 x4732 -1 x4733 -1 x4734 -1 x4735 -1 x4736 -1 x4737 -1 x4738 -1 x4739 -1 x4740 >= 0 ;
+2 x4981 +2 x4982 +2 x4983 +2 x4984 +2 x4985 -1 x4736 -1 x4737 -1 x4738 -1 x4739 -1 x4740 -1 x4741 -1 x4742 -1 x4743 -1 x4744 -1 x4745 >= 0 ;
+2 x4986 +2 x4987 +2 x4988 +2 x4989 +2 x4990 -1 x4741 -1 x4742 -1 x4743 -1 x4744 -1 x4745 -1 x4746 -1 x4747 -1 x4748 -1 x4749 -1 x4750 >= 0 ;
+2 x4991 +2 x4992 +2 x4993 +2 x4994 +2 x4995 -1 x4746 -1 x4747 -1 x4748 -1 x4749 -1 x4750 -1 x4751 -1 x4752 -1 x4753 -1 x4754 -1 x4755 >= 0 ;
+2 x4996 +2 x4997 +2 x4998 +2 x4999 +2 x5000 -1 x4751 -1 x4752 -1 x4753 -1 x4754 -1 x4755 -1 x4756 -1 x4757 -1 x4758 -1 x4759 -1 x4760 >= 0 ;
+2 x5001 +2 x5002 +2 x5003 +2 x5004 +2 x5005 -1 x4756 -1 x4757 -1 x4758 -1 x4759 -1 x4760 -1 x4761 -1 x4762 -1 x4763 -1 x4764 -1 x4765 >= 0 ;
+2 x5006 +2 x5007 +2 x5008 +2 x5009 +2 x5010 -1 x4761 -1 x4762 -1 x4763 -1 x4764 -1 x4765 -1 x4766 -1 x4767 -1 x4768 -1 x4769 -1 x4770 >= 0 ;
+2 x5011 +2 x5012 +2 x5013 +2 x5014 +2 x5015 -1 x4766 -1 x4767 -1 x4768 -1 x4769 -1 x4770 -1 x4771 -1 x4772 -1 x4773 -1 x4774 -1 x4775 >= 0 ;
+2 x5016 +2 x5017 +2 x5018 +2 x5019 +2 x5020 -1 x4771 -1 x4772 -1 x4773 -1 x4774 -1 x4775 -1 x4776 -1 x4777 -1 x4778 -1 x4779 -1 x4780 >= 0 ;
+2 x5021 +2 x5022 +2 x5023 +2 x5024 +2 x5025 -1 x4776 -1 x4777 -1 x4778 -1 x4779 -1 x4780 -1 x4781 -1 x4782 -1 x4783 -1 x4784 -1 x4785 >= 0 ;
+2 x5026 +2 x5027 +2 x5028 +2 x5029 +2 x5030 -1 x4781 -1 x4782 -1 x4783 -1 x4784 -1 x4785 -1 x4786 -1 x4787 -1 x4788 -1 x4789 -1 x4790 >= 0 ;
+2 x5031 +2 x5032 +2 x5033 +2 x5034 +2 x5035 -1 x4786 -1 x4787 -1 x4788 -1 x4789 -1 x4790 -1 x4791 -1 x4792 -1 x4793 -1 x4794 -1 x4795 >= 0 ;
+2 x5036 +2 x5037 +2 x5038 +2 x5039 +2 x5040 -1 x4791 -1 x4792 -1 x4793 -1 x4794 -1 x4795 -1 x4796 -1 x4797 -1 x4798 -1 x4799 -1 x4800 >= 0 ;
+2 x5041 +2 x5042 +2 x5043 +2 x5044 +2 x5045 -1 x4796 -1 x4797 -1 x4798 -1 x4799 -1 x4800 -1 x4801 -1 x4802 -1 x4803 -1 x4804 -1 x4805 >= 0 ;
+2 x5046 +2 x5047 +2 x5048 +2 x5049 +2 x5050 -1 x4801 -1 x4802 -1 x4803 -1 x4804 -1 x4805 -1 x4806 -1 x4807 -1 x4808 -1 x4809 -1 x4810 >= 0 ;
+2 x5051 +2 x5052 +2 x5053 +2 x5054 +2 x5055 -1 x4806 -1 x4807 -1 x4808 -1 x4809 -1 x4810 -1 x4811 -1 x4812 -1 x4813 -1 x4814 -1 x4815 >= 0 ;
+2 x5056 +2 x5057 +2 x5058 +2 x5059 +2 x5060 -1 x4811 -1 x4812 -1 x4813 -1 x4814 -1 x4815 -1 x4816 -1 x4817 -1 x4818 -1 x4819 -1 x4820 >= 0 ;
+2 x5061 +2 x5062 +2 x5063 +2 x5064 +2 x5065 -1 x4816 -1 x4817 -1 x4818 -1 x4819 -1 x4820 -1 x4821 -1 x4822 -1 x4823 -1 x4824 -1 x4825 >= 0 ;
+2 x5066 +2 x5067 +2 x5068 +2 x5069 +2 x5070 -1 x4821 -1 x4822 -1 x4823 -1 x4824 -1 x4825 -1 x4826 -1 x4827 -1 x4828 -1 x4829 -1 x4830 >= 0 ;
+2 x5071 +2 x5072 +2 x5073 +2 x5074 +2 x5075 -1 x4826 -1 x4827 -1 x4828 -1 x4829 -1 x4830 -1 x4831 -1 x4832 -1 x4833 -1 x4834 -1 x4835 >= 0 ;
+2 x5076 +2 x5077 +2 x5078 +2 x5079 +2 x5080 -1 x4831 -1 x4832 -1 x4833 -1 x4834 -1 x4835 -1 x4836 -1 x4837 -1 x4838 -1 x4839 -1 x4840 >= 0 ;
+2 x5081 +2 x5082 +2 x5083 +2 x5084 +2 x5085 -1 x4836 -1 x4837 -1 x4838 -1 x4839 -1 x4840 -1 x4841 -1 x4842 -1 x4843 -1 x4844 -1 x4845 >= 0 ;
+2 x5086 +2 x5087 +2 x5088 +2 x5089 +2 x5090 -1 x4846 -1 x4847 -1 x4848 -1 x4849 -1 x4850 -1 x4851 -1 x4852 -1 x4853 -1 x4854 -1 x4855 >= 0 ;
+2 x5091 +2 x5092 +2 x5093 +2 x5094 +2 x5095 -1 x4851 -1 x4852 -1 x4853 -1 x4854 -1 x4855 -1 x4856 -1 x4857 -1 x4858 -1 x4859 -1 x4860 >= 0 ;
+2 x5096 +2 x5097 +2 x5098 +2 x5099 +2 x5100 -1 x4856 -1 x4857 -1 x4858 -1 x4859 -1 x4860 -1 x4861 -1 x4862 -1 x4863 -1 x4864 -1 x4865 >= 0 ;
+2 x5101 +2 x5102 +2 x5103 +2 x5104 +2 x5105 -1 x4861 -1 x4862 -1 x4863 -1 x4864 -1 x4865 -1 x4866 -1 x4867 -1 x4868 -1 x4869 -1 x4870 >= 0 ;
+2 x5106 +2 x5107 +2 x5108 +2 x5109 +2 x5110 -1 x4866 -1 x4867 -1 x4868 -1 x4869 -1 x4870 -1 x4871 -1 x4872 -1 x4873 -1 x4874 -1 x4875 >= 0 ;
+2 x5111 +2 x5112 +2 x5113 +2 x5114 +2 x5115 -1 x4871 -1 x4872 -1 x4873 -1 x4874 -1 x4875 -1 x4876 -1 x4877 -1 x4878 -1 x4879 -1 x4880 >= 0 ;
+2 x5116 +2 x5117 +2 x5118 +2 x5119 +2 x5120 -1 x4876 -1 x4877 -1 x4878 -1 x4879 -1 x4880 -1 x4881 -1 x4882 -1 x4883 -1 x4884 -1 x4885 >= 0 ;
+2 x5121 +2 x5122 +2 x5123 +2 x5124 +2 x5125 -1 x4881 -1 x4882 -1 x4883 -1 x4884 -1 x4885 -1 x4886 -1 x4887 -1 x4888 -1 x4889 -1 x4890 >= 0 ;
+2 x5126 +2 x5127 +2 x5128 +2 x5129 +2 x5130 -1 x4886 -1 x4887 -1 x4888 -1 x4889 -1 x4890 -1 x4891 -1 x4892 -1 x4893 -1 x4894 -1 x4895 >= 0 ;
+2 x5131 +2 x5132 +2 x5133 +2 x5134 +2 x5135 -1 x4891 -1 x4892 -1 x4893 -1 x4894 -1 x4895 -1 x4896 -1 x4897 -1 x4898 -1 x4899 -1 x4900 >= 0 ;
+2 x5136 +2 x5137 +2 x5138 +2 x5139 +2 x5140 -1 x4896 -1 x4897 -1 x4898 -1 x4899 -1 x4900 -1 x4901 -1 x4902 -1 x4903 -1 x4904 -1 x4905 >= 0 ;
+2 x5141 +2 x5142 +2 x5143 +2 x5144 +2 x5145 -1 x4901 -1 x4902 -1 x4903 -1 x4904 -1 x4905 -1 x4906 -1 x4907 -1 x4908 -1 x4909 -1 x4910 >= 0 ;
+2 x5146 +2 x5147 +2 x5148 +2 x5149 +2 x5150 -1 x4906 -1 x4907 -1 x4908 -1 x4909 -1 x4910 -1 x4911 -1 x4912 -1 x4913 -1 x4914 -1 x4915 >= 0 ;
+2 x5151 +2 x5152 +2 x5153 +2 x5154 +2 x5155 -1 x4911 -1 x4912 -1 x4913 -1 x4914 -1 x4915 -1 x4916 -1 x4917 -1 x4918 -1 x4919 -1 x4920 >= 0 ;
+2 x5156 +2 x5157 +2 x5158 +2 x5159 +2 x5160 -1 x4916 -1 x4917 -1 x4918 -1 x4919 -1 x4920 -1 x4921 -1 x4922 -1 x4923 -1 x4924 -1 x4925 >= 0 ;
+2 x5161 +2 x5162 +2 x5163 +2 x5164 +2 x5165 -1 x4921 -1 x4922 -1 x4923 -1 x4924 -1 x4925 -1 x4926 -1 x4927 -1 x4928 -1 x4929 -1 x4930 >= 0 ;
+2 x5166 +2 x5167 +2 x5168 +2 x5169 +2 x5170 -1 x4926 -1 x4927 -1 x4928 -1 x4929 -1 x4930 -1 x4931 -1 x4932 -1 x4933 -1 x4934 -1 x4935 >= 0 ;
+2 x5171 +2 x5172 +2 x5173 +2 x5174 +2 x5175 -1 x4931 -1 x4932 -1 x4933 -1 x4934 -1 x4935 -1 x4936 -1 x4937 -1 x4938 -1 x4939 -1 x4940 >= 0 ;
+2 x5176 +2 x5177 +2 x5178 +2 x5179 +2 x5180 -1 x4936 -1 x4937 -1 x4938 -1 x4939 -1 x4940 -1 x4941 -1 x4942 -1 x4943 -1 x4944 -1 x4945 >= 0 ;
+2 x5181 +2 x5182 +2 x5183 +2 x5184 +2 x5185 -1 x4941 -1 x4942 -1 x4943 -1 x4944 -1 x4945 -1 x4946 -1 x4947 -1 x4948 -1 x4949 -1 x4950 >= 0 ;
+2 x5186 +2 x5187 +2 x5188 +2 x5189 +2 x5190 -1 x4946 -1 x4947 -1 x4948 -1 x4949 -1 x4950 -1 x4951 -1 x4952 -1 x4953 -1 x4954 -1 x4955 >= 0 ;
+2 x5191 +2 x5192 +2 x5193 +2 x5194 +2 x5195 -1 x4951 -1 x4952 -1 x4953 -1 x4954 -1 x4955 -1 x4956 -1 x4957 -1 x4958 -1 x4959 -1 x4960 >= 0 ;
+2 x5196 +2 x5197 +2 x5198 +2 x5199 +2 x5200 -1 x4956 -1 x4957 -1 x4958 -1 x4959 -1 x4960 -1 x4961 -1 x4962 -1 x4963 -1 x4964 -1 x4965 >= 0 ;
+2 x5201 +2 x5202 +2 x5203 +2 x5204 +2 x5205 -1 x4961 -1 x4962 -1 x4963 -1 x4964 -1 x4965 -1 x4966 -1 x4967 -1 x4968 -1 x4969 -1 x4970 >= 0 ;
+2 x5206 +2 x5207 +2 x5208 +2 x5209 +2 x5210 -1 x4966 -1 x4967 -1 x4968 -1 x4969 -1 x4970 -1 x4971 -1 x4972 -1 x4973 -1 x4974 -1 x4975 >= 0 ;
+2 x5211 +2 x5212 +2 x5213 +2 x5214 +2 x5215 -1 x4971 -1 x4972 -1 x4973 -1 x4974 -1 x4975 -1 x4976 -1 x4977 -1 x4978 -1 x4979 -1 x4980 >= 0 ;
+2 x5216 +2 x5217 +2 x5218 +2 x5219 +2 x5220 -1 x4976 -1 x4977 -1 x4978 -1 x4979 -1 x4980 -1 x4981 -1 x4982 -1 x4983 -1 x4984 -1 x4985 >= 0 ;
+2 x5221 +2 x5222 +2 x5223 +2 x5224 +2 x5225 -1 x4981 -1 x4982 -1 x4983 -1 x4984 -1 x4985 -1 x4986 -1 x4987 -1 x4988 -1 x4989 -1 x4990 >= 0 ;
+2 x5226 +2 x5227 +2 x5228 +2 x5229 +2 x5230 -1 x4986 -1 x4987 -1 x4988 -1 x4989 -1 x4990 -1 x4991 -1 x4992 -1 x4993 -1 x4994 -1 x4995 >= 0 ;
+2 x5231 +2 x5232 +2 x5233 +2 x5234 +2 x5235 -1 x4991 -1 x4992 -1 x4993 -1 x4994 -1 x4995 -1 x4996 -1 x4997 -1 x4998 -1 x4999 -1 x5000 >= 0 ;
+2 x5236 +2 x5237 +2 x5238 +2 x5239 +2 x5240 -1 x4996 -1 x4997 -1 x4998 -1 x4999 -1 x5000 -1 x5001 -1 x5002 -1 x5003 -1 x5004 -1 x5005 >= 0 ;
+2 x5241 +2 x5242 +2 x5243 +2 x5244 +2 x5245 -1 x5001 -1 x5002 -1 x5003 -1 x5004 -1 x5005 -1 x5006 -1 x5007 -1 x5008 -1 x5009 -1 x5010 >= 0 ;
+2 x5246 +2 x5247 +2 x5248 +2 x5249 +2 x5250 -1 x5006 -1 x5007 -1 x5008 -1 x5009 -1 x5010 -1 x5011 -1 x5012 -1 x5013 -1 x5014 -1 x5015 >= 0 ;
+2 x5251 +2 x5252 +2 x5253 +2 x5254 +2 x5255 -1 x5011 -1 x5012 -1 x5013 -1 x5014 -1 x5015 -1 x5016 -1 x5017 -1 x5018 -1 x5019 -1 x5020 >= 0 ;
+2 x5256 +2 x5257 +2 x5258 +2 x5259 +2 x5260 -1 x5016 -1 x5017 -1 x5018 -1 x5019 -1 x5020 -1 x5021 -1 x5022 -1 x5023 -1 x5024 -1 x5025 >= 0 ;
+2 x5261 +2 x5262 +2 x5263 +2 x5264 +2 x5265 -1 x5021 -1 x5022 -1 x5023 -1 x5024 -1 x5025 -1 x5026 -1 x5027 -1 x5028 -1 x5029 -1 x5030 >= 0 ;
+2 x5266 +2 x5267 +2 x5268 +2 x5269 +2 x5270 -1 x5026 -1 x5027 -1 x5028 -1 x5029 -1 x5030 -1 x5031 -1 x5032 -1 x5033 -1 x5034 -1 x5035 >= 0 ;
+2 x5271 +2 x5272 +2 x5273 +2 x5274 +2 x5275 -1 x5031 -1 x5032 -1 x5033 -1 x5034 -1 x5035 -1 x5036 -1 x5037 -1 x5038 -1 x5039 -1 x5040 >= 0 ;
+2 x5276 +2 x5277 +2 x5278 +2 x5279 +2 x5280 -1 x5036 -1 x5037 -1 x5038 -1 x5039 -1 x5040 -1 x5041 -1 x5042 -1 x5043 -1 x5044 -1 x5045 >= 0 ;
+2 x5281 +2 x5282 +2 x5283 +2 x5284 +2 x5285 -1 x5041 -1 x5042 -1 x5043 -1 x5044 -1 x5045 -1 x5046 -1 x5047 -1 x5048 -1 x5049 -1 x5050 >= 0 ;
+2 x5286 +2 x5287 +2 x5288 +2 x5289 +2 x5290 -1 x5046 -1 x5047 -1 x5048 -1 x5049 -1 x5050 -1 x5051 -1 x5052 -1 x5053 -1 x5054 -1 x5055 >= 0 ;
+2 x5291 +2 x5292 +2 x5293 +2 x5294 +2 x5295 -1 x5051 -1 x5052 -1 x5053 -1 x5054 -1 x5055 -1 x5056 -1 x5057 -1 x5058 -1 x5059 -1 x5060 >= 0 ;
+2 x5296 +2 x5297 +2 x5298 +2 x5299 +2 x5300 -1 x5056 -1 x5057 -1 x5058 -1 x5059 -1 x5060 -1 x5061 -1 x5062 -1 x5063 -1 x5064 -1 x5065 >= 0 ;
+2 x5301 +2 x5302 +2 x5303 +2 x5304 +2 x5305 -1 x5061 -1 x5062 -1 x5063 -1 x5064 -1 x5065 -1 x5066 -1 x5067 -1 x5068 -1 x5069 -1 x5070 >= 0 ;
+2 x5306 +2 x5307 +2 x5308 +2 x5309 +2 x5310 -1 x5066 -1 x5067 -1 x5068 -1 x5069 -1 x5070 -1 x5071 -1 x5072 -1 x5073 -1 x5074 -1 x5075 >= 0 ;
+2 x5311 +2 x5312 +2 x5313 +2 x5314 +2 x5315 -1 x5071 -1 x5072 -1 x5073 -1 x5074 -1 x5075 -1 x5076 -1 x5077 -1 x5078 -1 x5079 -1 x5080 >= 0 ;
+2 x5316 +2 x5317 +2 x5318 +2 x5319 +2 x5320 -1 x5076 -1 x5077 -1 x5078 -1 x5079 -1 x5080 -1 x5081 -1 x5082 -1 x5083 -1 x5084 -1 x5085 >= 0 ;
+2 x5321 +2 x5322 +2 x5323 +2 x5324 +2 x5325 -1 x5086 -1 x5087 -1 x5088 -1 x5089 -1 x5090 -1 x5091 -1 x5092 -1 x5093 -1 x5094 -1 x5095 >= 0 ;
+2 x5326 +2 x5327 +2 x5328 +2 x5329 +2 x5330 -1 x5091 -1 x5092 -1 x5093 -1 x5094 -1 x5095 -1 x5096 -1 x5097 -1 x5098 -1 x5099 -1 x5100 >= 0 ;
+2 x5331 +2 x5332 +2 x5333 +2 x5334 +2 x5335 -1 x5096 -1 x5097 -1 x5098 -1 x5099 -1 x5100 -1 x5101 -1 x5102 -1 x5103 -1 x5104 -1 x5105 >= 0 ;
+2 x5336 +2 x5337 +2 x5338 +2 x5339 +2 x5340 -1 x5101 -1 x5102 -1 x5103 -1 x5104 -1 x5105 -1 x5106 -1 x5107 -1 x5108 -1 x5109 -1 x5110 >= 0 ;
+2 x5341 +2 x5342 +2 x5343 +2 x5344 +2 x5345 -1 x5106 -1 x5107 -1 x5108 -1 x5109 -1 x5110 -1 x5111 -1 x5112 -1 x5113 -1 x5114 -1 x5115 >= 0 ;
+2 x5346 +2 x5347 +2 x5348 +2 x5349 +2 x5350 -1 x5111 -1 x5112 -1 x5113 -1 x5114 -1 x5115 -1 x5116 -1 x5117 -1 x5118 -1 x5119 -1 x5120 >= 0 ;
+2 x5351 +2 x5352 +2 x5353 +2 x5354 +2 x5355 -1 x5116 -1 x5117 -1 x5118 -1 x5119 -1 x5120 -1 x5121 -1 x5122 -1 x5123 -1 x5124 -1 x5125 >= 0 ;
+2 x5356 +2 x5357 +2 x5358 +2 x5359 +2 x5360 -1 x5121 -1 x5122 -1 x5123 -1 x5124 -1 x5125 -1 x5126 -1 x5127 -1 x5128 -1 x5129 -1 x5130 >= 0 ;
+2 x5361 +2 x5362 +2 x5363 +2 x5364 +2 x5365 -1 x5126 -1 x5127 -1 x5128 -1 x5129 -1 x5130 -1 x5131 -1 x5132 -1 x5133 -1 x5134 -1 x5135 >= 0 ;
+2 x5366 +2 x5367 +2 x5368 +2 x5369 +2 x5370 -1 x5131 -1 x5132 -1 x5133 -1 x5134 -1 x5135 -1 x5136 -1 x5137 -1 x5138 -1 x5139 -1 x5140 >= 0 ;
+2 x5371 +2 x5372 +2 x5373 +2 x5374 +2 x5375 -1 x5136 -1 x5137 -1 x5138 -1 x5139 -1 x5140 -1 x5141 -1 x5142 -1 x5143 -1 x5144 -1 x5145 >= 0 ;
+2 x5376 +2 x5377 +2 x5378 +2 x5379 +2 x5380 -1 x5141 -1 x5142 -1 x5143 -1 x5144 -1 x5145 -1 x5146 -1 x5147 -1 x5148 -1 x5149 -1 x5150 >= 0 ;
+2 x5381 +2 x5382 +2 x5383 +2 x5384 +2 x5385 -1 x5146 -1 x5147 -1 x5148 -1 x5149 -1 x5150 -1 x5151 -1 x5152 -1 x5153 -1 x5154 -1 x5155 >= 0 ;
+2 x5386 +2 x5387 +2 x5388 +2 x5389 +2 x5390 -1 x5151 -1 x5152 -1 x5153 -1 x5154 -1 x5155 -1 x5156 -1 x5157 -1 x5158 -1 x5159 -1 x5160 >= 0 ;
+2 x5391 +2 x5392 +2 x5393 +2 x5394 +2 x5395 -1 x5156 -1 x5157 -1 x5158 -1 x5159 -1 x5160 -1 x5161 -1 x5162 -1 x5163 -1 x5164 -1 x5165 >= 0 ;
+2 x5396 +2 x5397 +2 x5398 +2 x5399 +2 x5400 -1 x5161 -1 x5162 -1 x5163 -1 x5164 -1 x5165 -1 x5166 -1 x5167 -1 x5168 -1 x5169 -1 x5170 >= 0 ;
+2 x5401 +2 x5402 +2 x5403 +2 x5404 +2 x5405 -1 x5166 -1 x5167 -1 x5168 -1 x5169 -1 x5170 -1 x5171 -1 x5172 -1 x5173 -1 x5174 -1 x5175 >= 0 ;
+2 x5406 +2 x5407 +2 x5408 +2 x5409 +2 x5410 -1 x5171 -1 x5172 -1 x5173 -1 x5174 -1 x5175 -1 x5176 -1 x5177 -1 x5178 -1 x5179 -1 x5180 >= 0 ;
+2 x5411 +2 x5412 +2 x5413 +2 x5414 +2 x5415 -1 x5176 -1 x5177 -1 x5178 -1 x5179 -1 x5180 -1 x5181 -1 x5182 -1 x5183 -1 x5184 -1 x5185 >= 0 ;
+2 x5416 +2 x5417 +2 x5418 +2 x5419 +2 x5420 -1 x5181 -1 x5182 -1 x5183 -1 x5184 -1 x5185 -1 x5186 -1 x5187 -1 x5188 -1 x5189 -1 x5190 >= 0 ;
+2 x5421 +2 x5422 +2 x5423 +2 x5424 +2 x5425 -1 x5186 -1 x5187 -1 x5188 -1 x5189 -1 x5190 -1 x5191 -1 x5192 -1 x5193 -1 x5194 -1 x5195 >= 0 ;
+2 x5426 +2 x5427 +2 x5428 +2 x5429 +2 x5430 -1 x5191 -1 x5192 -1 x5193 -1 x5194 -1 x5195 -1 x5196 -1 x5197 -1 x5198 -1 x5199 -1 x5200 >= 0 ;
+2 x5431 +2 x5432 +2 x5433 +2 x5434 +2 x5435 -1 x5196 -1 x5197 -1 x5198 -1 x5199 -1 x5200 -1 x5201 -1 x5202 -1 x5203 -1 x5204 -1 x5205 >= 0 ;
+2 x5436 +2 x5437 +2 x5438 +2 x5439 +2 x5440 -1 x5201 -1 x5202 -1 x5203 -1 x5204 -1 x5205 -1 x5206 -1 x5207 -1 x5208 -1 x5209 -1 x5210 >= 0 ;
+2 x5441 +2 x5442 +2 x5443 +2 x5444 +2 x5445 -1 x5206 -1 x5207 -1 x5208 -1 x5209 -1 x5210 -1 x5211 -1 x5212 -1 x5213 -1 x5214 -1 x5215 >= 0 ;
+2 x5446 +2 x5447 +2 x5448 +2 x5449 +2 x5450 -1 x5211 -1 x5212 -1 x5213 -1 x5214 -1 x5215 -1 x5216 -1 x5217 -1 x5218 -1 x5219 -1 x5220 >= 0 ;
+2 x5451 +2 x5452 +2 x5453 +2 x5454 +2 x5455 -1 x5216 -1 x5217 -1 x5218 -1 x5219 -1 x5220 -1 x5221 -1 x5222 -1 x5223 -1 x5224 -1 x5225 >= 0 ;
+2 x5456 +2 x5457 +2 x5458 +2 x5459 +2 x5460 -1 x5221 -1 x5222 -1 x5223 -1 x5224 -1 x5225 -1 x5226 -1 x5227 -1 x5228 -1 x5229 -1 x5230 >= 0 ;
+2 x5461 +2 x5462 +2 x5463 +2 x5464 +2 x5465 -1 x5226 -1 x5227 -1 x5228 -1 x5229 -1 x5230 -1 x5231 -1 x5232 -1 x5233 -1 x5234 -1 x5235 >= 0 ;
+2 x5466 +2 x5467 +2 x5468 +2 x5469 +2 x5470 -1 x5231 -1 x5232 -1 x5233 -1 x5234 -1 x5235 -1 x5236 -1 x5237 -1 x5238 -1 x5239 -1 x5240 >= 0 ;
+2 x5471 +2 x5472 +2 x5473 +2 x5474 +2 x5475 -1 x5236 -1 x5237 -1 x5238 -1 x5239 -1 x5240 -1 x5241 -1 x5242 -1 x5243 -1 x5244 -1 x5245 >= 0 ;
+2 x5476 +2 x5477 +2 x5478 +2 x5479 +2 x5480 -1 x5241 -1 x5242 -1 x5243 -1 x5244 -1 x5245 -1 x5246 -1 x5247 -1 x5248 -1 x5249 -1 x5250 >= 0 ;
+2 x5481 +2 x5482 +2 x5483 +2 x5484 +2 x5485 -1 x5246 -1 x5247 -1 x5248 -1 x5249 -1 x5250 -1 x5251 -1 x5252 -1 x5253 -1 x5254 -1 x5255 >= 0 ;
+2 x5486 +2 x5487 +2 x5488 +2 x5489 +2 x5490 -1 x5251 -1 x5252 -1 x5253 -1 x5254 -1 x5255 -1 x5256 -1 x5257 -1 x5258 -1 x5259 -1 x5260 >= 0 ;
+2 x5491 +2 x5492 +2 x5493 +2 x5494 +2 x5495 -1 x5256 -1 x5257 -1 x5258 -1 x5259 -1 x5260 -1 x5261 -1 x5262 -1 x5263 -1 x5264 -1 x5265 >= 0 ;
+2 x5496 +2 x5497 +2 x5498 +2 x5499 +2 x5500 -1 x5261 -1 x5262 -1 x5263 -1 x5264 -1 x5265 -1 x5266 -1 x5267 -1 x5268 -1 x5269 -1 x5270 >= 0 ;
+2 x5501 +2 x5502 +2 x5503 +2 x5504 +2 x5505 -1 x5266 -1 x5267 -1 x5268 -1 x5269 -1 x5270 -1 x5271 -1 x5272 -1 x5273 -1 x5274 -1 x5275 >= 0 ;
+2 x5506 +2 x5507 +2 x5508 +2 x5509 +2 x5510 -1 x5271 -1 x5272 -1 x5273 -1 x5274 -1 x5275 -1 x5276 -1 x5277 -1 x5278 -1 x5279 -1 x5280 >= 0 ;
+2 x5511 +2 x5512 +2 x5513 +2 x5514 +2 x5515 -1 x5276 -1 x5277 -1 x5278 -1 x5279 -1 x5280 -1 x5281 -1 x5282 -1 x5283 -1 x5284 -1 x5285 >= 0 ;
+2 x5516 +2 x5517 +2 x5518 +2 x5519 +2 x5520 -1 x5281 -1 x5282 -1 x5283 -1 x5284 -1 x5285 -1 x5286 -1 x5287 -1 x5288 -1 x5289 -1 x5290 >= 0 ;
+2 x5521 +2 x5522 +2 x5523 +2 x5524 +2 x5525 -1 x5286 -1 x5287 -1 x5288 -1 x5289 -1 x5290 -1 x5291 -1 x5292 -1 x5293 -1 x5294 -1 x5295 >= 0 ;
+2 x5526 +2 x5527 +2 x5528 +2 x5529 +2 x5530 -1 x5291 -1 x5292 -1 x5293 -1 x5294 -1 x5295 -1 x5296 -1 x5297 -1 x5298 -1 x5299 -1 x5300 >= 0 ;
+2 x5531 +2 x5532 +2 x5533 +2 x5534 +2 x5535 -1 x5296 -1 x5297 -1 x5298 -1 x5299 -1 x5300 -1 x5301 -1 x5302 -1 x5303 -1 x5304 -1 x5305 >= 0 ;
+2 x5536 +2 x5537 +2 x5538 +2 x5539 +2 x5540 -1 x5301 -1 x5302 -1 x5303 -1 x5304 -1 x5305 -1 x5306 -1 x5307 -1 x5308 -1 x5309 -1 x5310 >= 0 ;
+2 x5541 +2 x5542 +2 x5543 +2 x5544 +2 x5545 -1 x5306 -1 x5307 -1 x5308 -1 x5309 -1 x5310 -1 x5311 -1 x5312 -1 x5313 -1 x5314 -1 x5315 >= 0 ;
+2 x5546 +2 x5547 +2 x5548 +2 x5549 +2 x5550 -1 x5311 -1 x5312 -1 x5313 -1 x5314 -1 x5315 -1 x5316 -1 x5317 -1 x5318 -1 x5319 -1 x5320 >= 0 ;
+2 x5551 +2 x5552 +2 x5553 +2 x5554 +2 x5555 -1 x5321 -1 x5322 -1 x5323 -1 x5324 -1 x5325 -1 x5326 -1 x5327 -1 x5328 -1 x5329 -1 x5330 >= 0 ;
+2 x5556 +2 x5557 +2 x5558 +2 x5559 +2 x5560 -1 x5326 -1 x5327 -1 x5328 -1 x5329 -1 x5330 -1 x5331 -1 x5332 -1 x5333 -1 x5334 -1 x5335 >= 0 ;
+2 x5561 +2 x5562 +2 x5563 +2 x5564 +2 x5565 -1 x5331 -1 x5332 -1 x5333 -1 x5334 -1 x5335 -1 x5336 -1 x5337 -1 x5338 -1 x5339 -1 x5340 >= 0 ;
+2 x5566 +2 x5567 +2 x5568 +2 x5569 +2 x5570 -1 x5336 -1 x5337 -1 x5338 -1 x5339 -1 x5340 -1 x5341 -1 x5342 -1 x5343 -1 x5344 -1 x5345 >= 0 ;
+2 x5571 +2 x5572 +2 x5573 +2 x5574 +2 x5575 -1 x5341 -1 x5342 -1 x5343 -1 x5344 -1 x5345 -1 x5346 -1 x5347 -1 x5348 -1 x5349 -1 x5350 >= 0 ;
+2 x5576 +2 x5577 +2 x5578 +2 x5579 +2 x5580 -1 x5346 -1 x5347 -1 x5348 -1 x5349 -1 x5350 -1 x5351 -1 x5352 -1 x5353 -1 x5354 -1 x5355 >= 0 ;
+2 x5581 +2 x5582 +2 x5583 +2 x5584 +2 x5585 -1 x5351 -1 x5352 -1 x5353 -1 x5354 -1 x5355 -1 x5356 -1 x5357 -1 x5358 -1 x5359 -1 x5360 >= 0 ;
+2 x5586 +2 x5587 +2 x5588 +2 x5589 +2 x5590 -1 x5356 -1 x5357 -1 x5358 -1 x5359 -1 x5360 -1 x5361 -1 x5362 -1 x5363 -1 x5364 -1 x5365 >= 0 ;
+2 x5591 +2 x5592 +2 x5593 +2 x5594 +2 x5595 -1 x5361 -1 x5362 -1 x5363 -1 x5364 -1 x5365 -1 x5366 -1 x5367 -1 x5368 -1 x5369 -1 x5370 >= 0 ;
+2 x5596 +2 x5597 +2 x5598 +2 x5599 +2 x5600 -1 x5366 -1 x5367 -1 x5368 -1 x5369 -1 x5370 -1 x5371 -1 x5372 -1 x5373 -1 x5374 -1 x5375 >= 0 ;
+2 x5601 +2 x5602 +2 x5603 +2 x5604 +2 x5605 -1 x5371 -1 x5372 -1 x5373 -1 x5374 -1 x5375 -1 x5376 -1 x5377 -1 x5378 -1 x5379 -1 x5380 >= 0 ;
+2 x5606 +2 x5607 +2 x5608 +2 x5609 +2 x5610 -1 x5376 -1 x5377 -1 x5378 -1 x5379 -1 x5380 -1 x5381 -1 x5382 -1 x5383 -1 x5384 -1 x5385 >= 0 ;
+2 x5611 +2 x5612 +2 x5613 +2 x5614 +2 x5615 -1 x5381 -1 x5382 -1 x5383 -1 x5384 -1 x5385 -1 x5386 -1 x5387 -1 x5388 -1 x5389 -1 x5390 >= 0 ;
+2 x5616 +2 x5617 +2 x5618 +2 x5619 +2 x5620 -1 x5386 -1 x5387 -1 x5388 -1 x5389 -1 x5390 -1 x5391 -1 x5392 -1 x5393 -1 x5394 -1 x5395 >= 0 ;
+2 x5621 +2 x5622 +2 x5623 +2 x5624 +2 x5625 -1 x5391 -1 x5392 -1 x5393 -1 x5394 -1 x5395 -1 x5396 -1 x5397 -1 x5398 -1 x5399 -1 x5400 >= 0 ;
+2 x5626 +2 x5627 +2 x5628 +2 x5629 +2 x5630 -1 x5396 -1 x5397 -1 x5398 -1 x5399 -1 x5400 -1 x5401 -1 x5402 -1 x5403 -1 x5404 -1 x5405 >= 0 ;
+2 x5631 +2 x5632 +2 x5633 +2 x5634 +2 x5635 -1 x5401 -1 x5402 -1 x5403 -1 x5404 -1 x5405 -1 x5406 -1 x5407 -1 x5408 -1 x5409 -1 x5410 >= 0 ;
+2 x5636 +2 x5637 +2 x5638 +2 x5639 +2 x5640 -1 x5406 -1 x5407 -1 x5408 -1 x5409 -1 x5410 -1 x5411 -1 x5412 -1 x5413 -1 x5414 -1 x5415 >= 0 ;
+2 x5641 +2 x5642 +2 x5643 +2 x5644 +2 x5645 -1 x5411 -1 x5412 -1 x5413 -1 x5414 -1 x5415 -1 x5416 -1 x5417 -1 x5418 -1 x5419 -1 x5420 >= 0 ;
+2 x5646 +2 x5647 +2 x5648 +2 x5649 +2 x5650 -1 x5416 -1 x5417 -1 x5418 -1 x5419 -1 x5420 -1 x5421 -1 x5422 -1 x5423 -1 x5424 -1 x5425 >= 0 ;
+2 x5651 +2 x5652 +2 x5653 +2 x5654 +2 x5655 -1 x5421 -1 x5422 -1 x5423 -1 x5424 -1 x5425 -1 x5426 -1 x5427 -1 x5428 -1 x5429 -1 x5430 >= 0 ;
+2 x5656 +2 x5657 +2 x5658 +2 x5659 +2 x5660 -1 x5426 -1 x5427 -1 x5428 -1 x5429 -1 x5430 -1 x5431 -1 x5432 -1 x5433 -1 x5434 -1 x5435 >= 0 ;
+2 x5661 +2 x5662 +2 x5663 +2 x5664 +2 x5665 -1 x5431 -1 x5432 -1 x5433 -1 x5434 -1 x5435 -1 x5436 -1 x5437 -1 x5438 -1 x5439 -1 x5440 >= 0 ;
+2 x5666 +2 x5667 +2 x5668 +2 x5669 +2 x5670 -1 x5436 -1 x5437 -1 x5438 -1 x5439 -1 x5440 -1 x5441 -1 x5442 -1 x5443 -1 x5444 -1 x5445 >= 0 ;
+2 x5671 +2 x5672 +2 x5673 +2 x5674 +2 x5675 -1 x5441 -1 x5442 -1 x5443 -1 x5444 -1 x5445 -1 x5446 -1 x5447 -1 x5448 -1 x5449 -1 x5450 >= 0 ;
+2 x5676 +2 x5677 +2 x5678 +2 x5679 +2 x5680 -1 x5446 -1 x5447 -1 x5448 -1 x5449 -1 x5450 -1 x5451 -1 x5452 -1 x5453 -1 x5454 -1 x5455 >= 0 ;
+2 x5681 +2 x5682 +2 x5683 +2 x5684 +2 x5685 -1 x5451 -1 x5452 -1 x5453 -1 x5454 -1 x5455 -1 x5456 -1 x5457 -1 x5458 -1 x5459 -1 x5460 >= 0 ;
+2 x5686 +2 x5687 +2 x5688 +2 x5689 +2 x5690 -1 x5456 -1 x5457 -1 x5458 -1 x5459 -1 x5460 -1 x5461 -1 x5462 -1 x5463 -1 x5464 -1 x5465 >= 0 ;
+2 x5691 +2 x5692 +2 x5693 +2 x5694 +2 x5695 -1 x5461 -1 x5462 -1 x5463 -1 x5464 -1 x5465 -1 x5466 -1 x5467 -1 x5468 -1 x5469 -1 x5470 >= 0 ;
+2 x5696 +2 x5697 +2 x5698 +2 x5699 +2 x5700 -1 x5466 -1 x5467 -1 x5468 -1 x5469 -1 x5470 -1 x5471 -1 x5472 -1 x5473 -1 x5474 -1 x5475 >= 0 ;
+2 x5701 +2 x5702 +2 x5703 +2 x5704 +2 x5705 -1 x5471 -1 x5472 -1 x5473 -1 x5474 -1 x5475 -1 x5476 -1 x5477 -1 x5478 -1 x5479 -1 x5480 >= 0 ;
+2 x5706 +2 x5707 +2 x5708 +2 x5709 +2 x5710 -1 x5476 -1 x5477 -1 x5478 -1 x5479 -1 x5480 -1 x5481 -1 x5482 -1 x5483 -1 x5484 -1 x5485 >= 0 ;
+2 x5711 +2 x5712 +2 x5713 +2 x5714 +2 x5715 -1 x5481 -1 x5482 -1 x5483 -1 x5484 -1 x5485 -1 x5486 -1 x5487 -1 x5488 -1 x5489 -1 x5490 >= 0 ;
+2 x5716 +2 x5717 +2 x5718 +2 x5719 +2 x5720 -1 x5486 -1 x5487 -1 x5488 -1 x5489 -1 x5490 -1 x5491 -1 x5492 -1 x5493 -1 x5494 -1 x5495 >= 0 ;
+2 x5721 +2 x5722 +2 x5723 +2 x5724 +2 x5725 -1 x5491 -1 x5492 -1 x5493 -1 x5494 -1 x5495 -1 x5496 -1 x5497 -1 x5498 -1 x5499 -1 x5500 >= 0 ;
+2 x5726 +2 x5727 +2 x5728 +2 x5729 +2 x5730 -1 x5496 -1 x5497 -1 x5498 -1 x5499 -1 x5500 -1 x5501 -1 x5502 -1 x5503 -1 x5504 -1 x5505 >= 0 ;
+2 x5731 +2 x5732 +2 x5733 +2 x5734 +2 x5735 -1 x5501 -1 x5502 -1 x5503 -1 x5504 -1 x5505 -1 x5506 -1 x5507 -1 x5508 -1 x5509 -1 x5510 >= 0 ;
+2 x5736 +2 x5737 +2 x5738 +2 x5739 +2 x5740 -1 x5506 -1 x5507 -1 x5508 -1 x5509 -1 x5510 -1 x5511 -1 x5512 -1 x5513 -1 x5514 -1 x5515 >= 0 ;
+2 x5741 +2 x5742 +2 x5743 +2 x5744 +2 x5745 -1 x5511 -1 x5512 -1 x5513 -1 x5514 -1 x5515 -1 x5516 -1 x5517 -1 x5518 -1 x5519 -1 x5520 >= 0 ;
+2 x5746 +2 x5747 +2 x5748 +2 x5749 +2 x5750 -1 x5516 -1 x5517 -1 x5518 -1 x5519 -1 x5520 -1 x5521 -1 x5522 -1 x5523 -1 x5524 -1 x5525 >= 0 ;
+2 x5751 +2 x5752 +2 x5753 +2 x5754 +2 x5755 -1 x5521 -1 x5522 -1 x5523 -1 x5524 -1 x5525 -1 x5526 -1 x5527 -1 x5528 -1 x5529 -1 x5530 >= 0 ;
+2 x5756 +2 x5757 +2 x5758 +2 x5759 +2 x5760 -1 x5526 -1 x5527 -1 x5528 -1 x5529 -1 x5530 -1 x5531 -1 x5532 -1 x5533 -1 x5534 -1 x5535 >= 0 ;
+2 x5761 +2 x5762 +2 x5763 +2 x5764 +2 x5765 -1 x5531 -1 x5532 -1 x5533 -1 x5534 -1 x5535 -1 x5536 -1 x5537 -1 x5538 -1 x5539 -1 x5540 >= 0 ;
+2 x5766 +2 x5767 +2 x5768 +2 x5769 +2 x5770 -1 x5536 -1 x5537 -1 x5538 -1 x5539 -1 x5540 -1 x5541 -1 x5542 -1 x5543 -1 x5544 -1 x5545 >= 0 ;
+2 x5771 +2 x5772 +2 x5773 +2 x5774 +2 x5775 -1 x5541 -1 x5542 -1 x5543 -1 x5544 -1 x5545 -1 x5546 -1 x5547 -1 x5548 -1 x5549 -1 x5550 >= 0 ;
+2 x5776 +2 x5777 +2 x5778 +2 x5779 +2 x5780 -1 x5551 -1 x5552 -1 x5553 -1 x5554 -1 x5555 -1 x5556 -1 x5557 -1 x5558 -1 x5559 -1 x5560 >= 0 ;
+2 x5781 +2 x5782 +2 x5783 +2 x5784 +2 x5785 -1 x5556 -1 x5557 -1 x5558 -1 x5559 -1 x5560 -1 x5561 -1 x5562 -1 x5563 -1 x5564 -1 x5565 >= 0 ;
+2 x5786 +2 x5787 +2 x5788 +2 x5789 +2 x5790 -1 x5561 -1 x5562 -1 x5563 -1 x5564 -1 x5565 -1 x5566 -1 x5567 -1 x5568 -1 x5569 -1 x5570 >= 0 ;
+2 x5791 +2 x5792 +2 x5793 +2 x5794 +2 x5795 -1 x5566 -1 x5567 -1 x5568 -1 x5569 -1 x5570 -1 x5571 -1 x5572 -1 x5573 -1 x5574 -1 x5575 >= 0 ;
+2 x5796 +2 x5797 +2 x5798 +2 x5799 +2 x5800 -1 x5571 -1 x5572 -1 x5573 -1 x5574 -1 x5575 -1 x5576 -1 x5577 -1 x5578 -1 x5579 -1 x5580 >= 0 ;
+2 x5801 +2 x5802 +2 x5803 +2 x5804 +2 x5805 -1 x5576 -1 x5577 -1 x5578 -1 x5579 -1 x5580 -1 x5581 -1 x5582 -1 x5583 -1 x5584 -1 x5585 >= 0 ;
+2 x5806 +2 x5807 +2 x5808 +2 x5809 +2 x5810 -1 x5581 -1 x5582 -1 x5583 -1 x5584 -1 x5585 -1 x5586 -1 x5587 -1 x5588 -1 x5589 -1 x5590 >= 0 ;
+2 x5811 +2 x5812 +2 x5813 +2 x5814 +2 x5815 -1 x5586 -1 x5587 -1 x5588 -1 x5589 -1 x5590 -1 x5591 -1 x5592 -1 x5593 -1 x5594 -1 x5595 >= 0 ;
+2 x5816 +2 x5817 +2 x5818 +2 x5819 +2 x5820 -1 x5591 -1 x5592 -1 x5593 -1 x5594 -1 x5595 -1 x5596 -1 x5597 -1 x5598 -1 x5599 -1 x5600 >= 0 ;
+2 x5821 +2 x5822 +2 x5823 +2 x5824 +2 x5825 -1 x5596 -1 x5597 -1 x5598 -1 x5599 -1 x5600 -1 x5601 -1 x5602 -1 x5603 -1 x5604 -1 x5605 >= 0 ;
+2 x5826 +2 x5827 +2 x5828 +2 x5829 +2 x5830 -1 x5601 -1 x5602 -1 x5603 -1 x5604 -1 x5605 -1 x5606 -1 x5607 -1 x5608 -1 x5609 -1 x5610 >= 0 ;
+2 x5831 +2 x5832 +2 x5833 +2 x5834 +2 x5835 -1 x5606 -1 x5607 -1 x5608 -1 x5609 -1 x5610 -1 x5611 -1 x5612 -1 x5613 -1 x5614 -1 x5615 >= 0 ;
+2 x5836 +2 x5837 +2 x5838 +2 x5839 +2 x5840 -1 x5611 -1 x5612 -1 x5613 -1 x5614 -1 x5615 -1 x5616 -1 x5617 -1 x5618 -1 x5619 -1 x5620 >= 0 ;
+2 x5841 +2 x5842 +2 x5843 +2 x5844 +2 x5845 -1 x5616 -1 x5617 -1 x5618 -1 x5619 -1 x5620 -1 x5621 -1 x5622 -1 x5623 -1 x5624 -1 x5625 >= 0 ;
+2 x5846 +2 x5847 +2 x5848 +2 x5849 +2 x5850 -1 x5621 -1 x5622 -1 x5623 -1 x5624 -1 x5625 -1 x5626 -1 x5627 -1 x5628 -1 x5629 -1 x5630 >= 0 ;
+2 x5851 +2 x5852 +2 x5853 +2 x5854 +2 x5855 -1 x5626 -1 x5627 -1 x5628 -1 x5629 -1 x5630 -1 x5631 -1 x5632 -1 x5633 -1 x5634 -1 x5635 >= 0 ;
+2 x5856 +2 x5857 +2 x5858 +2 x5859 +2 x5860 -1 x5631 -1 x5632 -1 x5633 -1 x5634 -1 x5635 -1 x5636 -1 x5637 -1 x5638 -1 x5639 -1 x5640 >= 0 ;
+2 x5861 +2 x5862 +2 x5863 +2 x5864 +2 x5865 -1 x5636 -1 x5637 -1 x5638 -1 x5639 -1 x5640 -1 x5641 -1 x5642 -1 x5643 -1 x5644 -1 x5645 >= 0 ;
+2 x5866 +2 x5867 +2 x5868 +2 x5869 +2 x5870 -1 x5641 -1 x5642 -1 x5643 -1 x5644 -1 x5645 -1 x5646 -1 x5647 -1 x5648 -1 x5649 -1 x5650 >= 0 ;
+2 x5871 +2 x5872 +2 x5873 +2 x5874 +2 x5875 -1 x5646 -1 x5647 -1 x5648 -1 x5649 -1 x5650 -1 x5651 -1 x5652 -1 x5653 -1 x5654 -1 x5655 >= 0 ;
+2 x5876 +2 x5877 +2 x5878 +2 x5879 +2 x5880 -1 x5651 -1 x5652 -1 x5653 -1 x5654 -1 x5655 -1 x5656 -1 x5657 -1 x5658 -1 x5659 -1 x5660 >= 0 ;
+2 x5881 +2 x5882 +2 x5883 +2 x5884 +2 x5885 -1 x5656 -1 x5657 -1 x5658 -1 x5659 -1 x5660 -1 x5661 -1 x5662 -1 x5663 -1 x5664 -1 x5665 >= 0 ;
+2 x5886 +2 x5887 +2 x5888 +2 x5889 +2 x5890 -1 x5661 -1 x5662 -1 x5663 -1 x5664 -1 x5665 -1 x5666 -1 x5667 -1 x5668 -1 x5669 -1 x5670 >= 0 ;
+2 x5891 +2 x5892 +2 x5893 +2 x5894 +2 x5895 -1 x5666 -1 x5667 -1 x5668 -1 x5669 -1 x5670 -1 x5671 -1 x5672 -1 x5673 -1 x5674 -1 x5675 >= 0 ;
+2 x5896 +2 x5897 +2 x5898 +2 x5899 +2 x5900 -1 x5671 -1 x5672 -1 x5673 -1 x5674 -1 x5675 -1 x5676 -1 x5677 -1 x5678 -1 x5679 -1 x5680 >= 0 ;
+2 x5901 +2 x5902 +2 x5903 +2 x5904 +2 x5905 -1 x5676 -1 x5677 -1 x5678 -1 x5679 -1 x5680 -1 x5681 -1 x5682 -1 x5683 -1 x5684 -1 x5685 >= 0 ;
+2 x5906 +2 x5907 +2 x5908 +2 x5909 +2 x5910 -1 x5681 -1 x5682 -1 x5683 -1 x5684 -1 x5685 -1 x5686 -1 x5687 -1 x5688 -1 x5689 -1 x5690 >= 0 ;
+2 x5911 +2 x5912 +2 x5913 +2 x5914 +2 x5915 -1 x5686 -1 x5687 -1 x5688 -1 x5689 -1 x5690 -1 x5691 -1 x5692 -1 x5693 -1 x5694 -1 x5695 >= 0 ;
+2 x5916 +2 x5917 +2 x5918 +2 x5919 +2 x5920 -1 x5691 -1 x5692 -1 x5693 -1 x5694 -1 x5695 -1 x5696 -1 x5697 -1 x5698 -1 x5699 -1 x5700 >= 0 ;
+2 x5921 +2 x5922 +2 x5923 +2 x5924 +2 x5925 -1 x5696 -1 x5697 -1 x5698 -1 x5699 -1 x5700 -1 x5701 -1 x5702 -1 x5703 -1 x5704 -1 x5705 >= 0 ;
+2 x5926 +2 x5927 +2 x5928 +2 x5929 +2 x5930 -1 x5701 -1 x5702 -1 x5703 -1 x5704 -1 x5705 -1 x5706 -1 x5707 -1 x5708 -1 x5709 -1 x5710 >= 0 ;
+2 x5931 +2 x5932 +2 x5933 +2 x5934 +2 x5935 -1 x5706 -1 x5707 -1 x5708 -1 x5709 -1 x5710 -1 x5711 -1 x5712 -1 x5713 -1 x5714 -1 x5715 >= 0 ;
+2 x5936 +2 x5937 +2 x5938 +2 x5939 +2 x5940 -1 x5711 -1 x5712 -1 x5713 -1 x5714 -1 x5715 -1 x5716 -1 x5717 -1 x5718 -1 x5719 -1 x5720 >= 0 ;
+2 x5941 +2 x5942 +2 x5943 +2 x5944 +2 x5945 -1 x5716 -1 x5717 -1 x5718 -1 x5719 -1 x5720 -1 x5721 -1 x5722 -1 x5723 -1 x5724 -1 x5725 >= 0 ;
+2 x5946 +2 x5947 +2 x5948 +2 x5949 +2 x5950 -1 x5721 -1 x5722 -1 x5723 -1 x5724 -1 x5725 -1 x5726 -1 x5727 -1 x5728 -1 x5729 -1 x5730 >= 0 ;
+2 x5951 +2 x5952 +2 x5953 +2 x5954 +2 x5955 -1 x5726 -1 x5727 -1 x5728 -1 x5729 -1 x5730 -1 x5731 -1 x5732 -1 x5733 -1 x5734 -1 x5735 >= 0 ;
+2 x5956 +2 x5957 +2 x5958 +2 x5959 +2 x5960 -1 x5731 -1 x5732 -1 x5733 -1 x5734 -1 x5735 -1 x5736 -1 x5737 -1 x5738 -1 x5739 -1 x5740 >= 0 ;
+2 x5961 +2 x5962 +2 x5963 +2 x5964 +2 x5965 -1 x5736 -1 x5737 -1 x5738 -1 x5739 -1 x5740 -1 x5741 -1 x5742 -1 x5743 -1 x5744 -1 x5745 >= 0 ;
+2 x5966 +2 x5967 +2 x5968 +2 x5969 +2 x5970 -1 x5741 -1 x5742 -1 x5743 -1 x5744 -1 x5745 -1 x5746 -1 x5747 -1 x5748 -1 x5749 -1 x5750 >= 0 ;
+2 x5971 +2 x5972 +2 x5973 +2 x5974 +2 x5975 -1 x5746 -1 x5747 -1 x5748 -1 x5749 -1 x5750 -1 x5751 -1 x5752 -1 x5753 -1 x5754 -1 x5755 >= 0 ;
+2 x5976 +2 x5977 +2 x5978 +2 x5979 +2 x5980 -1 x5751 -1 x5752 -1 x5753 -1 x5754 -1 x5755 -1 x5756 -1 x5757 -1 x5758 -1 x5759 -1 x5760 >= 0 ;
+2 x5981 +2 x5982 +2 x5983 +2 x5984 +2 x5985 -1 x5756 -1 x5757 -1 x5758 -1 x5759 -1 x5760 -1 x5761 -1 x5762 -1 x5763 -1 x5764 -1 x5765 >= 0 ;
+2 x5986 +2 x5987 +2 x5988 +2 x5989 +2 x5990 -1 x5761 -1 x5762 -1 x5763 -1 x5764 -1 x5765 -1 x5766 -1 x5767 -1 x5768 -1 x5769 -1 x5770 >= 0 ;
+2 x5991 +2 x5992 +2 x5993 +2 x5994 +2 x5995 -1 x5766 -1 x5767 -1 x5768 -1 x5769 -1 x5770 -1 x5771 -1 x5772 -1 x5773 -1 x5774 -1 x5775 >= 0 ;
+2 x5996 +2 x5997 +2 x5998 +2 x5999 +2 x6000 -1 x5776 -1 x5777 -1 x5778 -1 x5779 -1 x5780 -1 x5781 -1 x5782 -1 x5783 -1 x5784 -1 x5785 >= 0 ;
+2 x6001 +2 x6002 +2 x6003 +2 x6004 +2 x6005 -1 x5781 -1 x5782 -1 x5783 -1 x5784 -1 x5785 -1 x5786 -1 x5787 -1 x5788 -1 x5789 -1 x5790 >= 0 ;
+2 x6006 +2 x6007 +2 x6008 +2 x6009 +2 x6010 -1 x5786 -1 x5787 -1 x5788 -1 x5789 -1 x5790 -1 x5791 -1 x5792 -1 x5793 -1 x5794 -1 x5795 >= 0 ;
+2 x6011 +2 x6012 +2 x6013 +2 x6014 +2 x6015 -1 x5791 -1 x5792 -1 x5793 -1 x5794 -1 x5795 -1 x5796 -1 x5797 -1 x5798 -1 x5799 -1 x5800 >= 0 ;
+2 x6016 +2 x6017 +2 x6018 +2 x6019 +2 x6020 -1 x5796 -1 x5797 -1 x5798 -1 x5799 -1 x5800 -1 x5801 -1 x5802 -1 x5803 -1 x5804 -1 x5805 >= 0 ;
+2 x6021 +2 x6022 +2 x6023 +2 x6024 +2 x6025 -1 x5801 -1 x5802 -1 x5803 -1 x5804 -1 x5805 -1 x5806 -1 x5807 -1 x5808 -1 x5809 -1 x5810 >= 0 ;
+2 x6026 +2 x6027 +2 x6028 +2 x6029 +2 x6030 -1 x5806 -1 x5807 -1 x5808 -1 x5809 -1 x5810 -1 x5811 -1 x5812 -1 x5813 -1 x5814 -1 x5815 >= 0 ;
+2 x6031 +2 x6032 +2 x6033 +2 x6034 +2 x6035 -1 x5811 -1 x5812 -1 x5813 -1 x5814 -1 x5815 -1 x5816 -1 x5817 -1 x5818 -1 x5819 -1 x5820 >= 0 ;
+2 x6036 +2 x6037 +2 x6038 +2 x6039 +2 x6040 -1 x5816 -1 x5817 -1 x5818 -1 x5819 -1 x5820 -1 x5821 -1 x5822 -1 x5823 -1 x5824 -1 x5825 >= 0 ;
+2 x6041 +2 x6042 +2 x6043 +2 x6044 +2 x6045 -1 x5821 -1 x5822 -1 x5823 -1 x5824 -1 x5825 -1 x5826 -1 x5827 -1 x5828 -1 x5829 -1 x5830 >= 0 ;
+2 x6046 +2 x6047 +2 x6048 +2 x6049 +2 x6050 -1 x5826 -1 x5827 -1 x5828 -1 x5829 -1 x5830 -1 x5831 -1 x5832 -1 x5833 -1 x5834 -1 x5835 >= 0 ;
+2 x6051 +2 x6052 +2 x6053 +2 x6054 +2 x6055 -1 x5831 -1 x5832 -1 x5833 -1 x5834 -1 x5835 -1 x5836 -1 x5837 -1 x5838 -1 x5839 -1 x5840 >= 0 ;
+2 x6056 +2 x6057 +2 x6058 +2 x6059 +2 x6060 -1 x5836 -1 x5837 -1 x5838 -1 x5839 -1 x5840 -1 x5841 -1 x5842 -1 x5843 -1 x5844 -1 x5845 >= 0 ;
+2 x6061 +2 x6062 +2 x6063 +2 x6064 +2 x6065 -1 x5841 -1 x5842 -1 x5843 -1 x5844 -1 x5845 -1 x5846 -1 x5847 -1 x5848 -1 x5849 -1 x5850 >= 0 ;
+2 x6066 +2 x6067 +2 x6068 +2 x6069 +2 x6070 -1 x5846 -1 x5847 -1 x5848 -1 x5849 -1 x5850 -1 x5851 -1 x5852 -1 x5853 -1 x5854 -1 x5855 >= 0 ;
+2 x6071 +2 x6072 +2 x6073 +2 x6074 +2 x6075 -1 x5851 -1 x5852 -1 x5853 -1 x5854 -1 x5855 -1 x5856 -1 x5857 -1 x5858 -1 x5859 -1 x5860 >= 0 ;
+2 x6076 +2 x6077 +2 x6078 +2 x6079 +2 x6080 -1 x5856 -1 x5857 -1 x5858 -1 x5859 -1 x5860 -1 x5861 -1 x5862 -1 x5863 -1 x5864 -1 x5865 >= 0 ;
+2 x6081 +2 x6082 +2 x6083 +2 x6084 +2 x6085 -1 x5861 -1 x5862 -1 x5863 -1 x5864 -1 x5865 -1 x5866 -1 x5867 -1 x5868 -1 x5869 -1 x5870 >= 0 ;
+2 x6086 +2 x6087 +2 x6088 +2 x6089 +2 x6090 -1 x5866 -1 x5867 -1 x5868 -1 x5869 -1 x5870 -1 x5871 -1 x5872 -1 x5873 -1 x5874 -1 x5875 >= 0 ;
+2 x6091 +2 x6092 +2 x6093 +2 x6094 +2 x6095 -1 x5871 -1 x5872 -1 x5873 -1 x5874 -1 x5875 -1 x5876 -1 x5877 -1 x5878 -1 x5879 -1 x5880 >= 0 ;
+2 x6096 +2 x6097 +2 x6098 +2 x6099 +2 x6100 -1 x5876 -1 x5877 -1 x5878 -1 x5879 -1 x5880 -1 x5881 -1 x5882 -1 x5883 -1 x5884 -1 x5885 >= 0 ;
+2 x6101 +2 x6102 +2 x6103 +2 x6104 +2 x6105 -1 x5881 -1 x5882 -1 x5883 -1 x5884 -1 x5885 -1 x5886 -1 x5887 -1 x5888 -1 x5889 -1 x5890 >= 0 ;
+2 x6106 +2 x6107 +2 x6108 +2 x6109 +2 x6110 -1 x5886 -1 x5887 -1 x5888 -1 x5889 -1 x5890 -1 x5891 -1 x5892 -1 x5893 -1 x5894 -1 x5895 >= 0 ;
+2 x6111 +2 x6112 +2 x6113 +2 x6114 +2 x6115 -1 x5891 -1 x5892 -1 x5893 -1 x5894 -1 x5895 -1 x5896 -1 x5897 -1 x5898 -1 x5899 -1 x5900 >= 0 ;
+2 x6116 +2 x6117 +2 x6118 +2 x6119 +2 x6120 -1 x5896 -1 x5897 -1 x5898 -1 x5899 -1 x5900 -1 x5901 -1 x5902 -1 x5903 -1 x5904 -1 x5905 >= 0 ;
+2 x6121 +2 x6122 +2 x6123 +2 x6124 +2 x6125 -1 x5901 -1 x5902 -1 x5903 -1 x5904 -1 x5905 -1 x5906 -1 x5907 -1 x5908 -1 x5909 -1 x5910 >= 0 ;
+2 x6126 +2 x6127 +2 x6128 +2 x6129 +2 x6130 -1 x5906 -1 x5907 -1 x5908 -1 x5909 -1 x5910 -1 x5911 -1 x5912 -1 x5913 -1 x5914 -1 x5915 >= 0 ;
+2 x6131 +2 x6132 +2 x6133 +2 x6134 +2 x6135 -1 x5911 -1 x5912 -1 x5913 -1 x5914 -1 x5915 -1 x5916 -1 x5917 -1 x5918 -1 x5919 -1 x5920 >= 0 ;
+2 x6136 +2 x6137 +2 x6138 +2 x6139 +2 x6140 -1 x5916 -1 x5917 -1 x5918 -1 x5919 -1 x5920 -1 x5921 -1 x5922 -1 x5923 -1 x5924 -1 x5925 >= 0 ;
+2 x6141 +2 x6142 +2 x6143 +2 x6144 +2 x6145 -1 x5921 -1 x5922 -1 x5923 -1 x5924 -1 x5925 -1 x5926 -1 x5927 -1 x5928 -1 x5929 -1 x5930 >= 0 ;
+2 x6146 +2 x6147 +2 x6148 +2 x6149 +2 x6150 -1 x5926 -1 x5927 -1 x5928 -1 x5929 -1 x5930 -1 x5931 -1 x5932 -1 x5933 -1 x5934 -1 x5935 >= 0 ;
+2 x6151 +2 x6152 +2 x6153 +2 x6154 +2 x6155 -1 x5931 -1 x5932 -1 x5933 -1 x5934 -1 x5935 -1 x5936 -1 x5937 -1 x5938 -1 x5939 -1 x5940 >= 0 ;
+2 x6156 +2 x6157 +2 x6158 +2 x6159 +2 x6160 -1 x5936 -1 x5937 -1 x5938 -1 x5939 -1 x5940 -1 x5941 -1 x5942 -1 x5943 -1 x5944 -1 x5945 >= 0 ;
+2 x6161 +2 x6162 +2 x6163 +2 x6164 +2 x6165 -1 x5941 -1 x5942 -1 x5943 -1 x5944 -1 x5945 -1 x5946 -1 x5947 -1 x5948 -1 x5949 -1 x5950 >= 0 ;
+2 x6166 +2 x6167 +2 x6168 +2 x6169 +2 x6170 -1 x5946 -1 x5947 -1 x5948 -1 x5949 -1 x5950 -1 x5951 -1 x5952 -1 x5953 -1 x5954 -1 x5955 >= 0 ;
+2 x6171 +2 x6172 +2 x6173 +2 x6174 +2 x6175 -1 x5951 -1 x5952 -1 x5953 -1 x5954 -1 x5955 -1 x5956 -1 x5957 -1 x5958 -1 x5959 -1 x5960 >= 0 ;
+2 x6176 +2 x6177 +2 x6178 +2 x6179 +2 x6180 -1 x5956 -1 x5957 -1 x5958 -1 x5959 -1 x5960 -1 x5961 -1 x5962 -1 x5963 -1 x5964 -1 x5965 >= 0 ;
+2 x6181 +2 x6182 +2 x6183 +2 x6184 +2 x6185 -1 x5961 -1 x5962 -1 x5963 -1 x5964 -1 x5965 -1 x5966 -1 x5967 -1 x5968 -1 x5969 -1 x5970 >= 0 ;
+2 x6186 +2 x6187 +2 x6188 +2 x6189 +2 x6190 -1 x5966 -1 x5967 -1 x5968 -1 x5969 -1 x5970 -1 x5971 -1 x5972 -1 x5973 -1 x5974 -1 x5975 >= 0 ;
+2 x6191 +2 x6192 +2 x6193 +2 x6194 +2 x6195 -1 x5971 -1 x5972 -1 x5973 -1 x5974 -1 x5975 -1 x5976 -1 x5977 -1 x5978 -1 x5979 -1 x5980 >= 0 ;
+2 x6196 +2 x6197 +2 x6198 +2 x6199 +2 x6200 -1 x5976 -1 x5977 -1 x5978 -1 x5979 -1 x5980 -1 x5981 -1 x5982 -1 x5983 -1 x5984 -1 x5985 >= 0 ;
+2 x6201 +2 x6202 +2 x6203 +2 x6204 +2 x6205 -1 x5981 -1 x5982 -1 x5983 -1 x5984 -1 x5985 -1 x5986 -1 x5987 -1 x5988 -1 x5989 -1 x5990 >= 0 ;
+2 x6206 +2 x6207 +2 x6208 +2 x6209 +2 x6210 -1 x5986 -1 x5987 -1 x5988 -1 x5989 -1 x5990 -1 x5991 -1 x5992 -1 x5993 -1 x5994 -1 x5995 >= 0 ;
+2 x6211 +2 x6212 +2 x6213 +2 x6214 +2 x6215 -1 x5996 -1 x5997 -1 x5998 -1 x5999 -1 x6000 -1 x6001 -1 x6002 -1 x6003 -1 x6004 -1 x6005 >= 0 ;
+2 x6216 +2 x6217 +2 x6218 +2 x6219 +2 x6220 -1 x6001 -1 x6002 -1 x6003 -1 x6004 -1 x6005 -1 x6006 -1 x6007 -1 x6008 -1 x6009 -1 x6010 >= 0 ;
+2 x6221 +2 x6222 +2 x6223 +2 x6224 +2 x6225 -1 x6006 -1 x6007 -1 x6008 -1 x6009 -1 x6010 -1 x6011 -1 x6012 -1 x6013 -1 x6014 -1 x6015 >= 0 ;
+2 x6226 +2 x6227 +2 x6228 +2 x6229 +2 x6230 -1 x6011 -1 x6012 -1 x6013 -1 x6014 -1 x6015 -1 x6016 -1 x6017 -1 x6018 -1 x6019 -1 x6020 >= 0 ;
+2 x6231 +2 x6232 +2 x6233 +2 x6234 +2 x6235 -1 x6016 -1 x6017 -1 x6018 -1 x6019 -1 x6020 -1 x6021 -1 x6022 -1 x6023 -1 x6024 -1 x6025 >= 0 ;
+2 x6236 +2 x6237 +2 x6238 +2 x6239 +2 x6240 -1 x6021 -1 x6022 -1 x6023 -1 x6024 -1 x6025 -1 x6026 -1 x6027 -1 x6028 -1 x6029 -1 x6030 >= 0 ;
+2 x6241 +2 x6242 +2 x6243 +2 x6244 +2 x6245 -1 x6026 -1 x6027 -1 x6028 -1 x6029 -1 x6030 -1 x6031 -1 x6032 -1 x6033 -1 x6034 -1 x6035 >= 0 ;
+2 x6246 +2 x6247 +2 x6248 +2 x6249 +2 x6250 -1 x6031 -1 x6032 -1 x6033 -1 x6034 -1 x6035 -1 x6036 -1 x6037 -1 x6038 -1 x6039 -1 x6040 >= 0 ;
+2 x6251 +2 x6252 +2 x6253 +2 x6254 +2 x6255 -1 x6036 -1 x6037 -1 x6038 -1 x6039 -1 x6040 -1 x6041 -1 x6042 -1 x6043 -1 x6044 -1 x6045 >= 0 ;
+2 x6256 +2 x6257 +2 x6258 +2 x6259 +2 x6260 -1 x6041 -1 x6042 -1 x6043 -1 x6044 -1 x6045 -1 x6046 -1 x6047 -1 x6048 -1 x6049 -1 x6050 >= 0 ;
+2 x6261 +2 x6262 +2 x6263 +2 x6264 +2 x6265 -1 x6046 -1 x6047 -1 x6048 -1 x6049 -1 x6050 -1 x6051 -1 x6052 -1 x6053 -1 x6054 -1 x6055 >= 0 ;
+2 x6266 +2 x6267 +2 x6268 +2 x6269 +2 x6270 -1 x6051 -1 x6052 -1 x6053 -1 x6054 -1 x6055 -1 x6056 -1 x6057 -1 x6058 -1 x6059 -1 x6060 >= 0 ;
+2 x6271 +2 x6272 +2 x6273 +2 x6274 +2 x6275 -1 x6056 -1 x6057 -1 x6058 -1 x6059 -1 x6060 -1 x6061 -1 x6062 -1 x6063 -1 x6064 -1 x6065 >= 0 ;
+2 x6276 +2 x6277 +2 x6278 +2 x6279 +2 x6280 -1 x6061 -1 x6062 -1 x6063 -1 x6064 -1 x6065 -1 x6066 -1 x6067 -1 x6068 -1 x6069 -1 x6070 >= 0 ;
+2 x6281 +2 x6282 +2 x6283 +2 x6284 +2 x6285 -1 x6066 -1 x6067 -1 x6068 -1 x6069 -1 x6070 -1 x6071 -1 x6072 -1 x6073 -1 x6074 -1 x6075 >= 0 ;
+2 x6286 +2 x6287 +2 x6288 +2 x6289 +2 x6290 -1 x6071 -1 x6072 -1 x6073 -1 x6074 -1 x6075 -1 x6076 -1 x6077 -1 x6078 -1 x6079 -1 x6080 >= 0 ;
+2 x6291 +2 x6292 +2 x6293 +2 x6294 +2 x6295 -1 x6076 -1 x6077 -1 x6078 -1 x6079 -1 x6080 -1 x6081 -1 x6082 -1 x6083 -1 x6084 -1 x6085 >= 0 ;
+2 x6296 +2 x6297 +2 x6298 +2 x6299 +2 x6300 -1 x6081 -1 x6082 -1 x6083 -1 x6084 -1 x6085 -1 x6086 -1 x6087 -1 x6088 -1 x6089 -1 x6090 >= 0 ;
+2 x6301 +2 x6302 +2 x6303 +2 x6304 +2 x6305 -1 x6086 -1 x6087 -1 x6088 -1 x6089 -1 x6090 -1 x6091 -1 x6092 -1 x6093 -1 x6094 -1 x6095 >= 0 ;
+2 x6306 +2 x6307 +2 x6308 +2 x6309 +2 x6310 -1 x6091 -1 x6092 -1 x6093 -1 x6094 -1 x6095 -1 x6096 -1 x6097 -1 x6098 -1 x6099 -1 x6100 >= 0 ;
+2 x6311 +2 x6312 +2 x6313 +2 x6314 +2 x6315 -1 x6096 -1 x6097 -1 x6098 -1 x6099 -1 x6100 -1 x6101 -1 x6102 -1 x6103 -1 x6104 -1 x6105 >= 0 ;
+2 x6316 +2 x6317 +2 x6318 +2 x6319 +2 x6320 -1 x6101 -1 x6102 -1 x6103 -1 x6104 -1 x6105 -1 x6106 -1 x6107 -1 x6108 -1 x6109 -1 x6110 >= 0 ;
+2 x6321 +2 x6322 +2 x6323 +2 x6324 +2 x6325 -1 x6106 -1 x6107 -1 x6108 -1 x6109 -1 x6110 -1 x6111 -1 x6112 -1 x6113 -1 x6114 -1 x6115 >= 0 ;
+2 x6326 +2 x6327 +2 x6328 +2 x6329 +2 x6330 -1 x6111 -1 x6112 -1 x6113 -1 x6114 -1 x6115 -1 x6116 -1 x6117 -1 x6118 -1 x6119 -1 x6120 >= 0 ;
+2 x6331 +2 x6332 +2 x6333 +2 x6334 +2 x6335 -1 x6116 -1 x6117 -1 x6118 -1 x6119 -1 x6120 -1 x6121 -1 x6122 -1 x6123 -1 x6124 -1 x6125 >= 0 ;
+2 x6336 +2 x6337 +2 x6338 +2 x6339 +2 x6340 -1 x6121 -1 x6122 -1 x6123 -1 x6124 -1 x6125 -1 x6126 -1 x6127 -1 x6128 -1 x6129 -1 x6130 >= 0 ;
+2 x6341 +2 x6342 +2 x6343 +2 x6344 +2 x6345 -1 x6126 -1 x6127 -1 x6128 -1 x6129 -1 x6130 -1 x6131 -1 x6132 -1 x6133 -1 x6134 -1 x6135 >= 0 ;
+2 x6346 +2 x6347 +2 x6348 +2 x6349 +2 x6350 -1 x6131 -1 x6132 -1 x6133 -1 x6134 -1 x6135 -1 x6136 -1 x6137 -1 x6138 -1 x6139 -1 x6140 >= 0 ;
+2 x6351 +2 x6352 +2 x6353 +2 x6354 +2 x6355 -1 x6136 -1 x6137 -1 x6138 -1 x6139 -1 x6140 -1 x6141 -1 x6142 -1 x6143 -1 x6144 -1 x6145 >= 0 ;
+2 x6356 +2 x6357 +2 x6358 +2 x6359 +2 x6360 -1 x6141 -1 x6142 -1 x6143 -1 x6144 -1 x6145 -1 x6146 -1 x6147 -1 x6148 -1 x6149 -1 x6150 >= 0 ;
+2 x6361 +2 x6362 +2 x6363 +2 x6364 +2 x6365 -1 x6146 -1 x6147 -1 x6148 -1 x6149 -1 x6150 -1 x6151 -1 x6152 -1 x6153 -1 x6154 -1 x6155 >= 0 ;
+2 x6366 +2 x6367 +2 x6368 +2 x6369 +2 x6370 -1 x6151 -1 x6152 -1 x6153 -1 x6154 -1 x6155 -1 x6156 -1 x6157 -1 x6158 -1 x6159 -1 x6160 >= 0 ;
+2 x6371 +2 x6372 +2 x6373 +2 x6374 +2 x6375 -1 x6156 -1 x6157 -1 x6158 -1 x6159 -1 x6160 -1 x6161 -1 x6162 -1 x6163 -1 x6164 -1 x6165 >= 0 ;
+2 x6376 +2 x6377 +2 x6378 +2 x6379 +2 x6380 -1 x6161 -1 x6162 -1 x6163 -1 x6164 -1 x6165 -1 x6166 -1 x6167 -1 x6168 -1 x6169 -1 x6170 >= 0 ;
+2 x6381 +2 x6382 +2 x6383 +2 x6384 +2 x6385 -1 x6166 -1 x6167 -1 x6168 -1 x6169 -1 x6170 -1 x6171 -1 x6172 -1 x6173 -1 x6174 -1 x6175 >= 0 ;
+2 x6386 +2 x6387 +2 x6388 +2 x6389 +2 x6390 -1 x6171 -1 x6172 -1 x6173 -1 x6174 -1 x6175 -1 x6176 -1 x6177 -1 x6178 -1 x6179 -1 x6180 >= 0 ;
+2 x6391 +2 x6392 +2 x6393 +2 x6394 +2 x6395 -1 x6176 -1 x6177 -1 x6178 -1 x6179 -1 x6180 -1 x6181 -1 x6182 -1 x6183 -1 x6184 -1 x6185 >= 0 ;
+2 x6396 +2 x6397 +2 x6398 +2 x6399 +2 x6400 -1 x6181 -1 x6182 -1 x6183 -1 x6184 -1 x6185 -1 x6186 -1 x6187 -1 x6188 -1 x6189 -1 x6190 >= 0 ;
+2 x6401 +2 x6402 +2 x6403 +2 x6404 +2 x6405 -1 x6186 -1 x6187 -1 x6188 -1 x6189 -1 x6190 -1 x6191 -1 x6192 -1 x6193 -1 x6194 -1 x6195 >= 0 ;
+2 x6406 +2 x6407 +2 x6408 +2 x6409 +2 x6410 -1 x6191 -1 x6192 -1 x6193 -1 x6194 -1 x6195 -1 x6196 -1 x6197 -1 x6198 -1 x6199 -1 x6200 >= 0 ;
+2 x6411 +2 x6412 +2 x6413 +2 x6414 +2 x6415 -1 x6196 -1 x6197 -1 x6198 -1 x6199 -1 x6200 -1 x6201 -1 x6202 -1 x6203 -1 x6204 -1 x6205 >= 0 ;
+2 x6416 +2 x6417 +2 x6418 +2 x6419 +2 x6420 -1 x6201 -1 x6202 -1 x6203 -1 x6204 -1 x6205 -1 x6206 -1 x6207 -1 x6208 -1 x6209 -1 x6210 >= 0 ;
+2 x6421 +2 x6422 +2 x6423 +2 x6424 +2 x6425 -1 x6211 -1 x6212 -1 x6213 -1 x6214 -1 x6215 -1 x6216 -1 x6217 -1 x6218 -1 x6219 -1 x6220 >= 0 ;
+2 x6426 +2 x6427 +2 x6428 +2 x6429 +2 x6430 -1 x6216 -1 x6217 -1 x6218 -1 x6219 -1 x6220 -1 x6221 -1 x6222 -1 x6223 -1 x6224 -1 x6225 >= 0 ;
+2 x6431 +2 x6432 +2 x6433 +2 x6434 +2 x6435 -1 x6221 -1 x6222 -1 x6223 -1 x6224 -1 x6225 -1 x6226 -1 x6227 -1 x6228 -1 x6229 -1 x6230 >= 0 ;
+2 x6436 +2 x6437 +2 x6438 +2 x6439 +2 x6440 -1 x6226 -1 x6227 -1 x6228 -1 x6229 -1 x6230 -1 x6231 -1 x6232 -1 x6233 -1 x6234 -1 x6235 >= 0 ;
+2 x6441 +2 x6442 +2 x6443 +2 x6444 +2 x6445 -1 x6231 -1 x6232 -1 x6233 -1 x6234 -1 x6235 -1 x6236 -1 x6237 -1 x6238 -1 x6239 -1 x6240 >= 0 ;
+2 x6446 +2 x6447 +2 x6448 +2 x6449 +2 x6450 -1 x6236 -1 x6237 -1 x6238 -1 x6239 -1 x6240 -1 x6241 -1 x6242 -1 x6243 -1 x6244 -1 x6245 >= 0 ;
+2 x6451 +2 x6452 +2 x6453 +2 x6454 +2 x6455 -1 x6241 -1 x6242 -1 x6243 -1 x6244 -1 x6245 -1 x6246 -1 x6247 -1 x6248 -1 x6249 -1 x6250 >= 0 ;
+2 x6456 +2 x6457 +2 x6458 +2 x6459 +2 x6460 -1 x6246 -1 x6247 -1 x6248 -1 x6249 -1 x6250 -1 x6251 -1 x6252 -1 x6253 -1 x6254 -1 x6255 >= 0 ;
+2 x6461 +2 x6462 +2 x6463 +2 x6464 +2 x6465 -1 x6251 -1 x6252 -1 x6253 -1 x6254 -1 x6255 -1 x6256 -1 x6257 -1 x6258 -1 x6259 -1 x6260 >= 0 ;
+2 x6466 +2 x6467 +2 x6468 +2 x6469 +2 x6470 -1 x6256 -1 x6257 -1 x6258 -1 x6259 -1 x6260 -1 x6261 -1 x6262 -1 x6263 -1 x6264 -1 x6265 >= 0 ;
+2 x6471 +2 x6472 +2 x6473 +2 x6474 +2 x6475 -1 x6261 -1 x6262 -1 x6263 -1 x6264 -1 x6265 -1 x6266 -1 x6267 -1 x6268 -1 x6269 -1 x6270 >= 0 ;
+2 x6476 +2 x6477 +2 x6478 +2 x6479 +2 x6480 -1 x6266 -1 x6267 -1 x6268 -1 x6269 -1 x6270 -1 x6271 -1 x6272 -1 x6273 -1 x6274 -1 x6275 >= 0 ;
+2 x6481 +2 x6482 +2 x6483 +2 x6484 +2 x6485 -1 x6271 -1 x6272 -1 x6273 -1 x6274 -1 x6275 -1 x6276 -1 x6277 -1 x6278 -1 x6279 -1 x6280 >= 0 ;
+2 x6486 +2 x6487 +2 x6488 +2 x6489 +2 x6490 -1 x6276 -1 x6277 -1 x6278 -1 x6279 -1 x6280 -1 x6281 -1 x6282 -1 x6283 -1 x6284 -1 x6285 >= 0 ;
+2 x6491 +2 x6492 +2 x6493 +2 x6494 +2 x6495 -1 x6281 -1 x6282 -1 x6283 -1 x6284 -1 x6285 -1 x6286 -1 x6287 -1 x6288 -1 x6289 -1 x6290 >= 0 ;
+2 x6496 +2 x6497 +2 x6498 +2 x6499 +2 x6500 -1 x6286 -1 x6287 -1 x6288 -1 x6289 -1 x6290 -1 x6291 -1 x6292 -1 x6293 -1 x6294 -1 x6295 >= 0 ;
+2 x6501 +2 x6502 +2 x6503 +2 x6504 +2 x6505 -1 x6291 -1 x6292 -1 x6293 -1 x6294 -1 x6295 -1 x6296 -1 x6297 -1 x6298 -1 x6299 -1 x6300 >= 0 ;
+2 x6506 +2 x6507 +2 x6508 +2 x6509 +2 x6510 -1 x6296 -1 x6297 -1 x6298 -1 x6299 -1 x6300 -1 x6301 -1 x6302 -1 x6303 -1 x6304 -1 x6305 >= 0 ;
+2 x6511 +2 x6512 +2 x6513 +2 x6514 +2 x6515 -1 x6301 -1 x6302 -1 x6303 -1 x6304 -1 x6305 -1 x6306 -1 x6307 -1 x6308 -1 x6309 -1 x6310 >= 0 ;
+2 x6516 +2 x6517 +2 x6518 +2 x6519 +2 x6520 -1 x6306 -1 x6307 -1 x6308 -1 x6309 -1 x6310 -1 x6311 -1 x6312 -1 x6313 -1 x6314 -1 x6315 >= 0 ;
+2 x6521 +2 x6522 +2 x6523 +2 x6524 +2 x6525 -1 x6311 -1 x6312 -1 x6313 -1 x6314 -1 x6315 -1 x6316 -1 x6317 -1 x6318 -1 x6319 -1 x6320 >= 0 ;
+2 x6526 +2 x6527 +2 x6528 +2 x6529 +2 x6530 -1 x6316 -1 x6317 -1 x6318 -1 x6319 -1 x6320 -1 x6321 -1 x6322 -1 x6323 -1 x6324 -1 x6325 >= 0 ;
+2 x6531 +2 x6532 +2 x6533 +2 x6534 +2 x6535 -1 x6321 -1 x6322 -1 x6323 -1 x6324 -1 x6325 -1 x6326 -1 x6327 -1 x6328 -1 x6329 -1 x6330 >= 0 ;
+2 x6536 +2 x6537 +2 x6538 +2 x6539 +2 x6540 -1 x6326 -1 x6327 -1 x6328 -1 x6329 -1 x6330 -1 x6331 -1 x6332 -1 x6333 -1 x6334 -1 x6335 >= 0 ;
+2 x6541 +2 x6542 +2 x6543 +2 x6544 +2 x6545 -1 x6331 -1 x6332 -1 x6333 -1 x6334 -1 x6335 -1 x6336 -1 x6337 -1 x6338 -1 x6339 -1 x6340 >= 0 ;
+2 x6546 +2 x6547 +2 x6548 +2 x6549 +2 x6550 -1 x6336 -1 x6337 -1 x6338 -1 x6339 -1 x6340 -1 x6341 -1 x6342 -1 x6343 -1 x6344 -1 x6345 >= 0 ;
+2 x6551 +2 x6552 +2 x6553 +2 x6554 +2 x6555 -1 x6341 -1 x6342 -1 x6343 -1 x6344 -1 x6345 -1 x6346 -1 x6347 -1 x6348 -1 x6349 -1 x6350 >= 0 ;
+2 x6556 +2 x6557 +2 x6558 +2 x6559 +2 x6560 -1 x6346 -1 x6347 -1 x6348 -1 x6349 -1 x6350 -1 x6351 -1 x6352 -1 x6353 -1 x6354 -1 x6355 >= 0 ;
+2 x6561 +2 x6562 +2 x6563 +2 x6564 +2 x6565 -1 x6351 -1 x6352 -1 x6353 -1 x6354 -1 x6355 -1 x6356 -1 x6357 -1 x6358 -1 x6359 -1 x6360 >= 0 ;
+2 x6566 +2 x6567 +2 x6568 +2 x6569 +2 x6570 -1 x6356 -1 x6357 -1 x6358 -1 x6359 -1 x6360 -1 x6361 -1 x6362 -1 x6363 -1 x6364 -1 x6365 >= 0 ;
+2 x6571 +2 x6572 +2 x6573 +2 x6574 +2 x6575 -1 x6361 -1 x6362 -1 x6363 -1 x6364 -1 x6365 -1 x6366 -1 x6367 -1 x6368 -1 x6369 -1 x6370 >= 0 ;
+2 x6576 +2 x6577 +2 x6578 +2 x6579 +2 x6580 -1 x6366 -1 x6367 -1 x6368 -1 x6369 -1 x6370 -1 x6371 -1 x6372 -1 x6373 -1 x6374 -1 x6375 >= 0 ;
+2 x6581 +2 x6582 +2 x6583 +2 x6584 +2 x6585 -1 x6371 -1 x6372 -1 x6373 -1 x6374 -1 x6375 -1 x6376 -1 x6377 -1 x6378 -1 x6379 -1 x6380 >= 0 ;
+2 x6586 +2 x6587 +2 x6588 +2 x6589 +2 x6590 -1 x6376 -1 x6377 -1 x6378 -1 x6379 -1 x6380 -1 x6381 -1 x6382 -1 x6383 -1 x6384 -1 x6385 >= 0 ;
+2 x6591 +2 x6592 +2 x6593 +2 x6594 +2 x6595 -1 x6381 -1 x6382 -1 x6383 -1 x6384 -1 x6385 -1 x6386 -1 x6387 -1 x6388 -1 x6389 -1 x6390 >= 0 ;
+2 x6596 +2 x6597 +2 x6598 +2 x6599 +2 x6600 -1 x6386 -1 x6387 -1 x6388 -1 x6389 -1 x6390 -1 x6391 -1 x6392 -1 x6393 -1 x6394 -1 x6395 >= 0 ;
+2 x6601 +2 x6602 +2 x6603 +2 x6604 +2 x6605 -1 x6391 -1 x6392 -1 x6393 -1 x6394 -1 x6395 -1 x6396 -1 x6397 -1 x6398 -1 x6399 -1 x6400 >= 0 ;
+2 x6606 +2 x6607 +2 x6608 +2 x6609 +2 x6610 -1 x6396 -1 x6397 -1 x6398 -1 x6399 -1 x6400 -1 x6401 -1 x6402 -1 x6403 -1 x6404 -1 x6405 >= 0 ;
+2 x6611 +2 x6612 +2 x6613 +2 x6614 +2 x6615 -1 x6401 -1 x6402 -1 x6403 -1 x6404 -1 x6405 -1 x6406 -1 x6407 -1 x6408 -1 x6409 -1 x6410 >= 0 ;
+2 x6616 +2 x6617 +2 x6618 +2 x6619 +2 x6620 -1 x6406 -1 x6407 -1 x6408 -1 x6409 -1 x6410 -1 x6411 -1 x6412 -1 x6413 -1 x6414 -1 x6415 >= 0 ;
+2 x6621 +2 x6622 +2 x6623 +2 x6624 +2 x6625 -1 x6411 -1 x6412 -1 x6413 -1 x6414 -1 x6415 -1 x6416 -1 x6417 -1 x6418 -1 x6419 -1 x6420 >= 0 ;
+2 x6626 +2 x6627 +2 x6628 +2 x6629 +2 x6630 -1 x6421 -1 x6422 -1 x6423 -1 x6424 -1 x6425 -1 x6426 -1 x6427 -1 x6428 -1 x6429 -1 x6430 >= 0 ;
+2 x6631 +2 x6632 +2 x6633 +2 x6634 +2 x6635 -1 x6426 -1 x6427 -1 x6428 -1 x6429 -1 x6430 -1 x6431 -1 x6432 -1 x6433 -1 x6434 -1 x6435 >= 0 ;
+2 x6636 +2 x6637 +2 x6638 +2 x6639 +2 x6640 -1 x6431 -1 x6432 -1 x6433 -1 x6434 -1 x6435 -1 x6436 -1 x6437 -1 x6438 -1 x6439 -1 x6440 >= 0 ;
+2 x6641 +2 x6642 +2 x6643 +2 x6644 +2 x6645 -1 x6436 -1 x6437 -1 x6438 -1 x6439 -1 x6440 -1 x6441 -1 x6442 -1 x6443 -1 x6444 -1 x6445 >= 0 ;
+2 x6646 +2 x6647 +2 x6648 +2 x6649 +2 x6650 -1 x6441 -1 x6442 -1 x6443 -1 x6444 -1 x6445 -1 x6446 -1 x6447 -1 x6448 -1 x6449 -1 x6450 >= 0 ;
+2 x6651 +2 x6652 +2 x6653 +2 x6654 +2 x6655 -1 x6446 -1 x6447 -1 x6448 -1 x6449 -1 x6450 -1 x6451 -1 x6452 -1 x6453 -1 x6454 -1 x6455 >= 0 ;
+2 x6656 +2 x6657 +2 x6658 +2 x6659 +2 x6660 -1 x6451 -1 x6452 -1 x6453 -1 x6454 -1 x6455 -1 x6456 -1 x6457 -1 x6458 -1 x6459 -1 x6460 >= 0 ;
+2 x6661 +2 x6662 +2 x6663 +2 x6664 +2 x6665 -1 x6456 -1 x6457 -1 x6458 -1 x6459 -1 x6460 -1 x6461 -1 x6462 -1 x6463 -1 x6464 -1 x6465 >= 0 ;
+2 x6666 +2 x6667 +2 x6668 +2 x6669 +2 x6670 -1 x6461 -1 x6462 -1 x6463 -1 x6464 -1 x6465 -1 x6466 -1 x6467 -1 x6468 -1 x6469 -1 x6470 >= 0 ;
+2 x6671 +2 x6672 +2 x6673 +2 x6674 +2 x6675 -1 x6466 -1 x6467 -1 x6468 -1 x6469 -1 x6470 -1 x6471 -1 x6472 -1 x6473 -1 x6474 -1 x6475 >= 0 ;
+2 x6676 +2 x6677 +2 x6678 +2 x6679 +2 x6680 -1 x6471 -1 x6472 -1 x6473 -1 x6474 -1 x6475 -1 x6476 -1 x6477 -1 x6478 -1 x6479 -1 x6480 >= 0 ;
+2 x6681 +2 x6682 +2 x6683 +2 x6684 +2 x6685 -1 x6476 -1 x6477 -1 x6478 -1 x6479 -1 x6480 -1 x6481 -1 x6482 -1 x6483 -1 x6484 -1 x6485 >= 0 ;
+2 x6686 +2 x6687 +2 x6688 +2 x6689 +2 x6690 -1 x6481 -1 x6482 -1 x6483 -1 x6484 -1 x6485 -1 x6486 -1 x6487 -1 x6488 -1 x6489 -1 x6490 >= 0 ;
+2 x6691 +2 x6692 +2 x6693 +2 x6694 +2 x6695 -1 x6486 -1 x6487 -1 x6488 -1 x6489 -1 x6490 -1 x6491 -1 x6492 -1 x6493 -1 x6494 -1 x6495 >= 0 ;
+2 x6696 +2 x6697 +2 x6698 +2 x6699 +2 x6700 -1 x6491 -1 x6492 -1 x6493 -1 x6494 -1 x6495 -1 x6496 -1 x6497 -1 x6498 -1 x6499 -1 x6500 >= 0 ;
+2 x6701 +2 x6702 +2 x6703 +2 x6704 +2 x6705 -1 x6496 -1 x6497 -1 x6498 -1 x6499 -1 x6500 -1 x6501 -1 x6502 -1 x6503 -1 x6504 -1 x6505 >= 0 ;
+2 x6706 +2 x6707 +2 x6708 +2 x6709 +2 x6710 -1 x6501 -1 x6502 -1 x6503 -1 x6504 -1 x6505 -1 x6506 -1 x6507 -1 x6508 -1 x6509 -1 x6510 >= 0 ;
+2 x6711 +2 x6712 +2 x6713 +2 x6714 +2 x6715 -1 x6506 -1 x6507 -1 x6508 -1 x6509 -1 x6510 -1 x6511 -1 x6512 -1 x6513 -1 x6514 -1 x6515 >= 0 ;
+2 x6716 +2 x6717 +2 x6718 +2 x6719 +2 x6720 -1 x6511 -1 x6512 -1 x6513 -1 x6514 -1 x6515 -1 x6516 -1 x6517 -1 x6518 -1 x6519 -1 x6520 >= 0 ;
+2 x6721 +2 x6722 +2 x6723 +2 x6724 +2 x6725 -1 x6516 -1 x6517 -1 x6518 -1 x6519 -1 x6520 -1 x6521 -1 x6522 -1 x6523 -1 x6524 -1 x6525 >= 0 ;
+2 x6726 +2 x6727 +2 x6728 +2 x6729 +2 x6730 -1 x6521 -1 x6522 -1 x6523 -1 x6524 -1 x6525 -1 x6526 -1 x6527 -1 x6528 -1 x6529 -1 x6530 >= 0 ;
+2 x6731 +2 x6732 +2 x6733 +2 x6734 +2 x6735 -1 x6526 -1 x6527 -1 x6528 -1 x6529 -1 x6530 -1 x6531 -1 x6532 -1 x6533 -1 x6534 -1 x6535 >= 0 ;
+2 x6736 +2 x6737 +2 x6738 +2 x6739 +2 x6740 -1 x6531 -1 x6532 -1 x6533 -1 x6534 -1 x6535 -1 x6536 -1 x6537 -1 x6538 -1 x6539 -1 x6540 >= 0 ;
+2 x6741 +2 x6742 +2 x6743 +2 x6744 +2 x6745 -1 x6536 -1 x6537 -1 x6538 -1 x6539 -1 x6540 -1 x6541 -1 x6542 -1 x6543 -1 x6544 -1 x6545 >= 0 ;
+2 x6746 +2 x6747 +2 x6748 +2 x6749 +2 x6750 -1 x6541 -1 x6542 -1 x6543 -1 x6544 -1 x6545 -1 x6546 -1 x6547 -1 x6548 -1 x6549 -1 x6550 >= 0 ;
+2 x6751 +2 x6752 +2 x6753 +2 x6754 +2 x6755 -1 x6546 -1 x6547 -1 x6548 -1 x6549 -1 x6550 -1 x6551 -1 x6552 -1 x6553 -1 x6554 -1 x6555 >= 0 ;
+2 x6756 +2 x6757 +2 x6758 +2 x6759 +2 x6760 -1 x6551 -1 x6552 -1 x6553 -1 x6554 -1 x6555 -1 x6556 -1 x6557 -1 x6558 -1 x6559 -1 x6560 >= 0 ;
+2 x6761 +2 x6762 +2 x6763 +2 x6764 +2 x6765 -1 x6556 -1 x6557 -1 x6558 -1 x6559 -1 x6560 -1 x6561 -1 x6562 -1 x6563 -1 x6564 -1 x6565 >= 0 ;
+2 x6766 +2 x6767 +2 x6768 +2 x6769 +2 x6770 -1 x6561 -1 x6562 -1 x6563 -1 x6564 -1 x6565 -1 x6566 -1 x6567 -1 x6568 -1 x6569 -1 x6570 >= 0 ;
+2 x6771 +2 x6772 +2 x6773 +2 x6774 +2 x6775 -1 x6566 -1 x6567 -1 x6568 -1 x6569 -1 x6570 -1 x6571 -1 x6572 -1 x6573 -1 x6574 -1 x6575 >= 0 ;
+2 x6776 +2 x6777 +2 x6778 +2 x6779 +2 x6780 -1 x6571 -1 x6572 -1 x6573 -1 x6574 -1 x6575 -1 x6576 -1 x6577 -1 x6578 -1 x6579 -1 x6580 >= 0 ;
+2 x6781 +2 x6782 +2 x6783 +2 x6784 +2 x6785 -1 x6576 -1 x6577 -1 x6578 -1 x6579 -1 x6580 -1 x6581 -1 x6582 -1 x6583 -1 x6584 -1 x6585 >= 0 ;
+2 x6786 +2 x6787 +2 x6788 +2 x6789 +2 x6790 -1 x6581 -1 x6582 -1 x6583 -1 x6584 -1 x6585 -1 x6586 -1 x6587 -1 x6588 -1 x6589 -1 x6590 >= 0 ;
+2 x6791 +2 x6792 +2 x6793 +2 x6794 +2 x6795 -1 x6586 -1 x6587 -1 x6588 -1 x6589 -1 x6590 -1 x6591 -1 x6592 -1 x6593 -1 x6594 -1 x6595 >= 0 ;
+2 x6796 +2 x6797 +2 x6798 +2 x6799 +2 x6800 -1 x6591 -1 x6592 -1 x6593 -1 x6594 -1 x6595 -1 x6596 -1 x6597 -1 x6598 -1 x6599 -1 x6600 >= 0 ;
+2 x6801 +2 x6802 +2 x6803 +2 x6804 +2 x6805 -1 x6596 -1 x6597 -1 x6598 -1 x6599 -1 x6600 -1 x6601 -1 x6602 -1 x6603 -1 x6604 -1 x6605 >= 0 ;
+2 x6806 +2 x6807 +2 x6808 +2 x6809 +2 x6810 -1 x6601 -1 x6602 -1 x6603 -1 x6604 -1 x6605 -1 x6606 -1 x6607 -1 x6608 -1 x6609 -1 x6610 >= 0 ;
+2 x6811 +2 x6812 +2 x6813 +2 x6814 +2 x6815 -1 x6606 -1 x6607 -1 x6608 -1 x6609 -1 x6610 -1 x6611 -1 x6612 -1 x6613 -1 x6614 -1 x6615 >= 0 ;
+2 x6816 +2 x6817 +2 x6818 +2 x6819 +2 x6820 -1 x6611 -1 x6612 -1 x6613 -1 x6614 -1 x6615 -1 x6616 -1 x6617 -1 x6618 -1 x6619 -1 x6620 >= 0 ;
+2 x6821 +2 x6822 +2 x6823 +2 x6824 +2 x6825 -1 x6616 -1 x6617 -1 x6618 -1 x6619 -1 x6620 -1 x6621 -1 x6622 -1 x6623 -1 x6624 -1 x6625 >= 0 ;
+2 x6826 +2 x6827 +2 x6828 +2 x6829 +2 x6830 -1 x6626 -1 x6627 -1 x6628 -1 x6629 -1 x6630 -1 x6631 -1 x6632 -1 x6633 -1 x6634 -1 x6635 >= 0 ;
+2 x6831 +2 x6832 +2 x6833 +2 x6834 +2 x6835 -1 x6631 -1 x6632 -1 x6633 -1 x6634 -1 x6635 -1 x6636 -1 x6637 -1 x6638 -1 x6639 -1 x6640 >= 0 ;
+2 x6836 +2 x6837 +2 x6838 +2 x6839 +2 x6840 -1 x6636 -1 x6637 -1 x6638 -1 x6639 -1 x6640 -1 x6641 -1 x6642 -1 x6643 -1 x6644 -1 x6645 >= 0 ;
+2 x6841 +2 x6842 +2 x6843 +2 x6844 +2 x6845 -1 x6641 -1 x6642 -1 x6643 -1 x6644 -1 x6645 -1 x6646 -1 x6647 -1 x6648 -1 x6649 -1 x6650 >= 0 ;
+2 x6846 +2 x6847 +2 x6848 +2 x6849 +2 x6850 -1 x6646 -1 x6647 -1 x6648 -1 x6649 -1 x6650 -1 x6651 -1 x6652 -1 x6653 -1 x6654 -1 x6655 >= 0 ;
+2 x6851 +2 x6852 +2 x6853 +2 x6854 +2 x6855 -1 x6651 -1 x6652 -1 x6653 -1 x6654 -1 x6655 -1 x6656 -1 x6657 -1 x6658 -1 x6659 -1 x6660 >= 0 ;
+2 x6856 +2 x6857 +2 x6858 +2 x6859 +2 x6860 -1 x6656 -1 x6657 -1 x6658 -1 x6659 -1 x6660 -1 x6661 -1 x6662 -1 x6663 -1 x6664 -1 x6665 >= 0 ;
+2 x6861 +2 x6862 +2 x6863 +2 x6864 +2 x6865 -1 x6661 -1 x6662 -1 x6663 -1 x6664 -1 x6665 -1 x6666 -1 x6667 -1 x6668 -1 x6669 -1 x6670 >= 0 ;
+2 x6866 +2 x6867 +2 x6868 +2 x6869 +2 x6870 -1 x6666 -1 x6667 -1 x6668 -1 x6669 -1 x6670 -1 x6671 -1 x6672 -1 x6673 -1 x6674 -1 x6675 >= 0 ;
+2 x6871 +2 x6872 +2 x6873 +2 x6874 +2 x6875 -1 x6671 -1 x6672 -1 x6673 -1 x6674 -1 x6675 -1 x6676 -1 x6677 -1 x6678 -1 x6679 -1 x6680 >= 0 ;
+2 x6876 +2 x6877 +2 x6878 +2 x6879 +2 x6880 -1 x6676 -1 x6677 -1 x6678 -1 x6679 -1 x6680 -1 x6681 -1 x6682 -1 x6683 -1 x6684 -1 x6685 >= 0 ;
+2 x6881 +2 x6882 +2 x6883 +2 x6884 +2 x6885 -1 x6681 -1 x6682 -1 x6683 -1 x6684 -1 x6685 -1 x6686 -1 x6687 -1 x6688 -1 x6689 -1 x6690 >= 0 ;
+2 x6886 +2 x6887 +2 x6888 +2 x6889 +2 x6890 -1 x6686 -1 x6687 -1 x6688 -1 x6689 -1 x6690 -1 x6691 -1 x6692 -1 x6693 -1 x6694 -1 x6695 >= 0 ;
+2 x6891 +2 x6892 +2 x6893 +2 x6894 +2 x6895 -1 x6691 -1 x6692 -1 x6693 -1 x6694 -1 x6695 -1 x6696 -1 x6697 -1 x6698 -1 x6699 -1 x6700 >= 0 ;
+2 x6896 +2 x6897 +2 x6898 +2 x6899 +2 x6900 -1 x6696 -1 x6697 -1 x6698 -1 x6699 -1 x6700 -1 x6701 -1 x6702 -1 x6703 -1 x6704 -1 x6705 >= 0 ;
+2 x6901 +2 x6902 +2 x6903 +2 x6904 +2 x6905 -1 x6701 -1 x6702 -1 x6703 -1 x6704 -1 x6705 -1 x6706 -1 x6707 -1 x6708 -1 x6709 -1 x6710 >= 0 ;
+2 x6906 +2 x6907 +2 x6908 +2 x6909 +2 x6910 -1 x6706 -1 x6707 -1 x6708 -1 x6709 -1 x6710 -1 x6711 -1 x6712 -1 x6713 -1 x6714 -1 x6715 >= 0 ;
+2 x6911 +2 x6912 +2 x6913 +2 x6914 +2 x6915 -1 x6711 -1 x6712 -1 x6713 -1 x6714 -1 x6715 -1 x6716 -1 x6717 -1 x6718 -1 x6719 -1 x6720 >= 0 ;
+2 x6916 +2 x6917 +2 x6918 +2 x6919 +2 x6920 -1 x6716 -1 x6717 -1 x6718 -1 x6719 -1 x6720 -1 x6721 -1 x6722 -1 x6723 -1 x6724 -1 x6725 >= 0 ;
+2 x6921 +2 x6922 +2 x6923 +2 x6924 +2 x6925 -1 x6721 -1 x6722 -1 x6723 -1 x6724 -1 x6725 -1 x6726 -1 x6727 -1 x6728 -1 x6729 -1 x6730 >= 0 ;
+2 x6926 +2 x6927 +2 x6928 +2 x6929 +2 x6930 -1 x6726 -1 x6727 -1 x6728 -1 x6729 -1 x6730 -1 x6731 -1 x6732 -1 x6733 -1 x6734 -1 x6735 >= 0 ;
+2 x6931 +2 x6932 +2 x6933 +2 x6934 +2 x6935 -1 x6731 -1 x6732 -1 x6733 -1 x6734 -1 x6735 -1 x6736 -1 x6737 -1 x6738 -1 x6739 -1 x6740 >= 0 ;
+2 x6936 +2 x6937 +2 x6938 +2 x6939 +2 x6940 -1 x6736 -1 x6737 -1 x6738 -1 x6739 -1 x6740 -1 x6741 -1 x6742 -1 x6743 -1 x6744 -1 x6745 >= 0 ;
+2 x6941 +2 x6942 +2 x6943 +2 x6944 +2 x6945 -1 x6741 -1 x6742 -1 x6743 -1 x6744 -1 x6745 -1 x6746 -1 x6747 -1 x6748 -1 x6749 -1 x6750 >= 0 ;
+2 x6946 +2 x6947 +2 x6948 +2 x6949 +2 x6950 -1 x6746 -1 x6747 -1 x6748 -1 x6749 -1 x6750 -1 x6751 -1 x6752 -1 x6753 -1 x6754 -1 x6755 >= 0 ;
+2 x6951 +2 x6952 +2 x6953 +2 x6954 +2 x6955 -1 x6751 -1 x6752 -1 x6753 -1 x6754 -1 x6755 -1 x6756 -1 x6757 -1 x6758 -1 x6759 -1 x6760 >= 0 ;
+2 x6956 +2 x6957 +2 x6958 +2 x6959 +2 x6960 -1 x6756 -1 x6757 -1 x6758 -1 x6759 -1 x6760 -1 x6761 -1 x6762 -1 x6763 -1 x6764 -1 x6765 >= 0 ;
+2 x6961 +2 x6962 +2 x6963 +2 x6964 +2 x6965 -1 x6761 -1 x6762 -1 x6763 -1 x6764 -1 x6765 -1 x6766 -1 x6767 -1 x6768 -1 x6769 -1 x6770 >= 0 ;
+2 x6966 +2 x6967 +2 x6968 +2 x6969 +2 x6970 -1 x6766 -1 x6767 -1 x6768 -1 x6769 -1 x6770 -1 x6771 -1 x6772 -1 x6773 -1 x6774 -1 x6775 >= 0 ;
+2 x6971 +2 x6972 +2 x6973 +2 x6974 +2 x6975 -1 x6771 -1 x6772 -1 x6773 -1 x6774 -1 x6775 -1 x6776 -1 x6777 -1 x6778 -1 x6779 -1 x6780 >= 0 ;
+2 x6976 +2 x6977 +2 x6978 +2 x6979 +2 x6980 -1 x6776 -1 x6777 -1 x6778 -1 x6779 -1 x6780 -1 x6781 -1 x6782 -1 x6783 -1 x6784 -1 x6785 >= 0 ;
+2 x6981 +2 x6982 +2 x6983 +2 x6984 +2 x6985 -1 x6781 -1 x6782 -1 x6783 -1 x6784 -1 x6785 -1 x6786 -1 x6787 -1 x6788 -1 x6789 -1 x6790 >= 0 ;
+2 x6986 +2 x6987 +2 x6988 +2 x6989 +2 x6990 -1 x6786 -1 x6787 -1 x6788 -1 x6789 -1 x6790 -1 x6791 -1 x6792 -1 x6793 -1 x6794 -1 x6795 >= 0 ;
+2 x6991 +2 x6992 +2 x6993 +2 x6994 +2 x6995 -1 x6791 -1 x6792 -1 x6793 -1 x6794 -1 x6795 -1 x6796 -1 x6797 -1 x6798 -1 x6799 -1 x6800 >= 0 ;
+2 x6996 +2 x6997 +2 x6998 +2 x6999 +2 x7000 -1 x6796 -1 x6797 -1 x6798 -1 x6799 -1 x6800 -1 x6801 -1 x6802 -1 x6803 -1 x6804 -1 x6805 >= 0 ;
+2 x7001 +2 x7002 +2 x7003 +2 x7004 +2 x7005 -1 x6801 -1 x6802 -1 x6803 -1 x6804 -1 x6805 -1 x6806 -1 x6807 -1 x6808 -1 x6809 -1 x6810 >= 0 ;
+2 x7006 +2 x7007 +2 x7008 +2 x7009 +2 x7010 -1 x6806 -1 x6807 -1 x6808 -1 x6809 -1 x6810 -1 x6811 -1 x6812 -1 x6813 -1 x6814 -1 x6815 >= 0 ;
+2 x7011 +2 x7012 +2 x7013 +2 x7014 +2 x7015 -1 x6811 -1 x6812 -1 x6813 -1 x6814 -1 x6815 -1 x6816 -1 x6817 -1 x6818 -1 x6819 -1 x6820 >= 0 ;
+2 x7016 +2 x7017 +2 x7018 +2 x7019 +2 x7020 -1 x6816 -1 x6817 -1 x6818 -1 x6819 -1 x6820 -1 x6821 -1 x6822 -1 x6823 -1 x6824 -1 x6825 >= 0 ;
+2 x7021 +2 x7022 +2 x7023 +2 x7024 +2 x7025 -1 x6826 -1 x6827 -1 x6828 -1 x6829 -1 x6830 -1 x6831 -1 x6832 -1 x6833 -1 x6834 -1 x6835 >= 0 ;
+2 x7026 +2 x7027 +2 x7028 +2 x7029 +2 x7030 -1 x6831 -1 x6832 -1 x6833 -1 x6834 -1 x6835 -1 x6836 -1 x6837 -1 x6838 -1 x6839 -1 x6840 >= 0 ;
+2 x7031 +2 x7032 +2 x7033 +2 x7034 +2 x7035 -1 x6836 -1 x6837 -1 x6838 -1 x6839 -1 x6840 -1 x6841 -1 x6842 -1 x6843 -1 x6844 -1 x6845 >= 0 ;
+2 x7036 +2 x7037 +2 x7038 +2 x7039 +2 x7040 -1 x6841 -1 x6842 -1 x6843 -1 x6844 -1 x6845 -1 x6846 -1 x6847 -1 x6848 -1 x6849 -1 x6850 >= 0 ;
+2 x7041 +2 x7042 +2 x7043 +2 x7044 +2 x7045 -1 x6846 -1 x6847 -1 x6848 -1 x6849 -1 x6850 -1 x6851 -1 x6852 -1 x6853 -1 x6854 -1 x6855 >= 0 ;
+2 x7046 +2 x7047 +2 x7048 +2 x7049 +2 x7050 -1 x6851 -1 x6852 -1 x6853 -1 x6854 -1 x6855 -1 x6856 -1 x6857 -1 x6858 -1 x6859 -1 x6860 >= 0 ;
+2 x7051 +2 x7052 +2 x7053 +2 x7054 +2 x7055 -1 x6856 -1 x6857 -1 x6858 -1 x6859 -1 x6860 -1 x6861 -1 x6862 -1 x6863 -1 x6864 -1 x6865 >= 0 ;
+2 x7056 +2 x7057 +2 x7058 +2 x7059 +2 x7060 -1 x6861 -1 x6862 -1 x6863 -1 x6864 -1 x6865 -1 x6866 -1 x6867 -1 x6868 -1 x6869 -1 x6870 >= 0 ;
+2 x7061 +2 x7062 +2 x7063 +2 x7064 +2 x7065 -1 x6866 -1 x6867 -1 x6868 -1 x6869 -1 x6870 -1 x6871 -1 x6872 -1 x6873 -1 x6874 -1 x6875 >= 0 ;
+2 x7066 +2 x7067 +2 x7068 +2 x7069 +2 x7070 -1 x6871 -1 x6872 -1 x6873 -1 x6874 -1 x6875 -1 x6876 -1 x6877 -1 x6878 -1 x6879 -1 x6880 >= 0 ;
+2 x7071 +2 x7072 +2 x7073 +2 x7074 +2 x7075 -1 x6876 -1 x6877 -1 x6878 -1 x6879 -1 x6880 -1 x6881 -1 x6882 -1 x6883 -1 x6884 -1 x6885 >= 0 ;
+2 x7076 +2 x7077 +2 x7078 +2 x7079 +2 x7080 -1 x6881 -1 x6882 -1 x6883 -1 x6884 -1 x6885 -1 x6886 -1 x6887 -1 x6888 -1 x6889 -1 x6890 >= 0 ;
+2 x7081 +2 x7082 +2 x7083 +2 x7084 +2 x7085 -1 x6886 -1 x6887 -1 x6888 -1 x6889 -1 x6890 -1 x6891 -1 x6892 -1 x6893 -1 x6894 -1 x6895 >= 0 ;
+2 x7086 +2 x7087 +2 x7088 +2 x7089 +2 x7090 -1 x6891 -1 x6892 -1 x6893 -1 x6894 -1 x6895 -1 x6896 -1 x6897 -1 x6898 -1 x6899 -1 x6900 >= 0 ;
+2 x7091 +2 x7092 +2 x7093 +2 x7094 +2 x7095 -1 x6896 -1 x6897 -1 x6898 -1 x6899 -1 x6900 -1 x6901 -1 x6902 -1 x6903 -1 x6904 -1 x6905 >= 0 ;
+2 x7096 +2 x7097 +2 x7098 +2 x7099 +2 x7100 -1 x6901 -1 x6902 -1 x6903 -1 x6904 -1 x6905 -1 x6906 -1 x6907 -1 x6908 -1 x6909 -1 x6910 >= 0 ;
+2 x7101 +2 x7102 +2 x7103 +2 x7104 +2 x7105 -1 x6906 -1 x6907 -1 x6908 -1 x6909 -1 x6910 -1 x6911 -1 x6912 -1 x6913 -1 x6914 -1 x6915 >= 0 ;
+2 x7106 +2 x7107 +2 x7108 +2 x7109 +2 x7110 -1 x6911 -1 x6912 -1 x6913 -1 x6914 -1 x6915 -1 x6916 -1 x6917 -1 x6918 -1 x6919 -1 x6920 >= 0 ;
+2 x7111 +2 x7112 +2 x7113 +2 x7114 +2 x7115 -1 x6916 -1 x6917 -1 x6918 -1 x6919 -1 x6920 -1 x6921 -1 x6922 -1 x6923 -1 x6924 -1 x6925 >= 0 ;
+2 x7116 +2 x7117 +2 x7118 +2 x7119 +2 x7120 -1 x6921 -1 x6922 -1 x6923 -1 x6924 -1 x6925 -1 x6926 -1 x6927 -1 x6928 -1 x6929 -1 x6930 >= 0 ;
+2 x7121 +2 x7122 +2 x7123 +2 x7124 +2 x7125 -1 x6926 -1 x6927 -1 x6928 -1 x6929 -1 x6930 -1 x6931 -1 x6932 -1 x6933 -1 x6934 -1 x6935 >= 0 ;
+2 x7126 +2 x7127 +2 x7128 +2 x7129 +2 x7130 -1 x6931 -1 x6932 -1 x6933 -1 x6934 -1 x6935 -1 x6936 -1 x6937 -1 x6938 -1 x6939 -1 x6940 >= 0 ;
+2 x7131 +2 x7132 +2 x7133 +2 x7134 +2 x7135 -1 x6936 -1 x6937 -1 x6938 -1 x6939 -1 x6940 -1 x6941 -1 x6942 -1 x6943 -1 x6944 -1 x6945 >= 0 ;
+2 x7136 +2 x7137 +2 x7138 +2 x7139 +2 x7140 -1 x6941 -1 x6942 -1 x6943 -1 x6944 -1 x6945 -1 x6946 -1 x6947 -1 x6948 -1 x6949 -1 x6950 >= 0 ;
+2 x7141 +2 x7142 +2 x7143 +2 x7144 +2 x7145 -1 x6946 -1 x6947 -1 x6948 -1 x6949 -1 x6950 -1 x6951 -1 x6952 -1 x6953 -1 x6954 -1 x6955 >= 0 ;
+2 x7146 +2 x7147 +2 x7148 +2 x7149 +2 x7150 -1 x6951 -1 x6952 -1 x6953 -1 x6954 -1 x6955 -1 x6956 -1 x6957 -1 x6958 -1 x6959 -1 x6960 >= 0 ;
+2 x7151 +2 x7152 +2 x7153 +2 x7154 +2 x7155 -1 x6956 -1 x6957 -1 x6958 -1 x6959 -1 x6960 -1 x6961 -1 x6962 -1 x6963 -1 x6964 -1 x6965 >= 0 ;
+2 x7156 +2 x7157 +2 x7158 +2 x7159 +2 x7160 -1 x6961 -1 x6962 -1 x6963 -1 x6964 -1 x6965 -1 x6966 -1 x6967 -1 x6968 -1 x6969 -1 x6970 >= 0 ;
+2 x7161 +2 x7162 +2 x7163 +2 x7164 +2 x7165 -1 x6966 -1 x6967 -1 x6968 -1 x6969 -1 x6970 -1 x6971 -1 x6972 -1 x6973 -1 x6974 -1 x6975 >= 0 ;
+2 x7166 +2 x7167 +2 x7168 +2 x7169 +2 x7170 -1 x6971 -1 x6972 -1 x6973 -1 x6974 -1 x6975 -1 x6976 -1 x6977 -1 x6978 -1 x6979 -1 x6980 >= 0 ;
+2 x7171 +2 x7172 +2 x7173 +2 x7174 +2 x7175 -1 x6976 -1 x6977 -1 x6978 -1 x6979 -1 x6980 -1 x6981 -1 x6982 -1 x6983 -1 x6984 -1 x6985 >= 0 ;
+2 x7176 +2 x7177 +2 x7178 +2 x7179 +2 x7180 -1 x6981 -1 x6982 -1 x6983 -1 x6984 -1 x6985 -1 x6986 -1 x6987 -1 x6988 -1 x6989 -1 x6990 >= 0 ;
+2 x7181 +2 x7182 +2 x7183 +2 x7184 +2 x7185 -1 x6986 -1 x6987 -1 x6988 -1 x6989 -1 x6990 -1 x6991 -1 x6992 -1 x6993 -1 x6994 -1 x6995 >= 0 ;
+2 x7186 +2 x7187 +2 x7188 +2 x7189 +2 x7190 -1 x6991 -1 x6992 -1 x6993 -1 x6994 -1 x6995 -1 x6996 -1 x6997 -1 x6998 -1 x6999 -1 x7000 >= 0 ;
+2 x7191 +2 x7192 +2 x7193 +2 x7194 +2 x7195 -1 x6996 -1 x6997 -1 x6998 -1 x6999 -1 x7000 -1 x7001 -1 x7002 -1 x7003 -1 x7004 -1 x7005 >= 0 ;
+2 x7196 +2 x7197 +2 x7198 +2 x7199 +2 x7200 -1 x7001 -1 x7002 -1 x7003 -1 x7004 -1 x7005 -1 x7006 -1 x7007 -1 x7008 -1 x7009 -1 x7010 >= 0 ;
+2 x7201 +2 x7202 +2 x7203 +2 x7204 +2 x7205 -1 x7006 -1 x7007 -1 x7008 -1 x7009 -1 x7010 -1 x7011 -1 x7012 -1 x7013 -1 x7014 -1 x7015 >= 0 ;
+2 x7206 +2 x7207 +2 x7208 +2 x7209 +2 x7210 -1 x7011 -1 x7012 -1 x7013 -1 x7014 -1 x7015 -1 x7016 -1 x7017 -1 x7018 -1 x7019 -1 x7020 >= 0 ;
+2 x7211 +2 x7212 +2 x7213 +2 x7214 +2 x7215 -1 x7021 -1 x7022 -1 x7023 -1 x7024 -1 x7025 -1 x7026 -1 x7027 -1 x7028 -1 x7029 -1 x7030 >= 0 ;
+2 x7216 +2 x7217 +2 x7218 +2 x7219 +2 x7220 -1 x7026 -1 x7027 -1 x7028 -1 x7029 -1 x7030 -1 x7031 -1 x7032 -1 x7033 -1 x7034 -1 x7035 >= 0 ;
+2 x7221 +2 x7222 +2 x7223 +2 x7224 +2 x7225 -1 x7031 -1 x7032 -1 x7033 -1 x7034 -1 x7035 -1 x7036 -1 x7037 -1 x7038 -1 x7039 -1 x7040 >= 0 ;
+2 x7226 +2 x7227 +2 x7228 +2 x7229 +2 x7230 -1 x7036 -1 x7037 -1 x7038 -1 x7039 -1 x7040 -1 x7041 -1 x7042 -1 x7043 -1 x7044 -1 x7045 >= 0 ;
+2 x7231 +2 x7232 +2 x7233 +2 x7234 +2 x7235 -1 x7041 -1 x7042 -1 x7043 -1 x7044 -1 x7045 -1 x7046 -1 x7047 -1 x7048 -1 x7049 -1 x7050 >= 0 ;
+2 x7236 +2 x7237 +2 x7238 +2 x7239 +2 x7240 -1 x7046 -1 x7047 -1 x7048 -1 x7049 -1 x7050 -1 x7051 -1 x7052 -1 x7053 -1 x7054 -1 x7055 >= 0 ;
+2 x7241 +2 x7242 +2 x7243 +2 x7244 +2 x7245 -1 x7051 -1 x7052 -1 x7053 -1 x7054 -1 x7055 -1 x7056 -1 x7057 -1 x7058 -1 x7059 -1 x7060 >= 0 ;
+2 x7246 +2 x7247 +2 x7248 +2 x7249 +2 x7250 -1 x7056 -1 x7057 -1 x7058 -1 x7059 -1 x7060 -1 x7061 -1 x7062 -1 x7063 -1 x7064 -1 x7065 >= 0 ;
+2 x7251 +2 x7252 +2 x7253 +2 x7254 +2 x7255 -1 x7061 -1 x7062 -1 x7063 -1 x7064 -1 x7065 -1 x7066 -1 x7067 -1 x7068 -1 x7069 -1 x7070 >= 0 ;
+2 x7256 +2 x7257 +2 x7258 +2 x7259 +2 x7260 -1 x7066 -1 x7067 -1 x7068 -1 x7069 -1 x7070 -1 x7071 -1 x7072 -1 x7073 -1 x7074 -1 x7075 >= 0 ;
+2 x7261 +2 x7262 +2 x7263 +2 x7264 +2 x7265 -1 x7071 -1 x7072 -1 x7073 -1 x7074 -1 x7075 -1 x7076 -1 x7077 -1 x7078 -1 x7079 -1 x7080 >= 0 ;
+2 x7266 +2 x7267 +2 x7268 +2 x7269 +2 x7270 -1 x7076 -1 x7077 -1 x7078 -1 x7079 -1 x7080 -1 x7081 -1 x7082 -1 x7083 -1 x7084 -1 x7085 >= 0 ;
+2 x7271 +2 x7272 +2 x7273 +2 x7274 +2 x7275 -1 x7081 -1 x7082 -1 x7083 -1 x7084 -1 x7085 -1 x7086 -1 x7087 -1 x7088 -1 x7089 -1 x7090 >= 0 ;
+2 x7276 +2 x7277 +2 x7278 +2 x7279 +2 x7280 -1 x7086 -1 x7087 -1 x7088 -1 x7089 -1 x7090 -1 x7091 -1 x7092 -1 x7093 -1 x7094 -1 x7095 >= 0 ;
+2 x7281 +2 x7282 +2 x7283 +2 x7284 +2 x7285 -1 x7091 -1 x7092 -1 x7093 -1 x7094 -1 x7095 -1 x7096 -1 x7097 -1 x7098 -1 x7099 -1 x7100 >= 0 ;
+2 x7286 +2 x7287 +2 x7288 +2 x7289 +2 x7290 -1 x7096 -1 x7097 -1 x7098 -1 x7099 -1 x7100 -1 x7101 -1 x7102 -1 x7103 -1 x7104 -1 x7105 >= 0 ;
+2 x7291 +2 x7292 +2 x7293 +2 x7294 +2 x7295 -1 x7101 -1 x7102 -1 x7103 -1 x7104 -1 x7105 -1 x7106 -1 x7107 -1 x7108 -1 x7109 -1 x7110 >= 0 ;
+2 x7296 +2 x7297 +2 x7298 +2 x7299 +2 x7300 -1 x7106 -1 x7107 -1 x7108 -1 x7109 -1 x7110 -1 x7111 -1 x7112 -1 x7113 -1 x7114 -1 x7115 >= 0 ;
+2 x7301 +2 x7302 +2 x7303 +2 x7304 +2 x7305 -1 x7111 -1 x7112 -1 x7113 -1 x7114 -1 x7115 -1 x7116 -1 x7117 -1 x7118 -1 x7119 -1 x7120 >= 0 ;
+2 x7306 +2 x7307 +2 x7308 +2 x7309 +2 x7310 -1 x7116 -1 x7117 -1 x7118 -1 x7119 -1 x7120 -1 x7121 -1 x7122 -1 x7123 -1 x7124 -1 x7125 >= 0 ;
+2 x7311 +2 x7312 +2 x7313 +2 x7314 +2 x7315 -1 x7121 -1 x7122 -1 x7123 -1 x7124 -1 x7125 -1 x7126 -1 x7127 -1 x7128 -1 x7129 -1 x7130 >= 0 ;
+2 x7316 +2 x7317 +2 x7318 +2 x7319 +2 x7320 -1 x7126 -1 x7127 -1 x7128 -1 x7129 -1 x7130 -1 x7131 -1 x7132 -1 x7133 -1 x7134 -1 x7135 >= 0 ;
+2 x7321 +2 x7322 +2 x7323 +2 x7324 +2 x7325 -1 x7131 -1 x7132 -1 x7133 -1 x7134 -1 x7135 -1 x7136 -1 x7137 -1 x7138 -1 x7139 -1 x7140 >= 0 ;
+2 x7326 +2 x7327 +2 x7328 +2 x7329 +2 x7330 -1 x7136 -1 x7137 -1 x7138 -1 x7139 -1 x7140 -1 x7141 -1 x7142 -1 x7143 -1 x7144 -1 x7145 >= 0 ;
+2 x7331 +2 x7332 +2 x7333 +2 x7334 +2 x7335 -1 x7141 -1 x7142 -1 x7143 -1 x7144 -1 x7145 -1 x7146 -1 x7147 -1 x7148 -1 x7149 -1 x7150 >= 0 ;
+2 x7336 +2 x7337 +2 x7338 +2 x7339 +2 x7340 -1 x7146 -1 x7147 -1 x7148 -1 x7149 -1 x7150 -1 x7151 -1 x7152 -1 x7153 -1 x7154 -1 x7155 >= 0 ;
+2 x7341 +2 x7342 +2 x7343 +2 x7344 +2 x7345 -1 x7151 -1 x7152 -1 x7153 -1 x7154 -1 x7155 -1 x7156 -1 x7157 -1 x7158 -1 x7159 -1 x7160 >= 0 ;
+2 x7346 +2 x7347 +2 x7348 +2 x7349 +2 x7350 -1 x7156 -1 x7157 -1 x7158 -1 x7159 -1 x7160 -1 x7161 -1 x7162 -1 x7163 -1 x7164 -1 x7165 >= 0 ;
+2 x7351 +2 x7352 +2 x7353 +2 x7354 +2 x7355 -1 x7161 -1 x7162 -1 x7163 -1 x7164 -1 x7165 -1 x7166 -1 x7167 -1 x7168 -1 x7169 -1 x7170 >= 0 ;
+2 x7356 +2 x7357 +2 x7358 +2 x7359 +2 x7360 -1 x7166 -1 x7167 -1 x7168 -1 x7169 -1 x7170 -1 x7171 -1 x7172 -1 x7173 -1 x7174 -1 x7175 >= 0 ;
+2 x7361 +2 x7362 +2 x7363 +2 x7364 +2 x7365 -1 x7171 -1 x7172 -1 x7173 -1 x7174 -1 x7175 -1 x7176 -1 x7177 -1 x7178 -1 x7179 -1 x7180 >= 0 ;
+2 x7366 +2 x7367 +2 x7368 +2 x7369 +2 x7370 -1 x7176 -1 x7177 -1 x7178 -1 x7179 -1 x7180 -1 x7181 -1 x7182 -1 x7183 -1 x7184 -1 x7185 >= 0 ;
+2 x7371 +2 x7372 +2 x7373 +2 x7374 +2 x7375 -1 x7181 -1 x7182 -1 x7183 -1 x7184 -1 x7185 -1 x7186 -1 x7187 -1 x7188 -1 x7189 -1 x7190 >= 0 ;
+2 x7376 +2 x7377 +2 x7378 +2 x7379 +2 x7380 -1 x7186 -1 x7187 -1 x7188 -1 x7189 -1 x7190 -1 x7191 -1 x7192 -1 x7193 -1 x7194 -1 x7195 >= 0 ;
+2 x7381 +2 x7382 +2 x7383 +2 x7384 +2 x7385 -1 x7191 -1 x7192 -1 x7193 -1 x7194 -1 x7195 -1 x7196 -1 x7197 -1 x7198 -1 x7199 -1 x7200 >= 0 ;
+2 x7386 +2 x7387 +2 x7388 +2 x7389 +2 x7390 -1 x7196 -1 x7197 -1 x7198 -1 x7199 -1 x7200 -1 x7201 -1 x7202 -1 x7203 -1 x7204 -1 x7205 >= 0 ;
+2 x7391 +2 x7392 +2 x7393 +2 x7394 +2 x7395 -1 x7201 -1 x7202 -1 x7203 -1 x7204 -1 x7205 -1 x7206 -1 x7207 -1 x7208 -1 x7209 -1 x7210 >= 0 ;
+2 x7396 +2 x7397 +2 x7398 +2 x7399 +2 x7400 -1 x7211 -1 x7212 -1 x7213 -1 x7214 -1 x7215 -1 x7216 -1 x7217 -1 x7218 -1 x7219 -1 x7220 >= 0 ;
+2 x7401 +2 x7402 +2 x7403 +2 x7404 +2 x7405 -1 x7216 -1 x7217 -1 x7218 -1 x7219 -1 x7220 -1 x7221 -1 x7222 -1 x7223 -1 x7224 -1 x7225 >= 0 ;
+2 x7406 +2 x7407 +2 x7408 +2 x7409 +2 x7410 -1 x7221 -1 x7222 -1 x7223 -1 x7224 -1 x7225 -1 x7226 -1 x7227 -1 x7228 -1 x7229 -1 x7230 >= 0 ;
+2 x7411 +2 x7412 +2 x7413 +2 x7414 +2 x7415 -1 x7226 -1 x7227 -1 x7228 -1 x7229 -1 x7230 -1 x7231 -1 x7232 -1 x7233 -1 x7234 -1 x7235 >= 0 ;
+2 x7416 +2 x7417 +2 x7418 +2 x7419 +2 x7420 -1 x7231 -1 x7232 -1 x7233 -1 x7234 -1 x7235 -1 x7236 -1 x7237 -1 x7238 -1 x7239 -1 x7240 >= 0 ;
+2 x7421 +2 x7422 +2 x7423 +2 x7424 +2 x7425 -1 x7236 -1 x7237 -1 x7238 -1 x7239 -1 x7240 -1 x7241 -1 x7242 -1 x7243 -1 x7244 -1 x7245 >= 0 ;
+2 x7426 +2 x7427 +2 x7428 +2 x7429 +2 x7430 -1 x7241 -1 x7242 -1 x7243 -1 x7244 -1 x7245 -1 x7246 -1 x7247 -1 x7248 -1 x7249 -1 x7250 >= 0 ;
+2 x7431 +2 x7432 +2 x7433 +2 x7434 +2 x7435 -1 x7246 -1 x7247 -1 x7248 -1 x7249 -1 x7250 -1 x7251 -1 x7252 -1 x7253 -1 x7254 -1 x7255 >= 0 ;
+2 x7436 +2 x7437 +2 x7438 +2 x7439 +2 x7440 -1 x7251 -1 x7252 -1 x7253 -1 x7254 -1 x7255 -1 x7256 -1 x7257 -1 x7258 -1 x7259 -1 x7260 >= 0 ;
+2 x7441 +2 x7442 +2 x7443 +2 x7444 +2 x7445 -1 x7256 -1 x7257 -1 x7258 -1 x7259 -1 x7260 -1 x7261 -1 x7262 -1 x7263 -1 x7264 -1 x7265 >= 0 ;
+2 x7446 +2 x7447 +2 x7448 +2 x7449 +2 x7450 -1 x7261 -1 x7262 -1 x7263 -1 x7264 -1 x7265 -1 x7266 -1 x7267 -1 x7268 -1 x7269 -1 x7270 >= 0 ;
+2 x7451 +2 x7452 +2 x7453 +2 x7454 +2 x7455 -1 x7266 -1 x7267 -1 x7268 -1 x7269 -1 x7270 -1 x7271 -1 x7272 -1 x7273 -1 x7274 -1 x7275 >= 0 ;
+2 x7456 +2 x7457 +2 x7458 +2 x7459 +2 x7460 -1 x7271 -1 x7272 -1 x7273 -1 x7274 -1 x7275 -1 x7276 -1 x7277 -1 x7278 -1 x7279 -1 x7280 >= 0 ;
+2 x7461 +2 x7462 +2 x7463 +2 x7464 +2 x7465 -1 x7276 -1 x7277 -1 x7278 -1 x7279 -1 x7280 -1 x7281 -1 x7282 -1 x7283 -1 x7284 -1 x7285 >= 0 ;
+2 x7466 +2 x7467 +2 x7468 +2 x7469 +2 x7470 -1 x7281 -1 x7282 -1 x7283 -1 x7284 -1 x7285 -1 x7286 -1 x7287 -1 x7288 -1 x7289 -1 x7290 >= 0 ;
+2 x7471 +2 x7472 +2 x7473 +2 x7474 +2 x7475 -1 x7286 -1 x7287 -1 x7288 -1 x7289 -1 x7290 -1 x7291 -1 x7292 -1 x7293 -1 x7294 -1 x7295 >= 0 ;
+2 x7476 +2 x7477 +2 x7478 +2 x7479 +2 x7480 -1 x7291 -1 x7292 -1 x7293 -1 x7294 -1 x7295 -1 x7296 -1 x7297 -1 x7298 -1 x7299 -1 x7300 >= 0 ;
+2 x7481 +2 x7482 +2 x7483 +2 x7484 +2 x7485 -1 x7296 -1 x7297 -1 x7298 -1 x7299 -1 x7300 -1 x7301 -1 x7302 -1 x7303 -1 x7304 -1 x7305 >= 0 ;
+2 x7486 +2 x7487 +2 x7488 +2 x7489 +2 x7490 -1 x7301 -1 x7302 -1 x7303 -1 x7304 -1 x7305 -1 x7306 -1 x7307 -1 x7308 -1 x7309 -1 x7310 >= 0 ;
+2 x7491 +2 x7492 +2 x7493 +2 x7494 +2 x7495 -1 x7306 -1 x7307 -1 x7308 -1 x7309 -1 x7310 -1 x7311 -1 x7312 -1 x7313 -1 x7314 -1 x7315 >= 0 ;
+2 x7496 +2 x7497 +2 x7498 +2 x7499 +2 x7500 -1 x7311 -1 x7312 -1 x7313 -1 x7314 -1 x7315 -1 x7316 -1 x7317 -1 x7318 -1 x7319 -1 x7320 >= 0 ;
+2 x7501 +2 x7502 +2 x7503 +2 x7504 +2 x7505 -1 x7316 -1 x7317 -1 x7318 -1 x7319 -1 x7320 -1 x7321 -1 x7322 -1 x7323 -1 x7324 -1 x7325 >= 0 ;
+2 x7506 +2 x7507 +2 x7508 +2 x7509 +2 x7510 -1 x7321 -1 x7322 -1 x7323 -1 x7324 -1 x7325 -1 x7326 -1 x7327 -1 x7328 -1 x7329 -1 x7330 >= 0 ;
+2 x7511 +2 x7512 +2 x7513 +2 x7514 +2 x7515 -1 x7326 -1 x7327 -1 x7328 -1 x7329 -1 x7330 -1 x7331 -1 x7332 -1 x7333 -1 x7334 -1 x7335 >= 0 ;
+2 x7516 +2 x7517 +2 x7518 +2 x7519 +2 x7520 -1 x7331 -1 x7332 -1 x7333 -1 x7334 -1 x7335 -1 x7336 -1 x7337 -1 x7338 -1 x7339 -1 x7340 >= 0 ;
+2 x7521 +2 x7522 +2 x7523 +2 x7524 +2 x7525 -1 x7336 -1 x7337 -1 x7338 -1 x7339 -1 x7340 -1 x7341 -1 x7342 -1 x7343 -1 x7344 -1 x7345 >= 0 ;
+2 x7526 +2 x7527 +2 x7528 +2 x7529 +2 x7530 -1 x7341 -1 x7342 -1 x7343 -1 x7344 -1 x7345 -1 x7346 -1 x7347 -1 x7348 -1 x7349 -1 x7350 >= 0 ;
+2 x7531 +2 x7532 +2 x7533 +2 x7534 +2 x7535 -1 x7346 -1 x7347 -1 x7348 -1 x7349 -1 x7350 -1 x7351 -1 x7352 -1 x7353 -1 x7354 -1 x7355 >= 0 ;
+2 x7536 +2 x7537 +2 x7538 +2 x7539 +2 x7540 -1 x7351 -1 x7352 -1 x7353 -1 x7354 -1 x7355 -1 x7356 -1 x7357 -1 x7358 -1 x7359 -1 x7360 >= 0 ;
+2 x7541 +2 x7542 +2 x7543 +2 x7544 +2 x7545 -1 x7356 -1 x7357 -1 x7358 -1 x7359 -1 x7360 -1 x7361 -1 x7362 -1 x7363 -1 x7364 -1 x7365 >= 0 ;
+2 x7546 +2 x7547 +2 x7548 +2 x7549 +2 x7550 -1 x7361 -1 x7362 -1 x7363 -1 x7364 -1 x7365 -1 x7366 -1 x7367 -1 x7368 -1 x7369 -1 x7370 >= 0 ;
+2 x7551 +2 x7552 +2 x7553 +2 x7554 +2 x7555 -1 x7366 -1 x7367 -1 x7368 -1 x7369 -1 x7370 -1 x7371 -1 x7372 -1 x7373 -1 x7374 -1 x7375 >= 0 ;
+2 x7556 +2 x7557 +2 x7558 +2 x7559 +2 x7560 -1 x7371 -1 x7372 -1 x7373 -1 x7374 -1 x7375 -1 x7376 -1 x7377 -1 x7378 -1 x7379 -1 x7380 >= 0 ;
+2 x7561 +2 x7562 +2 x7563 +2 x7564 +2 x7565 -1 x7376 -1 x7377 -1 x7378 -1 x7379 -1 x7380 -1 x7381 -1 x7382 -1 x7383 -1 x7384 -1 x7385 >= 0 ;
+2 x7566 +2 x7567 +2 x7568 +2 x7569 +2 x7570 -1 x7381 -1 x7382 -1 x7383 -1 x7384 -1 x7385 -1 x7386 -1 x7387 -1 x7388 -1 x7389 -1 x7390 >= 0 ;
+2 x7571 +2 x7572 +2 x7573 +2 x7574 +2 x7575 -1 x7386 -1 x7387 -1 x7388 -1 x7389 -1 x7390 -1 x7391 -1 x7392 -1 x7393 -1 x7394 -1 x7395 >= 0 ;
+2 x7576 +2 x7577 +2 x7578 +2 x7579 +2 x7580 -1 x7396 -1 x7397 -1 x7398 -1 x7399 -1 x7400 -1 x7401 -1 x7402 -1 x7403 -1 x7404 -1 x7405 >= 0 ;
+2 x7581 +2 x7582 +2 x7583 +2 x7584 +2 x7585 -1 x7401 -1 x7402 -1 x7403 -1 x7404 -1 x7405 -1 x7406 -1 x7407 -1 x7408 -1 x7409 -1 x7410 >= 0 ;
+2 x7586 +2 x7587 +2 x7588 +2 x7589 +2 x7590 -1 x7406 -1 x7407 -1 x7408 -1 x7409 -1 x7410 -1 x7411 -1 x7412 -1 x7413 -1 x7414 -1 x7415 >= 0 ;
+2 x7591 +2 x7592 +2 x7593 +2 x7594 +2 x7595 -1 x7411 -1 x7412 -1 x7413 -1 x7414 -1 x7415 -1 x7416 -1 x7417 -1 x7418 -1 x7419 -1 x7420 >= 0 ;
+2 x7596 +2 x7597 +2 x7598 +2 x7599 +2 x7600 -1 x7416 -1 x7417 -1 x7418 -1 x7419 -1 x7420 -1 x7421 -1 x7422 -1 x7423 -1 x7424 -1 x7425 >= 0 ;
+2 x7601 +2 x7602 +2 x7603 +2 x7604 +2 x7605 -1 x7421 -1 x7422 -1 x7423 -1 x7424 -1 x7425 -1 x7426 -1 x7427 -1 x7428 -1 x7429 -1 x7430 >= 0 ;
+2 x7606 +2 x7607 +2 x7608 +2 x7609 +2 x7610 -1 x7426 -1 x7427 -1 x7428 -1 x7429 -1 x7430 -1 x7431 -1 x7432 -1 x7433 -1 x7434 -1 x7435 >= 0 ;
+2 x7611 +2 x7612 +2 x7613 +2 x7614 +2 x7615 -1 x7431 -1 x7432 -1 x7433 -1 x7434 -1 x7435 -1 x7436 -1 x7437 -1 x7438 -1 x7439 -1 x7440 >= 0 ;
+2 x7616 +2 x7617 +2 x7618 +2 x7619 +2 x7620 -1 x7436 -1 x7437 -1 x7438 -1 x7439 -1 x7440 -1 x7441 -1 x7442 -1 x7443 -1 x7444 -1 x7445 >= 0 ;
+2 x7621 +2 x7622 +2 x7623 +2 x7624 +2 x7625 -1 x7441 -1 x7442 -1 x7443 -1 x7444 -1 x7445 -1 x7446 -1 x7447 -1 x7448 -1 x7449 -1 x7450 >= 0 ;
+2 x7626 +2 x7627 +2 x7628 +2 x7629 +2 x7630 -1 x7446 -1 x7447 -1 x7448 -1 x7449 -1 x7450 -1 x7451 -1 x7452 -1 x7453 -1 x7454 -1 x7455 >= 0 ;
+2 x7631 +2 x7632 +2 x7633 +2 x7634 +2 x7635 -1 x7451 -1 x7452 -1 x7453 -1 x7454 -1 x7455 -1 x7456 -1 x7457 -1 x7458 -1 x7459 -1 x7460 >= 0 ;
+2 x7636 +2 x7637 +2 x7638 +2 x7639 +2 x7640 -1 x7456 -1 x7457 -1 x7458 -1 x7459 -1 x7460 -1 x7461 -1 x7462 -1 x7463 -1 x7464 -1 x7465 >= 0 ;
+2 x7641 +2 x7642 +2 x7643 +2 x7644 +2 x7645 -1 x7461 -1 x7462 -1 x7463 -1 x7464 -1 x7465 -1 x7466 -1 x7467 -1 x7468 -1 x7469 -1 x7470 >= 0 ;
+2 x7646 +2 x7647 +2 x7648 +2 x7649 +2 x7650 -1 x7466 -1 x7467 -1 x7468 -1 x7469 -1 x7470 -1 x7471 -1 x7472 -1 x7473 -1 x7474 -1 x7475 >= 0 ;
+2 x7651 +2 x7652 +2 x7653 +2 x7654 +2 x7655 -1 x7471 -1 x7472 -1 x7473 -1 x7474 -1 x7475 -1 x7476 -1 x7477 -1 x7478 -1 x7479 -1 x7480 >= 0 ;
+2 x7656 +2 x7657 +2 x7658 +2 x7659 +2 x7660 -1 x7476 -1 x7477 -1 x7478 -1 x7479 -1 x7480 -1 x7481 -1 x7482 -1 x7483 -1 x7484 -1 x7485 >= 0 ;
+2 x7661 +2 x7662 +2 x7663 +2 x7664 +2 x7665 -1 x7481 -1 x7482 -1 x7483 -1 x7484 -1 x7485 -1 x7486 -1 x7487 -1 x7488 -1 x7489 -1 x7490 >= 0 ;
+2 x7666 +2 x7667 +2 x7668 +2 x7669 +2 x7670 -1 x7486 -1 x7487 -1 x7488 -1 x7489 -1 x7490 -1 x7491 -1 x7492 -1 x7493 -1 x7494 -1 x7495 >= 0 ;
+2 x7671 +2 x7672 +2 x7673 +2 x7674 +2 x7675 -1 x7491 -1 x7492 -1 x7493 -1 x7494 -1 x7495 -1 x7496 -1 x7497 -1 x7498 -1 x7499 -1 x7500 >= 0 ;
+2 x7676 +2 x7677 +2 x7678 +2 x7679 +2 x7680 -1 x7496 -1 x7497 -1 x7498 -1 x7499 -1 x7500 -1 x7501 -1 x7502 -1 x7503 -1 x7504 -1 x7505 >= 0 ;
+2 x7681 +2 x7682 +2 x7683 +2 x7684 +2 x7685 -1 x7501 -1 x7502 -1 x7503 -1 x7504 -1 x7505 -1 x7506 -1 x7507 -1 x7508 -1 x7509 -1 x7510 >= 0 ;
+2 x7686 +2 x7687 +2 x7688 +2 x7689 +2 x7690 -1 x7506 -1 x7507 -1 x7508 -1 x7509 -1 x7510 -1 x7511 -1 x7512 -1 x7513 -1 x7514 -1 x7515 >= 0 ;
+2 x7691 +2 x7692 +2 x7693 +2 x7694 +2 x7695 -1 x7511 -1 x7512 -1 x7513 -1 x7514 -1 x7515 -1 x7516 -1 x7517 -1 x7518 -1 x7519 -1 x7520 >= 0 ;
+2 x7696 +2 x7697 +2 x7698 +2 x7699 +2 x7700 -1 x7516 -1 x7517 -1 x7518 -1 x7519 -1 x7520 -1 x7521 -1 x7522 -1 x7523 -1 x7524 -1 x7525 >= 0 ;
+2 x7701 +2 x7702 +2 x7703 +2 x7704 +2 x7705 -1 x7521 -1 x7522 -1 x7523 -1 x7524 -1 x7525 -1 x7526 -1 x7527 -1 x7528 -1 x7529 -1 x7530 >= 0 ;
+2 x7706 +2 x7707 +2 x7708 +2 x7709 +2 x7710 -1 x7526 -1 x7527 -1 x7528 -1 x7529 -1 x7530 -1 x7531 -1 x7532 -1 x7533 -1 x7534 -1 x7535 >= 0 ;
+2 x7711 +2 x7712 +2 x7713 +2 x7714 +2 x7715 -1 x7531 -1 x7532 -1 x7533 -1 x7534 -1 x7535 -1 x7536 -1 x7537 -1 x7538 -1 x7539 -1 x7540 >= 0 ;
+2 x7716 +2 x7717 +2 x7718 +2 x7719 +2 x7720 -1 x7536 -1 x7537 -1 x7538 -1 x7539 -1 x7540 -1 x7541 -1 x7542 -1 x7543 -1 x7544 -1 x7545 >= 0 ;
+2 x7721 +2 x7722 +2 x7723 +2 x7724 +2 x7725 -1 x7541 -1 x7542 -1 x7543 -1 x7544 -1 x7545 -1 x7546 -1 x7547 -1 x7548 -1 x7549 -1 x7550 >= 0 ;
+2 x7726 +2 x7727 +2 x7728 +2 x7729 +2 x7730 -1 x7546 -1 x7547 -1 x7548 -1 x7549 -1 x7550 -1 x7551 -1 x7552 -1 x7553 -1 x7554 -1 x7555 >= 0 ;
+2 x7731 +2 x7732 +2 x7733 +2 x7734 +2 x7735 -1 x7551 -1 x7552 -1 x7553 -1 x7554 -1 x7555 -1 x7556 -1 x7557 -1 x7558 -1 x7559 -1 x7560 >= 0 ;
+2 x7736 +2 x7737 +2 x7738 +2 x7739 +2 x7740 -1 x7556 -1 x7557 -1 x7558 -1 x7559 -1 x7560 -1 x7561 -1 x7562 -1 x7563 -1 x7564 -1 x7565 >= 0 ;
+2 x7741 +2 x7742 +2 x7743 +2 x7744 +2 x7745 -1 x7561 -1 x7562 -1 x7563 -1 x7564 -1 x7565 -1 x7566 -1 x7567 -1 x7568 -1 x7569 -1 x7570 >= 0 ;
+2 x7746 +2 x7747 +2 x7748 +2 x7749 +2 x7750 -1 x7566 -1 x7567 -1 x7568 -1 x7569 -1 x7570 -1 x7571 -1 x7572 -1 x7573 -1 x7574 -1 x7575 >= 0 ;
+2 x7751 +2 x7752 +2 x7753 +2 x7754 +2 x7755 -1 x7576 -1 x7577 -1 x7578 -1 x7579 -1 x7580 -1 x7581 -1 x7582 -1 x7583 -1 x7584 -1 x7585 >= 0 ;
+2 x7756 +2 x7757 +2 x7758 +2 x7759 +2 x7760 -1 x7581 -1 x7582 -1 x7583 -1 x7584 -1 x7585 -1 x7586 -1 x7587 -1 x7588 -1 x7589 -1 x7590 >= 0 ;
+2 x7761 +2 x7762 +2 x7763 +2 x7764 +2 x7765 -1 x7586 -1 x7587 -1 x7588 -1 x7589 -1 x7590 -1 x7591 -1 x7592 -1 x7593 -1 x7594 -1 x7595 >= 0 ;
+2 x7766 +2 x7767 +2 x7768 +2 x7769 +2 x7770 -1 x7591 -1 x7592 -1 x7593 -1 x7594 -1 x7595 -1 x7596 -1 x7597 -1 x7598 -1 x7599 -1 x7600 >= 0 ;
+2 x7771 +2 x7772 +2 x7773 +2 x7774 +2 x7775 -1 x7596 -1 x7597 -1 x7598 -1 x7599 -1 x7600 -1 x7601 -1 x7602 -1 x7603 -1 x7604 -1 x7605 >= 0 ;
+2 x7776 +2 x7777 +2 x7778 +2 x7779 +2 x7780 -1 x7601 -1 x7602 -1 x7603 -1 x7604 -1 x7605 -1 x7606 -1 x7607 -1 x7608 -1 x7609 -1 x7610 >= 0 ;
+2 x7781 +2 x7782 +2 x7783 +2 x7784 +2 x7785 -1 x7606 -1 x7607 -1 x7608 -1 x7609 -1 x7610 -1 x7611 -1 x7612 -1 x7613 -1 x7614 -1 x7615 >= 0 ;
+2 x7786 +2 x7787 +2 x7788 +2 x7789 +2 x7790 -1 x7611 -1 x7612 -1 x7613 -1 x7614 -1 x7615 -1 x7616 -1 x7617 -1 x7618 -1 x7619 -1 x7620 >= 0 ;
+2 x7791 +2 x7792 +2 x7793 +2 x7794 +2 x7795 -1 x7616 -1 x7617 -1 x7618 -1 x7619 -1 x7620 -1 x7621 -1 x7622 -1 x7623 -1 x7624 -1 x7625 >= 0 ;
+2 x7796 +2 x7797 +2 x7798 +2 x7799 +2 x7800 -1 x7621 -1 x7622 -1 x7623 -1 x7624 -1 x7625 -1 x7626 -1 x7627 -1 x7628 -1 x7629 -1 x7630 >= 0 ;
+2 x7801 +2 x7802 +2 x7803 +2 x7804 +2 x7805 -1 x7626 -1 x7627 -1 x7628 -1 x7629 -1 x7630 -1 x7631 -1 x7632 -1 x7633 -1 x7634 -1 x7635 >= 0 ;
+2 x7806 +2 x7807 +2 x7808 +2 x7809 +2 x7810 -1 x7631 -1 x7632 -1 x7633 -1 x7634 -1 x7635 -1 x7636 -1 x7637 -1 x7638 -1 x7639 -1 x7640 >= 0 ;
+2 x7811 +2 x7812 +2 x7813 +2 x7814 +2 x7815 -1 x7636 -1 x7637 -1 x7638 -1 x7639 -1 x7640 -1 x7641 -1 x7642 -1 x7643 -1 x7644 -1 x7645 >= 0 ;
+2 x7816 +2 x7817 +2 x7818 +2 x7819 +2 x7820 -1 x7641 -1 x7642 -1 x7643 -1 x7644 -1 x7645 -1 x7646 -1 x7647 -1 x7648 -1 x7649 -1 x7650 >= 0 ;
+2 x7821 +2 x7822 +2 x7823 +2 x7824 +2 x7825 -1 x7646 -1 x7647 -1 x7648 -1 x7649 -1 x7650 -1 x7651 -1 x7652 -1 x7653 -1 x7654 -1 x7655 >= 0 ;
+2 x7826 +2 x7827 +2 x7828 +2 x7829 +2 x7830 -1 x7651 -1 x7652 -1 x7653 -1 x7654 -1 x7655 -1 x7656 -1 x7657 -1 x7658 -1 x7659 -1 x7660 >= 0 ;
+2 x7831 +2 x7832 +2 x7833 +2 x7834 +2 x7835 -1 x7656 -1 x7657 -1 x7658 -1 x7659 -1 x7660 -1 x7661 -1 x7662 -1 x7663 -1 x7664 -1 x7665 >= 0 ;
+2 x7836 +2 x7837 +2 x7838 +2 x7839 +2 x7840 -1 x7661 -1 x7662 -1 x7663 -1 x7664 -1 x7665 -1 x7666 -1 x7667 -1 x7668 -1 x7669 -1 x7670 >= 0 ;
+2 x7841 +2 x7842 +2 x7843 +2 x7844 +2 x7845 -1 x7666 -1 x7667 -1 x7668 -1 x7669 -1 x7670 -1 x7671 -1 x7672 -1 x7673 -1 x7674 -1 x7675 >= 0 ;
+2 x7846 +2 x7847 +2 x7848 +2 x7849 +2 x7850 -1 x7671 -1 x7672 -1 x7673 -1 x7674 -1 x7675 -1 x7676 -1 x7677 -1 x7678 -1 x7679 -1 x7680 >= 0 ;
+2 x7851 +2 x7852 +2 x7853 +2 x7854 +2 x7855 -1 x7676 -1 x7677 -1 x7678 -1 x7679 -1 x7680 -1 x7681 -1 x7682 -1 x7683 -1 x7684 -1 x7685 >= 0 ;
+2 x7856 +2 x7857 +2 x7858 +2 x7859 +2 x7860 -1 x7681 -1 x7682 -1 x7683 -1 x7684 -1 x7685 -1 x7686 -1 x7687 -1 x7688 -1 x7689 -1 x7690 >= 0 ;
+2 x7861 +2 x7862 +2 x7863 +2 x7864 +2 x7865 -1 x7686 -1 x7687 -1 x7688 -1 x7689 -1 x7690 -1 x7691 -1 x7692 -1 x7693 -1 x7694 -1 x7695 >= 0 ;
+2 x7866 +2 x7867 +2 x7868 +2 x7869 +2 x7870 -1 x7691 -1 x7692 -1 x7693 -1 x7694 -1 x7695 -1 x7696 -1 x7697 -1 x7698 -1 x7699 -1 x7700 >= 0 ;
+2 x7871 +2 x7872 +2 x7873 +2 x7874 +2 x7875 -1 x7696 -1 x7697 -1 x7698 -1 x7699 -1 x7700 -1 x7701 -1 x7702 -1 x7703 -1 x7704 -1 x7705 >= 0 ;
+2 x7876 +2 x7877 +2 x7878 +2 x7879 +2 x7880 -1 x7701 -1 x7702 -1 x7703 -1 x7704 -1 x7705 -1 x7706 -1 x7707 -1 x7708 -1 x7709 -1 x7710 >= 0 ;
+2 x7881 +2 x7882 +2 x7883 +2 x7884 +2 x7885 -1 x7706 -1 x7707 -1 x7708 -1 x7709 -1 x7710 -1 x7711 -1 x7712 -1 x7713 -1 x7714 -1 x7715 >= 0 ;
+2 x7886 +2 x7887 +2 x7888 +2 x7889 +2 x7890 -1 x7711 -1 x7712 -1 x7713 -1 x7714 -1 x7715 -1 x7716 -1 x7717 -1 x7718 -1 x7719 -1 x7720 >= 0 ;
+2 x7891 +2 x7892 +2 x7893 +2 x7894 +2 x7895 -1 x7716 -1 x7717 -1 x7718 -1 x7719 -1 x7720 -1 x7721 -1 x7722 -1 x7723 -1 x7724 -1 x7725 >= 0 ;
+2 x7896 +2 x7897 +2 x7898 +2 x7899 +2 x7900 -1 x7721 -1 x7722 -1 x7723 -1 x7724 -1 x7725 -1 x7726 -1 x7727 -1 x7728 -1 x7729 -1 x7730 >= 0 ;
+2 x7901 +2 x7902 +2 x7903 +2 x7904 +2 x7905 -1 x7726 -1 x7727 -1 x7728 -1 x7729 -1 x7730 -1 x7731 -1 x7732 -1 x7733 -1 x7734 -1 x7735 >= 0 ;
+2 x7906 +2 x7907 +2 x7908 +2 x7909 +2 x7910 -1 x7731 -1 x7732 -1 x7733 -1 x7734 -1 x7735 -1 x7736 -1 x7737 -1 x7738 -1 x7739 -1 x7740 >= 0 ;
+2 x7911 +2 x7912 +2 x7913 +2 x7914 +2 x7915 -1 x7736 -1 x7737 -1 x7738 -1 x7739 -1 x7740 -1 x7741 -1 x7742 -1 x7743 -1 x7744 -1 x7745 >= 0 ;
+2 x7916 +2 x7917 +2 x7918 +2 x7919 +2 x7920 -1 x7741 -1 x7742 -1 x7743 -1 x7744 -1 x7745 -1 x7746 -1 x7747 -1 x7748 -1 x7749 -1 x7750 >= 0 ;
+2 x7921 +2 x7922 +2 x7923 +2 x7924 +2 x7925 -1 x7751 -1 x7752 -1 x7753 -1 x7754 -1 x7755 -1 x7756 -1 x7757 -1 x7758 -1 x7759 -1 x7760 >= 0 ;
+2 x7926 +2 x7927 +2 x7928 +2 x7929 +2 x7930 -1 x7756 -1 x7757 -1 x7758 -1 x7759 -1 x7760 -1 x7761 -1 x7762 -1 x7763 -1 x7764 -1 x7765 >= 0 ;
+2 x7931 +2 x7932 +2 x7933 +2 x7934 +2 x7935 -1 x7761 -1 x7762 -1 x7763 -1 x7764 -1 x7765 -1 x7766 -1 x7767 -1 x7768 -1 x7769 -1 x7770 >= 0 ;
+2 x7936 +2 x7937 +2 x7938 +2 x7939 +2 x7940 -1 x7766 -1 x7767 -1 x7768 -1 x7769 -1 x7770 -1 x7771 -1 x7772 -1 x7773 -1 x7774 -1 x7775 >= 0 ;
+2 x7941 +2 x7942 +2 x7943 +2 x7944 +2 x7945 -1 x7771 -1 x7772 -1 x7773 -1 x7774 -1 x7775 -1 x7776 -1 x7777 -1 x7778 -1 x7779 -1 x7780 >= 0 ;
+2 x7946 +2 x7947 +2 x7948 +2 x7949 +2 x7950 -1 x7776 -1 x7777 -1 x7778 -1 x7779 -1 x7780 -1 x7781 -1 x7782 -1 x7783 -1 x7784 -1 x7785 >= 0 ;
+2 x7951 +2 x7952 +2 x7953 +2 x7954 +2 x7955 -1 x7781 -1 x7782 -1 x7783 -1 x7784 -1 x7785 -1 x7786 -1 x7787 -1 x7788 -1 x7789 -1 x7790 >= 0 ;
+2 x7956 +2 x7957 +2 x7958 +2 x7959 +2 x7960 -1 x7786 -1 x7787 -1 x7788 -1 x7789 -1 x7790 -1 x7791 -1 x7792 -1 x7793 -1 x7794 -1 x7795 >= 0 ;
+2 x7961 +2 x7962 +2 x7963 +2 x7964 +2 x7965 -1 x7791 -1 x7792 -1 x7793 -1 x7794 -1 x7795 -1 x7796 -1 x7797 -1 x7798 -1 x7799 -1 x7800 >= 0 ;
+2 x7966 +2 x7967 +2 x7968 +2 x7969 +2 x7970 -1 x7796 -1 x7797 -1 x7798 -1 x7799 -1 x7800 -1 x7801 -1 x7802 -1 x7803 -1 x7804 -1 x7805 >= 0 ;
+2 x7971 +2 x7972 +2 x7973 +2 x7974 +2 x7975 -1 x7801 -1 x7802 -1 x7803 -1 x7804 -1 x7805 -1 x7806 -1 x7807 -1 x7808 -1 x7809 -1 x7810 >= 0 ;
+2 x7976 +2 x7977 +2 x7978 +2 x7979 +2 x7980 -1 x7806 -1 x7807 -1 x7808 -1 x7809 -1 x7810 -1 x7811 -1 x7812 -1 x7813 -1 x7814 -1 x7815 >= 0 ;
+2 x7981 +2 x7982 +2 x7983 +2 x7984 +2 x7985 -1 x7811 -1 x7812 -1 x7813 -1 x7814 -1 x7815 -1 x7816 -1 x7817 -1 x7818 -1 x7819 -1 x7820 >= 0 ;
+2 x7986 +2 x7987 +2 x7988 +2 x7989 +2 x7990 -1 x7816 -1 x7817 -1 x7818 -1 x7819 -1 x7820 -1 x7821 -1 x7822 -1 x7823 -1 x7824 -1 x7825 >= 0 ;
+2 x7991 +2 x7992 +2 x7993 +2 x7994 +2 x7995 -1 x7821 -1 x7822 -1 x7823 -1 x7824 -1 x7825 -1 x7826 -1 x7827 -1 x7828 -1 x7829 -1 x7830 >= 0 ;
+2 x7996 +2 x7997 +2 x7998 +2 x7999 +2 x8000 -1 x7826 -1 x7827 -1 x7828 -1 x7829 -1 x7830 -1 x7831 -1 x7832 -1 x7833 -1 x7834 -1 x7835 >= 0 ;
+2 x8001 +2 x8002 +2 x8003 +2 x8004 +2 x8005 -1 x7831 -1 x7832 -1 x7833 -1 x7834 -1 x7835 -1 x7836 -1 x7837 -1 x7838 -1 x7839 -1 x7840 >= 0 ;
+2 x8006 +2 x8007 +2 x8008 +2 x8009 +2 x8010 -1 x7836 -1 x7837 -1 x7838 -1 x7839 -1 x7840 -1 x7841 -1 x7842 -1 x7843 -1 x7844 -1 x7845 >= 0 ;
+2 x8011 +2 x8012 +2 x8013 +2 x8014 +2 x8015 -1 x7841 -1 x7842 -1 x7843 -1 x7844 -1 x7845 -1 x7846 -1 x7847 -1 x7848 -1 x7849 -1 x7850 >= 0 ;
+2 x8016 +2 x8017 +2 x8018 +2 x8019 +2 x8020 -1 x7846 -1 x7847 -1 x7848 -1 x7849 -1 x7850 -1 x7851 -1 x7852 -1 x7853 -1 x7854 -1 x7855 >= 0 ;
+2 x8021 +2 x8022 +2 x8023 +2 x8024 +2 x8025 -1 x7851 -1 x7852 -1 x7853 -1 x7854 -1 x7855 -1 x7856 -1 x7857 -1 x7858 -1 x7859 -1 x7860 >= 0 ;
+2 x8026 +2 x8027 +2 x8028 +2 x8029 +2 x8030 -1 x7856 -1 x7857 -1 x7858 -1 x7859 -1 x7860 -1 x7861 -1 x7862 -1 x7863 -1 x7864 -1 x7865 >= 0 ;
+2 x8031 +2 x8032 +2 x8033 +2 x8034 +2 x8035 -1 x7861 -1 x7862 -1 x7863 -1 x7864 -1 x7865 -1 x7866 -1 x7867 -1 x7868 -1 x7869 -1 x7870 >= 0 ;
+2 x8036 +2 x8037 +2 x8038 +2 x8039 +2 x8040 -1 x7866 -1 x7867 -1 x7868 -1 x7869 -1 x7870 -1 x7871 -1 x7872 -1 x7873 -1 x7874 -1 x7875 >= 0 ;
+2 x8041 +2 x8042 +2 x8043 +2 x8044 +2 x8045 -1 x7871 -1 x7872 -1 x7873 -1 x7874 -1 x7875 -1 x7876 -1 x7877 -1 x7878 -1 x7879 -1 x7880 >= 0 ;
+2 x8046 +2 x8047 +2 x8048 +2 x8049 +2 x8050 -1 x7876 -1 x7877 -1 x7878 -1 x7879 -1 x7880 -1 x7881 -1 x7882 -1 x7883 -1 x7884 -1 x7885 >= 0 ;
+2 x8051 +2 x8052 +2 x8053 +2 x8054 +2 x8055 -1 x7881 -1 x7882 -1 x7883 -1 x7884 -1 x7885 -1 x7886 -1 x7887 -1 x7888 -1 x7889 -1 x7890 >= 0 ;
+2 x8056 +2 x8057 +2 x8058 +2 x8059 +2 x8060 -1 x7886 -1 x7887 -1 x7888 -1 x7889 -1 x7890 -1 x7891 -1 x7892 -1 x7893 -1 x7894 -1 x7895 >= 0 ;
+2 x8061 +2 x8062 +2 x8063 +2 x8064 +2 x8065 -1 x7891 -1 x7892 -1 x7893 -1 x7894 -1 x7895 -1 x7896 -1 x7897 -1 x7898 -1 x7899 -1 x7900 >= 0 ;
+2 x8066 +2 x8067 +2 x8068 +2 x8069 +2 x8070 -1 x7896 -1 x7897 -1 x7898 -1 x7899 -1 x7900 -1 x7901 -1 x7902 -1 x7903 -1 x7904 -1 x7905 >= 0 ;
+2 x8071 +2 x8072 +2 x8073 +2 x8074 +2 x8075 -1 x7901 -1 x7902 -1 x7903 -1 x7904 -1 x7905 -1 x7906 -1 x7907 -1 x7908 -1 x7909 -1 x7910 >= 0 ;
+2 x8076 +2 x8077 +2 x8078 +2 x8079 +2 x8080 -1 x7906 -1 x7907 -1 x7908 -1 x7909 -1 x7910 -1 x7911 -1 x7912 -1 x7913 -1 x7914 -1 x7915 >= 0 ;
+2 x8081 +2 x8082 +2 x8083 +2 x8084 +2 x8085 -1 x7911 -1 x7912 -1 x7913 -1 x7914 -1 x7915 -1 x7916 -1 x7917 -1 x7918 -1 x7919 -1 x7920 >= 0 ;
+2 x8086 +2 x8087 +2 x8088 +2 x8089 +2 x8090 -1 x7921 -1 x7922 -1 x7923 -1 x7924 -1 x7925 -1 x7926 -1 x7927 -1 x7928 -1 x7929 -1 x7930 >= 0 ;
+2 x8091 +2 x8092 +2 x8093 +2 x8094 +2 x8095 -1 x7926 -1 x7927 -1 x7928 -1 x7929 -1 x7930 -1 x7931 -1 x7932 -1 x7933 -1 x7934 -1 x7935 >= 0 ;
+2 x8096 +2 x8097 +2 x8098 +2 x8099 +2 x8100 -1 x7931 -1 x7932 -1 x7933 -1 x7934 -1 x7935 -1 x7936 -1 x7937 -1 x7938 -1 x7939 -1 x7940 >= 0 ;
+2 x8101 +2 x8102 +2 x8103 +2 x8104 +2 x8105 -1 x7936 -1 x7937 -1 x7938 -1 x7939 -1 x7940 -1 x7941 -1 x7942 -1 x7943 -1 x7944 -1 x7945 >= 0 ;
+2 x8106 +2 x8107 +2 x8108 +2 x8109 +2 x8110 -1 x7941 -1 x7942 -1 x7943 -1 x7944 -1 x7945 -1 x7946 -1 x7947 -1 x7948 -1 x7949 -1 x7950 >= 0 ;
+2 x8111 +2 x8112 +2 x8113 +2 x8114 +2 x8115 -1 x7946 -1 x7947 -1 x7948 -1 x7949 -1 x7950 -1 x7951 -1 x7952 -1 x7953 -1 x7954 -1 x7955 >= 0 ;
+2 x8116 +2 x8117 +2 x8118 +2 x8119 +2 x8120 -1 x7951 -1 x7952 -1 x7953 -1 x7954 -1 x7955 -1 x7956 -1 x7957 -1 x7958 -1 x7959 -1 x7960 >= 0 ;
+2 x8121 +2 x8122 +2 x8123 +2 x8124 +2 x8125 -1 x7956 -1 x7957 -1 x7958 -1 x7959 -1 x7960 -1 x7961 -1 x7962 -1 x7963 -1 x7964 -1 x7965 >= 0 ;
+2 x8126 +2 x8127 +2 x8128 +2 x8129 +2 x8130 -1 x7961 -1 x7962 -1 x7963 -1 x7964 -1 x7965 -1 x7966 -1 x7967 -1 x7968 -1 x7969 -1 x7970 >= 0 ;
+2 x8131 +2 x8132 +2 x8133 +2 x8134 +2 x8135 -1 x7966 -1 x7967 -1 x7968 -1 x7969 -1 x7970 -1 x7971 -1 x7972 -1 x7973 -1 x7974 -1 x7975 >= 0 ;
+2 x8136 +2 x8137 +2 x8138 +2 x8139 +2 x8140 -1 x7971 -1 x7972 -1 x7973 -1 x7974 -1 x7975 -1 x7976 -1 x7977 -1 x7978 -1 x7979 -1 x7980 >= 0 ;
+2 x8141 +2 x8142 +2 x8143 +2 x8144 +2 x8145 -1 x7976 -1 x7977 -1 x7978 -1 x7979 -1 x7980 -1 x7981 -1 x7982 -1 x7983 -1 x7984 -1 x7985 >= 0 ;
+2 x8146 +2 x8147 +2 x8148 +2 x8149 +2 x8150 -1 x7981 -1 x7982 -1 x7983 -1 x7984 -1 x7985 -1 x7986 -1 x7987 -1 x7988 -1 x7989 -1 x7990 >= 0 ;
+2 x8151 +2 x8152 +2 x8153 +2 x8154 +2 x8155 -1 x7986 -1 x7987 -1 x7988 -1 x7989 -1 x7990 -1 x7991 -1 x7992 -1 x7993 -1 x7994 -1 x7995 >= 0 ;
+2 x8156 +2 x8157 +2 x8158 +2 x8159 +2 x8160 -1 x7991 -1 x7992 -1 x7993 -1 x7994 -1 x7995 -1 x7996 -1 x7997 -1 x7998 -1 x7999 -1 x8000 >= 0 ;
+2 x8161 +2 x8162 +2 x8163 +2 x8164 +2 x8165 -1 x7996 -1 x7997 -1 x7998 -1 x7999 -1 x8000 -1 x8001 -1 x8002 -1 x8003 -1 x8004 -1 x8005 >= 0 ;
+2 x8166 +2 x8167 +2 x8168 +2 x8169 +2 x8170 -1 x8001 -1 x8002 -1 x8003 -1 x8004 -1 x8005 -1 x8006 -1 x8007 -1 x8008 -1 x8009 -1 x8010 >= 0 ;
+2 x8171 +2 x8172 +2 x8173 +2 x8174 +2 x8175 -1 x8006 -1 x8007 -1 x8008 -1 x8009 -1 x8010 -1 x8011 -1 x8012 -1 x8013 -1 x8014 -1 x8015 >= 0 ;
+2 x8176 +2 x8177 +2 x8178 +2 x8179 +2 x8180 -1 x8011 -1 x8012 -1 x8013 -1 x8014 -1 x8015 -1 x8016 -1 x8017 -1 x8018 -1 x8019 -1 x8020 >= 0 ;
+2 x8181 +2 x8182 +2 x8183 +2 x8184 +2 x8185 -1 x8016 -1 x8017 -1 x8018 -1 x8019 -1 x8020 -1 x8021 -1 x8022 -1 x8023 -1 x8024 -1 x8025 >= 0 ;
+2 x8186 +2 x8187 +2 x8188 +2 x8189 +2 x8190 -1 x8021 -1 x8022 -1 x8023 -1 x8024 -1 x8025 -1 x8026 -1 x8027 -1 x8028 -1 x8029 -1 x8030 >= 0 ;
+2 x8191 +2 x8192 +2 x8193 +2 x8194 +2 x8195 -1 x8026 -1 x8027 -1 x8028 -1 x8029 -1 x8030 -1 x8031 -1 x8032 -1 x8033 -1 x8034 -1 x8035 >= 0 ;
+2 x8196 +2 x8197 +2 x8198 +2 x8199 +2 x8200 -1 x8031 -1 x8032 -1 x8033 -1 x8034 -1 x8035 -1 x8036 -1 x8037 -1 x8038 -1 x8039 -1 x8040 >= 0 ;
+2 x8201 +2 x8202 +2 x8203 +2 x8204 +2 x8205 -1 x8036 -1 x8037 -1 x8038 -1 x8039 -1 x8040 -1 x8041 -1 x8042 -1 x8043 -1 x8044 -1 x8045 >= 0 ;
+2 x8206 +2 x8207 +2 x8208 +2 x8209 +2 x8210 -1 x8041 -1 x8042 -1 x8043 -1 x8044 -1 x8045 -1 x8046 -1 x8047 -1 x8048 -1 x8049 -1 x8050 >= 0 ;
+2 x8211 +2 x8212 +2 x8213 +2 x8214 +2 x8215 -1 x8046 -1 x8047 -1 x8048 -1 x8049 -1 x8050 -1 x8051 -1 x8052 -1 x8053 -1 x8054 -1 x8055 >= 0 ;
+2 x8216 +2 x8217 +2 x8218 +2 x8219 +2 x8220 -1 x8051 -1 x8052 -1 x8053 -1 x8054 -1 x8055 -1 x8056 -1 x8057 -1 x8058 -1 x8059 -1 x8060 >= 0 ;
+2 x8221 +2 x8222 +2 x8223 +2 x8224 +2 x8225 -1 x8056 -1 x8057 -1 x8058 -1 x8059 -1 x8060 -1 x8061 -1 x8062 -1 x8063 -1 x8064 -1 x8065 >= 0 ;
+2 x8226 +2 x8227 +2 x8228 +2 x8229 +2 x8230 -1 x8061 -1 x8062 -1 x8063 -1 x8064 -1 x8065 -1 x8066 -1 x8067 -1 x8068 -1 x8069 -1 x8070 >= 0 ;
+2 x8231 +2 x8232 +2 x8233 +2 x8234 +2 x8235 -1 x8066 -1 x8067 -1 x8068 -1 x8069 -1 x8070 -1 x8071 -1 x8072 -1 x8073 -1 x8074 -1 x8075 >= 0 ;
+2 x8236 +2 x8237 +2 x8238 +2 x8239 +2 x8240 -1 x8071 -1 x8072 -1 x8073 -1 x8074 -1 x8075 -1 x8076 -1 x8077 -1 x8078 -1 x8079 -1 x8080 >= 0 ;
+2 x8241 +2 x8242 +2 x8243 +2 x8244 +2 x8245 -1 x8076 -1 x8077 -1 x8078 -1 x8079 -1 x8080 -1 x8081 -1 x8082 -1 x8083 -1 x8084 -1 x8085 >= 0 ;
+2 x8246 +2 x8247 +2 x8248 +2 x8249 +2 x8250 -1 x8086 -1 x8087 -1 x8088 -1 x8089 -1 x8090 -1 x8091 -1 x8092 -1 x8093 -1 x8094 -1 x8095 >= 0 ;
+2 x8251 +2 x8252 +2 x8253 +2 x8254 +2 x8255 -1 x8091 -1 x8092 -1 x8093 -1 x8094 -1 x8095 -1 x8096 -1 x8097 -1 x8098 -1 x8099 -1 x8100 >= 0 ;
+2 x8256 +2 x8257 +2 x8258 +2 x8259 +2 x8260 -1 x8096 -1 x8097 -1 x8098 -1 x8099 -1 x8100 -1 x8101 -1 x8102 -1 x8103 -1 x8104 -1 x8105 >= 0 ;
+2 x8261 +2 x8262 +2 x8263 +2 x8264 +2 x8265 -1 x8101 -1 x8102 -1 x8103 -1 x8104 -1 x8105 -1 x8106 -1 x8107 -1 x8108 -1 x8109 -1 x8110 >= 0 ;
+2 x8266 +2 x8267 +2 x8268 +2 x8269 +2 x8270 -1 x8106 -1 x8107 -1 x8108 -1 x8109 -1 x8110 -1 x8111 -1 x8112 -1 x8113 -1 x8114 -1 x8115 >= 0 ;
+2 x8271 +2 x8272 +2 x8273 +2 x8274 +2 x8275 -1 x8111 -1 x8112 -1 x8113 -1 x8114 -1 x8115 -1 x8116 -1 x8117 -1 x8118 -1 x8119 -1 x8120 >= 0 ;
+2 x8276 +2 x8277 +2 x8278 +2 x8279 +2 x8280 -1 x8116 -1 x8117 -1 x8118 -1 x8119 -1 x8120 -1 x8121 -1 x8122 -1 x8123 -1 x8124 -1 x8125 >= 0 ;
+2 x8281 +2 x8282 +2 x8283 +2 x8284 +2 x8285 -1 x8121 -1 x8122 -1 x8123 -1 x8124 -1 x8125 -1 x8126 -1 x8127 -1 x8128 -1 x8129 -1 x8130 >= 0 ;
+2 x8286 +2 x8287 +2 x8288 +2 x8289 +2 x8290 -1 x8126 -1 x8127 -1 x8128 -1 x8129 -1 x8130 -1 x8131 -1 x8132 -1 x8133 -1 x8134 -1 x8135 >= 0 ;
+2 x8291 +2 x8292 +2 x8293 +2 x8294 +2 x8295 -1 x8131 -1 x8132 -1 x8133 -1 x8134 -1 x8135 -1 x8136 -1 x8137 -1 x8138 -1 x8139 -1 x8140 >= 0 ;
+2 x8296 +2 x8297 +2 x8298 +2 x8299 +2 x8300 -1 x8136 -1 x8137 -1 x8138 -1 x8139 -1 x8140 -1 x8141 -1 x8142 -1 x8143 -1 x8144 -1 x8145 >= 0 ;
+2 x8301 +2 x8302 +2 x8303 +2 x8304 +2 x8305 -1 x8141 -1 x8142 -1 x8143 -1 x8144 -1 x8145 -1 x8146 -1 x8147 -1 x8148 -1 x8149 -1 x8150 >= 0 ;
+2 x8306 +2 x8307 +2 x8308 +2 x8309 +2 x8310 -1 x8146 -1 x8147 -1 x8148 -1 x8149 -1 x8150 -1 x8151 -1 x8152 -1 x8153 -1 x8154 -1 x8155 >= 0 ;
+2 x8311 +2 x8312 +2 x8313 +2 x8314 +2 x8315 -1 x8151 -1 x8152 -1 x8153 -1 x8154 -1 x8155 -1 x8156 -1 x8157 -1 x8158 -1 x8159 -1 x8160 >= 0 ;
+2 x8316 +2 x8317 +2 x8318 +2 x8319 +2 x8320 -1 x8156 -1 x8157 -1 x8158 -1 x8159 -1 x8160 -1 x8161 -1 x8162 -1 x8163 -1 x8164 -1 x8165 >= 0 ;
+2 x8321 +2 x8322 +2 x8323 +2 x8324 +2 x8325 -1 x8161 -1 x8162 -1 x8163 -1 x8164 -1 x8165 -1 x8166 -1 x8167 -1 x8168 -1 x8169 -1 x8170 >= 0 ;
+2 x8326 +2 x8327 +2 x8328 +2 x8329 +2 x8330 -1 x8166 -1 x8167 -1 x8168 -1 x8169 -1 x8170 -1 x8171 -1 x8172 -1 x8173 -1 x8174 -1 x8175 >= 0 ;
+2 x8331 +2 x8332 +2 x8333 +2 x8334 +2 x8335 -1 x8171 -1 x8172 -1 x8173 -1 x8174 -1 x8175 -1 x8176 -1 x8177 -1 x8178 -1 x8179 -1 x8180 >= 0 ;
+2 x8336 +2 x8337 +2 x8338 +2 x8339 +2 x8340 -1 x8176 -1 x8177 -1 x8178 -1 x8179 -1 x8180 -1 x8181 -1 x8182 -1 x8183 -1 x8184 -1 x8185 >= 0 ;
+2 x8341 +2 x8342 +2 x8343 +2 x8344 +2 x8345 -1 x8181 -1 x8182 -1 x8183 -1 x8184 -1 x8185 -1 x8186 -1 x8187 -1 x8188 -1 x8189 -1 x8190 >= 0 ;
+2 x8346 +2 x8347 +2 x8348 +2 x8349 +2 x8350 -1 x8186 -1 x8187 -1 x8188 -1 x8189 -1 x8190 -1 x8191 -1 x8192 -1 x8193 -1 x8194 -1 x8195 >= 0 ;
+2 x8351 +2 x8352 +2 x8353 +2 x8354 +2 x8355 -1 x8191 -1 x8192 -1 x8193 -1 x8194 -1 x8195 -1 x8196 -1 x8197 -1 x8198 -1 x8199 -1 x8200 >= 0 ;
+2 x8356 +2 x8357 +2 x8358 +2 x8359 +2 x8360 -1 x8196 -1 x8197 -1 x8198 -1 x8199 -1 x8200 -1 x8201 -1 x8202 -1 x8203 -1 x8204 -1 x8205 >= 0 ;
+2 x8361 +2 x8362 +2 x8363 +2 x8364 +2 x8365 -1 x8201 -1 x8202 -1 x8203 -1 x8204 -1 x8205 -1 x8206 -1 x8207 -1 x8208 -1 x8209 -1 x8210 >= 0 ;
+2 x8366 +2 x8367 +2 x8368 +2 x8369 +2 x8370 -1 x8206 -1 x8207 -1 x8208 -1 x8209 -1 x8210 -1 x8211 -1 x8212 -1 x8213 -1 x8214 -1 x8215 >= 0 ;
+2 x8371 +2 x8372 +2 x8373 +2 x8374 +2 x8375 -1 x8211 -1 x8212 -1 x8213 -1 x8214 -1 x8215 -1 x8216 -1 x8217 -1 x8218 -1 x8219 -1 x8220 >= 0 ;
+2 x8376 +2 x8377 +2 x8378 +2 x8379 +2 x8380 -1 x8216 -1 x8217 -1 x8218 -1 x8219 -1 x8220 -1 x8221 -1 x8222 -1 x8223 -1 x8224 -1 x8225 >= 0 ;
+2 x8381 +2 x8382 +2 x8383 +2 x8384 +2 x8385 -1 x8221 -1 x8222 -1 x8223 -1 x8224 -1 x8225 -1 x8226 -1 x8227 -1 x8228 -1 x8229 -1 x8230 >= 0 ;
+2 x8386 +2 x8387 +2 x8388 +2 x8389 +2 x8390 -1 x8226 -1 x8227 -1 x8228 -1 x8229 -1 x8230 -1 x8231 -1 x8232 -1 x8233 -1 x8234 -1 x8235 >= 0 ;
+2 x8391 +2 x8392 +2 x8393 +2 x8394 +2 x8395 -1 x8231 -1 x8232 -1 x8233 -1 x8234 -1 x8235 -1 x8236 -1 x8237 -1 x8238 -1 x8239 -1 x8240 >= 0 ;
+2 x8396 +2 x8397 +2 x8398 +2 x8399 +2 x8400 -1 x8236 -1 x8237 -1 x8238 -1 x8239 -1 x8240 -1 x8241 -1 x8242 -1 x8243 -1 x8244 -1 x8245 >= 0 ;
+2 x8401 +2 x8402 +2 x8403 +2 x8404 +2 x8405 -1 x8246 -1 x8247 -1 x8248 -1 x8249 -1 x8250 -1 x8251 -1 x8252 -1 x8253 -1 x8254 -1 x8255 >= 0 ;
+2 x8406 +2 x8407 +2 x8408 +2 x8409 +2 x8410 -1 x8251 -1 x8252 -1 x8253 -1 x8254 -1 x8255 -1 x8256 -1 x8257 -1 x8258 -1 x8259 -1 x8260 >= 0 ;
+2 x8411 +2 x8412 +2 x8413 +2 x8414 +2 x8415 -1 x8256 -1 x8257 -1 x8258 -1 x8259 -1 x8260 -1 x8261 -1 x8262 -1 x8263 -1 x8264 -1 x8265 >= 0 ;
+2 x8416 +2 x8417 +2 x8418 +2 x8419 +2 x8420 -1 x8261 -1 x8262 -1 x8263 -1 x8264 -1 x8265 -1 x8266 -1 x8267 -1 x8268 -1 x8269 -1 x8270 >= 0 ;
+2 x8421 +2 x8422 +2 x8423 +2 x8424 +2 x8425 -1 x8266 -1 x8267 -1 x8268 -1 x8269 -1 x8270 -1 x8271 -1 x8272 -1 x8273 -1 x8274 -1 x8275 >= 0 ;
+2 x8426 +2 x8427 +2 x8428 +2 x8429 +2 x8430 -1 x8271 -1 x8272 -1 x8273 -1 x8274 -1 x8275 -1 x8276 -1 x8277 -1 x8278 -1 x8279 -1 x8280 >= 0 ;
+2 x8431 +2 x8432 +2 x8433 +2 x8434 +2 x8435 -1 x8276 -1 x8277 -1 x8278 -1 x8279 -1 x8280 -1 x8281 -1 x8282 -1 x8283 -1 x8284 -1 x8285 >= 0 ;
+2 x8436 +2 x8437 +2 x8438 +2 x8439 +2 x8440 -1 x8281 -1 x8282 -1 x8283 -1 x8284 -1 x8285 -1 x8286 -1 x8287 -1 x8288 -1 x8289 -1 x8290 >= 0 ;
+2 x8441 +2 x8442 +2 x8443 +2 x8444 +2 x8445 -1 x8286 -1 x8287 -1 x8288 -1 x8289 -1 x8290 -1 x8291 -1 x8292 -1 x8293 -1 x8294 -1 x8295 >= 0 ;
+2 x8446 +2 x8447 +2 x8448 +2 x8449 +2 x8450 -1 x8291 -1 x8292 -1 x8293 -1 x8294 -1 x8295 -1 x8296 -1 x8297 -1 x8298 -1 x8299 -1 x8300 >= 0 ;
+2 x8451 +2 x8452 +2 x8453 +2 x8454 +2 x8455 -1 x8296 -1 x8297 -1 x8298 -1 x8299 -1 x8300 -1 x8301 -1 x8302 -1 x8303 -1 x8304 -1 x8305 >= 0 ;
+2 x8456 +2 x8457 +2 x8458 +2 x8459 +2 x8460 -1 x8301 -1 x8302 -1 x8303 -1 x8304 -1 x8305 -1 x8306 -1 x8307 -1 x8308 -1 x8309 -1 x8310 >= 0 ;
+2 x8461 +2 x8462 +2 x8463 +2 x8464 +2 x8465 -1 x8306 -1 x8307 -1 x8308 -1 x8309 -1 x8310 -1 x8311 -1 x8312 -1 x8313 -1 x8314 -1 x8315 >= 0 ;
+2 x8466 +2 x8467 +2 x8468 +2 x8469 +2 x8470 -1 x8311 -1 x8312 -1 x8313 -1 x8314 -1 x8315 -1 x8316 -1 x8317 -1 x8318 -1 x8319 -1 x8320 >= 0 ;
+2 x8471 +2 x8472 +2 x8473 +2 x8474 +2 x8475 -1 x8316 -1 x8317 -1 x8318 -1 x8319 -1 x8320 -1 x8321 -1 x8322 -1 x8323 -1 x8324 -1 x8325 >= 0 ;
+2 x8476 +2 x8477 +2 x8478 +2 x8479 +2 x8480 -1 x8321 -1 x8322 -1 x8323 -1 x8324 -1 x8325 -1 x8326 -1 x8327 -1 x8328 -1 x8329 -1 x8330 >= 0 ;
+2 x8481 +2 x8482 +2 x8483 +2 x8484 +2 x8485 -1 x8326 -1 x8327 -1 x8328 -1 x8329 -1 x8330 -1 x8331 -1 x8332 -1 x8333 -1 x8334 -1 x8335 >= 0 ;
+2 x8486 +2 x8487 +2 x8488 +2 x8489 +2 x8490 -1 x8331 -1 x8332 -1 x8333 -1 x8334 -1 x8335 -1 x8336 -1 x8337 -1 x8338 -1 x8339 -1 x8340 >= 0 ;
+2 x8491 +2 x8492 +2 x8493 +2 x8494 +2 x8495 -1 x8336 -1 x8337 -1 x8338 -1 x8339 -1 x8340 -1 x8341 -1 x8342 -1 x8343 -1 x8344 -1 x8345 >= 0 ;
+2 x8496 +2 x8497 +2 x8498 +2 x8499 +2 x8500 -1 x8341 -1 x8342 -1 x8343 -1 x8344 -1 x8345 -1 x8346 -1 x8347 -1 x8348 -1 x8349 -1 x8350 >= 0 ;
+2 x8501 +2 x8502 +2 x8503 +2 x8504 +2 x8505 -1 x8346 -1 x8347 -1 x8348 -1 x8349 -1 x8350 -1 x8351 -1 x8352 -1 x8353 -1 x8354 -1 x8355 >= 0 ;
+2 x8506 +2 x8507 +2 x8508 +2 x8509 +2 x8510 -1 x8351 -1 x8352 -1 x8353 -1 x8354 -1 x8355 -1 x8356 -1 x8357 -1 x8358 -1 x8359 -1 x8360 >= 0 ;
+2 x8511 +2 x8512 +2 x8513 +2 x8514 +2 x8515 -1 x8356 -1 x8357 -1 x8358 -1 x8359 -1 x8360 -1 x8361 -1 x8362 -1 x8363 -1 x8364 -1 x8365 >= 0 ;
+2 x8516 +2 x8517 +2 x8518 +2 x8519 +2 x8520 -1 x8361 -1 x8362 -1 x8363 -1 x8364 -1 x8365 -1 x8366 -1 x8367 -1 x8368 -1 x8369 -1 x8370 >= 0 ;
+2 x8521 +2 x8522 +2 x8523 +2 x8524 +2 x8525 -1 x8366 -1 x8367 -1 x8368 -1 x8369 -1 x8370 -1 x8371 -1 x8372 -1 x8373 -1 x8374 -1 x8375 >= 0 ;
+2 x8526 +2 x8527 +2 x8528 +2 x8529 +2 x8530 -1 x8371 -1 x8372 -1 x8373 -1 x8374 -1 x8375 -1 x8376 -1 x8377 -1 x8378 -1 x8379 -1 x8380 >= 0 ;
+2 x8531 +2 x8532 +2 x8533 +2 x8534 +2 x8535 -1 x8376 -1 x8377 -1 x8378 -1 x8379 -1 x8380 -1 x8381 -1 x8382 -1 x8383 -1 x8384 -1 x8385 >= 0 ;
+2 x8536 +2 x8537 +2 x8538 +2 x8539 +2 x8540 -1 x8381 -1 x8382 -1 x8383 -1 x8384 -1 x8385 -1 x8386 -1 x8387 -1 x8388 -1 x8389 -1 x8390 >= 0 ;
+2 x8541 +2 x8542 +2 x8543 +2 x8544 +2 x8545 -1 x8386 -1 x8387 -1 x8388 -1 x8389 -1 x8390 -1 x8391 -1 x8392 -1 x8393 -1 x8394 -1 x8395 >= 0 ;
+2 x8546 +2 x8547 +2 x8548 +2 x8549 +2 x8550 -1 x8391 -1 x8392 -1 x8393 -1 x8394 -1 x8395 -1 x8396 -1 x8397 -1 x8398 -1 x8399 -1 x8400 >= 0 ;
+2 x8551 +2 x8552 +2 x8553 +2 x8554 +2 x8555 -1 x8401 -1 x8402 -1 x8403 -1 x8404 -1 x8405 -1 x8406 -1 x8407 -1 x8408 -1 x8409 -1 x8410 >= 0 ;
+2 x8556 +2 x8557 +2 x8558 +2 x8559 +2 x8560 -1 x8406 -1 x8407 -1 x8408 -1 x8409 -1 x8410 -1 x8411 -1 x8412 -1 x8413 -1 x8414 -1 x8415 >= 0 ;
+2 x8561 +2 x8562 +2 x8563 +2 x8564 +2 x8565 -1 x8411 -1 x8412 -1 x8413 -1 x8414 -1 x8415 -1 x8416 -1 x8417 -1 x8418 -1 x8419 -1 x8420 >= 0 ;
+2 x8566 +2 x8567 +2 x8568 +2 x8569 +2 x8570 -1 x8416 -1 x8417 -1 x8418 -1 x8419 -1 x8420 -1 x8421 -1 x8422 -1 x8423 -1 x8424 -1 x8425 >= 0 ;
+2 x8571 +2 x8572 +2 x8573 +2 x8574 +2 x8575 -1 x8421 -1 x8422 -1 x8423 -1 x8424 -1 x8425 -1 x8426 -1 x8427 -1 x8428 -1 x8429 -1 x8430 >= 0 ;
+2 x8576 +2 x8577 +2 x8578 +2 x8579 +2 x8580 -1 x8426 -1 x8427 -1 x8428 -1 x8429 -1 x8430 -1 x8431 -1 x8432 -1 x8433 -1 x8434 -1 x8435 >= 0 ;
+2 x8581 +2 x8582 +2 x8583 +2 x8584 +2 x8585 -1 x8431 -1 x8432 -1 x8433 -1 x8434 -1 x8435 -1 x8436 -1 x8437 -1 x8438 -1 x8439 -1 x8440 >= 0 ;
+2 x8586 +2 x8587 +2 x8588 +2 x8589 +2 x8590 -1 x8436 -1 x8437 -1 x8438 -1 x8439 -1 x8440 -1 x8441 -1 x8442 -1 x8443 -1 x8444 -1 x8445 >= 0 ;
+2 x8591 +2 x8592 +2 x8593 +2 x8594 +2 x8595 -1 x8441 -1 x8442 -1 x8443 -1 x8444 -1 x8445 -1 x8446 -1 x8447 -1 x8448 -1 x8449 -1 x8450 >= 0 ;
+2 x8596 +2 x8597 +2 x8598 +2 x8599 +2 x8600 -1 x8446 -1 x8447 -1 x8448 -1 x8449 -1 x8450 -1 x8451 -1 x8452 -1 x8453 -1 x8454 -1 x8455 >= 0 ;
+2 x8601 +2 x8602 +2 x8603 +2 x8604 +2 x8605 -1 x8451 -1 x8452 -1 x8453 -1 x8454 -1 x8455 -1 x8456 -1 x8457 -1 x8458 -1 x8459 -1 x8460 >= 0 ;
+2 x8606 +2 x8607 +2 x8608 +2 x8609 +2 x8610 -1 x8456 -1 x8457 -1 x8458 -1 x8459 -1 x8460 -1 x8461 -1 x8462 -1 x8463 -1 x8464 -1 x8465 >= 0 ;
+2 x8611 +2 x8612 +2 x8613 +2 x8614 +2 x8615 -1 x8461 -1 x8462 -1 x8463 -1 x8464 -1 x8465 -1 x8466 -1 x8467 -1 x8468 -1 x8469 -1 x8470 >= 0 ;
+2 x8616 +2 x8617 +2 x8618 +2 x8619 +2 x8620 -1 x8466 -1 x8467 -1 x8468 -1 x8469 -1 x8470 -1 x8471 -1 x8472 -1 x8473 -1 x8474 -1 x8475 >= 0 ;
+2 x8621 +2 x8622 +2 x8623 +2 x8624 +2 x8625 -1 x8471 -1 x8472 -1 x8473 -1 x8474 -1 x8475 -1 x8476 -1 x8477 -1 x8478 -1 x8479 -1 x8480 >= 0 ;
+2 x8626 +2 x8627 +2 x8628 +2 x8629 +2 x8630 -1 x8476 -1 x8477 -1 x8478 -1 x8479 -1 x8480 -1 x8481 -1 x8482 -1 x8483 -1 x8484 -1 x8485 >= 0 ;
+2 x8631 +2 x8632 +2 x8633 +2 x8634 +2 x8635 -1 x8481 -1 x8482 -1 x8483 -1 x8484 -1 x8485 -1 x8486 -1 x8487 -1 x8488 -1 x8489 -1 x8490 >= 0 ;
+2 x8636 +2 x8637 +2 x8638 +2 x8639 +2 x8640 -1 x8486 -1 x8487 -1 x8488 -1 x8489 -1 x8490 -1 x8491 -1 x8492 -1 x8493 -1 x8494 -1 x8495 >= 0 ;
+2 x8641 +2 x8642 +2 x8643 +2 x8644 +2 x8645 -1 x8491 -1 x8492 -1 x8493 -1 x8494 -1 x8495 -1 x8496 -1 x8497 -1 x8498 -1 x8499 -1 x8500 >= 0 ;
+2 x8646 +2 x8647 +2 x8648 +2 x8649 +2 x8650 -1 x8496 -1 x8497 -1 x8498 -1 x8499 -1 x8500 -1 x8501 -1 x8502 -1 x8503 -1 x8504 -1 x8505 >= 0 ;
+2 x8651 +2 x8652 +2 x8653 +2 x8654 +2 x8655 -1 x8501 -1 x8502 -1 x8503 -1 x8504 -1 x8505 -1 x8506 -1 x8507 -1 x8508 -1 x8509 -1 x8510 >= 0 ;
+2 x8656 +2 x8657 +2 x8658 +2 x8659 +2 x8660 -1 x8506 -1 x8507 -1 x8508 -1 x8509 -1 x8510 -1 x8511 -1 x8512 -1 x8513 -1 x8514 -1 x8515 >= 0 ;
+2 x8661 +2 x8662 +2 x8663 +2 x8664 +2 x8665 -1 x8511 -1 x8512 -1 x8513 -1 x8514 -1 x8515 -1 x8516 -1 x8517 -1 x8518 -1 x8519 -1 x8520 >= 0 ;
+2 x8666 +2 x8667 +2 x8668 +2 x8669 +2 x8670 -1 x8516 -1 x8517 -1 x8518 -1 x8519 -1 x8520 -1 x8521 -1 x8522 -1 x8523 -1 x8524 -1 x8525 >= 0 ;
+2 x8671 +2 x8672 +2 x8673 +2 x8674 +2 x8675 -1 x8521 -1 x8522 -1 x8523 -1 x8524 -1 x8525 -1 x8526 -1 x8527 -1 x8528 -1 x8529 -1 x8530 >= 0 ;
+2 x8676 +2 x8677 +2 x8678 +2 x8679 +2 x8680 -1 x8526 -1 x8527 -1 x8528 -1 x8529 -1 x8530 -1 x8531 -1 x8532 -1 x8533 -1 x8534 -1 x8535 >= 0 ;
+2 x8681 +2 x8682 +2 x8683 +2 x8684 +2 x8685 -1 x8531 -1 x8532 -1 x8533 -1 x8534 -1 x8535 -1 x8536 -1 x8537 -1 x8538 -1 x8539 -1 x8540 >= 0 ;
+2 x8686 +2 x8687 +2 x8688 +2 x8689 +2 x8690 -1 x8536 -1 x8537 -1 x8538 -1 x8539 -1 x8540 -1 x8541 -1 x8542 -1 x8543 -1 x8544 -1 x8545 >= 0 ;
+2 x8691 +2 x8692 +2 x8693 +2 x8694 +2 x8695 -1 x8541 -1 x8542 -1 x8543 -1 x8544 -1 x8545 -1 x8546 -1 x8547 -1 x8548 -1 x8549 -1 x8550 >= 0 ;
+2 x8696 +2 x8697 +2 x8698 +2 x8699 +2 x8700 -1 x8551 -1 x8552 -1 x8553 -1 x8554 -1 x8555 -1 x8556 -1 x8557 -1 x8558 -1 x8559 -1 x8560 >= 0 ;
+2 x8701 +2 x8702 +2 x8703 +2 x8704 +2 x8705 -1 x8556 -1 x8557 -1 x8558 -1 x8559 -1 x8560 -1 x8561 -1 x8562 -1 x8563 -1 x8564 -1 x8565 >= 0 ;
+2 x8706 +2 x8707 +2 x8708 +2 x8709 +2 x8710 -1 x8561 -1 x8562 -1 x8563 -1 x8564 -1 x8565 -1 x8566 -1 x8567 -1 x8568 -1 x8569 -1 x8570 >= 0 ;
+2 x8711 +2 x8712 +2 x8713 +2 x8714 +2 x8715 -1 x8566 -1 x8567 -1 x8568 -1 x8569 -1 x8570 -1 x8571 -1 x8572 -1 x8573 -1 x8574 -1 x8575 >= 0 ;
+2 x8716 +2 x8717 +2 x8718 +2 x8719 +2 x8720 -1 x8571 -1 x8572 -1 x8573 -1 x8574 -1 x8575 -1 x8576 -1 x8577 -1 x8578 -1 x8579 -1 x8580 >= 0 ;
+2 x8721 +2 x8722 +2 x8723 +2 x8724 +2 x8725 -1 x8576 -1 x8577 -1 x8578 -1 x8579 -1 x8580 -1 x8581 -1 x8582 -1 x8583 -1 x8584 -1 x8585 >= 0 ;
+2 x8726 +2 x8727 +2 x8728 +2 x8729 +2 x8730 -1 x8581 -1 x8582 -1 x8583 -1 x8584 -1 x8585 -1 x8586 -1 x8587 -1 x8588 -1 x8589 -1 x8590 >= 0 ;
+2 x8731 +2 x8732 +2 x8733 +2 x8734 +2 x8735 -1 x8586 -1 x8587 -1 x8588 -1 x8589 -1 x8590 -1 x8591 -1 x8592 -1 x8593 -1 x8594 -1 x8595 >= 0 ;
+2 x8736 +2 x8737 +2 x8738 +2 x8739 +2 x8740 -1 x8591 -1 x8592 -1 x8593 -1 x8594 -1 x8595 -1 x8596 -1 x8597 -1 x8598 -1 x8599 -1 x8600 >= 0 ;
+2 x8741 +2 x8742 +2 x8743 +2 x8744 +2 x8745 -1 x8596 -1 x8597 -1 x8598 -1 x8599 -1 x8600 -1 x8601 -1 x8602 -1 x8603 -1 x8604 -1 x8605 >= 0 ;
+2 x8746 +2 x8747 +2 x8748 +2 x8749 +2 x8750 -1 x8601 -1 x8602 -1 x8603 -1 x8604 -1 x8605 -1 x8606 -1 x8607 -1 x8608 -1 x8609 -1 x8610 >= 0 ;
+2 x8751 +2 x8752 +2 x8753 +2 x8754 +2 x8755 -1 x8606 -1 x8607 -1 x8608 -1 x8609 -1 x8610 -1 x8611 -1 x8612 -1 x8613 -1 x8614 -1 x8615 >= 0 ;
+2 x8756 +2 x8757 +2 x8758 +2 x8759 +2 x8760 -1 x8611 -1 x8612 -1 x8613 -1 x8614 -1 x8615 -1 x8616 -1 x8617 -1 x8618 -1 x8619 -1 x8620 >= 0 ;
+2 x8761 +2 x8762 +2 x8763 +2 x8764 +2 x8765 -1 x8616 -1 x8617 -1 x8618 -1 x8619 -1 x8620 -1 x8621 -1 x8622 -1 x8623 -1 x8624 -1 x8625 >= 0 ;
+2 x8766 +2 x8767 +2 x8768 +2 x8769 +2 x8770 -1 x8621 -1 x8622 -1 x8623 -1 x8624 -1 x8625 -1 x8626 -1 x8627 -1 x8628 -1 x8629 -1 x8630 >= 0 ;
+2 x8771 +2 x8772 +2 x8773 +2 x8774 +2 x8775 -1 x8626 -1 x8627 -1 x8628 -1 x8629 -1 x8630 -1 x8631 -1 x8632 -1 x8633 -1 x8634 -1 x8635 >= 0 ;
+2 x8776 +2 x8777 +2 x8778 +2 x8779 +2 x8780 -1 x8631 -1 x8632 -1 x8633 -1 x8634 -1 x8635 -1 x8636 -1 x8637 -1 x8638 -1 x8639 -1 x8640 >= 0 ;
+2 x8781 +2 x8782 +2 x8783 +2 x8784 +2 x8785 -1 x8636 -1 x8637 -1 x8638 -1 x8639 -1 x8640 -1 x8641 -1 x8642 -1 x8643 -1 x8644 -1 x8645 >= 0 ;
+2 x8786 +2 x8787 +2 x8788 +2 x8789 +2 x8790 -1 x8641 -1 x8642 -1 x8643 -1 x8644 -1 x8645 -1 x8646 -1 x8647 -1 x8648 -1 x8649 -1 x8650 >= 0 ;
+2 x8791 +2 x8792 +2 x8793 +2 x8794 +2 x8795 -1 x8646 -1 x8647 -1 x8648 -1 x8649 -1 x8650 -1 x8651 -1 x8652 -1 x8653 -1 x8654 -1 x8655 >= 0 ;
+2 x8796 +2 x8797 +2 x8798 +2 x8799 +2 x8800 -1 x8651 -1 x8652 -1 x8653 -1 x8654 -1 x8655 -1 x8656 -1 x8657 -1 x8658 -1 x8659 -1 x8660 >= 0 ;
+2 x8801 +2 x8802 +2 x8803 +2 x8804 +2 x8805 -1 x8656 -1 x8657 -1 x8658 -1 x8659 -1 x8660 -1 x8661 -1 x8662 -1 x8663 -1 x8664 -1 x8665 >= 0 ;
+2 x8806 +2 x8807 +2 x8808 +2 x8809 +2 x8810 -1 x8661 -1 x8662 -1 x8663 -1 x8664 -1 x8665 -1 x8666 -1 x8667 -1 x8668 -1 x8669 -1 x8670 >= 0 ;
+2 x8811 +2 x8812 +2 x8813 +2 x8814 +2 x8815 -1 x8666 -1 x8667 -1 x8668 -1 x8669 -1 x8670 -1 x8671 -1 x8672 -1 x8673 -1 x8674 -1 x8675 >= 0 ;
+2 x8816 +2 x8817 +2 x8818 +2 x8819 +2 x8820 -1 x8671 -1 x8672 -1 x8673 -1 x8674 -1 x8675 -1 x8676 -1 x8677 -1 x8678 -1 x8679 -1 x8680 >= 0 ;
+2 x8821 +2 x8822 +2 x8823 +2 x8824 +2 x8825 -1 x8676 -1 x8677 -1 x8678 -1 x8679 -1 x8680 -1 x8681 -1 x8682 -1 x8683 -1 x8684 -1 x8685 >= 0 ;
+2 x8826 +2 x8827 +2 x8828 +2 x8829 +2 x8830 -1 x8681 -1 x8682 -1 x8683 -1 x8684 -1 x8685 -1 x8686 -1 x8687 -1 x8688 -1 x8689 -1 x8690 >= 0 ;
+2 x8831 +2 x8832 +2 x8833 +2 x8834 +2 x8835 -1 x8686 -1 x8687 -1 x8688 -1 x8689 -1 x8690 -1 x8691 -1 x8692 -1 x8693 -1 x8694 -1 x8695 >= 0 ;
+2 x8836 +2 x8837 +2 x8838 +2 x8839 +2 x8840 -1 x8696 -1 x8697 -1 x8698 -1 x8699 -1 x8700 -1 x8701 -1 x8702 -1 x8703 -1 x8704 -1 x8705 >= 0 ;
+2 x8841 +2 x8842 +2 x8843 +2 x8844 +2 x8845 -1 x8701 -1 x8702 -1 x8703 -1 x8704 -1 x8705 -1 x8706 -1 x8707 -1 x8708 -1 x8709 -1 x8710 >= 0 ;
+2 x8846 +2 x8847 +2 x8848 +2 x8849 +2 x8850 -1 x8706 -1 x8707 -1 x8708 -1 x8709 -1 x8710 -1 x8711 -1 x8712 -1 x8713 -1 x8714 -1 x8715 >= 0 ;
+2 x8851 +2 x8852 +2 x8853 +2 x8854 +2 x8855 -1 x8711 -1 x8712 -1 x8713 -1 x8714 -1 x8715 -1 x8716 -1 x8717 -1 x8718 -1 x8719 -1 x8720 >= 0 ;
+2 x8856 +2 x8857 +2 x8858 +2 x8859 +2 x8860 -1 x8716 -1 x8717 -1 x8718 -1 x8719 -1 x8720 -1 x8721 -1 x8722 -1 x8723 -1 x8724 -1 x8725 >= 0 ;
+2 x8861 +2 x8862 +2 x8863 +2 x8864 +2 x8865 -1 x8721 -1 x8722 -1 x8723 -1 x8724 -1 x8725 -1 x8726 -1 x8727 -1 x8728 -1 x8729 -1 x8730 >= 0 ;
+2 x8866 +2 x8867 +2 x8868 +2 x8869 +2 x8870 -1 x8726 -1 x8727 -1 x8728 -1 x8729 -1 x8730 -1 x8731 -1 x8732 -1 x8733 -1 x8734 -1 x8735 >= 0 ;
+2 x8871 +2 x8872 +2 x8873 +2 x8874 +2 x8875 -1 x8731 -1 x8732 -1 x8733 -1 x8734 -1 x8735 -1 x8736 -1 x8737 -1 x8738 -1 x8739 -1 x8740 >= 0 ;
+2 x8876 +2 x8877 +2 x8878 +2 x8879 +2 x8880 -1 x8736 -1 x8737 -1 x8738 -1 x8739 -1 x8740 -1 x8741 -1 x8742 -1 x8743 -1 x8744 -1 x8745 >= 0 ;
+2 x8881 +2 x8882 +2 x8883 +2 x8884 +2 x8885 -1 x8741 -1 x8742 -1 x8743 -1 x8744 -1 x8745 -1 x8746 -1 x8747 -1 x8748 -1 x8749 -1 x8750 >= 0 ;
+2 x8886 +2 x8887 +2 x8888 +2 x8889 +2 x8890 -1 x8746 -1 x8747 -1 x8748 -1 x8749 -1 x8750 -1 x8751 -1 x8752 -1 x8753 -1 x8754 -1 x8755 >= 0 ;
+2 x8891 +2 x8892 +2 x8893 +2 x8894 +2 x8895 -1 x8751 -1 x8752 -1 x8753 -1 x8754 -1 x8755 -1 x8756 -1 x8757 -1 x8758 -1 x8759 -1 x8760 >= 0 ;
+2 x8896 +2 x8897 +2 x8898 +2 x8899 +2 x8900 -1 x8756 -1 x8757 -1 x8758 -1 x8759 -1 x8760 -1 x8761 -1 x8762 -1 x8763 -1 x8764 -1 x8765 >= 0 ;
+2 x8901 +2 x8902 +2 x8903 +2 x8904 +2 x8905 -1 x8761 -1 x8762 -1 x8763 -1 x8764 -1 x8765 -1 x8766 -1 x8767 -1 x8768 -1 x8769 -1 x8770 >= 0 ;
+2 x8906 +2 x8907 +2 x8908 +2 x8909 +2 x8910 -1 x8766 -1 x8767 -1 x8768 -1 x8769 -1 x8770 -1 x8771 -1 x8772 -1 x8773 -1 x8774 -1 x8775 >= 0 ;
+2 x8911 +2 x8912 +2 x8913 +2 x8914 +2 x8915 -1 x8771 -1 x8772 -1 x8773 -1 x8774 -1 x8775 -1 x8776 -1 x8777 -1 x8778 -1 x8779 -1 x8780 >= 0 ;
+2 x8916 +2 x8917 +2 x8918 +2 x8919 +2 x8920 -1 x8776 -1 x8777 -1 x8778 -1 x8779 -1 x8780 -1 x8781 -1 x8782 -1 x8783 -1 x8784 -1 x8785 >= 0 ;
+2 x8921 +2 x8922 +2 x8923 +2 x8924 +2 x8925 -1 x8781 -1 x8782 -1 x8783 -1 x8784 -1 x8785 -1 x8786 -1 x8787 -1 x8788 -1 x8789 -1 x8790 >= 0 ;
+2 x8926 +2 x8927 +2 x8928 +2 x8929 +2 x8930 -1 x8786 -1 x8787 -1 x8788 -1 x8789 -1 x8790 -1 x8791 -1 x8792 -1 x8793 -1 x8794 -1 x8795 >= 0 ;
+2 x8931 +2 x8932 +2 x8933 +2 x8934 +2 x8935 -1 x8791 -1 x8792 -1 x8793 -1 x8794 -1 x8795 -1 x8796 -1 x8797 -1 x8798 -1 x8799 -1 x8800 >= 0 ;
+2 x8936 +2 x8937 +2 x8938 +2 x8939 +2 x8940 -1 x8796 -1 x8797 -1 x8798 -1 x8799 -1 x8800 -1 x8801 -1 x8802 -1 x8803 -1 x8804 -1 x8805 >= 0 ;
+2 x8941 +2 x8942 +2 x8943 +2 x8944 +2 x8945 -1 x8801 -1 x8802 -1 x8803 -1 x8804 -1 x8805 -1 x8806 -1 x8807 -1 x8808 -1 x8809 -1 x8810 >= 0 ;
+2 x8946 +2 x8947 +2 x8948 +2 x8949 +2 x8950 -1 x8806 -1 x8807 -1 x8808 -1 x8809 -1 x8810 -1 x8811 -1 x8812 -1 x8813 -1 x8814 -1 x8815 >= 0 ;
+2 x8951 +2 x8952 +2 x8953 +2 x8954 +2 x8955 -1 x8811 -1 x8812 -1 x8813 -1 x8814 -1 x8815 -1 x8816 -1 x8817 -1 x8818 -1 x8819 -1 x8820 >= 0 ;
+2 x8956 +2 x8957 +2 x8958 +2 x8959 +2 x8960 -1 x8816 -1 x8817 -1 x8818 -1 x8819 -1 x8820 -1 x8821 -1 x8822 -1 x8823 -1 x8824 -1 x8825 >= 0 ;
+2 x8961 +2 x8962 +2 x8963 +2 x8964 +2 x8965 -1 x8821 -1 x8822 -1 x8823 -1 x8824 -1 x8825 -1 x8826 -1 x8827 -1 x8828 -1 x8829 -1 x8830 >= 0 ;
+2 x8966 +2 x8967 +2 x8968 +2 x8969 +2 x8970 -1 x8826 -1 x8827 -1 x8828 -1 x8829 -1 x8830 -1 x8831 -1 x8832 -1 x8833 -1 x8834 -1 x8835 >= 0 ;
+2 x8971 +2 x8972 +2 x8973 +2 x8974 +2 x8975 -1 x8836 -1 x8837 -1 x8838 -1 x8839 -1 x8840 -1 x8841 -1 x8842 -1 x8843 -1 x8844 -1 x8845 >= 0 ;
+2 x8976 +2 x8977 +2 x8978 +2 x8979 +2 x8980 -1 x8841 -1 x8842 -1 x8843 -1 x8844 -1 x8845 -1 x8846 -1 x8847 -1 x8848 -1 x8849 -1 x8850 >= 0 ;
+2 x8981 +2 x8982 +2 x8983 +2 x8984 +2 x8985 -1 x8846 -1 x8847 -1 x8848 -1 x8849 -1 x8850 -1 x8851 -1 x8852 -1 x8853 -1 x8854 -1 x8855 >= 0 ;
+2 x8986 +2 x8987 +2 x8988 +2 x8989 +2 x8990 -1 x8851 -1 x8852 -1 x8853 -1 x8854 -1 x8855 -1 x8856 -1 x8857 -1 x8858 -1 x8859 -1 x8860 >= 0 ;
+2 x8991 +2 x8992 +2 x8993 +2 x8994 +2 x8995 -1 x8856 -1 x8857 -1 x8858 -1 x8859 -1 x8860 -1 x8861 -1 x8862 -1 x8863 -1 x8864 -1 x8865 >= 0 ;
+2 x8996 +2 x8997 +2 x8998 +2 x8999 +2 x9000 -1 x8861 -1 x8862 -1 x8863 -1 x8864 -1 x8865 -1 x8866 -1 x8867 -1 x8868 -1 x8869 -1 x8870 >= 0 ;
+2 x9001 +2 x9002 +2 x9003 +2 x9004 +2 x9005 -1 x8866 -1 x8867 -1 x8868 -1 x8869 -1 x8870 -1 x8871 -1 x8872 -1 x8873 -1 x8874 -1 x8875 >= 0 ;
+2 x9006 +2 x9007 +2 x9008 +2 x9009 +2 x9010 -1 x8871 -1 x8872 -1 x8873 -1 x8874 -1 x8875 -1 x8876 -1 x8877 -1 x8878 -1 x8879 -1 x8880 >= 0 ;
+2 x9011 +2 x9012 +2 x9013 +2 x9014 +2 x9015 -1 x8876 -1 x8877 -1 x8878 -1 x8879 -1 x8880 -1 x8881 -1 x8882 -1 x8883 -1 x8884 -1 x8885 >= 0 ;
+2 x9016 +2 x9017 +2 x9018 +2 x9019 +2 x9020 -1 x8881 -1 x8882 -1 x8883 -1 x8884 -1 x8885 -1 x8886 -1 x8887 -1 x8888 -1 x8889 -1 x8890 >= 0 ;
+2 x9021 +2 x9022 +2 x9023 +2 x9024 +2 x9025 -1 x8886 -1 x8887 -1 x8888 -1 x8889 -1 x8890 -1 x8891 -1 x8892 -1 x8893 -1 x8894 -1 x8895 >= 0 ;
+2 x9026 +2 x9027 +2 x9028 +2 x9029 +2 x9030 -1 x8891 -1 x8892 -1 x8893 -1 x8894 -1 x8895 -1 x8896 -1 x8897 -1 x8898 -1 x8899 -1 x8900 >= 0 ;
+2 x9031 +2 x9032 +2 x9033 +2 x9034 +2 x9035 -1 x8896 -1 x8897 -1 x8898 -1 x8899 -1 x8900 -1 x8901 -1 x8902 -1 x8903 -1 x8904 -1 x8905 >= 0 ;
+2 x9036 +2 x9037 +2 x9038 +2 x9039 +2 x9040 -1 x8901 -1 x8902 -1 x8903 -1 x8904 -1 x8905 -1 x8906 -1 x8907 -1 x8908 -1 x8909 -1 x8910 >= 0 ;
+2 x9041 +2 x9042 +2 x9043 +2 x9044 +2 x9045 -1 x8906 -1 x8907 -1 x8908 -1 x8909 -1 x8910 -1 x8911 -1 x8912 -1 x8913 -1 x8914 -1 x8915 >= 0 ;
+2 x9046 +2 x9047 +2 x9048 +2 x9049 +2 x9050 -1 x8911 -1 x8912 -1 x8913 -1 x8914 -1 x8915 -1 x8916 -1 x8917 -1 x8918 -1 x8919 -1 x8920 >= 0 ;
+2 x9051 +2 x9052 +2 x9053 +2 x9054 +2 x9055 -1 x8916 -1 x8917 -1 x8918 -1 x8919 -1 x8920 -1 x8921 -1 x8922 -1 x8923 -1 x8924 -1 x8925 >= 0 ;
+2 x9056 +2 x9057 +2 x9058 +2 x9059 +2 x9060 -1 x8921 -1 x8922 -1 x8923 -1 x8924 -1 x8925 -1 x8926 -1 x8927 -1 x8928 -1 x8929 -1 x8930 >= 0 ;
+2 x9061 +2 x9062 +2 x9063 +2 x9064 +2 x9065 -1 x8926 -1 x8927 -1 x8928 -1 x8929 -1 x8930 -1 x8931 -1 x8932 -1 x8933 -1 x8934 -1 x8935 >= 0 ;
+2 x9066 +2 x9067 +2 x9068 +2 x9069 +2 x9070 -1 x8931 -1 x8932 -1 x8933 -1 x8934 -1 x8935 -1 x8936 -1 x8937 -1 x8938 -1 x8939 -1 x8940 >= 0 ;
+2 x9071 +2 x9072 +2 x9073 +2 x9074 +2 x9075 -1 x8936 -1 x8937 -1 x8938 -1 x8939 -1 x8940 -1 x8941 -1 x8942 -1 x8943 -1 x8944 -1 x8945 >= 0 ;
+2 x9076 +2 x9077 +2 x9078 +2 x9079 +2 x9080 -1 x8941 -1 x8942 -1 x8943 -1 x8944 -1 x8945 -1 x8946 -1 x8947 -1 x8948 -1 x8949 -1 x8950 >= 0 ;
+2 x9081 +2 x9082 +2 x9083 +2 x9084 +2 x9085 -1 x8946 -1 x8947 -1 x8948 -1 x8949 -1 x8950 -1 x8951 -1 x8952 -1 x8953 -1 x8954 -1 x8955 >= 0 ;
+2 x9086 +2 x9087 +2 x9088 +2 x9089 +2 x9090 -1 x8951 -1 x8952 -1 x8953 -1 x8954 -1 x8955 -1 x8956 -1 x8957 -1 x8958 -1 x8959 -1 x8960 >= 0 ;
+2 x9091 +2 x9092 +2 x9093 +2 x9094 +2 x9095 -1 x8956 -1 x8957 -1 x8958 -1 x8959 -1 x8960 -1 x8961 -1 x8962 -1 x8963 -1 x8964 -1 x8965 >= 0 ;
+2 x9096 +2 x9097 +2 x9098 +2 x9099 +2 x9100 -1 x8961 -1 x8962 -1 x8963 -1 x8964 -1 x8965 -1 x8966 -1 x8967 -1 x8968 -1 x8969 -1 x8970 >= 0 ;
+2 x9101 +2 x9102 +2 x9103 +2 x9104 +2 x9105 -1 x8971 -1 x8972 -1 x8973 -1 x8974 -1 x8975 -1 x8976 -1 x8977 -1 x8978 -1 x8979 -1 x8980 >= 0 ;
+2 x9106 +2 x9107 +2 x9108 +2 x9109 +2 x9110 -1 x8976 -1 x8977 -1 x8978 -1 x8979 -1 x8980 -1 x8981 -1 x8982 -1 x8983 -1 x8984 -1 x8985 >= 0 ;
+2 x9111 +2 x9112 +2 x9113 +2 x9114 +2 x9115 -1 x8981 -1 x8982 -1 x8983 -1 x8984 -1 x8985 -1 x8986 -1 x8987 -1 x8988 -1 x8989 -1 x8990 >= 0 ;
+2 x9116 +2 x9117 +2 x9118 +2 x9119 +2 x9120 -1 x8986 -1 x8987 -1 x8988 -1 x8989 -1 x8990 -1 x8991 -1 x8992 -1 x8993 -1 x8994 -1 x8995 >= 0 ;
+2 x9121 +2 x9122 +2 x9123 +2 x9124 +2 x9125 -1 x8991 -1 x8992 -1 x8993 -1 x8994 -1 x8995 -1 x8996 -1 x8997 -1 x8998 -1 x8999 -1 x9000 >= 0 ;
+2 x9126 +2 x9127 +2 x9128 +2 x9129 +2 x9130 -1 x8996 -1 x8997 -1 x8998 -1 x8999 -1 x9000 -1 x9001 -1 x9002 -1 x9003 -1 x9004 -1 x9005 >= 0 ;
+2 x9131 +2 x9132 +2 x9133 +2 x9134 +2 x9135 -1 x9001 -1 x9002 -1 x9003 -1 x9004 -1 x9005 -1 x9006 -1 x9007 -1 x9008 -1 x9009 -1 x9010 >= 0 ;
+2 x9136 +2 x9137 +2 x9138 +2 x9139 +2 x9140 -1 x9006 -1 x9007 -1 x9008 -1 x9009 -1 x9010 -1 x9011 -1 x9012 -1 x9013 -1 x9014 -1 x9015 >= 0 ;
+2 x9141 +2 x9142 +2 x9143 +2 x9144 +2 x9145 -1 x9011 -1 x9012 -1 x9013 -1 x9014 -1 x9015 -1 x9016 -1 x9017 -1 x9018 -1 x9019 -1 x9020 >= 0 ;
+2 x9146 +2 x9147 +2 x9148 +2 x9149 +2 x9150 -1 x9016 -1 x9017 -1 x9018 -1 x9019 -1 x9020 -1 x9021 -1 x9022 -1 x9023 -1 x9024 -1 x9025 >= 0 ;
+2 x9151 +2 x9152 +2 x9153 +2 x9154 +2 x9155 -1 x9021 -1 x9022 -1 x9023 -1 x9024 -1 x9025 -1 x9026 -1 x9027 -1 x9028 -1 x9029 -1 x9030 >= 0 ;
+2 x9156 +2 x9157 +2 x9158 +2 x9159 +2 x9160 -1 x9026 -1 x9027 -1 x9028 -1 x9029 -1 x9030 -1 x9031 -1 x9032 -1 x9033 -1 x9034 -1 x9035 >= 0 ;
+2 x9161 +2 x9162 +2 x9163 +2 x9164 +2 x9165 -1 x9031 -1 x9032 -1 x9033 -1 x9034 -1 x9035 -1 x9036 -1 x9037 -1 x9038 -1 x9039 -1 x9040 >= 0 ;
+2 x9166 +2 x9167 +2 x9168 +2 x9169 +2 x9170 -1 x9036 -1 x9037 -1 x9038 -1 x9039 -1 x9040 -1 x9041 -1 x9042 -1 x9043 -1 x9044 -1 x9045 >= 0 ;
+2 x9171 +2 x9172 +2 x9173 +2 x9174 +2 x9175 -1 x9041 -1 x9042 -1 x9043 -1 x9044 -1 x9045 -1 x9046 -1 x9047 -1 x9048 -1 x9049 -1 x9050 >= 0 ;
+2 x9176 +2 x9177 +2 x9178 +2 x9179 +2 x9180 -1 x9046 -1 x9047 -1 x9048 -1 x9049 -1 x9050 -1 x9051 -1 x9052 -1 x9053 -1 x9054 -1 x9055 >= 0 ;
+2 x9181 +2 x9182 +2 x9183 +2 x9184 +2 x9185 -1 x9051 -1 x9052 -1 x9053 -1 x9054 -1 x9055 -1 x9056 -1 x9057 -1 x9058 -1 x9059 -1 x9060 >= 0 ;
+2 x9186 +2 x9187 +2 x9188 +2 x9189 +2 x9190 -1 x9056 -1 x9057 -1 x9058 -1 x9059 -1 x9060 -1 x9061 -1 x9062 -1 x9063 -1 x9064 -1 x9065 >= 0 ;
+2 x9191 +2 x9192 +2 x9193 +2 x9194 +2 x9195 -1 x9061 -1 x9062 -1 x9063 -1 x9064 -1 x9065 -1 x9066 -1 x9067 -1 x9068 -1 x9069 -1 x9070 >= 0 ;
+2 x9196 +2 x9197 +2 x9198 +2 x9199 +2 x9200 -1 x9066 -1 x9067 -1 x9068 -1 x9069 -1 x9070 -1 x9071 -1 x9072 -1 x9073 -1 x9074 -1 x9075 >= 0 ;
+2 x9201 +2 x9202 +2 x9203 +2 x9204 +2 x9205 -1 x9071 -1 x9072 -1 x9073 -1 x9074 -1 x9075 -1 x9076 -1 x9077 -1 x9078 -1 x9079 -1 x9080 >= 0 ;
+2 x9206 +2 x9207 +2 x9208 +2 x9209 +2 x9210 -1 x9076 -1 x9077 -1 x9078 -1 x9079 -1 x9080 -1 x9081 -1 x9082 -1 x9083 -1 x9084 -1 x9085 >= 0 ;
+2 x9211 +2 x9212 +2 x9213 +2 x9214 +2 x9215 -1 x9081 -1 x9082 -1 x9083 -1 x9084 -1 x9085 -1 x9086 -1 x9087 -1 x9088 -1 x9089 -1 x9090 >= 0 ;
+2 x9216 +2 x9217 +2 x9218 +2 x9219 +2 x9220 -1 x9086 -1 x9087 -1 x9088 -1 x9089 -1 x9090 -1 x9091 -1 x9092 -1 x9093 -1 x9094 -1 x9095 >= 0 ;
+2 x9221 +2 x9222 +2 x9223 +2 x9224 +2 x9225 -1 x9091 -1 x9092 -1 x9093 -1 x9094 -1 x9095 -1 x9096 -1 x9097 -1 x9098 -1 x9099 -1 x9100 >= 0 ;
+2 x9226 +2 x9227 +2 x9228 +2 x9229 +2 x9230 -1 x9101 -1 x9102 -1 x9103 -1 x9104 -1 x9105 -1 x9106 -1 x9107 -1 x9108 -1 x9109 -1 x9110 >= 0 ;
+2 x9231 +2 x9232 +2 x9233 +2 x9234 +2 x9235 -1 x9106 -1 x9107 -1 x9108 -1 x9109 -1 x9110 -1 x9111 -1 x9112 -1 x9113 -1 x9114 -1 x9115 >= 0 ;
+2 x9236 +2 x9237 +2 x9238 +2 x9239 +2 x9240 -1 x9111 -1 x9112 -1 x9113 -1 x9114 -1 x9115 -1 x9116 -1 x9117 -1 x9118 -1 x9119 -1 x9120 >= 0 ;
+2 x9241 +2 x9242 +2 x9243 +2 x9244 +2 x9245 -1 x9116 -1 x9117 -1 x9118 -1 x9119 -1 x9120 -1 x9121 -1 x9122 -1 x9123 -1 x9124 -1 x9125 >= 0 ;
+2 x9246 +2 x9247 +2 x9248 +2 x9249 +2 x9250 -1 x9121 -1 x9122 -1 x9123 -1 x9124 -1 x9125 -1 x9126 -1 x9127 -1 x9128 -1 x9129 -1 x9130 >= 0 ;
+2 x9251 +2 x9252 +2 x9253 +2 x9254 +2 x9255 -1 x9126 -1 x9127 -1 x9128 -1 x9129 -1 x9130 -1 x9131 -1 x9132 -1 x9133 -1 x9134 -1 x9135 >= 0 ;
+2 x9256 +2 x9257 +2 x9258 +2 x9259 +2 x9260 -1 x9131 -1 x9132 -1 x9133 -1 x9134 -1 x9135 -1 x9136 -1 x9137 -1 x9138 -1 x9139 -1 x9140 >= 0 ;
+2 x9261 +2 x9262 +2 x9263 +2 x9264 +2 x9265 -1 x9136 -1 x9137 -1 x9138 -1 x9139 -1 x9140 -1 x9141 -1 x9142 -1 x9143 -1 x9144 -1 x9145 >= 0 ;
+2 x9266 +2 x9267 +2 x9268 +2 x9269 +2 x9270 -1 x9141 -1 x9142 -1 x9143 -1 x9144 -1 x9145 -1 x9146 -1 x9147 -1 x9148 -1 x9149 -1 x9150 >= 0 ;
+2 x9271 +2 x9272 +2 x9273 +2 x9274 +2 x9275 -1 x9146 -1 x9147 -1 x9148 -1 x9149 -1 x9150 -1 x9151 -1 x9152 -1 x9153 -1 x9154 -1 x9155 >= 0 ;
+2 x9276 +2 x9277 +2 x9278 +2 x9279 +2 x9280 -1 x9151 -1 x9152 -1 x9153 -1 x9154 -1 x9155 -1 x9156 -1 x9157 -1 x9158 -1 x9159 -1 x9160 >= 0 ;
+2 x9281 +2 x9282 +2 x9283 +2 x9284 +2 x9285 -1 x9156 -1 x9157 -1 x9158 -1 x9159 -1 x9160 -1 x9161 -1 x9162 -1 x9163 -1 x9164 -1 x9165 >= 0 ;
+2 x9286 +2 x9287 +2 x9288 +2 x9289 +2 x9290 -1 x9161 -1 x9162 -1 x9163 -1 x9164 -1 x9165 -1 x9166 -1 x9167 -1 x9168 -1 x9169 -1 x9170 >= 0 ;
+2 x9291 +2 x9292 +2 x9293 +2 x9294 +2 x9295 -1 x9166 -1 x9167 -1 x9168 -1 x9169 -1 x9170 -1 x9171 -1 x9172 -1 x9173 -1 x9174 -1 x9175 >= 0 ;
+2 x9296 +2 x9297 +2 x9298 +2 x9299 +2 x9300 -1 x9171 -1 x9172 -1 x9173 -1 x9174 -1 x9175 -1 x9176 -1 x9177 -1 x9178 -1 x9179 -1 x9180 >= 0 ;
+2 x9301 +2 x9302 +2 x9303 +2 x9304 +2 x9305 -1 x9176 -1 x9177 -1 x9178 -1 x9179 -1 x9180 -1 x9181 -1 x9182 -1 x9183 -1 x9184 -1 x9185 >= 0 ;
+2 x9306 +2 x9307 +2 x9308 +2 x9309 +2 x9310 -1 x9181 -1 x9182 -1 x9183 -1 x9184 -1 x9185 -1 x9186 -1 x9187 -1 x9188 -1 x9189 -1 x9190 >= 0 ;
+2 x9311 +2 x9312 +2 x9313 +2 x9314 +2 x9315 -1 x9186 -1 x9187 -1 x9188 -1 x9189 -1 x9190 -1 x9191 -1 x9192 -1 x9193 -1 x9194 -1 x9195 >= 0 ;
+2 x9316 +2 x9317 +2 x9318 +2 x9319 +2 x9320 -1 x9191 -1 x9192 -1 x9193 -1 x9194 -1 x9195 -1 x9196 -1 x9197 -1 x9198 -1 x9199 -1 x9200 >= 0 ;
+2 x9321 +2 x9322 +2 x9323 +2 x9324 +2 x9325 -1 x9196 -1 x9197 -1 x9198 -1 x9199 -1 x9200 -1 x9201 -1 x9202 -1 x9203 -1 x9204 -1 x9205 >= 0 ;
+2 x9326 +2 x9327 +2 x9328 +2 x9329 +2 x9330 -1 x9201 -1 x9202 -1 x9203 -1 x9204 -1 x9205 -1 x9206 -1 x9207 -1 x9208 -1 x9209 -1 x9210 >= 0 ;
+2 x9331 +2 x9332 +2 x9333 +2 x9334 +2 x9335 -1 x9206 -1 x9207 -1 x9208 -1 x9209 -1 x9210 -1 x9211 -1 x9212 -1 x9213 -1 x9214 -1 x9215 >= 0 ;
+2 x9336 +2 x9337 +2 x9338 +2 x9339 +2 x9340 -1 x9211 -1 x9212 -1 x9213 -1 x9214 -1 x9215 -1 x9216 -1 x9217 -1 x9218 -1 x9219 -1 x9220 >= 0 ;
+2 x9341 +2 x9342 +2 x9343 +2 x9344 +2 x9345 -1 x9216 -1 x9217 -1 x9218 -1 x9219 -1 x9220 -1 x9221 -1 x9222 -1 x9223 -1 x9224 -1 x9225 >= 0 ;
+2 x9346 +2 x9347 +2 x9348 +2 x9349 +2 x9350 -1 x9226 -1 x9227 -1 x9228 -1 x9229 -1 x9230 -1 x9231 -1 x9232 -1 x9233 -1 x9234 -1 x9235 >= 0 ;
+2 x9351 +2 x9352 +2 x9353 +2 x9354 +2 x9355 -1 x9231 -1 x9232 -1 x9233 -1 x9234 -1 x9235 -1 x9236 -1 x9237 -1 x9238 -1 x9239 -1 x9240 >= 0 ;
+2 x9356 +2 x9357 +2 x9358 +2 x9359 +2 x9360 -1 x9236 -1 x9237 -1 x9238 -1 x9239 -1 x9240 -1 x9241 -1 x9242 -1 x9243 -1 x9244 -1 x9245 >= 0 ;
+2 x9361 +2 x9362 +2 x9363 +2 x9364 +2 x9365 -1 x9241 -1 x9242 -1 x9243 -1 x9244 -1 x9245 -1 x9246 -1 x9247 -1 x9248 -1 x9249 -1 x9250 >= 0 ;
+2 x9366 +2 x9367 +2 x9368 +2 x9369 +2 x9370 -1 x9246 -1 x9247 -1 x9248 -1 x9249 -1 x9250 -1 x9251 -1 x9252 -1 x9253 -1 x9254 -1 x9255 >= 0 ;
+2 x9371 +2 x9372 +2 x9373 +2 x9374 +2 x9375 -1 x9251 -1 x9252 -1 x9253 -1 x9254 -1 x9255 -1 x9256 -1 x9257 -1 x9258 -1 x9259 -1 x9260 >= 0 ;
+2 x9376 +2 x9377 +2 x9378 +2 x9379 +2 x9380 -1 x9256 -1 x9257 -1 x9258 -1 x9259 -1 x9260 -1 x9261 -1 x9262 -1 x9263 -1 x9264 -1 x9265 >= 0 ;
+2 x9381 +2 x9382 +2 x9383 +2 x9384 +2 x9385 -1 x9261 -1 x9262 -1 x9263 -1 x9264 -1 x9265 -1 x9266 -1 x9267 -1 x9268 -1 x9269 -1 x9270 >= 0 ;
+2 x9386 +2 x9387 +2 x9388 +2 x9389 +2 x9390 -1 x9266 -1 x9267 -1 x9268 -1 x9269 -1 x9270 -1 x9271 -1 x9272 -1 x9273 -1 x9274 -1 x9275 >= 0 ;
+2 x9391 +2 x9392 +2 x9393 +2 x9394 +2 x9395 -1 x9271 -1 x9272 -1 x9273 -1 x9274 -1 x9275 -1 x9276 -1 x9277 -1 x9278 -1 x9279 -1 x9280 >= 0 ;
+2 x9396 +2 x9397 +2 x9398 +2 x9399 +2 x9400 -1 x9276 -1 x9277 -1 x9278 -1 x9279 -1 x9280 -1 x9281 -1 x9282 -1 x9283 -1 x9284 -1 x9285 >= 0 ;
+2 x9401 +2 x9402 +2 x9403 +2 x9404 +2 x9405 -1 x9281 -1 x9282 -1 x9283 -1 x9284 -1 x9285 -1 x9286 -1 x9287 -1 x9288 -1 x9289 -1 x9290 >= 0 ;
+2 x9406 +2 x9407 +2 x9408 +2 x9409 +2 x9410 -1 x9286 -1 x9287 -1 x9288 -1 x9289 -1 x9290 -1 x9291 -1 x9292 -1 x9293 -1 x9294 -1 x9295 >= 0 ;
+2 x9411 +2 x9412 +2 x9413 +2 x9414 +2 x9415 -1 x9291 -1 x9292 -1 x9293 -1 x9294 -1 x9295 -1 x9296 -1 x9297 -1 x9298 -1 x9299 -1 x9300 >= 0 ;
+2 x9416 +2 x9417 +2 x9418 +2 x9419 +2 x9420 -1 x9296 -1 x9297 -1 x9298 -1 x9299 -1 x9300 -1 x9301 -1 x9302 -1 x9303 -1 x9304 -1 x9305 >= 0 ;
+2 x9421 +2 x9422 +2 x9423 +2 x9424 +2 x9425 -1 x9301 -1 x9302 -1 x9303 -1 x9304 -1 x9305 -1 x9306 -1 x9307 -1 x9308 -1 x9309 -1 x9310 >= 0 ;
+2 x9426 +2 x9427 +2 x9428 +2 x9429 +2 x9430 -1 x9306 -1 x9307 -1 x9308 -1 x9309 -1 x9310 -1 x9311 -1 x9312 -1 x9313 -1 x9314 -1 x9315 >= 0 ;
+2 x9431 +2 x9432 +2 x9433 +2 x9434 +2 x9435 -1 x9311 -1 x9312 -1 x9313 -1 x9314 -1 x9315 -1 x9316 -1 x9317 -1 x9318 -1 x9319 -1 x9320 >= 0 ;
+2 x9436 +2 x9437 +2 x9438 +2 x9439 +2 x9440 -1 x9316 -1 x9317 -1 x9318 -1 x9319 -1 x9320 -1 x9321 -1 x9322 -1 x9323 -1 x9324 -1 x9325 >= 0 ;
+2 x9441 +2 x9442 +2 x9443 +2 x9444 +2 x9445 -1 x9321 -1 x9322 -1 x9323 -1 x9324 -1 x9325 -1 x9326 -1 x9327 -1 x9328 -1 x9329 -1 x9330 >= 0 ;
+2 x9446 +2 x9447 +2 x9448 +2 x9449 +2 x9450 -1 x9326 -1 x9327 -1 x9328 -1 x9329 -1 x9330 -1 x9331 -1 x9332 -1 x9333 -1 x9334 -1 x9335 >= 0 ;
+2 x9451 +2 x9452 +2 x9453 +2 x9454 +2 x9455 -1 x9331 -1 x9332 -1 x9333 -1 x9334 -1 x9335 -1 x9336 -1 x9337 -1 x9338 -1 x9339 -1 x9340 >= 0 ;
+2 x9456 +2 x9457 +2 x9458 +2 x9459 +2 x9460 -1 x9336 -1 x9337 -1 x9338 -1 x9339 -1 x9340 -1 x9341 -1 x9342 -1 x9343 -1 x9344 -1 x9345 >= 0 ;
+2 x9461 +2 x9462 +2 x9463 +2 x9464 +2 x9465 -1 x9346 -1 x9347 -1 x9348 -1 x9349 -1 x9350 -1 x9351 -1 x9352 -1 x9353 -1 x9354 -1 x9355 >= 0 ;
+2 x9466 +2 x9467 +2 x9468 +2 x9469 +2 x9470 -1 x9351 -1 x9352 -1 x9353 -1 x9354 -1 x9355 -1 x9356 -1 x9357 -1 x9358 -1 x9359 -1 x9360 >= 0 ;
+2 x9471 +2 x9472 +2 x9473 +2 x9474 +2 x9475 -1 x9356 -1 x9357 -1 x9358 -1 x9359 -1 x9360 -1 x9361 -1 x9362 -1 x9363 -1 x9364 -1 x9365 >= 0 ;
+2 x9476 +2 x9477 +2 x9478 +2 x9479 +2 x9480 -1 x9361 -1 x9362 -1 x9363 -1 x9364 -1 x9365 -1 x9366 -1 x9367 -1 x9368 -1 x9369 -1 x9370 >= 0 ;
+2 x9481 +2 x9482 +2 x9483 +2 x9484 +2 x9485 -1 x9366 -1 x9367 -1 x9368 -1 x9369 -1 x9370 -1 x9371 -1 x9372 -1 x9373 -1 x9374 -1 x9375 >= 0 ;
+2 x9486 +2 x9487 +2 x9488 +2 x9489 +2 x9490 -1 x9371 -1 x9372 -1 x9373 -1 x9374 -1 x9375 -1 x9376 -1 x9377 -1 x9378 -1 x9379 -1 x9380 >= 0 ;
+2 x9491 +2 x9492 +2 x9493 +2 x9494 +2 x9495 -1 x9376 -1 x9377 -1 x9378 -1 x9379 -1 x9380 -1 x9381 -1 x9382 -1 x9383 -1 x9384 -1 x9385 >= 0 ;
+2 x9496 +2 x9497 +2 x9498 +2 x9499 +2 x9500 -1 x9381 -1 x9382 -1 x9383 -1 x9384 -1 x9385 -1 x9386 -1 x9387 -1 x9388 -1 x9389 -1 x9390 >= 0 ;
+2 x9501 +2 x9502 +2 x9503 +2 x9504 +2 x9505 -1 x9386 -1 x9387 -1 x9388 -1 x9389 -1 x9390 -1 x9391 -1 x9392 -1 x9393 -1 x9394 -1 x9395 >= 0 ;
+2 x9506 +2 x9507 +2 x9508 +2 x9509 +2 x9510 -1 x9391 -1 x9392 -1 x9393 -1 x9394 -1 x9395 -1 x9396 -1 x9397 -1 x9398 -1 x9399 -1 x9400 >= 0 ;
+2 x9511 +2 x9512 +2 x9513 +2 x9514 +2 x9515 -1 x9396 -1 x9397 -1 x9398 -1 x9399 -1 x9400 -1 x9401 -1 x9402 -1 x9403 -1 x9404 -1 x9405 >= 0 ;
+2 x9516 +2 x9517 +2 x9518 +2 x9519 +2 x9520 -1 x9401 -1 x9402 -1 x9403 -1 x9404 -1 x9405 -1 x9406 -1 x9407 -1 x9408 -1 x9409 -1 x9410 >= 0 ;
+2 x9521 +2 x9522 +2 x9523 +2 x9524 +2 x9525 -1 x9406 -1 x9407 -1 x9408 -1 x9409 -1 x9410 -1 x9411 -1 x9412 -1 x9413 -1 x9414 -1 x9415 >= 0 ;
+2 x9526 +2 x9527 +2 x9528 +2 x9529 +2 x9530 -1 x9411 -1 x9412 -1 x9413 -1 x9414 -1 x9415 -1 x9416 -1 x9417 -1 x9418 -1 x9419 -1 x9420 >= 0 ;
+2 x9531 +2 x9532 +2 x9533 +2 x9534 +2 x9535 -1 x9416 -1 x9417 -1 x9418 -1 x9419 -1 x9420 -1 x9421 -1 x9422 -1 x9423 -1 x9424 -1 x9425 >= 0 ;
+2 x9536 +2 x9537 +2 x9538 +2 x9539 +2 x9540 -1 x9421 -1 x9422 -1 x9423 -1 x9424 -1 x9425 -1 x9426 -1 x9427 -1 x9428 -1 x9429 -1 x9430 >= 0 ;
+2 x9541 +2 x9542 +2 x9543 +2 x9544 +2 x9545 -1 x9426 -1 x9427 -1 x9428 -1 x9429 -1 x9430 -1 x9431 -1 x9432 -1 x9433 -1 x9434 -1 x9435 >= 0 ;
+2 x9546 +2 x9547 +2 x9548 +2 x9549 +2 x9550 -1 x9431 -1 x9432 -1 x9433 -1 x9434 -1 x9435 -1 x9436 -1 x9437 -1 x9438 -1 x9439 -1 x9440 >= 0 ;
+2 x9551 +2 x9552 +2 x9553 +2 x9554 +2 x9555 -1 x9436 -1 x9437 -1 x9438 -1 x9439 -1 x9440 -1 x9441 -1 x9442 -1 x9443 -1 x9444 -1 x9445 >= 0 ;
+2 x9556 +2 x9557 +2 x9558 +2 x9559 +2 x9560 -1 x9441 -1 x9442 -1 x9443 -1 x9444 -1 x9445 -1 x9446 -1 x9447 -1 x9448 -1 x9449 -1 x9450 >= 0 ;
+2 x9561 +2 x9562 +2 x9563 +2 x9564 +2 x9565 -1 x9446 -1 x9447 -1 x9448 -1 x9449 -1 x9450 -1 x9451 -1 x9452 -1 x9453 -1 x9454 -1 x9455 >= 0 ;
+2 x9566 +2 x9567 +2 x9568 +2 x9569 +2 x9570 -1 x9451 -1 x9452 -1 x9453 -1 x9454 -1 x9455 -1 x9456 -1 x9457 -1 x9458 -1 x9459 -1 x9460 >= 0 ;
+2 x9571 +2 x9572 +2 x9573 +2 x9574 +2 x9575 -1 x9461 -1 x9462 -1 x9463 -1 x9464 -1 x9465 -1 x9466 -1 x9467 -1 x9468 -1 x9469 -1 x9470 >= 0 ;
+2 x9576 +2 x9577 +2 x9578 +2 x9579 +2 x9580 -1 x9466 -1 x9467 -1 x9468 -1 x9469 -1 x9470 -1 x9471 -1 x9472 -1 x9473 -1 x9474 -1 x9475 >= 0 ;
+2 x9581 +2 x9582 +2 x9583 +2 x9584 +2 x9585 -1 x9471 -1 x9472 -1 x9473 -1 x9474 -1 x9475 -1 x9476 -1 x9477 -1 x9478 -1 x9479 -1 x9480 >= 0 ;
+2 x9586 +2 x9587 +2 x9588 +2 x9589 +2 x9590 -1 x9476 -1 x9477 -1 x9478 -1 x9479 -1 x9480 -1 x9481 -1 x9482 -1 x9483 -1 x9484 -1 x9485 >= 0 ;
+2 x9591 +2 x9592 +2 x9593 +2 x9594 +2 x9595 -1 x9481 -1 x9482 -1 x9483 -1 x9484 -1 x9485 -1 x9486 -1 x9487 -1 x9488 -1 x9489 -1 x9490 >= 0 ;
+2 x9596 +2 x9597 +2 x9598 +2 x9599 +2 x9600 -1 x9486 -1 x9487 -1 x9488 -1 x9489 -1 x9490 -1 x9491 -1 x9492 -1 x9493 -1 x9494 -1 x9495 >= 0 ;
+2 x9601 +2 x9602 +2 x9603 +2 x9604 +2 x9605 -1 x9491 -1 x9492 -1 x9493 -1 x9494 -1 x9495 -1 x9496 -1 x9497 -1 x9498 -1 x9499 -1 x9500 >= 0 ;
+2 x9606 +2 x9607 +2 x9608 +2 x9609 +2 x9610 -1 x9496 -1 x9497 -1 x9498 -1 x9499 -1 x9500 -1 x9501 -1 x9502 -1 x9503 -1 x9504 -1 x9505 >= 0 ;
+2 x9611 +2 x9612 +2 x9613 +2 x9614 +2 x9615 -1 x9501 -1 x9502 -1 x9503 -1 x9504 -1 x9505 -1 x9506 -1 x9507 -1 x9508 -1 x9509 -1 x9510 >= 0 ;
+2 x9616 +2 x9617 +2 x9618 +2 x9619 +2 x9620 -1 x9506 -1 x9507 -1 x9508 -1 x9509 -1 x9510 -1 x9511 -1 x9512 -1 x9513 -1 x9514 -1 x9515 >= 0 ;
+2 x9621 +2 x9622 +2 x9623 +2 x9624 +2 x9625 -1 x9511 -1 x9512 -1 x9513 -1 x9514 -1 x9515 -1 x9516 -1 x9517 -1 x9518 -1 x9519 -1 x9520 >= 0 ;
+2 x9626 +2 x9627 +2 x9628 +2 x9629 +2 x9630 -1 x9516 -1 x9517 -1 x9518 -1 x9519 -1 x9520 -1 x9521 -1 x9522 -1 x9523 -1 x9524 -1 x9525 >= 0 ;
+2 x9631 +2 x9632 +2 x9633 +2 x9634 +2 x9635 -1 x9521 -1 x9522 -1 x9523 -1 x9524 -1 x9525 -1 x9526 -1 x9527 -1 x9528 -1 x9529 -1 x9530 >= 0 ;
+2 x9636 +2 x9637 +2 x9638 +2 x9639 +2 x9640 -1 x9526 -1 x9527 -1 x9528 -1 x9529 -1 x9530 -1 x9531 -1 x9532 -1 x9533 -1 x9534 -1 x9535 >= 0 ;
+2 x9641 +2 x9642 +2 x9643 +2 x9644 +2 x9645 -1 x9531 -1 x9532 -1 x9533 -1 x9534 -1 x9535 -1 x9536 -1 x9537 -1 x9538 -1 x9539 -1 x9540 >= 0 ;
+2 x9646 +2 x9647 +2 x9648 +2 x9649 +2 x9650 -1 x9536 -1 x9537 -1 x9538 -1 x9539 -1 x9540 -1 x9541 -1 x9542 -1 x9543 -1 x9544 -1 x9545 >= 0 ;
+2 x9651 +2 x9652 +2 x9653 +2 x9654 +2 x9655 -1 x9541 -1 x9542 -1 x9543 -1 x9544 -1 x9545 -1 x9546 -1 x9547 -1 x9548 -1 x9549 -1 x9550 >= 0 ;
+2 x9656 +2 x9657 +2 x9658 +2 x9659 +2 x9660 -1 x9546 -1 x9547 -1 x9548 -1 x9549 -1 x9550 -1 x9551 -1 x9552 -1 x9553 -1 x9554 -1 x9555 >= 0 ;
+2 x9661 +2 x9662 +2 x9663 +2 x9664 +2 x9665 -1 x9551 -1 x9552 -1 x9553 -1 x9554 -1 x9555 -1 x9556 -1 x9557 -1 x9558 -1 x9559 -1 x9560 >= 0 ;
+2 x9666 +2 x9667 +2 x9668 +2 x9669 +2 x9670 -1 x9556 -1 x9557 -1 x9558 -1 x9559 -1 x9560 -1 x9561 -1 x9562 -1 x9563 -1 x9564 -1 x9565 >= 0 ;
+2 x9671 +2 x9672 +2 x9673 +2 x9674 +2 x9675 -1 x9561 -1 x9562 -1 x9563 -1 x9564 -1 x9565 -1 x9566 -1 x9567 -1 x9568 -1 x9569 -1 x9570 >= 0 ;
+2 x9676 +2 x9677 +2 x9678 +2 x9679 +2 x9680 -1 x9571 -1 x9572 -1 x9573 -1 x9574 -1 x9575 -1 x9576 -1 x9577 -1 x9578 -1 x9579 -1 x9580 >= 0 ;
+2 x9681 +2 x9682 +2 x9683 +2 x9684 +2 x9685 -1 x9576 -1 x9577 -1 x9578 -1 x9579 -1 x9580 -1 x9581 -1 x9582 -1 x9583 -1 x9584 -1 x9585 >= 0 ;
+2 x9686 +2 x9687 +2 x9688 +2 x9689 +2 x9690 -1 x9581 -1 x9582 -1 x9583 -1 x9584 -1 x9585 -1 x9586 -1 x9587 -1 x9588 -1 x9589 -1 x9590 >= 0 ;
+2 x9691 +2 x9692 +2 x9693 +2 x9694 +2 x9695 -1 x9586 -1 x9587 -1 x9588 -1 x9589 -1 x9590 -1 x9591 -1 x9592 -1 x9593 -1 x9594 -1 x9595 >= 0 ;
+2 x9696 +2 x9697 +2 x9698 +2 x9699 +2 x9700 -1 x9591 -1 x9592 -1 x9593 -1 x9594 -1 x9595 -1 x9596 -1 x9597 -1 x9598 -1 x9599 -1 x9600 >= 0 ;
+2 x9701 +2 x9702 +2 x9703 +2 x9704 +2 x9705 -1 x9596 -1 x9597 -1 x9598 -1 x9599 -1 x9600 -1 x9601 -1 x9602 -1 x9603 -1 x9604 -1 x9605 >= 0 ;
+2 x9706 +2 x9707 +2 x9708 +2 x9709 +2 x9710 -1 x9601 -1 x9602 -1 x9603 -1 x9604 -1 x9605 -1 x9606 -1 x9607 -1 x9608 -1 x9609 -1 x9610 >= 0 ;
+2 x9711 +2 x9712 +2 x9713 +2 x9714 +2 x9715 -1 x9606 -1 x9607 -1 x9608 -1 x9609 -1 x9610 -1 x9611 -1 x9612 -1 x9613 -1 x9614 -1 x9615 >= 0 ;
+2 x9716 +2 x9717 +2 x9718 +2 x9719 +2 x9720 -1 x9611 -1 x9612 -1 x9613 -1 x9614 -1 x9615 -1 x9616 -1 x9617 -1 x9618 -1 x9619 -1 x9620 >= 0 ;
+2 x9721 +2 x9722 +2 x9723 +2 x9724 +2 x9725 -1 x9616 -1 x9617 -1 x9618 -1 x9619 -1 x9620 -1 x9621 -1 x9622 -1 x9623 -1 x9624 -1 x9625 >= 0 ;
+2 x9726 +2 x9727 +2 x9728 +2 x9729 +2 x9730 -1 x9621 -1 x9622 -1 x9623 -1 x9624 -1 x9625 -1 x9626 -1 x9627 -1 x9628 -1 x9629 -1 x9630 >= 0 ;
+2 x9731 +2 x9732 +2 x9733 +2 x9734 +2 x9735 -1 x9626 -1 x9627 -1 x9628 -1 x9629 -1 x9630 -1 x9631 -1 x9632 -1 x9633 -1 x9634 -1 x9635 >= 0 ;
+2 x9736 +2 x9737 +2 x9738 +2 x9739 +2 x9740 -1 x9631 -1 x9632 -1 x9633 -1 x9634 -1 x9635 -1 x9636 -1 x9637 -1 x9638 -1 x9639 -1 x9640 >= 0 ;
+2 x9741 +2 x9742 +2 x9743 +2 x9744 +2 x9745 -1 x9636 -1 x9637 -1 x9638 -1 x9639 -1 x9640 -1 x9641 -1 x9642 -1 x9643 -1 x9644 -1 x9645 >= 0 ;
+2 x9746 +2 x9747 +2 x9748 +2 x9749 +2 x9750 -1 x9641 -1 x9642 -1 x9643 -1 x9644 -1 x9645 -1 x9646 -1 x9647 -1 x9648 -1 x9649 -1 x9650 >= 0 ;
+2 x9751 +2 x9752 +2 x9753 +2 x9754 +2 x9755 -1 x9646 -1 x9647 -1 x9648 -1 x9649 -1 x9650 -1 x9651 -1 x9652 -1 x9653 -1 x9654 -1 x9655 >= 0 ;
+2 x9756 +2 x9757 +2 x9758 +2 x9759 +2 x9760 -1 x9651 -1 x9652 -1 x9653 -1 x9654 -1 x9655 -1 x9656 -1 x9657 -1 x9658 -1 x9659 -1 x9660 >= 0 ;
+2 x9761 +2 x9762 +2 x9763 +2 x9764 +2 x9765 -1 x9656 -1 x9657 -1 x9658 -1 x9659 -1 x9660 -1 x9661 -1 x9662 -1 x9663 -1 x9664 -1 x9665 >= 0 ;
+2 x9766 +2 x9767 +2 x9768 +2 x9769 +2 x9770 -1 x9661 -1 x9662 -1 x9663 -1 x9664 -1 x9665 -1 x9666 -1 x9667 -1 x9668 -1 x9669 -1 x9670 >= 0 ;
+2 x9771 +2 x9772 +2 x9773 +2 x9774 +2 x9775 -1 x9666 -1 x9667 -1 x9668 -1 x9669 -1 x9670 -1 x9671 -1 x9672 -1 x9673 -1 x9674 -1 x9675 >= 0 ;
+2 x9776 +2 x9777 +2 x9778 +2 x9779 +2 x9780 -1 x9676 -1 x9677 -1 x9678 -1 x9679 -1 x9680 -1 x9681 -1 x9682 -1 x9683 -1 x9684 -1 x9685 >= 0 ;
+2 x9781 +2 x9782 +2 x9783 +2 x9784 +2 x9785 -1 x9681 -1 x9682 -1 x9683 -1 x9684 -1 x9685 -1 x9686 -1 x9687 -1 x9688 -1 x9689 -1 x9690 >= 0 ;
+2 x9786 +2 x9787 +2 x9788 +2 x9789 +2 x9790 -1 x9686 -1 x9687 -1 x9688 -1 x9689 -1 x9690 -1 x9691 -1 x9692 -1 x9693 -1 x9694 -1 x9695 >= 0 ;
+2 x9791 +2 x9792 +2 x9793 +2 x9794 +2 x9795 -1 x9691 -1 x9692 -1 x9693 -1 x9694 -1 x9695 -1 x9696 -1 x9697 -1 x9698 -1 x9699 -1 x9700 >= 0 ;
+2 x9796 +2 x9797 +2 x9798 +2 x9799 +2 x9800 -1 x9696 -1 x9697 -1 x9698 -1 x9699 -1 x9700 -1 x9701 -1 x9702 -1 x9703 -1 x9704 -1 x9705 >= 0 ;
+2 x9801 +2 x9802 +2 x9803 +2 x9804 +2 x9805 -1 x9701 -1 x9702 -1 x9703 -1 x9704 -1 x9705 -1 x9706 -1 x9707 -1 x9708 -1 x9709 -1 x9710 >= 0 ;
+2 x9806 +2 x9807 +2 x9808 +2 x9809 +2 x9810 -1 x9706 -1 x9707 -1 x9708 -1 x9709 -1 x9710 -1 x9711 -1 x9712 -1 x9713 -1 x9714 -1 x9715 >= 0 ;
+2 x9811 +2 x9812 +2 x9813 +2 x9814 +2 x9815 -1 x9711 -1 x9712 -1 x9713 -1 x9714 -1 x9715 -1 x9716 -1 x9717 -1 x9718 -1 x9719 -1 x9720 >= 0 ;
+2 x9816 +2 x9817 +2 x9818 +2 x9819 +2 x9820 -1 x9716 -1 x9717 -1 x9718 -1 x9719 -1 x9720 -1 x9721 -1 x9722 -1 x9723 -1 x9724 -1 x9725 >= 0 ;
+2 x9821 +2 x9822 +2 x9823 +2 x9824 +2 x9825 -1 x9721 -1 x9722 -1 x9723 -1 x9724 -1 x9725 -1 x9726 -1 x9727 -1 x9728 -1 x9729 -1 x9730 >= 0 ;
+2 x9826 +2 x9827 +2 x9828 +2 x9829 +2 x9830 -1 x9726 -1 x9727 -1 x9728 -1 x9729 -1 x9730 -1 x9731 -1 x9732 -1 x9733 -1 x9734 -1 x9735 >= 0 ;
+2 x9831 +2 x9832 +2 x9833 +2 x9834 +2 x9835 -1 x9731 -1 x9732 -1 x9733 -1 x9734 -1 x9735 -1 x9736 -1 x9737 -1 x9738 -1 x9739 -1 x9740 >= 0 ;
+2 x9836 +2 x9837 +2 x9838 +2 x9839 +2 x9840 -1 x9736 -1 x9737 -1 x9738 -1 x9739 -1 x9740 -1 x9741 -1 x9742 -1 x9743 -1 x9744 -1 x9745 >= 0 ;
+2 x9841 +2 x9842 +2 x9843 +2 x9844 +2 x9845 -1 x9741 -1 x9742 -1 x9743 -1 x9744 -1 x9745 -1 x9746 -1 x9747 -1 x9748 -1 x9749 -1 x9750 >= 0 ;
+2 x9846 +2 x9847 +2 x9848 +2 x9849 +2 x9850 -1 x9746 -1 x9747 -1 x9748 -1 x9749 -1 x9750 -1 x9751 -1 x9752 -1 x9753 -1 x9754 -1 x9755 >= 0 ;
+2 x9851 +2 x9852 +2 x9853 +2 x9854 +2 x9855 -1 x9751 -1 x9752 -1 x9753 -1 x9754 -1 x9755 -1 x9756 -1 x9757 -1 x9758 -1 x9759 -1 x9760 >= 0 ;
+2 x9856 +2 x9857 +2 x9858 +2 x9859 +2 x9860 -1 x9756 -1 x9757 -1 x9758 -1 x9759 -1 x9760 -1 x9761 -1 x9762 -1 x9763 -1 x9764 -1 x9765 >= 0 ;
+2 x9861 +2 x9862 +2 x9863 +2 x9864 +2 x9865 -1 x9761 -1 x9762 -1 x9763 -1 x9764 -1 x9765 -1 x9766 -1 x9767 -1 x9768 -1 x9769 -1 x9770 >= 0 ;
+2 x9866 +2 x9867 +2 x9868 +2 x9869 +2 x9870 -1 x9766 -1 x9767 -1 x9768 -1 x9769 -1 x9770 -1 x9771 -1 x9772 -1 x9773 -1 x9774 -1 x9775 >= 0 ;
+2 x9871 +2 x9872 +2 x9873 +2 x9874 +2 x9875 -1 x9776 -1 x9777 -1 x9778 -1 x9779 -1 x9780 -1 x9781 -1 x9782 -1 x9783 -1 x9784 -1 x9785 >= 0 ;
+2 x9876 +2 x9877 +2 x9878 +2 x9879 +2 x9880 -1 x9781 -1 x9782 -1 x9783 -1 x9784 -1 x9785 -1 x9786 -1 x9787 -1 x9788 -1 x9789 -1 x9790 >= 0 ;
+2 x9881 +2 x9882 +2 x9883 +2 x9884 +2 x9885 -1 x9786 -1 x9787 -1 x9788 -1 x9789 -1 x9790 -1 x9791 -1 x9792 -1 x9793 -1 x9794 -1 x9795 >= 0 ;
+2 x9886 +2 x9887 +2 x9888 +2 x9889 +2 x9890 -1 x9791 -1 x9792 -1 x9793 -1 x9794 -1 x9795 -1 x9796 -1 x9797 -1 x9798 -1 x9799 -1 x9800 >= 0 ;
+2 x9891 +2 x9892 +2 x9893 +2 x9894 +2 x9895 -1 x9796 -1 x9797 -1 x9798 -1 x9799 -1 x9800 -1 x9801 -1 x9802 -1 x9803 -1 x9804 -1 x9805 >= 0 ;
+2 x9896 +2 x9897 +2 x9898 +2 x9899 +2 x9900 -1 x9801 -1 x9802 -1 x9803 -1 x9804 -1 x9805 -1 x9806 -1 x9807 -1 x9808 -1 x9809 -1 x9810 >= 0 ;
+2 x9901 +2 x9902 +2 x9903 +2 x9904 +2 x9905 -1 x9806 -1 x9807 -1 x9808 -1 x9809 -1 x9810 -1 x9811 -1 x9812 -1 x9813 -1 x9814 -1 x9815 >= 0 ;
+2 x9906 +2 x9907 +2 x9908 +2 x9909 +2 x9910 -1 x9811 -1 x9812 -1 x9813 -1 x9814 -1 x9815 -1 x9816 -1 x9817 -1 x9818 -1 x9819 -1 x9820 >= 0 ;
+2 x9911 +2 x9912 +2 x9913 +2 x9914 +2 x9915 -1 x9816 -1 x9817 -1 x9818 -1 x9819 -1 x9820 -1 x9821 -1 x9822 -1 x9823 -1 x9824 -1 x9825 >= 0 ;
+2 x9916 +2 x9917 +2 x9918 +2 x9919 +2 x9920 -1 x9821 -1 x9822 -1 x9823 -1 x9824 -1 x9825 -1 x9826 -1 x9827 -1 x9828 -1 x9829 -1 x9830 >= 0 ;
+2 x9921 +2 x9922 +2 x9923 +2 x9924 +2 x9925 -1 x9826 -1 x9827 -1 x9828 -1 x9829 -1 x9830 -1 x9831 -1 x9832 -1 x9833 -1 x9834 -1 x9835 >= 0 ;
+2 x9926 +2 x9927 +2 x9928 +2 x9929 +2 x9930 -1 x9831 -1 x9832 -1 x9833 -1 x9834 -1 x9835 -1 x9836 -1 x9837 -1 x9838 -1 x9839 -1 x9840 >= 0 ;
+2 x9931 +2 x9932 +2 x9933 +2 x9934 +2 x9935 -1 x9836 -1 x9837 -1 x9838 -1 x9839 -1 x9840 -1 x9841 -1 x9842 -1 x9843 -1 x9844 -1 x9845 >= 0 ;
+2 x9936 +2 x9937 +2 x9938 +2 x9939 +2 x9940 -1 x9841 -1 x9842 -1 x9843 -1 x9844 -1 x9845 -1 x9846 -1 x9847 -1 x9848 -1 x9849 -1 x9850 >= 0 ;
+2 x9941 +2 x9942 +2 x9943 +2 x9944 +2 x9945 -1 x9846 -1 x9847 -1 x9848 -1 x9849 -1 x9850 -1 x9851 -1 x9852 -1 x9853 -1 x9854 -1 x9855 >= 0 ;
+2 x9946 +2 x9947 +2 x9948 +2 x9949 +2 x9950 -1 x9851 -1 x9852 -1 x9853 -1 x9854 -1 x9855 -1 x9856 -1 x9857 -1 x9858 -1 x9859 -1 x9860 >= 0 ;
+2 x9951 +2 x9952 +2 x9953 +2 x9954 +2 x9955 -1 x9856 -1 x9857 -1 x9858 -1 x9859 -1 x9860 -1 x9861 -1 x9862 -1 x9863 -1 x9864 -1 x9865 >= 0 ;
+2 x9956 +2 x9957 +2 x9958 +2 x9959 +2 x9960 -1 x9861 -1 x9862 -1 x9863 -1 x9864 -1 x9865 -1 x9866 -1 x9867 -1 x9868 -1 x9869 -1 x9870 >= 0 ;
+2 x9961 +2 x9962 +2 x9963 +2 x9964 +2 x9965 -1 x9871 -1 x9872 -1 x9873 -1 x9874 -1 x9875 -1 x9876 -1 x9877 -1 x9878 -1 x9879 -1 x9880 >= 0 ;
+2 x9966 +2 x9967 +2 x9968 +2 x9969 +2 x9970 -1 x9876 -1 x9877 -1 x9878 -1 x9879 -1 x9880 -1 x9881 -1 x9882 -1 x9883 -1 x9884 -1 x9885 >= 0 ;
+2 x9971 +2 x9972 +2 x9973 +2 x9974 +2 x9975 -1 x9881 -1 x9882 -1 x9883 -1 x9884 -1 x9885 -1 x9886 -1 x9887 -1 x9888 -1 x9889 -1 x9890 >= 0 ;
+2 x9976 +2 x9977 +2 x9978 +2 x9979 +2 x9980 -1 x9886 -1 x9887 -1 x9888 -1 x9889 -1 x9890 -1 x9891 -1 x9892 -1 x9893 -1 x9894 -1 x9895 >= 0 ;
+2 x9981 +2 x9982 +2 x9983 +2 x9984 +2 x9985 -1 x9891 -1 x9892 -1 x9893 -1 x9894 -1 x9895 -1 x9896 -1 x9897 -1 x9898 -1 x9899 -1 x9900 >= 0 ;
+2 x9986 +2 x9987 +2 x9988 +2 x9989 +2 x9990 -1 x9896 -1 x9897 -1 x9898 -1 x9899 -1 x9900 -1 x9901 -1 x9902 -1 x9903 -1 x9904 -1 x9905 >= 0 ;
+2 x9991 +2 x9992 +2 x9993 +2 x9994 +2 x9995 -1 x9901 -1 x9902 -1 x9903 -1 x9904 -1 x9905 -1 x9906 -1 x9907 -1 x9908 -1 x9909 -1 x9910 >= 0 ;
+2 x9996 +2 x9997 +2 x9998 +2 x9999 +2 x10000 -1 x9906 -1 x9907 -1 x9908 -1 x9909 -1 x9910 -1 x9911 -1 x9912 -1 x9913 -1 x9914 -1 x9915 >= 0 ;
+2 x10001 +2 x10002 +2 x10003 +2 x10004 +2 x10005 -1 x9911 -1 x9912 -1 x9913 -1 x9914 -1 x9915 -1 x9916 -1 x9917 -1 x9918 -1 x9919 -1 x9920 >= 0 ;
+2 x10006 +2 x10007 +2 x10008 +2 x10009 +2 x10010 -1 x9916 -1 x9917 -1 x9918 -1 x9919 -1 x9920 -1 x9921 -1 x9922 -1 x9923 -1 x9924 -1 x9925 >= 0 ;
+2 x10011 +2 x10012 +2 x10013 +2 x10014 +2 x10015 -1 x9921 -1 x9922 -1 x9923 -1 x9924 -1 x9925 -1 x9926 -1 x9927 -1 x9928 -1 x9929 -1 x9930 >= 0 ;
+2 x10016 +2 x10017 +2 x10018 +2 x10019 +2 x10020 -1 x9926 -1 x9927 -1 x9928 -1 x9929 -1 x9930 -1 x9931 -1 x9932 -1 x9933 -1 x9934 -1 x9935 >= 0 ;
+2 x10021 +2 x10022 +2 x10023 +2 x10024 +2 x10025 -1 x9931 -1 x9932 -1 x9933 -1 x9934 -1 x9935 -1 x9936 -1 x9937 -1 x9938 -1 x9939 -1 x9940 >= 0 ;
+2 x10026 +2 x10027 +2 x10028 +2 x10029 +2 x10030 -1 x9936 -1 x9937 -1 x9938 -1 x9939 -1 x9940 -1 x9941 -1 x9942 -1 x9943 -1 x9944 -1 x9945 >= 0 ;
+2 x10031 +2 x10032 +2 x10033 +2 x10034 +2 x10035 -1 x9941 -1 x9942 -1 x9943 -1 x9944 -1 x9945 -1 x9946 -1 x9947 -1 x9948 -1 x9949 -1 x9950 >= 0 ;
+2 x10036 +2 x10037 +2 x10038 +2 x10039 +2 x10040 -1 x9946 -1 x9947 -1 x9948 -1 x9949 -1 x9950 -1 x9951 -1 x9952 -1 x9953 -1 x9954 -1 x9955 >= 0 ;
+2 x10041 +2 x10042 +2 x10043 +2 x10044 +2 x10045 -1 x9951 -1 x9952 -1 x9953 -1 x9954 -1 x9955 -1 x9956 -1 x9957 -1 x9958 -1 x9959 -1 x9960 >= 0 ;
+2 x10046 +2 x10047 +2 x10048 +2 x10049 +2 x10050 -1 x9961 -1 x9962 -1 x9963 -1 x9964 -1 x9965 -1 x9966 -1 x9967 -1 x9968 -1 x9969 -1 x9970 >= 0 ;
+2 x10051 +2 x10052 +2 x10053 +2 x10054 +2 x10055 -1 x9966 -1 x9967 -1 x9968 -1 x9969 -1 x9970 -1 x9971 -1 x9972 -1 x9973 -1 x9974 -1 x9975 >= 0 ;
+2 x10056 +2 x10057 +2 x10058 +2 x10059 +2 x10060 -1 x9971 -1 x9972 -1 x9973 -1 x9974 -1 x9975 -1 x9976 -1 x9977 -1 x9978 -1 x9979 -1 x9980 >= 0 ;
+2 x10061 +2 x10062 +2 x10063 +2 x10064 +2 x10065 -1 x9976 -1 x9977 -1 x9978 -1 x9979 -1 x9980 -1 x9981 -1 x9982 -1 x9983 -1 x9984 -1 x9985 >= 0 ;
+2 x10066 +2 x10067 +2 x10068 +2 x10069 +2 x10070 -1 x9981 -1 x9982 -1 x9983 -1 x9984 -1 x9985 -1 x9986 -1 x9987 -1 x9988 -1 x9989 -1 x9990 >= 0 ;
+2 x10071 +2 x10072 +2 x10073 +2 x10074 +2 x10075 -1 x9986 -1 x9987 -1 x9988 -1 x9989 -1 x9990 -1 x9991 -1 x9992 -1 x9993 -1 x9994 -1 x9995 >= 0 ;
+2 x10076 +2 x10077 +2 x10078 +2 x10079 +2 x10080 -1 x9991 -1 x9992 -1 x9993 -1 x9994 -1 x9995 -1 x9996 -1 x9997 -1 x9998 -1 x9999 -1 x10000 >= 0 ;
+2 x10081 +2 x10082 +2 x10083 +2 x10084 +2 x10085 -1 x9996 -1 x9997 -1 x9998 -1 x9999 -1 x10000 -1 x10001 -1 x10002 -1 x10003 -1 x10004 -1 x10005 >= 0 ;
+2 x10086 +2 x10087 +2 x10088 +2 x10089 +2 x10090 -1 x10001 -1 x10002 -1 x10003 -1 x10004 -1 x10005 -1 x10006 -1 x10007 -1 x10008 -1 x10009 -1 x10010 >= 0 ;
+2 x10091 +2 x10092 +2 x10093 +2 x10094 +2 x10095 -1 x10006 -1 x10007 -1 x10008 -1 x10009 -1 x10010 -1 x10011 -1 x10012 -1 x10013 -1 x10014 -1 x10015 >= 0 ;
+2 x10096 +2 x10097 +2 x10098 +2 x10099 +2 x10100 -1 x10011 -1 x10012 -1 x10013 -1 x10014 -1 x10015 -1 x10016 -1 x10017 -1 x10018 -1 x10019 -1 x10020 >= 0 ;
+2 x10101 +2 x10102 +2 x10103 +2 x10104 +2 x10105 -1 x10016 -1 x10017 -1 x10018 -1 x10019 -1 x10020 -1 x10021 -1 x10022 -1 x10023 -1 x10024 -1 x10025 >= 0 ;
+2 x10106 +2 x10107 +2 x10108 +2 x10109 +2 x10110 -1 x10021 -1 x10022 -1 x10023 -1 x10024 -1 x10025 -1 x10026 -1 x10027 -1 x10028 -1 x10029 -1 x10030 >= 0 ;
+2 x10111 +2 x10112 +2 x10113 +2 x10114 +2 x10115 -1 x10026 -1 x10027 -1 x10028 -1 x10029 -1 x10030 -1 x10031 -1 x10032 -1 x10033 -1 x10034 -1 x10035 >= 0 ;
+2 x10116 +2 x10117 +2 x10118 +2 x10119 +2 x10120 -1 x10031 -1 x10032 -1 x10033 -1 x10034 -1 x10035 -1 x10036 -1 x10037 -1 x10038 -1 x10039 -1 x10040 >= 0 ;
+2 x10121 +2 x10122 +2 x10123 +2 x10124 +2 x10125 -1 x10036 -1 x10037 -1 x10038 -1 x10039 -1 x10040 -1 x10041 -1 x10042 -1 x10043 -1 x10044 -1 x10045 >= 0 ;
+2 x10126 +2 x10127 +2 x10128 +2 x10129 +2 x10130 -1 x10046 -1 x10047 -1 x10048 -1 x10049 -1 x10050 -1 x10051 -1 x10052 -1 x10053 -1 x10054 -1 x10055 >= 0 ;
+2 x10131 +2 x10132 +2 x10133 +2 x10134 +2 x10135 -1 x10051 -1 x10052 -1 x10053 -1 x10054 -1 x10055 -1 x10056 -1 x10057 -1 x10058 -1 x10059 -1 x10060 >= 0 ;
+2 x10136 +2 x10137 +2 x10138 +2 x10139 +2 x10140 -1 x10056 -1 x10057 -1 x10058 -1 x10059 -1 x10060 -1 x10061 -1 x10062 -1 x10063 -1 x10064 -1 x10065 >= 0 ;
+2 x10141 +2 x10142 +2 x10143 +2 x10144 +2 x10145 -1 x10061 -1 x10062 -1 x10063 -1 x10064 -1 x10065 -1 x10066 -1 x10067 -1 x10068 -1 x10069 -1 x10070 >= 0 ;
+2 x10146 +2 x10147 +2 x10148 +2 x10149 +2 x10150 -1 x10066 -1 x10067 -1 x10068 -1 x10069 -1 x10070 -1 x10071 -1 x10072 -1 x10073 -1 x10074 -1 x10075 >= 0 ;
+2 x10151 +2 x10152 +2 x10153 +2 x10154 +2 x10155 -1 x10071 -1 x10072 -1 x10073 -1 x10074 -1 x10075 -1 x10076 -1 x10077 -1 x10078 -1 x10079 -1 x10080 >= 0 ;
+2 x10156 +2 x10157 +2 x10158 +2 x10159 +2 x10160 -1 x10076 -1 x10077 -1 x10078 -1 x10079 -1 x10080 -1 x10081 -1 x10082 -1 x10083 -1 x10084 -1 x10085 >= 0 ;
+2 x10161 +2 x10162 +2 x10163 +2 x10164 +2 x10165 -1 x10081 -1 x10082 -1 x10083 -1 x10084 -1 x10085 -1 x10086 -1 x10087 -1 x10088 -1 x10089 -1 x10090 >= 0 ;
+2 x10166 +2 x10167 +2 x10168 +2 x10169 +2 x10170 -1 x10086 -1 x10087 -1 x10088 -1 x10089 -1 x10090 -1 x10091 -1 x10092 -1 x10093 -1 x10094 -1 x10095 >= 0 ;
+2 x10171 +2 x10172 +2 x10173 +2 x10174 +2 x10175 -1 x10091 -1 x10092 -1 x10093 -1 x10094 -1 x10095 -1 x10096 -1 x10097 -1 x10098 -1 x10099 -1 x10100 >= 0 ;
+2 x10176 +2 x10177 +2 x10178 +2 x10179 +2 x10180 -1 x10096 -1 x10097 -1 x10098 -1 x10099 -1 x10100 -1 x10101 -1 x10102 -1 x10103 -1 x10104 -1 x10105 >= 0 ;
+2 x10181 +2 x10182 +2 x10183 +2 x10184 +2 x10185 -1 x10101 -1 x10102 -1 x10103 -1 x10104 -1 x10105 -1 x10106 -1 x10107 -1 x10108 -1 x10109 -1 x10110 >= 0 ;
+2 x10186 +2 x10187 +2 x10188 +2 x10189 +2 x10190 -1 x10106 -1 x10107 -1 x10108 -1 x10109 -1 x10110 -1 x10111 -1 x10112 -1 x10113 -1 x10114 -1 x10115 >= 0 ;
+2 x10191 +2 x10192 +2 x10193 +2 x10194 +2 x10195 -1 x10111 -1 x10112 -1 x10113 -1 x10114 -1 x10115 -1 x10116 -1 x10117 -1 x10118 -1 x10119 -1 x10120 >= 0 ;
+2 x10196 +2 x10197 +2 x10198 +2 x10199 +2 x10200 -1 x10116 -1 x10117 -1 x10118 -1 x10119 -1 x10120 -1 x10121 -1 x10122 -1 x10123 -1 x10124 -1 x10125 >= 0 ;
+2 x10201 +2 x10202 +2 x10203 +2 x10204 +2 x10205 -1 x10126 -1 x10127 -1 x10128 -1 x10129 -1 x10130 -1 x10131 -1 x10132 -1 x10133 -1 x10134 -1 x10135 >= 0 ;
+2 x10206 +2 x10207 +2 x10208 +2 x10209 +2 x10210 -1 x10131 -1 x10132 -1 x10133 -1 x10134 -1 x10135 -1 x10136 -1 x10137 -1 x10138 -1 x10139 -1 x10140 >= 0 ;
+2 x10211 +2 x10212 +2 x10213 +2 x10214 +2 x10215 -1 x10136 -1 x10137 -1 x10138 -1 x10139 -1 x10140 -1 x10141 -1 x10142 -1 x10143 -1 x10144 -1 x10145 >= 0 ;
+2 x10216 +2 x10217 +2 x10218 +2 x10219 +2 x10220 -1 x10141 -1 x10142 -1 x10143 -1 x10144 -1 x10145 -1 x10146 -1 x10147 -1 x10148 -1 x10149 -1 x10150 >= 0 ;
+2 x10221 +2 x10222 +2 x10223 +2 x10224 +2 x10225 -1 x10146 -1 x10147 -1 x10148 -1 x10149 -1 x10150 -1 x10151 -1 x10152 -1 x10153 -1 x10154 -1 x10155 >= 0 ;
+2 x10226 +2 x10227 +2 x10228 +2 x10229 +2 x10230 -1 x10151 -1 x10152 -1 x10153 -1 x10154 -1 x10155 -1 x10156 -1 x10157 -1 x10158 -1 x10159 -1 x10160 >= 0 ;
+2 x10231 +2 x10232 +2 x10233 +2 x10234 +2 x10235 -1 x10156 -1 x10157 -1 x10158 -1 x10159 -1 x10160 -1 x10161 -1 x10162 -1 x10163 -1 x10164 -1 x10165 >= 0 ;
+2 x10236 +2 x10237 +2 x10238 +2 x10239 +2 x10240 -1 x10161 -1 x10162 -1 x10163 -1 x10164 -1 x10165 -1 x10166 -1 x10167 -1 x10168 -1 x10169 -1 x10170 >= 0 ;
+2 x10241 +2 x10242 +2 x10243 +2 x10244 +2 x10245 -1 x10166 -1 x10167 -1 x10168 -1 x10169 -1 x10170 -1 x10171 -1 x10172 -1 x10173 -1 x10174 -1 x10175 >= 0 ;
+2 x10246 +2 x10247 +2 x10248 +2 x10249 +2 x10250 -1 x10171 -1 x10172 -1 x10173 -1 x10174 -1 x10175 -1 x10176 -1 x10177 -1 x10178 -1 x10179 -1 x10180 >= 0 ;
+2 x10251 +2 x10252 +2 x10253 +2 x10254 +2 x10255 -1 x10176 -1 x10177 -1 x10178 -1 x10179 -1 x10180 -1 x10181 -1 x10182 -1 x10183 -1 x10184 -1 x10185 >= 0 ;
+2 x10256 +2 x10257 +2 x10258 +2 x10259 +2 x10260 -1 x10181 -1 x10182 -1 x10183 -1 x10184 -1 x10185 -1 x10186 -1 x10187 -1 x10188 -1 x10189 -1 x10190 >= 0 ;
+2 x10261 +2 x10262 +2 x10263 +2 x10264 +2 x10265 -1 x10186 -1 x10187 -1 x10188 -1 x10189 -1 x10190 -1 x10191 -1 x10192 -1 x10193 -1 x10194 -1 x10195 >= 0 ;
+2 x10266 +2 x10267 +2 x10268 +2 x10269 +2 x10270 -1 x10191 -1 x10192 -1 x10193 -1 x10194 -1 x10195 -1 x10196 -1 x10197 -1 x10198 -1 x10199 -1 x10200 >= 0 ;
+2 x10271 +2 x10272 +2 x10273 +2 x10274 +2 x10275 -1 x10201 -1 x10202 -1 x10203 -1 x10204 -1 x10205 -1 x10206 -1 x10207 -1 x10208 -1 x10209 -1 x10210 >= 0 ;
+2 x10276 +2 x10277 +2 x10278 +2 x10279 +2 x10280 -1 x10206 -1 x10207 -1 x10208 -1 x10209 -1 x10210 -1 x10211 -1 x10212 -1 x10213 -1 x10214 -1 x10215 >= 0 ;
+2 x10281 +2 x10282 +2 x10283 +2 x10284 +2 x10285 -1 x10211 -1 x10212 -1 x10213 -1 x10214 -1 x10215 -1 x10216 -1 x10217 -1 x10218 -1 x10219 -1 x10220 >= 0 ;
+2 x10286 +2 x10287 +2 x10288 +2 x10289 +2 x10290 -1 x10216 -1 x10217 -1 x10218 -1 x10219 -1 x10220 -1 x10221 -1 x10222 -1 x10223 -1 x10224 -1 x10225 >= 0 ;
+2 x10291 +2 x10292 +2 x10293 +2 x10294 +2 x10295 -1 x10221 -1 x10222 -1 x10223 -1 x10224 -1 x10225 -1 x10226 -1 x10227 -1 x10228 -1 x10229 -1 x10230 >= 0 ;
+2 x10296 +2 x10297 +2 x10298 +2 x10299 +2 x10300 -1 x10226 -1 x10227 -1 x10228 -1 x10229 -1 x10230 -1 x10231 -1 x10232 -1 x10233 -1 x10234 -1 x10235 >= 0 ;
+2 x10301 +2 x10302 +2 x10303 +2 x10304 +2 x10305 -1 x10231 -1 x10232 -1 x10233 -1 x10234 -1 x10235 -1 x10236 -1 x10237 -1 x10238 -1 x10239 -1 x10240 >= 0 ;
+2 x10306 +2 x10307 +2 x10308 +2 x10309 +2 x10310 -1 x10236 -1 x10237 -1 x10238 -1 x10239 -1 x10240 -1 x10241 -1 x10242 -1 x10243 -1 x10244 -1 x10245 >= 0 ;
+2 x10311 +2 x10312 +2 x10313 +2 x10314 +2 x10315 -1 x10241 -1 x10242 -1 x10243 -1 x10244 -1 x10245 -1 x10246 -1 x10247 -1 x10248 -1 x10249 -1 x10250 >= 0 ;
+2 x10316 +2 x10317 +2 x10318 +2 x10319 +2 x10320 -1 x10246 -1 x10247 -1 x10248 -1 x10249 -1 x10250 -1 x10251 -1 x10252 -1 x10253 -1 x10254 -1 x10255 >= 0 ;
+2 x10321 +2 x10322 +2 x10323 +2 x10324 +2 x10325 -1 x10251 -1 x10252 -1 x10253 -1 x10254 -1 x10255 -1 x10256 -1 x10257 -1 x10258 -1 x10259 -1 x10260 >= 0 ;
+2 x10326 +2 x10327 +2 x10328 +2 x10329 +2 x10330 -1 x10256 -1 x10257 -1 x10258 -1 x10259 -1 x10260 -1 x10261 -1 x10262 -1 x10263 -1 x10264 -1 x10265 >= 0 ;
+2 x10331 +2 x10332 +2 x10333 +2 x10334 +2 x10335 -1 x10261 -1 x10262 -1 x10263 -1 x10264 -1 x10265 -1 x10266 -1 x10267 -1 x10268 -1 x10269 -1 x10270 >= 0 ;
+2 x10336 +2 x10337 +2 x10338 +2 x10339 +2 x10340 -1 x10271 -1 x10272 -1 x10273 -1 x10274 -1 x10275 -1 x10276 -1 x10277 -1 x10278 -1 x10279 -1 x10280 >= 0 ;
+2 x10341 +2 x10342 +2 x10343 +2 x10344 +2 x10345 -1 x10276 -1 x10277 -1 x10278 -1 x10279 -1 x10280 -1 x10281 -1 x10282 -1 x10283 -1 x10284 -1 x10285 >= 0 ;
+2 x10346 +2 x10347 +2 x10348 +2 x10349 +2 x10350 -1 x10281 -1 x10282 -1 x10283 -1 x10284 -1 x10285 -1 x10286 -1 x10287 -1 x10288 -1 x10289 -1 x10290 >= 0 ;
+2 x10351 +2 x10352 +2 x10353 +2 x10354 +2 x10355 -1 x10286 -1 x10287 -1 x10288 -1 x10289 -1 x10290 -1 x10291 -1 x10292 -1 x10293 -1 x10294 -1 x10295 >= 0 ;
+2 x10356 +2 x10357 +2 x10358 +2 x10359 +2 x10360 -1 x10291 -1 x10292 -1 x10293 -1 x10294 -1 x10295 -1 x10296 -1 x10297 -1 x10298 -1 x10299 -1 x10300 >= 0 ;
+2 x10361 +2 x10362 +2 x10363 +2 x10364 +2 x10365 -1 x10296 -1 x10297 -1 x10298 -1 x10299 -1 x10300 -1 x10301 -1 x10302 -1 x10303 -1 x10304 -1 x10305 >= 0 ;
+2 x10366 +2 x10367 +2 x10368 +2 x10369 +2 x10370 -1 x10301 -1 x10302 -1 x10303 -1 x10304 -1 x10305 -1 x10306 -1 x10307 -1 x10308 -1 x10309 -1 x10310 >= 0 ;
+2 x10371 +2 x10372 +2 x10373 +2 x10374 +2 x10375 -1 x10306 -1 x10307 -1 x10308 -1 x10309 -1 x10310 -1 x10311 -1 x10312 -1 x10313 -1 x10314 -1 x10315 >= 0 ;
+2 x10376 +2 x10377 +2 x10378 +2 x10379 +2 x10380 -1 x10311 -1 x10312 -1 x10313 -1 x10314 -1 x10315 -1 x10316 -1 x10317 -1 x10318 -1 x10319 -1 x10320 >= 0 ;
+2 x10381 +2 x10382 +2 x10383 +2 x10384 +2 x10385 -1 x10316 -1 x10317 -1 x10318 -1 x10319 -1 x10320 -1 x10321 -1 x10322 -1 x10323 -1 x10324 -1 x10325 >= 0 ;
+2 x10386 +2 x10387 +2 x10388 +2 x10389 +2 x10390 -1 x10321 -1 x10322 -1 x10323 -1 x10324 -1 x10325 -1 x10326 -1 x10327 -1 x10328 -1 x10329 -1 x10330 >= 0 ;
+2 x10391 +2 x10392 +2 x10393 +2 x10394 +2 x10395 -1 x10326 -1 x10327 -1 x10328 -1 x10329 -1 x10330 -1 x10331 -1 x10332 -1 x10333 -1 x10334 -1 x10335 >= 0 ;
+2 x10396 +2 x10397 +2 x10398 +2 x10399 +2 x10400 -1 x10336 -1 x10337 -1 x10338 -1 x10339 -1 x10340 -1 x10341 -1 x10342 -1 x10343 -1 x10344 -1 x10345 >= 0 ;
+2 x10401 +2 x10402 +2 x10403 +2 x10404 +2 x10405 -1 x10341 -1 x10342 -1 x10343 -1 x10344 -1 x10345 -1 x10346 -1 x10347 -1 x10348 -1 x10349 -1 x10350 >= 0 ;
+2 x10406 +2 x10407 +2 x10408 +2 x10409 +2 x10410 -1 x10346 -1 x10347 -1 x10348 -1 x10349 -1 x10350 -1 x10351 -1 x10352 -1 x10353 -1 x10354 -1 x10355 >= 0 ;
+2 x10411 +2 x10412 +2 x10413 +2 x10414 +2 x10415 -1 x10351 -1 x10352 -1 x10353 -1 x10354 -1 x10355 -1 x10356 -1 x10357 -1 x10358 -1 x10359 -1 x10360 >= 0 ;
+2 x10416 +2 x10417 +2 x10418 +2 x10419 +2 x10420 -1 x10356 -1 x10357 -1 x10358 -1 x10359 -1 x10360 -1 x10361 -1 x10362 -1 x10363 -1 x10364 -1 x10365 >= 0 ;
+2 x10421 +2 x10422 +2 x10423 +2 x10424 +2 x10425 -1 x10361 -1 x10362 -1 x10363 -1 x10364 -1 x10365 -1 x10366 -1 x10367 -1 x10368 -1 x10369 -1 x10370 >= 0 ;
+2 x10426 +2 x10427 +2 x10428 +2 x10429 +2 x10430 -1 x10366 -1 x10367 -1 x10368 -1 x10369 -1 x10370 -1 x10371 -1 x10372 -1 x10373 -1 x10374 -1 x10375 >= 0 ;
+2 x10431 +2 x10432 +2 x10433 +2 x10434 +2 x10435 -1 x10371 -1 x10372 -1 x10373 -1 x10374 -1 x10375 -1 x10376 -1 x10377 -1 x10378 -1 x10379 -1 x10380 >= 0 ;
+2 x10436 +2 x10437 +2 x10438 +2 x10439 +2 x10440 -1 x10376 -1 x10377 -1 x10378 -1 x10379 -1 x10380 -1 x10381 -1 x10382 -1 x10383 -1 x10384 -1 x10385 >= 0 ;
+2 x10441 +2 x10442 +2 x10443 +2 x10444 +2 x10445 -1 x10381 -1 x10382 -1 x10383 -1 x10384 -1 x10385 -1 x10386 -1 x10387 -1 x10388 -1 x10389 -1 x10390 >= 0 ;
+2 x10446 +2 x10447 +2 x10448 +2 x10449 +2 x10450 -1 x10386 -1 x10387 -1 x10388 -1 x10389 -1 x10390 -1 x10391 -1 x10392 -1 x10393 -1 x10394 -1 x10395 >= 0 ;
+2 x10451 +2 x10452 +2 x10453 +2 x10454 +2 x10455 -1 x10396 -1 x10397 -1 x10398 -1 x10399 -1 x10400 -1 x10401 -1 x10402 -1 x10403 -1 x10404 -1 x10405 >= 0 ;
+2 x10456 +2 x10457 +2 x10458 +2 x10459 +2 x10460 -1 x10401 -1 x10402 -1 x10403 -1 x10404 -1 x10405 -1 x10406 -1 x10407 -1 x10408 -1 x10409 -1 x10410 >= 0 ;
+2 x10461 +2 x10462 +2 x10463 +2 x10464 +2 x10465 -1 x10406 -1 x10407 -1 x10408 -1 x10409 -1 x10410 -1 x10411 -1 x10412 -1 x10413 -1 x10414 -1 x10415 >= 0 ;
+2 x10466 +2 x10467 +2 x10468 +2 x10469 +2 x10470 -1 x10411 -1 x10412 -1 x10413 -1 x10414 -1 x10415 -1 x10416 -1 x10417 -1 x10418 -1 x10419 -1 x10420 >= 0 ;
+2 x10471 +2 x10472 +2 x10473 +2 x10474 +2 x10475 -1 x10416 -1 x10417 -1 x10418 -1 x10419 -1 x10420 -1 x10421 -1 x10422 -1 x10423 -1 x10424 -1 x10425 >= 0 ;
+2 x10476 +2 x10477 +2 x10478 +2 x10479 +2 x10480 -1 x10421 -1 x10422 -1 x10423 -1 x10424 -1 x10425 -1 x10426 -1 x10427 -1 x10428 -1 x10429 -1 x10430 >= 0 ;
+2 x10481 +2 x10482 +2 x10483 +2 x10484 +2 x10485 -1 x10426 -1 x10427 -1 x10428 -1 x10429 -1 x10430 -1 x10431 -1 x10432 -1 x10433 -1 x10434 -1 x10435 >= 0 ;
+2 x10486 +2 x10487 +2 x10488 +2 x10489 +2 x10490 -1 x10431 -1 x10432 -1 x10433 -1 x10434 -1 x10435 -1 x10436 -1 x10437 -1 x10438 -1 x10439 -1 x10440 >= 0 ;
+2 x10491 +2 x10492 +2 x10493 +2 x10494 +2 x10495 -1 x10436 -1 x10437 -1 x10438 -1 x10439 -1 x10440 -1 x10441 -1 x10442 -1 x10443 -1 x10444 -1 x10445 >= 0 ;
+2 x10496 +2 x10497 +2 x10498 +2 x10499 +2 x10500 -1 x10441 -1 x10442 -1 x10443 -1 x10444 -1 x10445 -1 x10446 -1 x10447 -1 x10448 -1 x10449 -1 x10450 >= 0 ;
+2 x10501 +2 x10502 +2 x10503 +2 x10504 +2 x10505 -1 x10451 -1 x10452 -1 x10453 -1 x10454 -1 x10455 -1 x10456 -1 x10457 -1 x10458 -1 x10459 -1 x10460 >= 0 ;
+2 x10506 +2 x10507 +2 x10508 +2 x10509 +2 x10510 -1 x10456 -1 x10457 -1 x10458 -1 x10459 -1 x10460 -1 x10461 -1 x10462 -1 x10463 -1 x10464 -1 x10465 >= 0 ;
+2 x10511 +2 x10512 +2 x10513 +2 x10514 +2 x10515 -1 x10461 -1 x10462 -1 x10463 -1 x10464 -1 x10465 -1 x10466 -1 x10467 -1 x10468 -1 x10469 -1 x10470 >= 0 ;
+2 x10516 +2 x10517 +2 x10518 +2 x10519 +2 x10520 -1 x10466 -1 x10467 -1 x10468 -1 x10469 -1 x10470 -1 x10471 -1 x10472 -1 x10473 -1 x10474 -1 x10475 >= 0 ;
+2 x10521 +2 x10522 +2 x10523 +2 x10524 +2 x10525 -1 x10471 -1 x10472 -1 x10473 -1 x10474 -1 x10475 -1 x10476 -1 x10477 -1 x10478 -1 x10479 -1 x10480 >= 0 ;
+2 x10526 +2 x10527 +2 x10528 +2 x10529 +2 x10530 -1 x10476 -1 x10477 -1 x10478 -1 x10479 -1 x10480 -1 x10481 -1 x10482 -1 x10483 -1 x10484 -1 x10485 >= 0 ;
+2 x10531 +2 x10532 +2 x10533 +2 x10534 +2 x10535 -1 x10481 -1 x10482 -1 x10483 -1 x10484 -1 x10485 -1 x10486 -1 x10487 -1 x10488 -1 x10489 -1 x10490 >= 0 ;
+2 x10536 +2 x10537 +2 x10538 +2 x10539 +2 x10540 -1 x10486 -1 x10487 -1 x10488 -1 x10489 -1 x10490 -1 x10491 -1 x10492 -1 x10493 -1 x10494 -1 x10495 >= 0 ;
+2 x10541 +2 x10542 +2 x10543 +2 x10544 +2 x10545 -1 x10491 -1 x10492 -1 x10493 -1 x10494 -1 x10495 -1 x10496 -1 x10497 -1 x10498 -1 x10499 -1 x10500 >= 0 ;
+2 x10546 +2 x10547 +2 x10548 +2 x10549 +2 x10550 -1 x10501 -1 x10502 -1 x10503 -1 x10504 -1 x10505 -1 x10506 -1 x10507 -1 x10508 -1 x10509 -1 x10510 >= 0 ;
+2 x10551 +2 x10552 +2 x10553 +2 x10554 +2 x10555 -1 x10506 -1 x10507 -1 x10508 -1 x10509 -1 x10510 -1 x10511 -1 x10512 -1 x10513 -1 x10514 -1 x10515 >= 0 ;
+2 x10556 +2 x10557 +2 x10558 +2 x10559 +2 x10560 -1 x10511 -1 x10512 -1 x10513 -1 x10514 -1 x10515 -1 x10516 -1 x10517 -1 x10518 -1 x10519 -1 x10520 >= 0 ;
+2 x10561 +2 x10562 +2 x10563 +2 x10564 +2 x10565 -1 x10516 -1 x10517 -1 x10518 -1 x10519 -1 x10520 -1 x10521 -1 x10522 -1 x10523 -1 x10524 -1 x10525 >= 0 ;
+2 x10566 +2 x10567 +2 x10568 +2 x10569 +2 x10570 -1 x10521 -1 x10522 -1 x10523 -1 x10524 -1 x10525 -1 x10526 -1 x10527 -1 x10528 -1 x10529 -1 x10530 >= 0 ;
+2 x10571 +2 x10572 +2 x10573 +2 x10574 +2 x10575 -1 x10526 -1 x10527 -1 x10528 -1 x10529 -1 x10530 -1 x10531 -1 x10532 -1 x10533 -1 x10534 -1 x10535 >= 0 ;
+2 x10576 +2 x10577 +2 x10578 +2 x10579 +2 x10580 -1 x10531 -1 x10532 -1 x10533 -1 x10534 -1 x10535 -1 x10536 -1 x10537 -1 x10538 -1 x10539 -1 x10540 >= 0 ;
+2 x10581 +2 x10582 +2 x10583 +2 x10584 +2 x10585 -1 x10536 -1 x10537 -1 x10538 -1 x10539 -1 x10540 -1 x10541 -1 x10542 -1 x10543 -1 x10544 -1 x10545 >= 0 ;
+2 x10586 +2 x10587 +2 x10588 +2 x10589 +2 x10590 -1 x10546 -1 x10547 -1 x10548 -1 x10549 -1 x10550 -1 x10551 -1 x10552 -1 x10553 -1 x10554 -1 x10555 >= 0 ;
+2 x10591 +2 x10592 +2 x10593 +2 x10594 +2 x10595 -1 x10551 -1 x10552 -1 x10553 -1 x10554 -1 x10555 -1 x10556 -1 x10557 -1 x10558 -1 x10559 -1 x10560 >= 0 ;
+2 x10596 +2 x10597 +2 x10598 +2 x10599 +2 x10600 -1 x10556 -1 x10557 -1 x10558 -1 x10559 -1 x10560 -1 x10561 -1 x10562 -1 x10563 -1 x10564 -1 x10565 >= 0 ;
+2 x10601 +2 x10602 +2 x10603 +2 x10604 +2 x10605 -1 x10561 -1 x10562 -1 x10563 -1 x10564 -1 x10565 -1 x10566 -1 x10567 -1 x10568 -1 x10569 -1 x10570 >= 0 ;
+2 x10606 +2 x10607 +2 x10608 +2 x10609 +2 x10610 -1 x10566 -1 x10567 -1 x10568 -1 x10569 -1 x10570 -1 x10571 -1 x10572 -1 x10573 -1 x10574 -1 x10575 >= 0 ;
+2 x10611 +2 x10612 +2 x10613 +2 x10614 +2 x10615 -1 x10571 -1 x10572 -1 x10573 -1 x10574 -1 x10575 -1 x10576 -1 x10577 -1 x10578 -1 x10579 -1 x10580 >= 0 ;
+2 x10616 +2 x10617 +2 x10618 +2 x10619 +2 x10620 -1 x10576 -1 x10577 -1 x10578 -1 x10579 -1 x10580 -1 x10581 -1 x10582 -1 x10583 -1 x10584 -1 x10585 >= 0 ;
+2 x10621 +2 x10622 +2 x10623 +2 x10624 +2 x10625 -1 x10586 -1 x10587 -1 x10588 -1 x10589 -1 x10590 -1 x10591 -1 x10592 -1 x10593 -1 x10594 -1 x10595 >= 0 ;
+2 x10626 +2 x10627 +2 x10628 +2 x10629 +2 x10630 -1 x10591 -1 x10592 -1 x10593 -1 x10594 -1 x10595 -1 x10596 -1 x10597 -1 x10598 -1 x10599 -1 x10600 >= 0 ;
+2 x10631 +2 x10632 +2 x10633 +2 x10634 +2 x10635 -1 x10596 -1 x10597 -1 x10598 -1 x10599 -1 x10600 -1 x10601 -1 x10602 -1 x10603 -1 x10604 -1 x10605 >= 0 ;
+2 x10636 +2 x10637 +2 x10638 +2 x10639 +2 x10640 -1 x10601 -1 x10602 -1 x10603 -1 x10604 -1 x10605 -1 x10606 -1 x10607 -1 x10608 -1 x10609 -1 x10610 >= 0 ;
+2 x10641 +2 x10642 +2 x10643 +2 x10644 +2 x10645 -1 x10606 -1 x10607 -1 x10608 -1 x10609 -1 x10610 -1 x10611 -1 x10612 -1 x10613 -1 x10614 -1 x10615 >= 0 ;
+2 x10646 +2 x10647 +2 x10648 +2 x10649 +2 x10650 -1 x10611 -1 x10612 -1 x10613 -1 x10614 -1 x10615 -1 x10616 -1 x10617 -1 x10618 -1 x10619 -1 x10620 >= 0 ;
+2 x10651 +2 x10652 +2 x10653 +2 x10654 +2 x10655 -1 x10621 -1 x10622 -1 x10623 -1 x10624 -1 x10625 -1 x10626 -1 x10627 -1 x10628 -1 x10629 -1 x10630 >= 0 ;
+2 x10656 +2 x10657 +2 x10658 +2 x10659 +2 x10660 -1 x10626 -1 x10627 -1 x10628 -1 x10629 -1 x10630 -1 x10631 -1 x10632 -1 x10633 -1 x10634 -1 x10635 >= 0 ;
+2 x10661 +2 x10662 +2 x10663 +2 x10664 +2 x10665 -1 x10631 -1 x10632 -1 x10633 -1 x10634 -1 x10635 -1 x10636 -1 x10637 -1 x10638 -1 x10639 -1 x10640 >= 0 ;
+2 x10666 +2 x10667 +2 x10668 +2 x10669 +2 x10670 -1 x10636 -1 x10637 -1 x10638 -1 x10639 -1 x10640 -1 x10641 -1 x10642 -1 x10643 -1 x10644 -1 x10645 >= 0 ;
+2 x10671 +2 x10672 +2 x10673 +2 x10674 +2 x10675 -1 x10641 -1 x10642 -1 x10643 -1 x10644 -1 x10645 -1 x10646 -1 x10647 -1 x10648 -1 x10649 -1 x10650 >= 0 ;
+2 x10676 +2 x10677 +2 x10678 +2 x10679 +2 x10680 -1 x10651 -1 x10652 -1 x10653 -1 x10654 -1 x10655 -1 x10656 -1 x10657 -1 x10658 -1 x10659 -1 x10660 >= 0 ;
+2 x10681 +2 x10682 +2 x10683 +2 x10684 +2 x10685 -1 x10656 -1 x10657 -1 x10658 -1 x10659 -1 x10660 -1 x10661 -1 x10662 -1 x10663 -1 x10664 -1 x10665 >= 0 ;
+2 x10686 +2 x10687 +2 x10688 +2 x10689 +2 x10690 -1 x10661 -1 x10662 -1 x10663 -1 x10664 -1 x10665 -1 x10666 -1 x10667 -1 x10668 -1 x10669 -1 x10670 >= 0 ;
+2 x10691 +2 x10692 +2 x10693 +2 x10694 +2 x10695 -1 x10666 -1 x10667 -1 x10668 -1 x10669 -1 x10670 -1 x10671 -1 x10672 -1 x10673 -1 x10674 -1 x10675 >= 0 ;
+2 x10696 +2 x10697 +2 x10698 +2 x10699 +2 x10700 -1 x10676 -1 x10677 -1 x10678 -1 x10679 -1 x10680 -1 x10681 -1 x10682 -1 x10683 -1 x10684 -1 x10685 >= 0 ;
+2 x10701 +2 x10702 +2 x10703 +2 x10704 +2 x10705 -1 x10681 -1 x10682 -1 x10683 -1 x10684 -1 x10685 -1 x10686 -1 x10687 -1 x10688 -1 x10689 -1 x10690 >= 0 ;
+2 x10706 +2 x10707 +2 x10708 +2 x10709 +2 x10710 -1 x10686 -1 x10687 -1 x10688 -1 x10689 -1 x10690 -1 x10691 -1 x10692 -1 x10693 -1 x10694 -1 x10695 >= 0 ;
+2 x10711 +2 x10712 +2 x10713 +2 x10714 +2 x10715 -1 x10696 -1 x10697 -1 x10698 -1 x10699 -1 x10700 -1 x10701 -1 x10702 -1 x10703 -1 x10704 -1 x10705 >= 0 ;
+2 x10716 +2 x10717 +2 x10718 +2 x10719 +2 x10720 -1 x10701 -1 x10702 -1 x10703 -1 x10704 -1 x10705 -1 x10706 -1 x10707 -1 x10708 -1 x10709 -1 x10710 >= 0 ;
+2 x10721 +2 x10722 +2 x10723 +2 x10724 +2 x10725 -1 x10711 -1 x10712 -1 x10713 -1 x10714 -1 x10715 -1 x10716 -1 x10717 -1 x10718 -1 x10719 -1 x10720 >= 0 ;
-2 x10721 -2 x10722 -2 x10723 -2 x10724 -2 x10725 >= -5 ;
