* #variable= 24003 #constraint= 8002
****************************************
* begin normalizer comments
* category= DEC-SMALLINT-LIN
* end normalizer comments
****************************************
+2 x1 +2 x2 +2 x3 >= 3 ;
+2 x4 +2 x5 +2 x6 >= 3 ;
+2 x7 +2 x8 +2 x9 >= 3 ;
+2 x10 +2 x11 +2 x12 >= 3 ;
+2 x13 +2 x14 +2 x15 >= 3 ;
+2 x16 +2 x17 +2 x18 >= 3 ;
+2 x19 +2 x20 +2 x21 >= 3 ;
+2 x22 +2 x23 +2 x24 >= 3 ;
+2 x25 +2 x26 +2 x27 >= 3 ;
+2 x28 +2 x29 +2 x30 >= 3 ;
+2 x31 +2 x32 +2 x33 >= 3 ;
+2 x34 +2 x35 +2 x36 >= 3 ;
+2 x37 +2 x38 +2 x39 >= 3 ;
+2 x40 +2 x41 +2 x42 >= 3 ;
+2 x43 +2 x44 +2 x45 >= 3 ;
+2 x46 +2 x47 +2 x48 >= 3 ;
+2 x49 +2 x50 +2 x51 >= 3 ;
+2 x52 +2 x53 +2 x54 >= 3 ;
+2 x55 +2 x56 +2 x57 >= 3 ;
+2 x58 +2 x59 +2 x60 >= 3 ;
+2 x61 +2 x62 +2 x63 >= 3 ;
+2 x64 +2 x65 +2 x66 >= 3 ;
+2 x67 +2 x68 +2 x69 >= 3 ;
+2 x70 +2 x71 +2 x72 >= 3 ;
+2 x73 +2 x74 +2 x75 >= 3 ;
+2 x76 +2 x77 +2 x78 >= 3 ;
+2 x79 +2 x80 +2 x81 >= 3 ;
+2 x82 +2 x83 +2 x84 >= 3 ;
+2 x85 +2 x86 +2 x87 >= 3 ;
+2 x88 +2 x89 +2 x90 >= 3 ;
+2 x91 +2 x92 +2 x93 >= 3 ;
+2 x94 +2 x95 +2 x96 >= 3 ;
+2 x97 +2 x98 +2 x99 >= 3 ;
+2 x100 +2 x101 +2 x102 >= 3 ;
+2 x103 +2 x104 +2 x105 >= 3 ;
+2 x106 +2 x107 +2 x108 >= 3 ;
+2 x109 +2 x110 +2 x111 >= 3 ;
+2 x112 +2 x113 +2 x114 >= 3 ;
+2 x115 +2 x116 +2 x117 >= 3 ;
+2 x118 +2 x119 +2 x120 >= 3 ;
+2 x121 +2 x122 +2 x123 >= 3 ;
+2 x124 +2 x125 +2 x126 >= 3 ;
+2 x127 +2 x128 +2 x129 >= 3 ;
+2 x130 +2 x131 +2 x132 >= 3 ;
+2 x133 +2 x134 +2 x135 >= 3 ;
+2 x136 +2 x137 +2 x138 >= 3 ;
+2 x139 +2 x140 +2 x141 >= 3 ;
+2 x142 +2 x143 +2 x144 >= 3 ;
+2 x145 +2 x146 +2 x147 >= 3 ;
+2 x148 +2 x149 +2 x150 >= 3 ;
+2 x151 +2 x152 +2 x153 >= 3 ;
+2 x154 +2 x155 +2 x156 >= 3 ;
+2 x157 +2 x158 +2 x159 >= 3 ;
+2 x160 +2 x161 +2 x162 >= 3 ;
+2 x163 +2 x164 +2 x165 >= 3 ;
+2 x166 +2 x167 +2 x168 >= 3 ;
+2 x169 +2 x170 +2 x171 >= 3 ;
+2 x172 +2 x173 +2 x174 >= 3 ;
+2 x175 +2 x176 +2 x177 >= 3 ;
+2 x178 +2 x179 +2 x180 >= 3 ;
+2 x181 +2 x182 +2 x183 >= 3 ;
+2 x184 +2 x185 +2 x186 >= 3 ;
+2 x187 +2 x188 +2 x189 >= 3 ;
+2 x190 +2 x191 +2 x192 >= 3 ;
+2 x193 +2 x194 +2 x195 >= 3 ;
+2 x196 +2 x197 +2 x198 >= 3 ;
+2 x199 +2 x200 +2 x201 >= 3 ;
+2 x202 +2 x203 +2 x204 >= 3 ;
+2 x205 +2 x206 +2 x207 >= 3 ;
+2 x208 +2 x209 +2 x210 >= 3 ;
+2 x211 +2 x212 +2 x213 >= 3 ;
+2 x214 +2 x215 +2 x216 >= 3 ;
+2 x217 +2 x218 +2 x219 >= 3 ;
+2 x220 +2 x221 +2 x222 >= 3 ;
+2 x223 +2 x224 +2 x225 >= 3 ;
+2 x226 +2 x227 +2 x228 >= 3 ;
+2 x229 +2 x230 +2 x231 >= 3 ;
+2 x232 +2 x233 +2 x234 >= 3 ;
+2 x235 +2 x236 +2 x237 >= 3 ;
+2 x238 +2 x239 +2 x240 >= 3 ;
+2 x241 +2 x242 +2 x243 >= 3 ;
+2 x244 +2 x245 +2 x246 >= 3 ;
+2 x247 +2 x248 +2 x249 >= 3 ;
+2 x250 +2 x251 +2 x252 >= 3 ;
+2 x253 +2 x254 +2 x255 >= 3 ;
+2 x256 +2 x257 +2 x258 >= 3 ;
+2 x259 +2 x260 +2 x261 >= 3 ;
+2 x262 +2 x263 +2 x264 >= 3 ;
+2 x265 +2 x266 +2 x267 >= 3 ;
+2 x268 +2 x269 +2 x270 >= 3 ;
+2 x271 +2 x272 +2 x273 >= 3 ;
+2 x274 +2 x275 +2 x276 >= 3 ;
+2 x277 +2 x278 +2 x279 >= 3 ;
+2 x280 +2 x281 +2 x282 >= 3 ;
+2 x283 +2 x284 +2 x285 >= 3 ;
+2 x286 +2 x287 +2 x288 >= 3 ;
+2 x289 +2 x290 +2 x291 >= 3 ;
+2 x292 +2 x293 +2 x294 >= 3 ;
+2 x295 +2 x296 +2 x297 >= 3 ;
+2 x298 +2 x299 +2 x300 >= 3 ;
+2 x301 +2 x302 +2 x303 >= 3 ;
+2 x304 +2 x305 +2 x306 >= 3 ;
+2 x307 +2 x308 +2 x309 >= 3 ;
+2 x310 +2 x311 +2 x312 >= 3 ;
+2 x313 +2 x314 +2 x315 >= 3 ;
+2 x316 +2 x317 +2 x318 >= 3 ;
+2 x319 +2 x320 +2 x321 >= 3 ;
+2 x322 +2 x323 +2 x324 >= 3 ;
+2 x325 +2 x326 +2 x327 >= 3 ;
+2 x328 +2 x329 +2 x330 >= 3 ;
+2 x331 +2 x332 +2 x333 >= 3 ;
+2 x334 +2 x335 +2 x336 >= 3 ;
+2 x337 +2 x338 +2 x339 >= 3 ;
+2 x340 +2 x341 +2 x342 >= 3 ;
+2 x343 +2 x344 +2 x345 >= 3 ;
+2 x346 +2 x347 +2 x348 >= 3 ;
+2 x349 +2 x350 +2 x351 >= 3 ;
+2 x352 +2 x353 +2 x354 >= 3 ;
+2 x355 +2 x356 +2 x357 >= 3 ;
+2 x358 +2 x359 +2 x360 >= 3 ;
+2 x361 +2 x362 +2 x363 >= 3 ;
+2 x364 +2 x365 +2 x366 >= 3 ;
+2 x367 +2 x368 +2 x369 >= 3 ;
+2 x370 +2 x371 +2 x372 >= 3 ;
+2 x373 +2 x374 +2 x375 >= 3 ;
+2 x376 +2 x377 +2 x378 >= 3 ;
+2 x379 +2 x380 +2 x381 -1 x1 -1 x2 -1 x3 -1 x4 -1 x5 -1 x6 >= 0 ;
+2 x382 +2 x383 +2 x384 -1 x4 -1 x5 -1 x6 -1 x7 -1 x8 -1 x9 >= 0 ;
+2 x385 +2 x386 +2 x387 -1 x7 -1 x8 -1 x9 -1 x10 -1 x11 -1 x12 >= 0 ;
+2 x388 +2 x389 +2 x390 -1 x10 -1 x11 -1 x12 -1 x13 -1 x14 -1 x15 >= 0 ;
+2 x391 +2 x392 +2 x393 -1 x13 -1 x14 -1 x15 -1 x16 -1 x17 -1 x18 >= 0 ;
+2 x394 +2 x395 +2 x396 -1 x16 -1 x17 -1 x18 -1 x19 -1 x20 -1 x21 >= 0 ;
+2 x397 +2 x398 +2 x399 -1 x19 -1 x20 -1 x21 -1 x22 -1 x23 -1 x24 >= 0 ;
+2 x400 +2 x401 +2 x402 -1 x22 -1 x23 -1 x24 -1 x25 -1 x26 -1 x27 >= 0 ;
+2 x403 +2 x404 +2 x405 -1 x25 -1 x26 -1 x27 -1 x28 -1 x29 -1 x30 >= 0 ;
+2 x406 +2 x407 +2 x408 -1 x28 -1 x29 -1 x30 -1 x31 -1 x32 -1 x33 >= 0 ;
+2 x409 +2 x410 +2 x411 -1 x31 -1 x32 -1 x33 -1 x34 -1 x35 -1 x36 >= 0 ;
+2 x412 +2 x413 +2 x414 -1 x34 -1 x35 -1 x36 -1 x37 -1 x38 -1 x39 >= 0 ;
+2 x415 +2 x416 +2 x417 -1 x37 -1 x38 -1 x39 -1 x40 -1 x41 -1 x42 >= 0 ;
+2 x418 +2 x419 +2 x420 -1 x40 -1 x41 -1 x42 -1 x43 -1 x44 -1 x45 >= 0 ;
+2 x421 +2 x422 +2 x423 -1 x43 -1 x44 -1 x45 -1 x46 -1 x47 -1 x48 >= 0 ;
+2 x424 +2 x425 +2 x426 -1 x46 -1 x47 -1 x48 -1 x49 -1 x50 -1 x51 >= 0 ;
+2 x427 +2 x428 +2 x429 -1 x49 -1 x50 -1 x51 -1 x52 -1 x53 -1 x54 >= 0 ;
+2 x430 +2 x431 +2 x432 -1 x52 -1 x53 -1 x54 -1 x55 -1 x56 -1 x57 >= 0 ;
+2 x433 +2 x434 +2 x435 -1 x55 -1 x56 -1 x57 -1 x58 -1 x59 -1 x60 >= 0 ;
+2 x436 +2 x437 +2 x438 -1 x58 -1 x59 -1 x60 -1 x61 -1 x62 -1 x63 >= 0 ;
+2 x439 +2 x440 +2 x441 -1 x61 -1 x62 -1 x63 -1 x64 -1 x65 -1 x66 >= 0 ;
+2 x442 +2 x443 +2 x444 -1 x64 -1 x65 -1 x66 -1 x67 -1 x68 -1 x69 >= 0 ;
+2 x445 +2 x446 +2 x447 -1 x67 -1 x68 -1 x69 -1 x70 -1 x71 -1 x72 >= 0 ;
+2 x448 +2 x449 +2 x450 -1 x70 -1 x71 -1 x72 -1 x73 -1 x74 -1 x75 >= 0 ;
+2 x451 +2 x452 +2 x453 -1 x73 -1 x74 -1 x75 -1 x76 -1 x77 -1 x78 >= 0 ;
+2 x454 +2 x455 +2 x456 -1 x76 -1 x77 -1 x78 -1 x79 -1 x80 -1 x81 >= 0 ;
+2 x457 +2 x458 +2 x459 -1 x79 -1 x80 -1 x81 -1 x82 -1 x83 -1 x84 >= 0 ;
+2 x460 +2 x461 +2 x462 -1 x82 -1 x83 -1 x84 -1 x85 -1 x86 -1 x87 >= 0 ;
+2 x463 +2 x464 +2 x465 -1 x85 -1 x86 -1 x87 -1 x88 -1 x89 -1 x90 >= 0 ;
+2 x466 +2 x467 +2 x468 -1 x88 -1 x89 -1 x90 -1 x91 -1 x92 -1 x93 >= 0 ;
+2 x469 +2 x470 +2 x471 -1 x91 -1 x92 -1 x93 -1 x94 -1 x95 -1 x96 >= 0 ;
+2 x472 +2 x473 +2 x474 -1 x94 -1 x95 -1 x96 -1 x97 -1 x98 -1 x99 >= 0 ;
+2 x475 +2 x476 +2 x477 -1 x97 -1 x98 -1 x99 -1 x100 -1 x101 -1 x102 >= 0 ;
+2 x478 +2 x479 +2 x480 -1 x100 -1 x101 -1 x102 -1 x103 -1 x104 -1 x105 >= 0 ;
+2 x481 +2 x482 +2 x483 -1 x103 -1 x104 -1 x105 -1 x106 -1 x107 -1 x108 >= 0 ;
+2 x484 +2 x485 +2 x486 -1 x106 -1 x107 -1 x108 -1 x109 -1 x110 -1 x111 >= 0 ;
+2 x487 +2 x488 +2 x489 -1 x109 -1 x110 -1 x111 -1 x112 -1 x113 -1 x114 >= 0 ;
+2 x490 +2 x491 +2 x492 -1 x112 -1 x113 -1 x114 -1 x115 -1 x116 -1 x117 >= 0 ;
+2 x493 +2 x494 +2 x495 -1 x115 -1 x116 -1 x117 -1 x118 -1 x119 -1 x120 >= 0 ;
+2 x496 +2 x497 +2 x498 -1 x118 -1 x119 -1 x120 -1 x121 -1 x122 -1 x123 >= 0 ;
+2 x499 +2 x500 +2 x501 -1 x121 -1 x122 -1 x123 -1 x124 -1 x125 -1 x126 >= 0 ;
+2 x502 +2 x503 +2 x504 -1 x124 -1 x125 -1 x126 -1 x127 -1 x128 -1 x129 >= 0 ;
+2 x505 +2 x506 +2 x507 -1 x127 -1 x128 -1 x129 -1 x130 -1 x131 -1 x132 >= 0 ;
+2 x508 +2 x509 +2 x510 -1 x130 -1 x131 -1 x132 -1 x133 -1 x134 -1 x135 >= 0 ;
+2 x511 +2 x512 +2 x513 -1 x133 -1 x134 -1 x135 -1 x136 -1 x137 -1 x138 >= 0 ;
+2 x514 +2 x515 +2 x516 -1 x136 -1 x137 -1 x138 -1 x139 -1 x140 -1 x141 >= 0 ;
+2 x517 +2 x518 +2 x519 -1 x139 -1 x140 -1 x141 -1 x142 -1 x143 -1 x144 >= 0 ;
+2 x520 +2 x521 +2 x522 -1 x142 -1 x143 -1 x144 -1 x145 -1 x146 -1 x147 >= 0 ;
+2 x523 +2 x524 +2 x525 -1 x145 -1 x146 -1 x147 -1 x148 -1 x149 -1 x150 >= 0 ;
+2 x526 +2 x527 +2 x528 -1 x148 -1 x149 -1 x150 -1 x151 -1 x152 -1 x153 >= 0 ;
+2 x529 +2 x530 +2 x531 -1 x151 -1 x152 -1 x153 -1 x154 -1 x155 -1 x156 >= 0 ;
+2 x532 +2 x533 +2 x534 -1 x154 -1 x155 -1 x156 -1 x157 -1 x158 -1 x159 >= 0 ;
+2 x535 +2 x536 +2 x537 -1 x157 -1 x158 -1 x159 -1 x160 -1 x161 -1 x162 >= 0 ;
+2 x538 +2 x539 +2 x540 -1 x160 -1 x161 -1 x162 -1 x163 -1 x164 -1 x165 >= 0 ;
+2 x541 +2 x542 +2 x543 -1 x163 -1 x164 -1 x165 -1 x166 -1 x167 -1 x168 >= 0 ;
+2 x544 +2 x545 +2 x546 -1 x166 -1 x167 -1 x168 -1 x169 -1 x170 -1 x171 >= 0 ;
+2 x547 +2 x548 +2 x549 -1 x169 -1 x170 -1 x171 -1 x172 -1 x173 -1 x174 >= 0 ;
+2 x550 +2 x551 +2 x552 -1 x172 -1 x173 -1 x174 -1 x175 -1 x176 -1 x177 >= 0 ;
+2 x553 +2 x554 +2 x555 -1 x175 -1 x176 -1 x177 -1 x178 -1 x179 -1 x180 >= 0 ;
+2 x556 +2 x557 +2 x558 -1 x178 -1 x179 -1 x180 -1 x181 -1 x182 -1 x183 >= 0 ;
+2 x559 +2 x560 +2 x561 -1 x181 -1 x182 -1 x183 -1 x184 -1 x185 -1 x186 >= 0 ;
+2 x562 +2 x563 +2 x564 -1 x184 -1 x185 -1 x186 -1 x187 -1 x188 -1 x189 >= 0 ;
+2 x565 +2 x566 +2 x567 -1 x187 -1 x188 -1 x189 -1 x190 -1 x191 -1 x192 >= 0 ;
+2 x568 +2 x569 +2 x570 -1 x190 -1 x191 -1 x192 -1 x193 -1 x194 -1 x195 >= 0 ;
+2 x571 +2 x572 +2 x573 -1 x193 -1 x194 -1 x195 -1 x196 -1 x197 -1 x198 >= 0 ;
+2 x574 +2 x575 +2 x576 -1 x196 -1 x197 -1 x198 -1 x199 -1 x200 -1 x201 >= 0 ;
+2 x577 +2 x578 +2 x579 -1 x199 -1 x200 -1 x201 -1 x202 -1 x203 -1 x204 >= 0 ;
+2 x580 +2 x581 +2 x582 -1 x202 -1 x203 -1 x204 -1 x205 -1 x206 -1 x207 >= 0 ;
+2 x583 +2 x584 +2 x585 -1 x205 -1 x206 -1 x207 -1 x208 -1 x209 -1 x210 >= 0 ;
+2 x586 +2 x587 +2 x588 -1 x208 -1 x209 -1 x210 -1 x211 -1 x212 -1 x213 >= 0 ;
+2 x589 +2 x590 +2 x591 -1 x211 -1 x212 -1 x213 -1 x214 -1 x215 -1 x216 >= 0 ;
+2 x592 +2 x593 +2 x594 -1 x214 -1 x215 -1 x216 -1 x217 -1 x218 -1 x219 >= 0 ;
+2 x595 +2 x596 +2 x597 -1 x217 -1 x218 -1 x219 -1 x220 -1 x221 -1 x222 >= 0 ;
+2 x598 +2 x599 +2 x600 -1 x220 -1 x221 -1 x222 -1 x223 -1 x224 -1 x225 >= 0 ;
+2 x601 +2 x602 +2 x603 -1 x223 -1 x224 -1 x225 -1 x226 -1 x227 -1 x228 >= 0 ;
+2 x604 +2 x605 +2 x606 -1 x226 -1 x227 -1 x228 -1 x229 -1 x230 -1 x231 >= 0 ;
+2 x607 +2 x608 +2 x609 -1 x229 -1 x230 -1 x231 -1 x232 -1 x233 -1 x234 >= 0 ;
+2 x610 +2 x611 +2 x612 -1 x232 -1 x233 -1 x234 -1 x235 -1 x236 -1 x237 >= 0 ;
+2 x613 +2 x614 +2 x615 -1 x235 -1 x236 -1 x237 -1 x238 -1 x239 -1 x240 >= 0 ;
+2 x616 +2 x617 +2 x618 -1 x238 -1 x239 -1 x240 -1 x241 -1 x242 -1 x243 >= 0 ;
+2 x619 +2 x620 +2 x621 -1 x241 -1 x242 -1 x243 -1 x244 -1 x245 -1 x246 >= 0 ;
+2 x622 +2 x623 +2 x624 -1 x244 -1 x245 -1 x246 -1 x247 -1 x248 -1 x249 >= 0 ;
+2 x625 +2 x626 +2 x627 -1 x247 -1 x248 -1 x249 -1 x250 -1 x251 -1 x252 >= 0 ;
+2 x628 +2 x629 +2 x630 -1 x250 -1 x251 -1 x252 -1 x253 -1 x254 -1 x255 >= 0 ;
+2 x631 +2 x632 +2 x633 -1 x253 -1 x254 -1 x255 -1 x256 -1 x257 -1 x258 >= 0 ;
+2 x634 +2 x635 +2 x636 -1 x256 -1 x257 -1 x258 -1 x259 -1 x260 -1 x261 >= 0 ;
+2 x637 +2 x638 +2 x639 -1 x259 -1 x260 -1 x261 -1 x262 -1 x263 -1 x264 >= 0 ;
+2 x640 +2 x641 +2 x642 -1 x262 -1 x263 -1 x264 -1 x265 -1 x266 -1 x267 >= 0 ;
+2 x643 +2 x644 +2 x645 -1 x265 -1 x266 -1 x267 -1 x268 -1 x269 -1 x270 >= 0 ;
+2 x646 +2 x647 +2 x648 -1 x268 -1 x269 -1 x270 -1 x271 -1 x272 -1 x273 >= 0 ;
+2 x649 +2 x650 +2 x651 -1 x271 -1 x272 -1 x273 -1 x274 -1 x275 -1 x276 >= 0 ;
+2 x652 +2 x653 +2 x654 -1 x274 -1 x275 -1 x276 -1 x277 -1 x278 -1 x279 >= 0 ;
+2 x655 +2 x656 +2 x657 -1 x277 -1 x278 -1 x279 -1 x280 -1 x281 -1 x282 >= 0 ;
+2 x658 +2 x659 +2 x660 -1 x280 -1 x281 -1 x282 -1 x283 -1 x284 -1 x285 >= 0 ;
+2 x661 +2 x662 +2 x663 -1 x283 -1 x284 -1 x285 -1 x286 -1 x287 -1 x288 >= 0 ;
+2 x664 +2 x665 +2 x666 -1 x286 -1 x287 -1 x288 -1 x289 -1 x290 -1 x291 >= 0 ;
+2 x667 +2 x668 +2 x669 -1 x289 -1 x290 -1 x291 -1 x292 -1 x293 -1 x294 >= 0 ;
+2 x670 +2 x671 +2 x672 -1 x292 -1 x293 -1 x294 -1 x295 -1 x296 -1 x297 >= 0 ;
+2 x673 +2 x674 +2 x675 -1 x295 -1 x296 -1 x297 -1 x298 -1 x299 -1 x300 >= 0 ;
+2 x676 +2 x677 +2 x678 -1 x298 -1 x299 -1 x300 -1 x301 -1 x302 -1 x303 >= 0 ;
+2 x679 +2 x680 +2 x681 -1 x301 -1 x302 -1 x303 -1 x304 -1 x305 -1 x306 >= 0 ;
+2 x682 +2 x683 +2 x684 -1 x304 -1 x305 -1 x306 -1 x307 -1 x308 -1 x309 >= 0 ;
+2 x685 +2 x686 +2 x687 -1 x307 -1 x308 -1 x309 -1 x310 -1 x311 -1 x312 >= 0 ;
+2 x688 +2 x689 +2 x690 -1 x310 -1 x311 -1 x312 -1 x313 -1 x314 -1 x315 >= 0 ;
+2 x691 +2 x692 +2 x693 -1 x313 -1 x314 -1 x315 -1 x316 -1 x317 -1 x318 >= 0 ;
+2 x694 +2 x695 +2 x696 -1 x316 -1 x317 -1 x318 -1 x319 -1 x320 -1 x321 >= 0 ;
+2 x697 +2 x698 +2 x699 -1 x319 -1 x320 -1 x321 -1 x322 -1 x323 -1 x324 >= 0 ;
+2 x700 +2 x701 +2 x702 -1 x322 -1 x323 -1 x324 -1 x325 -1 x326 -1 x327 >= 0 ;
+2 x703 +2 x704 +2 x705 -1 x325 -1 x326 -1 x327 -1 x328 -1 x329 -1 x330 >= 0 ;
+2 x706 +2 x707 +2 x708 -1 x328 -1 x329 -1 x330 -1 x331 -1 x332 -1 x333 >= 0 ;
+2 x709 +2 x710 +2 x711 -1 x331 -1 x332 -1 x333 -1 x334 -1 x335 -1 x336 >= 0 ;
+2 x712 +2 x713 +2 x714 -1 x334 -1 x335 -1 x336 -1 x337 -1 x338 -1 x339 >= 0 ;
+2 x715 +2 x716 +2 x717 -1 x337 -1 x338 -1 x339 -1 x340 -1 x341 -1 x342 >= 0 ;
+2 x718 +2 x719 +2 x720 -1 x340 -1 x341 -1 x342 -1 x343 -1 x344 -1 x345 >= 0 ;
+2 x721 +2 x722 +2 x723 -1 x343 -1 x344 -1 x345 -1 x346 -1 x347 -1 x348 >= 0 ;
+2 x724 +2 x725 +2 x726 -1 x346 -1 x347 -1 x348 -1 x349 -1 x350 -1 x351 >= 0 ;
+2 x727 +2 x728 +2 x729 -1 x349 -1 x350 -1 x351 -1 x352 -1 x353 -1 x354 >= 0 ;
+2 x730 +2 x731 +2 x732 -1 x352 -1 x353 -1 x354 -1 x355 -1 x356 -1 x357 >= 0 ;
+2 x733 +2 x734 +2 x735 -1 x355 -1 x356 -1 x357 -1 x358 -1 x359 -1 x360 >= 0 ;
+2 x736 +2 x737 +2 x738 -1 x358 -1 x359 -1 x360 -1 x361 -1 x362 -1 x363 >= 0 ;
+2 x739 +2 x740 +2 x741 -1 x361 -1 x362 -1 x363 -1 x364 -1 x365 -1 x366 >= 0 ;
+2 x742 +2 x743 +2 x744 -1 x364 -1 x365 -1 x366 -1 x367 -1 x368 -1 x369 >= 0 ;
+2 x745 +2 x746 +2 x747 -1 x367 -1 x368 -1 x369 -1 x370 -1 x371 -1 x372 >= 0 ;
+2 x748 +2 x749 +2 x750 -1 x370 -1 x371 -1 x372 -1 x373 -1 x374 -1 x375 >= 0 ;
+2 x751 +2 x752 +2 x753 -1 x373 -1 x374 -1 x375 -1 x376 -1 x377 -1 x378 >= 0 ;
+2 x754 +2 x755 +2 x756 -1 x379 -1 x380 -1 x381 -1 x382 -1 x383 -1 x384 >= 0 ;
+2 x757 +2 x758 +2 x759 -1 x382 -1 x383 -1 x384 -1 x385 -1 x386 -1 x387 >= 0 ;
+2 x760 +2 x761 +2 x762 -1 x385 -1 x386 -1 x387 -1 x388 -1 x389 -1 x390 >= 0 ;
+2 x763 +2 x764 +2 x765 -1 x388 -1 x389 -1 x390 -1 x391 -1 x392 -1 x393 >= 0 ;
+2 x766 +2 x767 +2 x768 -1 x391 -1 x392 -1 x393 -1 x394 -1 x395 -1 x396 >= 0 ;
+2 x769 +2 x770 +2 x771 -1 x394 -1 x395 -1 x396 -1 x397 -1 x398 -1 x399 >= 0 ;
+2 x772 +2 x773 +2 x774 -1 x397 -1 x398 -1 x399 -1 x400 -1 x401 -1 x402 >= 0 ;
+2 x775 +2 x776 +2 x777 -1 x400 -1 x401 -1 x402 -1 x403 -1 x404 -1 x405 >= 0 ;
+2 x778 +2 x779 +2 x780 -1 x403 -1 x404 -1 x405 -1 x406 -1 x407 -1 x408 >= 0 ;
+2 x781 +2 x782 +2 x783 -1 x406 -1 x407 -1 x408 -1 x409 -1 x410 -1 x411 >= 0 ;
+2 x784 +2 x785 +2 x786 -1 x409 -1 x410 -1 x411 -1 x412 -1 x413 -1 x414 >= 0 ;
+2 x787 +2 x788 +2 x789 -1 x412 -1 x413 -1 x414 -1 x415 -1 x416 -1 x417 >= 0 ;
+2 x790 +2 x791 +2 x792 -1 x415 -1 x416 -1 x417 -1 x418 -1 x419 -1 x420 >= 0 ;
+2 x793 +2 x794 +2 x795 -1 x418 -1 x419 -1 x420 -1 x421 -1 x422 -1 x423 >= 0 ;
+2 x796 +2 x797 +2 x798 -1 x421 -1 x422 -1 x423 -1 x424 -1 x425 -1 x426 >= 0 ;
+2 x799 +2 x800 +2 x801 -1 x424 -1 x425 -1 x426 -1 x427 -1 x428 -1 x429 >= 0 ;
+2 x802 +2 x803 +2 x804 -1 x427 -1 x428 -1 x429 -1 x430 -1 x431 -1 x432 >= 0 ;
+2 x805 +2 x806 +2 x807 -1 x430 -1 x431 -1 x432 -1 x433 -1 x434 -1 x435 >= 0 ;
+2 x808 +2 x809 +2 x810 -1 x433 -1 x434 -1 x435 -1 x436 -1 x437 -1 x438 >= 0 ;
+2 x811 +2 x812 +2 x813 -1 x436 -1 x437 -1 x438 -1 x439 -1 x440 -1 x441 >= 0 ;
+2 x814 +2 x815 +2 x816 -1 x439 -1 x440 -1 x441 -1 x442 -1 x443 -1 x444 >= 0 ;
+2 x817 +2 x818 +2 x819 -1 x442 -1 x443 -1 x444 -1 x445 -1 x446 -1 x447 >= 0 ;
+2 x820 +2 x821 +2 x822 -1 x445 -1 x446 -1 x447 -1 x448 -1 x449 -1 x450 >= 0 ;
+2 x823 +2 x824 +2 x825 -1 x448 -1 x449 -1 x450 -1 x451 -1 x452 -1 x453 >= 0 ;
+2 x826 +2 x827 +2 x828 -1 x451 -1 x452 -1 x453 -1 x454 -1 x455 -1 x456 >= 0 ;
+2 x829 +2 x830 +2 x831 -1 x454 -1 x455 -1 x456 -1 x457 -1 x458 -1 x459 >= 0 ;
+2 x832 +2 x833 +2 x834 -1 x457 -1 x458 -1 x459 -1 x460 -1 x461 -1 x462 >= 0 ;
+2 x835 +2 x836 +2 x837 -1 x460 -1 x461 -1 x462 -1 x463 -1 x464 -1 x465 >= 0 ;
+2 x838 +2 x839 +2 x840 -1 x463 -1 x464 -1 x465 -1 x466 -1 x467 -1 x468 >= 0 ;
+2 x841 +2 x842 +2 x843 -1 x466 -1 x467 -1 x468 -1 x469 -1 x470 -1 x471 >= 0 ;
+2 x844 +2 x845 +2 x846 -1 x469 -1 x470 -1 x471 -1 x472 -1 x473 -1 x474 >= 0 ;
+2 x847 +2 x848 +2 x849 -1 x472 -1 x473 -1 x474 -1 x475 -1 x476 -1 x477 >= 0 ;
+2 x850 +2 x851 +2 x852 -1 x475 -1 x476 -1 x477 -1 x478 -1 x479 -1 x480 >= 0 ;
+2 x853 +2 x854 +2 x855 -1 x478 -1 x479 -1 x480 -1 x481 -1 x482 -1 x483 >= 0 ;
+2 x856 +2 x857 +2 x858 -1 x481 -1 x482 -1 x483 -1 x484 -1 x485 -1 x486 >= 0 ;
+2 x859 +2 x860 +2 x861 -1 x484 -1 x485 -1 x486 -1 x487 -1 x488 -1 x489 >= 0 ;
+2 x862 +2 x863 +2 x864 -1 x487 -1 x488 -1 x489 -1 x490 -1 x491 -1 x492 >= 0 ;
+2 x865 +2 x866 +2 x867 -1 x490 -1 x491 -1 x492 -1 x493 -1 x494 -1 x495 >= 0 ;
+2 x868 +2 x869 +2 x870 -1 x493 -1 x494 -1 x495 -1 x496 -1 x497 -1 x498 >= 0 ;
+2 x871 +2 x872 +2 x873 -1 x496 -1 x497 -1 x498 -1 x499 -1 x500 -1 x501 >= 0 ;
+2 x874 +2 x875 +2 x876 -1 x499 -1 x500 -1 x501 -1 x502 -1 x503 -1 x504 >= 0 ;
+2 x877 +2 x878 +2 x879 -1 x502 -1 x503 -1 x504 -1 x505 -1 x506 -1 x507 >= 0 ;
+2 x880 +2 x881 +2 x882 -1 x505 -1 x506 -1 x507 -1 x508 -1 x509 -1 x510 >= 0 ;
+2 x883 +2 x884 +2 x885 -1 x508 -1 x509 -1 x510 -1 x511 -1 x512 -1 x513 >= 0 ;
+2 x886 +2 x887 +2 x888 -1 x511 -1 x512 -1 x513 -1 x514 -1 x515 -1 x516 >= 0 ;
+2 x889 +2 x890 +2 x891 -1 x514 -1 x515 -1 x516 -1 x517 -1 x518 -1 x519 >= 0 ;
+2 x892 +2 x893 +2 x894 -1 x517 -1 x518 -1 x519 -1 x520 -1 x521 -1 x522 >= 0 ;
+2 x895 +2 x896 +2 x897 -1 x520 -1 x521 -1 x522 -1 x523 -1 x524 -1 x525 >= 0 ;
+2 x898 +2 x899 +2 x900 -1 x523 -1 x524 -1 x525 -1 x526 -1 x527 -1 x528 >= 0 ;
+2 x901 +2 x902 +2 x903 -1 x526 -1 x527 -1 x528 -1 x529 -1 x530 -1 x531 >= 0 ;
+2 x904 +2 x905 +2 x906 -1 x529 -1 x530 -1 x531 -1 x532 -1 x533 -1 x534 >= 0 ;
+2 x907 +2 x908 +2 x909 -1 x532 -1 x533 -1 x534 -1 x535 -1 x536 -1 x537 >= 0 ;
+2 x910 +2 x911 +2 x912 -1 x535 -1 x536 -1 x537 -1 x538 -1 x539 -1 x540 >= 0 ;
+2 x913 +2 x914 +2 x915 -1 x538 -1 x539 -1 x540 -1 x541 -1 x542 -1 x543 >= 0 ;
+2 x916 +2 x917 +2 x918 -1 x541 -1 x542 -1 x543 -1 x544 -1 x545 -1 x546 >= 0 ;
+2 x919 +2 x920 +2 x921 -1 x544 -1 x545 -1 x546 -1 x547 -1 x548 -1 x549 >= 0 ;
+2 x922 +2 x923 +2 x924 -1 x547 -1 x548 -1 x549 -1 x550 -1 x551 -1 x552 >= 0 ;
+2 x925 +2 x926 +2 x927 -1 x550 -1 x551 -1 x552 -1 x553 -1 x554 -1 x555 >= 0 ;
+2 x928 +2 x929 +2 x930 -1 x553 -1 x554 -1 x555 -1 x556 -1 x557 -1 x558 >= 0 ;
+2 x931 +2 x932 +2 x933 -1 x556 -1 x557 -1 x558 -1 x559 -1 x560 -1 x561 >= 0 ;
+2 x934 +2 x935 +2 x936 -1 x559 -1 x560 -1 x561 -1 x562 -1 x563 -1 x564 >= 0 ;
+2 x937 +2 x938 +2 x939 -1 x562 -1 x563 -1 x564 -1 x565 -1 x566 -1 x567 >= 0 ;
+2 x940 +2 x941 +2 x942 -1 x565 -1 x566 -1 x567 -1 x568 -1 x569 -1 x570 >= 0 ;
+2 x943 +2 x944 +2 x945 -1 x568 -1 x569 -1 x570 -1 x571 -1 x572 -1 x573 >= 0 ;
+2 x946 +2 x947 +2 x948 -1 x571 -1 x572 -1 x573 -1 x574 -1 x575 -1 x576 >= 0 ;
+2 x949 +2 x950 +2 x951 -1 x574 -1 x575 -1 x576 -1 x577 -1 x578 -1 x579 >= 0 ;
+2 x952 +2 x953 +2 x954 -1 x577 -1 x578 -1 x579 -1 x580 -1 x581 -1 x582 >= 0 ;
+2 x955 +2 x956 +2 x957 -1 x580 -1 x581 -1 x582 -1 x583 -1 x584 -1 x585 >= 0 ;
+2 x958 +2 x959 +2 x960 -1 x583 -1 x584 -1 x585 -1 x586 -1 x587 -1 x588 >= 0 ;
+2 x961 +2 x962 +2 x963 -1 x586 -1 x587 -1 x588 -1 x589 -1 x590 -1 x591 >= 0 ;
+2 x964 +2 x965 +2 x966 -1 x589 -1 x590 -1 x591 -1 x592 -1 x593 -1 x594 >= 0 ;
+2 x967 +2 x968 +2 x969 -1 x592 -1 x593 -1 x594 -1 x595 -1 x596 -1 x597 >= 0 ;
+2 x970 +2 x971 +2 x972 -1 x595 -1 x596 -1 x597 -1 x598 -1 x599 -1 x600 >= 0 ;
+2 x973 +2 x974 +2 x975 -1 x598 -1 x599 -1 x600 -1 x601 -1 x602 -1 x603 >= 0 ;
+2 x976 +2 x977 +2 x978 -1 x601 -1 x602 -1 x603 -1 x604 -1 x605 -1 x606 >= 0 ;
+2 x979 +2 x980 +2 x981 -1 x604 -1 x605 -1 x606 -1 x607 -1 x608 -1 x609 >= 0 ;
+2 x982 +2 x983 +2 x984 -1 x607 -1 x608 -1 x609 -1 x610 -1 x611 -1 x612 >= 0 ;
+2 x985 +2 x986 +2 x987 -1 x610 -1 x611 -1 x612 -1 x613 -1 x614 -1 x615 >= 0 ;
+2 x988 +2 x989 +2 x990 -1 x613 -1 x614 -1 x615 -1 x616 -1 x617 -1 x618 >= 0 ;
+2 x991 +2 x992 +2 x993 -1 x616 -1 x617 -1 x618 -1 x619 -1 x620 -1 x621 >= 0 ;
+2 x994 +2 x995 +2 x996 -1 x619 -1 x620 -1 x621 -1 x622 -1 x623 -1 x624 >= 0 ;
+2 x997 +2 x998 +2 x999 -1 x622 -1 x623 -1 x624 -1 x625 -1 x626 -1 x627 >= 0 ;
+2 x1000 +2 x1001 +2 x1002 -1 x625 -1 x626 -1 x627 -1 x628 -1 x629 -1 x630 >= 0 ;
+2 x1003 +2 x1004 +2 x1005 -1 x628 -1 x629 -1 x630 -1 x631 -1 x632 -1 x633 >= 0 ;
+2 x1006 +2 x1007 +2 x1008 -1 x631 -1 x632 -1 x633 -1 x634 -1 x635 -1 x636 >= 0 ;
+2 x1009 +2 x1010 +2 x1011 -1 x634 -1 x635 -1 x636 -1 x637 -1 x638 -1 x639 >= 0 ;
+2 x1012 +2 x1013 +2 x1014 -1 x637 -1 x638 -1 x639 -1 x640 -1 x641 -1 x642 >= 0 ;
+2 x1015 +2 x1016 +2 x1017 -1 x640 -1 x641 -1 x642 -1 x643 -1 x644 -1 x645 >= 0 ;
+2 x1018 +2 x1019 +2 x1020 -1 x643 -1 x644 -1 x645 -1 x646 -1 x647 -1 x648 >= 0 ;
+2 x1021 +2 x1022 +2 x1023 -1 x646 -1 x647 -1 x648 -1 x649 -1 x650 -1 x651 >= 0 ;
+2 x1024 +2 x1025 +2 x1026 -1 x649 -1 x650 -1 x651 -1 x652 -1 x653 -1 x654 >= 0 ;
+2 x1027 +2 x1028 +2 x1029 -1 x652 -1 x653 -1 x654 -1 x655 -1 x656 -1 x657 >= 0 ;
+2 x1030 +2 x1031 +2 x1032 -1 x655 -1 x656 -1 x657 -1 x658 -1 x659 -1 x660 >= 0 ;
+2 x1033 +2 x1034 +2 x1035 -1 x658 -1 x659 -1 x660 -1 x661 -1 x662 -1 x663 >= 0 ;
+2 x1036 +2 x1037 +2 x1038 -1 x661 -1 x662 -1 x663 -1 x664 -1 x665 -1 x666 >= 0 ;
+2 x1039 +2 x1040 +2 x1041 -1 x664 -1 x665 -1 x666 -1 x667 -1 x668 -1 x669 >= 0 ;
+2 x1042 +2 x1043 +2 x1044 -1 x667 -1 x668 -1 x669 -1 x670 -1 x671 -1 x672 >= 0 ;
+2 x1045 +2 x1046 +2 x1047 -1 x670 -1 x671 -1 x672 -1 x673 -1 x674 -1 x675 >= 0 ;
+2 x1048 +2 x1049 +2 x1050 -1 x673 -1 x674 -1 x675 -1 x676 -1 x677 -1 x678 >= 0 ;
+2 x1051 +2 x1052 +2 x1053 -1 x676 -1 x677 -1 x678 -1 x679 -1 x680 -1 x681 >= 0 ;
+2 x1054 +2 x1055 +2 x1056 -1 x679 -1 x680 -1 x681 -1 x682 -1 x683 -1 x684 >= 0 ;
+2 x1057 +2 x1058 +2 x1059 -1 x682 -1 x683 -1 x684 -1 x685 -1 x686 -1 x687 >= 0 ;
+2 x1060 +2 x1061 +2 x1062 -1 x685 -1 x686 -1 x687 -1 x688 -1 x689 -1 x690 >= 0 ;
+2 x1063 +2 x1064 +2 x1065 -1 x688 -1 x689 -1 x690 -1 x691 -1 x692 -1 x693 >= 0 ;
+2 x1066 +2 x1067 +2 x1068 -1 x691 -1 x692 -1 x693 -1 x694 -1 x695 -1 x696 >= 0 ;
+2 x1069 +2 x1070 +2 x1071 -1 x694 -1 x695 -1 x696 -1 x697 -1 x698 -1 x699 >= 0 ;
+2 x1072 +2 x1073 +2 x1074 -1 x697 -1 x698 -1 x699 -1 x700 -1 x701 -1 x702 >= 0 ;
+2 x1075 +2 x1076 +2 x1077 -1 x700 -1 x701 -1 x702 -1 x703 -1 x704 -1 x705 >= 0 ;
+2 x1078 +2 x1079 +2 x1080 -1 x703 -1 x704 -1 x705 -1 x706 -1 x707 -1 x708 >= 0 ;
+2 x1081 +2 x1082 +2 x1083 -1 x706 -1 x707 -1 x708 -1 x709 -1 x710 -1 x711 >= 0 ;
+2 x1084 +2 x1085 +2 x1086 -1 x709 -1 x710 -1 x711 -1 x712 -1 x713 -1 x714 >= 0 ;
+2 x1087 +2 x1088 +2 x1089 -1 x712 -1 x713 -1 x714 -1 x715 -1 x716 -1 x717 >= 0 ;
+2 x1090 +2 x1091 +2 x1092 -1 x715 -1 x716 -1 x717 -1 x718 -1 x719 -1 x720 >= 0 ;
+2 x1093 +2 x1094 +2 x1095 -1 x718 -1 x719 -1 x720 -1 x721 -1 x722 -1 x723 >= 0 ;
+2 x1096 +2 x1097 +2 x1098 -1 x721 -1 x722 -1 x723 -1 x724 -1 x725 -1 x726 >= 0 ;
+2 x1099 +2 x1100 +2 x1101 -1 x724 -1 x725 -1 x726 -1 x727 -1 x728 -1 x729 >= 0 ;
+2 x1102 +2 x1103 +2 x1104 -1 x727 -1 x728 -1 x729 -1 x730 -1 x731 -1 x732 >= 0 ;
+2 x1105 +2 x1106 +2 x1107 -1 x730 -1 x731 -1 x732 -1 x733 -1 x734 -1 x735 >= 0 ;
+2 x1108 +2 x1109 +2 x1110 -1 x733 -1 x734 -1 x735 -1 x736 -1 x737 -1 x738 >= 0 ;
+2 x1111 +2 x1112 +2 x1113 -1 x736 -1 x737 -1 x738 -1 x739 -1 x740 -1 x741 >= 0 ;
+2 x1114 +2 x1115 +2 x1116 -1 x739 -1 x740 -1 x741 -1 x742 -1 x743 -1 x744 >= 0 ;
+2 x1117 +2 x1118 +2 x1119 -1 x742 -1 x743 -1 x744 -1 x745 -1 x746 -1 x747 >= 0 ;
+2 x1120 +2 x1121 +2 x1122 -1 x745 -1 x746 -1 x747 -1 x748 -1 x749 -1 x750 >= 0 ;
+2 x1123 +2 x1124 +2 x1125 -1 x748 -1 x749 -1 x750 -1 x751 -1 x752 -1 x753 >= 0 ;
+2 x1126 +2 x1127 +2 x1128 -1 x754 -1 x755 -1 x756 -1 x757 -1 x758 -1 x759 >= 0 ;
+2 x1129 +2 x1130 +2 x1131 -1 x757 -1 x758 -1 x759 -1 x760 -1 x761 -1 x762 >= 0 ;
+2 x1132 +2 x1133 +2 x1134 -1 x760 -1 x761 -1 x762 -1 x763 -1 x764 -1 x765 >= 0 ;
+2 x1135 +2 x1136 +2 x1137 -1 x763 -1 x764 -1 x765 -1 x766 -1 x767 -1 x768 >= 0 ;
+2 x1138 +2 x1139 +2 x1140 -1 x766 -1 x767 -1 x768 -1 x769 -1 x770 -1 x771 >= 0 ;
+2 x1141 +2 x1142 +2 x1143 -1 x769 -1 x770 -1 x771 -1 x772 -1 x773 -1 x774 >= 0 ;
+2 x1144 +2 x1145 +2 x1146 -1 x772 -1 x773 -1 x774 -1 x775 -1 x776 -1 x777 >= 0 ;
+2 x1147 +2 x1148 +2 x1149 -1 x775 -1 x776 -1 x777 -1 x778 -1 x779 -1 x780 >= 0 ;
+2 x1150 +2 x1151 +2 x1152 -1 x778 -1 x779 -1 x780 -1 x781 -1 x782 -1 x783 >= 0 ;
+2 x1153 +2 x1154 +2 x1155 -1 x781 -1 x782 -1 x783 -1 x784 -1 x785 -1 x786 >= 0 ;
+2 x1156 +2 x1157 +2 x1158 -1 x784 -1 x785 -1 x786 -1 x787 -1 x788 -1 x789 >= 0 ;
+2 x1159 +2 x1160 +2 x1161 -1 x787 -1 x788 -1 x789 -1 x790 -1 x791 -1 x792 >= 0 ;
+2 x1162 +2 x1163 +2 x1164 -1 x790 -1 x791 -1 x792 -1 x793 -1 x794 -1 x795 >= 0 ;
+2 x1165 +2 x1166 +2 x1167 -1 x793 -1 x794 -1 x795 -1 x796 -1 x797 -1 x798 >= 0 ;
+2 x1168 +2 x1169 +2 x1170 -1 x796 -1 x797 -1 x798 -1 x799 -1 x800 -1 x801 >= 0 ;
+2 x1171 +2 x1172 +2 x1173 -1 x799 -1 x800 -1 x801 -1 x802 -1 x803 -1 x804 >= 0 ;
+2 x1174 +2 x1175 +2 x1176 -1 x802 -1 x803 -1 x804 -1 x805 -1 x806 -1 x807 >= 0 ;
+2 x1177 +2 x1178 +2 x1179 -1 x805 -1 x806 -1 x807 -1 x808 -1 x809 -1 x810 >= 0 ;
+2 x1180 +2 x1181 +2 x1182 -1 x808 -1 x809 -1 x810 -1 x811 -1 x812 -1 x813 >= 0 ;
+2 x1183 +2 x1184 +2 x1185 -1 x811 -1 x812 -1 x813 -1 x814 -1 x815 -1 x816 >= 0 ;
+2 x1186 +2 x1187 +2 x1188 -1 x814 -1 x815 -1 x816 -1 x817 -1 x818 -1 x819 >= 0 ;
+2 x1189 +2 x1190 +2 x1191 -1 x817 -1 x818 -1 x819 -1 x820 -1 x821 -1 x822 >= 0 ;
+2 x1192 +2 x1193 +2 x1194 -1 x820 -1 x821 -1 x822 -1 x823 -1 x824 -1 x825 >= 0 ;
+2 x1195 +2 x1196 +2 x1197 -1 x823 -1 x824 -1 x825 -1 x826 -1 x827 -1 x828 >= 0 ;
+2 x1198 +2 x1199 +2 x1200 -1 x826 -1 x827 -1 x828 -1 x829 -1 x830 -1 x831 >= 0 ;
+2 x1201 +2 x1202 +2 x1203 -1 x829 -1 x830 -1 x831 -1 x832 -1 x833 -1 x834 >= 0 ;
+2 x1204 +2 x1205 +2 x1206 -1 x832 -1 x833 -1 x834 -1 x835 -1 x836 -1 x837 >= 0 ;
+2 x1207 +2 x1208 +2 x1209 -1 x835 -1 x836 -1 x837 -1 x838 -1 x839 -1 x840 >= 0 ;
+2 x1210 +2 x1211 +2 x1212 -1 x838 -1 x839 -1 x840 -1 x841 -1 x842 -1 x843 >= 0 ;
+2 x1213 +2 x1214 +2 x1215 -1 x841 -1 x842 -1 x843 -1 x844 -1 x845 -1 x846 >= 0 ;
+2 x1216 +2 x1217 +2 x1218 -1 x844 -1 x845 -1 x846 -1 x847 -1 x848 -1 x849 >= 0 ;
+2 x1219 +2 x1220 +2 x1221 -1 x847 -1 x848 -1 x849 -1 x850 -1 x851 -1 x852 >= 0 ;
+2 x1222 +2 x1223 +2 x1224 -1 x850 -1 x851 -1 x852 -1 x853 -1 x854 -1 x855 >= 0 ;
+2 x1225 +2 x1226 +2 x1227 -1 x853 -1 x854 -1 x855 -1 x856 -1 x857 -1 x858 >= 0 ;
+2 x1228 +2 x1229 +2 x1230 -1 x856 -1 x857 -1 x858 -1 x859 -1 x860 -1 x861 >= 0 ;
+2 x1231 +2 x1232 +2 x1233 -1 x859 -1 x860 -1 x861 -1 x862 -1 x863 -1 x864 >= 0 ;
+2 x1234 +2 x1235 +2 x1236 -1 x862 -1 x863 -1 x864 -1 x865 -1 x866 -1 x867 >= 0 ;
+2 x1237 +2 x1238 +2 x1239 -1 x865 -1 x866 -1 x867 -1 x868 -1 x869 -1 x870 >= 0 ;
+2 x1240 +2 x1241 +2 x1242 -1 x868 -1 x869 -1 x870 -1 x871 -1 x872 -1 x873 >= 0 ;
+2 x1243 +2 x1244 +2 x1245 -1 x871 -1 x872 -1 x873 -1 x874 -1 x875 -1 x876 >= 0 ;
+2 x1246 +2 x1247 +2 x1248 -1 x874 -1 x875 -1 x876 -1 x877 -1 x878 -1 x879 >= 0 ;
+2 x1249 +2 x1250 +2 x1251 -1 x877 -1 x878 -1 x879 -1 x880 -1 x881 -1 x882 >= 0 ;
+2 x1252 +2 x1253 +2 x1254 -1 x880 -1 x881 -1 x882 -1 x883 -1 x884 -1 x885 >= 0 ;
+2 x1255 +2 x1256 +2 x1257 -1 x883 -1 x884 -1 x885 -1 x886 -1 x887 -1 x888 >= 0 ;
+2 x1258 +2 x1259 +2 x1260 -1 x886 -1 x887 -1 x888 -1 x889 -1 x890 -1 x891 >= 0 ;
+2 x1261 +2 x1262 +2 x1263 -1 x889 -1 x890 -1 x891 -1 x892 -1 x893 -1 x894 >= 0 ;
+2 x1264 +2 x1265 +2 x1266 -1 x892 -1 x893 -1 x894 -1 x895 -1 x896 -1 x897 >= 0 ;
+2 x1267 +2 x1268 +2 x1269 -1 x895 -1 x896 -1 x897 -1 x898 -1 x899 -1 x900 >= 0 ;
+2 x1270 +2 x1271 +2 x1272 -1 x898 -1 x899 -1 x900 -1 x901 -1 x902 -1 x903 >= 0 ;
+2 x1273 +2 x1274 +2 x1275 -1 x901 -1 x902 -1 x903 -1 x904 -1 x905 -1 x906 >= 0 ;
+2 x1276 +2 x1277 +2 x1278 -1 x904 -1 x905 -1 x906 -1 x907 -1 x908 -1 x909 >= 0 ;
+2 x1279 +2 x1280 +2 x1281 -1 x907 -1 x908 -1 x909 -1 x910 -1 x911 -1 x912 >= 0 ;
+2 x1282 +2 x1283 +2 x1284 -1 x910 -1 x911 -1 x912 -1 x913 -1 x914 -1 x915 >= 0 ;
+2 x1285 +2 x1286 +2 x1287 -1 x913 -1 x914 -1 x915 -1 x916 -1 x917 -1 x918 >= 0 ;
+2 x1288 +2 x1289 +2 x1290 -1 x916 -1 x917 -1 x918 -1 x919 -1 x920 -1 x921 >= 0 ;
+2 x1291 +2 x1292 +2 x1293 -1 x919 -1 x920 -1 x921 -1 x922 -1 x923 -1 x924 >= 0 ;
+2 x1294 +2 x1295 +2 x1296 -1 x922 -1 x923 -1 x924 -1 x925 -1 x926 -1 x927 >= 0 ;
+2 x1297 +2 x1298 +2 x1299 -1 x925 -1 x926 -1 x927 -1 x928 -1 x929 -1 x930 >= 0 ;
+2 x1300 +2 x1301 +2 x1302 -1 x928 -1 x929 -1 x930 -1 x931 -1 x932 -1 x933 >= 0 ;
+2 x1303 +2 x1304 +2 x1305 -1 x931 -1 x932 -1 x933 -1 x934 -1 x935 -1 x936 >= 0 ;
+2 x1306 +2 x1307 +2 x1308 -1 x934 -1 x935 -1 x936 -1 x937 -1 x938 -1 x939 >= 0 ;
+2 x1309 +2 x1310 +2 x1311 -1 x937 -1 x938 -1 x939 -1 x940 -1 x941 -1 x942 >= 0 ;
+2 x1312 +2 x1313 +2 x1314 -1 x940 -1 x941 -1 x942 -1 x943 -1 x944 -1 x945 >= 0 ;
+2 x1315 +2 x1316 +2 x1317 -1 x943 -1 x944 -1 x945 -1 x946 -1 x947 -1 x948 >= 0 ;
+2 x1318 +2 x1319 +2 x1320 -1 x946 -1 x947 -1 x948 -1 x949 -1 x950 -1 x951 >= 0 ;
+2 x1321 +2 x1322 +2 x1323 -1 x949 -1 x950 -1 x951 -1 x952 -1 x953 -1 x954 >= 0 ;
+2 x1324 +2 x1325 +2 x1326 -1 x952 -1 x953 -1 x954 -1 x955 -1 x956 -1 x957 >= 0 ;
+2 x1327 +2 x1328 +2 x1329 -1 x955 -1 x956 -1 x957 -1 x958 -1 x959 -1 x960 >= 0 ;
+2 x1330 +2 x1331 +2 x1332 -1 x958 -1 x959 -1 x960 -1 x961 -1 x962 -1 x963 >= 0 ;
+2 x1333 +2 x1334 +2 x1335 -1 x961 -1 x962 -1 x963 -1 x964 -1 x965 -1 x966 >= 0 ;
+2 x1336 +2 x1337 +2 x1338 -1 x964 -1 x965 -1 x966 -1 x967 -1 x968 -1 x969 >= 0 ;
+2 x1339 +2 x1340 +2 x1341 -1 x967 -1 x968 -1 x969 -1 x970 -1 x971 -1 x972 >= 0 ;
+2 x1342 +2 x1343 +2 x1344 -1 x970 -1 x971 -1 x972 -1 x973 -1 x974 -1 x975 >= 0 ;
+2 x1345 +2 x1346 +2 x1347 -1 x973 -1 x974 -1 x975 -1 x976 -1 x977 -1 x978 >= 0 ;
+2 x1348 +2 x1349 +2 x1350 -1 x976 -1 x977 -1 x978 -1 x979 -1 x980 -1 x981 >= 0 ;
+2 x1351 +2 x1352 +2 x1353 -1 x979 -1 x980 -1 x981 -1 x982 -1 x983 -1 x984 >= 0 ;
+2 x1354 +2 x1355 +2 x1356 -1 x982 -1 x983 -1 x984 -1 x985 -1 x986 -1 x987 >= 0 ;
+2 x1357 +2 x1358 +2 x1359 -1 x985 -1 x986 -1 x987 -1 x988 -1 x989 -1 x990 >= 0 ;
+2 x1360 +2 x1361 +2 x1362 -1 x988 -1 x989 -1 x990 -1 x991 -1 x992 -1 x993 >= 0 ;
+2 x1363 +2 x1364 +2 x1365 -1 x991 -1 x992 -1 x993 -1 x994 -1 x995 -1 x996 >= 0 ;
+2 x1366 +2 x1367 +2 x1368 -1 x994 -1 x995 -1 x996 -1 x997 -1 x998 -1 x999 >= 0 ;
+2 x1369 +2 x1370 +2 x1371 -1 x997 -1 x998 -1 x999 -1 x1000 -1 x1001 -1 x1002 >= 0 ;
+2 x1372 +2 x1373 +2 x1374 -1 x1000 -1 x1001 -1 x1002 -1 x1003 -1 x1004 -1 x1005 >= 0 ;
+2 x1375 +2 x1376 +2 x1377 -1 x1003 -1 x1004 -1 x1005 -1 x1006 -1 x1007 -1 x1008 >= 0 ;
+2 x1378 +2 x1379 +2 x1380 -1 x1006 -1 x1007 -1 x1008 -1 x1009 -1 x1010 -1 x1011 >= 0 ;
+2 x1381 +2 x1382 +2 x1383 -1 x1009 -1 x1010 -1 x1011 -1 x1012 -1 x1013 -1 x1014 >= 0 ;
+2 x1384 +2 x1385 +2 x1386 -1 x1012 -1 x1013 -1 x1014 -1 x1015 -1 x1016 -1 x1017 >= 0 ;
+2 x1387 +2 x1388 +2 x1389 -1 x1015 -1 x1016 -1 x1017 -1 x1018 -1 x1019 -1 x1020 >= 0 ;
+2 x1390 +2 x1391 +2 x1392 -1 x1018 -1 x1019 -1 x1020 -1 x1021 -1 x1022 -1 x1023 >= 0 ;
+2 x1393 +2 x1394 +2 x1395 -1 x1021 -1 x1022 -1 x1023 -1 x1024 -1 x1025 -1 x1026 >= 0 ;
+2 x1396 +2 x1397 +2 x1398 -1 x1024 -1 x1025 -1 x1026 -1 x1027 -1 x1028 -1 x1029 >= 0 ;
+2 x1399 +2 x1400 +2 x1401 -1 x1027 -1 x1028 -1 x1029 -1 x1030 -1 x1031 -1 x1032 >= 0 ;
+2 x1402 +2 x1403 +2 x1404 -1 x1030 -1 x1031 -1 x1032 -1 x1033 -1 x1034 -1 x1035 >= 0 ;
+2 x1405 +2 x1406 +2 x1407 -1 x1033 -1 x1034 -1 x1035 -1 x1036 -1 x1037 -1 x1038 >= 0 ;
+2 x1408 +2 x1409 +2 x1410 -1 x1036 -1 x1037 -1 x1038 -1 x1039 -1 x1040 -1 x1041 >= 0 ;
+2 x1411 +2 x1412 +2 x1413 -1 x1039 -1 x1040 -1 x1041 -1 x1042 -1 x1043 -1 x1044 >= 0 ;
+2 x1414 +2 x1415 +2 x1416 -1 x1042 -1 x1043 -1 x1044 -1 x1045 -1 x1046 -1 x1047 >= 0 ;
+2 x1417 +2 x1418 +2 x1419 -1 x1045 -1 x1046 -1 x1047 -1 x1048 -1 x1049 -1 x1050 >= 0 ;
+2 x1420 +2 x1421 +2 x1422 -1 x1048 -1 x1049 -1 x1050 -1 x1051 -1 x1052 -1 x1053 >= 0 ;
+2 x1423 +2 x1424 +2 x1425 -1 x1051 -1 x1052 -1 x1053 -1 x1054 -1 x1055 -1 x1056 >= 0 ;
+2 x1426 +2 x1427 +2 x1428 -1 x1054 -1 x1055 -1 x1056 -1 x1057 -1 x1058 -1 x1059 >= 0 ;
+2 x1429 +2 x1430 +2 x1431 -1 x1057 -1 x1058 -1 x1059 -1 x1060 -1 x1061 -1 x1062 >= 0 ;
+2 x1432 +2 x1433 +2 x1434 -1 x1060 -1 x1061 -1 x1062 -1 x1063 -1 x1064 -1 x1065 >= 0 ;
+2 x1435 +2 x1436 +2 x1437 -1 x1063 -1 x1064 -1 x1065 -1 x1066 -1 x1067 -1 x1068 >= 0 ;
+2 x1438 +2 x1439 +2 x1440 -1 x1066 -1 x1067 -1 x1068 -1 x1069 -1 x1070 -1 x1071 >= 0 ;
+2 x1441 +2 x1442 +2 x1443 -1 x1069 -1 x1070 -1 x1071 -1 x1072 -1 x1073 -1 x1074 >= 0 ;
+2 x1444 +2 x1445 +2 x1446 -1 x1072 -1 x1073 -1 x1074 -1 x1075 -1 x1076 -1 x1077 >= 0 ;
+2 x1447 +2 x1448 +2 x1449 -1 x1075 -1 x1076 -1 x1077 -1 x1078 -1 x1079 -1 x1080 >= 0 ;
+2 x1450 +2 x1451 +2 x1452 -1 x1078 -1 x1079 -1 x1080 -1 x1081 -1 x1082 -1 x1083 >= 0 ;
+2 x1453 +2 x1454 +2 x1455 -1 x1081 -1 x1082 -1 x1083 -1 x1084 -1 x1085 -1 x1086 >= 0 ;
+2 x1456 +2 x1457 +2 x1458 -1 x1084 -1 x1085 -1 x1086 -1 x1087 -1 x1088 -1 x1089 >= 0 ;
+2 x1459 +2 x1460 +2 x1461 -1 x1087 -1 x1088 -1 x1089 -1 x1090 -1 x1091 -1 x1092 >= 0 ;
+2 x1462 +2 x1463 +2 x1464 -1 x1090 -1 x1091 -1 x1092 -1 x1093 -1 x1094 -1 x1095 >= 0 ;
+2 x1465 +2 x1466 +2 x1467 -1 x1093 -1 x1094 -1 x1095 -1 x1096 -1 x1097 -1 x1098 >= 0 ;
+2 x1468 +2 x1469 +2 x1470 -1 x1096 -1 x1097 -1 x1098 -1 x1099 -1 x1100 -1 x1101 >= 0 ;
+2 x1471 +2 x1472 +2 x1473 -1 x1099 -1 x1100 -1 x1101 -1 x1102 -1 x1103 -1 x1104 >= 0 ;
+2 x1474 +2 x1475 +2 x1476 -1 x1102 -1 x1103 -1 x1104 -1 x1105 -1 x1106 -1 x1107 >= 0 ;
+2 x1477 +2 x1478 +2 x1479 -1 x1105 -1 x1106 -1 x1107 -1 x1108 -1 x1109 -1 x1110 >= 0 ;
+2 x1480 +2 x1481 +2 x1482 -1 x1108 -1 x1109 -1 x1110 -1 x1111 -1 x1112 -1 x1113 >= 0 ;
+2 x1483 +2 x1484 +2 x1485 -1 x1111 -1 x1112 -1 x1113 -1 x1114 -1 x1115 -1 x1116 >= 0 ;
+2 x1486 +2 x1487 +2 x1488 -1 x1114 -1 x1115 -1 x1116 -1 x1117 -1 x1118 -1 x1119 >= 0 ;
+2 x1489 +2 x1490 +2 x1491 -1 x1117 -1 x1118 -1 x1119 -1 x1120 -1 x1121 -1 x1122 >= 0 ;
+2 x1492 +2 x1493 +2 x1494 -1 x1120 -1 x1121 -1 x1122 -1 x1123 -1 x1124 -1 x1125 >= 0 ;
+2 x1495 +2 x1496 +2 x1497 -1 x1126 -1 x1127 -1 x1128 -1 x1129 -1 x1130 -1 x1131 >= 0 ;
+2 x1498 +2 x1499 +2 x1500 -1 x1129 -1 x1130 -1 x1131 -1 x1132 -1 x1133 -1 x1134 >= 0 ;
+2 x1501 +2 x1502 +2 x1503 -1 x1132 -1 x1133 -1 x1134 -1 x1135 -1 x1136 -1 x1137 >= 0 ;
+2 x1504 +2 x1505 +2 x1506 -1 x1135 -1 x1136 -1 x1137 -1 x1138 -1 x1139 -1 x1140 >= 0 ;
+2 x1507 +2 x1508 +2 x1509 -1 x1138 -1 x1139 -1 x1140 -1 x1141 -1 x1142 -1 x1143 >= 0 ;
+2 x1510 +2 x1511 +2 x1512 -1 x1141 -1 x1142 -1 x1143 -1 x1144 -1 x1145 -1 x1146 >= 0 ;
+2 x1513 +2 x1514 +2 x1515 -1 x1144 -1 x1145 -1 x1146 -1 x1147 -1 x1148 -1 x1149 >= 0 ;
+2 x1516 +2 x1517 +2 x1518 -1 x1147 -1 x1148 -1 x1149 -1 x1150 -1 x1151 -1 x1152 >= 0 ;
+2 x1519 +2 x1520 +2 x1521 -1 x1150 -1 x1151 -1 x1152 -1 x1153 -1 x1154 -1 x1155 >= 0 ;
+2 x1522 +2 x1523 +2 x1524 -1 x1153 -1 x1154 -1 x1155 -1 x1156 -1 x1157 -1 x1158 >= 0 ;
+2 x1525 +2 x1526 +2 x1527 -1 x1156 -1 x1157 -1 x1158 -1 x1159 -1 x1160 -1 x1161 >= 0 ;
+2 x1528 +2 x1529 +2 x1530 -1 x1159 -1 x1160 -1 x1161 -1 x1162 -1 x1163 -1 x1164 >= 0 ;
+2 x1531 +2 x1532 +2 x1533 -1 x1162 -1 x1163 -1 x1164 -1 x1165 -1 x1166 -1 x1167 >= 0 ;
+2 x1534 +2 x1535 +2 x1536 -1 x1165 -1 x1166 -1 x1167 -1 x1168 -1 x1169 -1 x1170 >= 0 ;
+2 x1537 +2 x1538 +2 x1539 -1 x1168 -1 x1169 -1 x1170 -1 x1171 -1 x1172 -1 x1173 >= 0 ;
+2 x1540 +2 x1541 +2 x1542 -1 x1171 -1 x1172 -1 x1173 -1 x1174 -1 x1175 -1 x1176 >= 0 ;
+2 x1543 +2 x1544 +2 x1545 -1 x1174 -1 x1175 -1 x1176 -1 x1177 -1 x1178 -1 x1179 >= 0 ;
+2 x1546 +2 x1547 +2 x1548 -1 x1177 -1 x1178 -1 x1179 -1 x1180 -1 x1181 -1 x1182 >= 0 ;
+2 x1549 +2 x1550 +2 x1551 -1 x1180 -1 x1181 -1 x1182 -1 x1183 -1 x1184 -1 x1185 >= 0 ;
+2 x1552 +2 x1553 +2 x1554 -1 x1183 -1 x1184 -1 x1185 -1 x1186 -1 x1187 -1 x1188 >= 0 ;
+2 x1555 +2 x1556 +2 x1557 -1 x1186 -1 x1187 -1 x1188 -1 x1189 -1 x1190 -1 x1191 >= 0 ;
+2 x1558 +2 x1559 +2 x1560 -1 x1189 -1 x1190 -1 x1191 -1 x1192 -1 x1193 -1 x1194 >= 0 ;
+2 x1561 +2 x1562 +2 x1563 -1 x1192 -1 x1193 -1 x1194 -1 x1195 -1 x1196 -1 x1197 >= 0 ;
+2 x1564 +2 x1565 +2 x1566 -1 x1195 -1 x1196 -1 x1197 -1 x1198 -1 x1199 -1 x1200 >= 0 ;
+2 x1567 +2 x1568 +2 x1569 -1 x1198 -1 x1199 -1 x1200 -1 x1201 -1 x1202 -1 x1203 >= 0 ;
+2 x1570 +2 x1571 +2 x1572 -1 x1201 -1 x1202 -1 x1203 -1 x1204 -1 x1205 -1 x1206 >= 0 ;
+2 x1573 +2 x1574 +2 x1575 -1 x1204 -1 x1205 -1 x1206 -1 x1207 -1 x1208 -1 x1209 >= 0 ;
+2 x1576 +2 x1577 +2 x1578 -1 x1207 -1 x1208 -1 x1209 -1 x1210 -1 x1211 -1 x1212 >= 0 ;
+2 x1579 +2 x1580 +2 x1581 -1 x1210 -1 x1211 -1 x1212 -1 x1213 -1 x1214 -1 x1215 >= 0 ;
+2 x1582 +2 x1583 +2 x1584 -1 x1213 -1 x1214 -1 x1215 -1 x1216 -1 x1217 -1 x1218 >= 0 ;
+2 x1585 +2 x1586 +2 x1587 -1 x1216 -1 x1217 -1 x1218 -1 x1219 -1 x1220 -1 x1221 >= 0 ;
+2 x1588 +2 x1589 +2 x1590 -1 x1219 -1 x1220 -1 x1221 -1 x1222 -1 x1223 -1 x1224 >= 0 ;
+2 x1591 +2 x1592 +2 x1593 -1 x1222 -1 x1223 -1 x1224 -1 x1225 -1 x1226 -1 x1227 >= 0 ;
+2 x1594 +2 x1595 +2 x1596 -1 x1225 -1 x1226 -1 x1227 -1 x1228 -1 x1229 -1 x1230 >= 0 ;
+2 x1597 +2 x1598 +2 x1599 -1 x1228 -1 x1229 -1 x1230 -1 x1231 -1 x1232 -1 x1233 >= 0 ;
+2 x1600 +2 x1601 +2 x1602 -1 x1231 -1 x1232 -1 x1233 -1 x1234 -1 x1235 -1 x1236 >= 0 ;
+2 x1603 +2 x1604 +2 x1605 -1 x1234 -1 x1235 -1 x1236 -1 x1237 -1 x1238 -1 x1239 >= 0 ;
+2 x1606 +2 x1607 +2 x1608 -1 x1237 -1 x1238 -1 x1239 -1 x1240 -1 x1241 -1 x1242 >= 0 ;
+2 x1609 +2 x1610 +2 x1611 -1 x1240 -1 x1241 -1 x1242 -1 x1243 -1 x1244 -1 x1245 >= 0 ;
+2 x1612 +2 x1613 +2 x1614 -1 x1243 -1 x1244 -1 x1245 -1 x1246 -1 x1247 -1 x1248 >= 0 ;
+2 x1615 +2 x1616 +2 x1617 -1 x1246 -1 x1247 -1 x1248 -1 x1249 -1 x1250 -1 x1251 >= 0 ;
+2 x1618 +2 x1619 +2 x1620 -1 x1249 -1 x1250 -1 x1251 -1 x1252 -1 x1253 -1 x1254 >= 0 ;
+2 x1621 +2 x1622 +2 x1623 -1 x1252 -1 x1253 -1 x1254 -1 x1255 -1 x1256 -1 x1257 >= 0 ;
+2 x1624 +2 x1625 +2 x1626 -1 x1255 -1 x1256 -1 x1257 -1 x1258 -1 x1259 -1 x1260 >= 0 ;
+2 x1627 +2 x1628 +2 x1629 -1 x1258 -1 x1259 -1 x1260 -1 x1261 -1 x1262 -1 x1263 >= 0 ;
+2 x1630 +2 x1631 +2 x1632 -1 x1261 -1 x1262 -1 x1263 -1 x1264 -1 x1265 -1 x1266 >= 0 ;
+2 x1633 +2 x1634 +2 x1635 -1 x1264 -1 x1265 -1 x1266 -1 x1267 -1 x1268 -1 x1269 >= 0 ;
+2 x1636 +2 x1637 +2 x1638 -1 x1267 -1 x1268 -1 x1269 -1 x1270 -1 x1271 -1 x1272 >= 0 ;
+2 x1639 +2 x1640 +2 x1641 -1 x1270 -1 x1271 -1 x1272 -1 x1273 -1 x1274 -1 x1275 >= 0 ;
+2 x1642 +2 x1643 +2 x1644 -1 x1273 -1 x1274 -1 x1275 -1 x1276 -1 x1277 -1 x1278 >= 0 ;
+2 x1645 +2 x1646 +2 x1647 -1 x1276 -1 x1277 -1 x1278 -1 x1279 -1 x1280 -1 x1281 >= 0 ;
+2 x1648 +2 x1649 +2 x1650 -1 x1279 -1 x1280 -1 x1281 -1 x1282 -1 x1283 -1 x1284 >= 0 ;
+2 x1651 +2 x1652 +2 x1653 -1 x1282 -1 x1283 -1 x1284 -1 x1285 -1 x1286 -1 x1287 >= 0 ;
+2 x1654 +2 x1655 +2 x1656 -1 x1285 -1 x1286 -1 x1287 -1 x1288 -1 x1289 -1 x1290 >= 0 ;
+2 x1657 +2 x1658 +2 x1659 -1 x1288 -1 x1289 -1 x1290 -1 x1291 -1 x1292 -1 x1293 >= 0 ;
+2 x1660 +2 x1661 +2 x1662 -1 x1291 -1 x1292 -1 x1293 -1 x1294 -1 x1295 -1 x1296 >= 0 ;
+2 x1663 +2 x1664 +2 x1665 -1 x1294 -1 x1295 -1 x1296 -1 x1297 -1 x1298 -1 x1299 >= 0 ;
+2 x1666 +2 x1667 +2 x1668 -1 x1297 -1 x1298 -1 x1299 -1 x1300 -1 x1301 -1 x1302 >= 0 ;
+2 x1669 +2 x1670 +2 x1671 -1 x1300 -1 x1301 -1 x1302 -1 x1303 -1 x1304 -1 x1305 >= 0 ;
+2 x1672 +2 x1673 +2 x1674 -1 x1303 -1 x1304 -1 x1305 -1 x1306 -1 x1307 -1 x1308 >= 0 ;
+2 x1675 +2 x1676 +2 x1677 -1 x1306 -1 x1307 -1 x1308 -1 x1309 -1 x1310 -1 x1311 >= 0 ;
+2 x1678 +2 x1679 +2 x1680 -1 x1309 -1 x1310 -1 x1311 -1 x1312 -1 x1313 -1 x1314 >= 0 ;
+2 x1681 +2 x1682 +2 x1683 -1 x1312 -1 x1313 -1 x1314 -1 x1315 -1 x1316 -1 x1317 >= 0 ;
+2 x1684 +2 x1685 +2 x1686 -1 x1315 -1 x1316 -1 x1317 -1 x1318 -1 x1319 -1 x1320 >= 0 ;
+2 x1687 +2 x1688 +2 x1689 -1 x1318 -1 x1319 -1 x1320 -1 x1321 -1 x1322 -1 x1323 >= 0 ;
+2 x1690 +2 x1691 +2 x1692 -1 x1321 -1 x1322 -1 x1323 -1 x1324 -1 x1325 -1 x1326 >= 0 ;
+2 x1693 +2 x1694 +2 x1695 -1 x1324 -1 x1325 -1 x1326 -1 x1327 -1 x1328 -1 x1329 >= 0 ;
+2 x1696 +2 x1697 +2 x1698 -1 x1327 -1 x1328 -1 x1329 -1 x1330 -1 x1331 -1 x1332 >= 0 ;
+2 x1699 +2 x1700 +2 x1701 -1 x1330 -1 x1331 -1 x1332 -1 x1333 -1 x1334 -1 x1335 >= 0 ;
+2 x1702 +2 x1703 +2 x1704 -1 x1333 -1 x1334 -1 x1335 -1 x1336 -1 x1337 -1 x1338 >= 0 ;
+2 x1705 +2 x1706 +2 x1707 -1 x1336 -1 x1337 -1 x1338 -1 x1339 -1 x1340 -1 x1341 >= 0 ;
+2 x1708 +2 x1709 +2 x1710 -1 x1339 -1 x1340 -1 x1341 -1 x1342 -1 x1343 -1 x1344 >= 0 ;
+2 x1711 +2 x1712 +2 x1713 -1 x1342 -1 x1343 -1 x1344 -1 x1345 -1 x1346 -1 x1347 >= 0 ;
+2 x1714 +2 x1715 +2 x1716 -1 x1345 -1 x1346 -1 x1347 -1 x1348 -1 x1349 -1 x1350 >= 0 ;
+2 x1717 +2 x1718 +2 x1719 -1 x1348 -1 x1349 -1 x1350 -1 x1351 -1 x1352 -1 x1353 >= 0 ;
+2 x1720 +2 x1721 +2 x1722 -1 x1351 -1 x1352 -1 x1353 -1 x1354 -1 x1355 -1 x1356 >= 0 ;
+2 x1723 +2 x1724 +2 x1725 -1 x1354 -1 x1355 -1 x1356 -1 x1357 -1 x1358 -1 x1359 >= 0 ;
+2 x1726 +2 x1727 +2 x1728 -1 x1357 -1 x1358 -1 x1359 -1 x1360 -1 x1361 -1 x1362 >= 0 ;
+2 x1729 +2 x1730 +2 x1731 -1 x1360 -1 x1361 -1 x1362 -1 x1363 -1 x1364 -1 x1365 >= 0 ;
+2 x1732 +2 x1733 +2 x1734 -1 x1363 -1 x1364 -1 x1365 -1 x1366 -1 x1367 -1 x1368 >= 0 ;
+2 x1735 +2 x1736 +2 x1737 -1 x1366 -1 x1367 -1 x1368 -1 x1369 -1 x1370 -1 x1371 >= 0 ;
+2 x1738 +2 x1739 +2 x1740 -1 x1369 -1 x1370 -1 x1371 -1 x1372 -1 x1373 -1 x1374 >= 0 ;
+2 x1741 +2 x1742 +2 x1743 -1 x1372 -1 x1373 -1 x1374 -1 x1375 -1 x1376 -1 x1377 >= 0 ;
+2 x1744 +2 x1745 +2 x1746 -1 x1375 -1 x1376 -1 x1377 -1 x1378 -1 x1379 -1 x1380 >= 0 ;
+2 x1747 +2 x1748 +2 x1749 -1 x1378 -1 x1379 -1 x1380 -1 x1381 -1 x1382 -1 x1383 >= 0 ;
+2 x1750 +2 x1751 +2 x1752 -1 x1381 -1 x1382 -1 x1383 -1 x1384 -1 x1385 -1 x1386 >= 0 ;
+2 x1753 +2 x1754 +2 x1755 -1 x1384 -1 x1385 -1 x1386 -1 x1387 -1 x1388 -1 x1389 >= 0 ;
+2 x1756 +2 x1757 +2 x1758 -1 x1387 -1 x1388 -1 x1389 -1 x1390 -1 x1391 -1 x1392 >= 0 ;
+2 x1759 +2 x1760 +2 x1761 -1 x1390 -1 x1391 -1 x1392 -1 x1393 -1 x1394 -1 x1395 >= 0 ;
+2 x1762 +2 x1763 +2 x1764 -1 x1393 -1 x1394 -1 x1395 -1 x1396 -1 x1397 -1 x1398 >= 0 ;
+2 x1765 +2 x1766 +2 x1767 -1 x1396 -1 x1397 -1 x1398 -1 x1399 -1 x1400 -1 x1401 >= 0 ;
+2 x1768 +2 x1769 +2 x1770 -1 x1399 -1 x1400 -1 x1401 -1 x1402 -1 x1403 -1 x1404 >= 0 ;
+2 x1771 +2 x1772 +2 x1773 -1 x1402 -1 x1403 -1 x1404 -1 x1405 -1 x1406 -1 x1407 >= 0 ;
+2 x1774 +2 x1775 +2 x1776 -1 x1405 -1 x1406 -1 x1407 -1 x1408 -1 x1409 -1 x1410 >= 0 ;
+2 x1777 +2 x1778 +2 x1779 -1 x1408 -1 x1409 -1 x1410 -1 x1411 -1 x1412 -1 x1413 >= 0 ;
+2 x1780 +2 x1781 +2 x1782 -1 x1411 -1 x1412 -1 x1413 -1 x1414 -1 x1415 -1 x1416 >= 0 ;
+2 x1783 +2 x1784 +2 x1785 -1 x1414 -1 x1415 -1 x1416 -1 x1417 -1 x1418 -1 x1419 >= 0 ;
+2 x1786 +2 x1787 +2 x1788 -1 x1417 -1 x1418 -1 x1419 -1 x1420 -1 x1421 -1 x1422 >= 0 ;
+2 x1789 +2 x1790 +2 x1791 -1 x1420 -1 x1421 -1 x1422 -1 x1423 -1 x1424 -1 x1425 >= 0 ;
+2 x1792 +2 x1793 +2 x1794 -1 x1423 -1 x1424 -1 x1425 -1 x1426 -1 x1427 -1 x1428 >= 0 ;
+2 x1795 +2 x1796 +2 x1797 -1 x1426 -1 x1427 -1 x1428 -1 x1429 -1 x1430 -1 x1431 >= 0 ;
+2 x1798 +2 x1799 +2 x1800 -1 x1429 -1 x1430 -1 x1431 -1 x1432 -1 x1433 -1 x1434 >= 0 ;
+2 x1801 +2 x1802 +2 x1803 -1 x1432 -1 x1433 -1 x1434 -1 x1435 -1 x1436 -1 x1437 >= 0 ;
+2 x1804 +2 x1805 +2 x1806 -1 x1435 -1 x1436 -1 x1437 -1 x1438 -1 x1439 -1 x1440 >= 0 ;
+2 x1807 +2 x1808 +2 x1809 -1 x1438 -1 x1439 -1 x1440 -1 x1441 -1 x1442 -1 x1443 >= 0 ;
+2 x1810 +2 x1811 +2 x1812 -1 x1441 -1 x1442 -1 x1443 -1 x1444 -1 x1445 -1 x1446 >= 0 ;
+2 x1813 +2 x1814 +2 x1815 -1 x1444 -1 x1445 -1 x1446 -1 x1447 -1 x1448 -1 x1449 >= 0 ;
+2 x1816 +2 x1817 +2 x1818 -1 x1447 -1 x1448 -1 x1449 -1 x1450 -1 x1451 -1 x1452 >= 0 ;
+2 x1819 +2 x1820 +2 x1821 -1 x1450 -1 x1451 -1 x1452 -1 x1453 -1 x1454 -1 x1455 >= 0 ;
+2 x1822 +2 x1823 +2 x1824 -1 x1453 -1 x1454 -1 x1455 -1 x1456 -1 x1457 -1 x1458 >= 0 ;
+2 x1825 +2 x1826 +2 x1827 -1 x1456 -1 x1457 -1 x1458 -1 x1459 -1 x1460 -1 x1461 >= 0 ;
+2 x1828 +2 x1829 +2 x1830 -1 x1459 -1 x1460 -1 x1461 -1 x1462 -1 x1463 -1 x1464 >= 0 ;
+2 x1831 +2 x1832 +2 x1833 -1 x1462 -1 x1463 -1 x1464 -1 x1465 -1 x1466 -1 x1467 >= 0 ;
+2 x1834 +2 x1835 +2 x1836 -1 x1465 -1 x1466 -1 x1467 -1 x1468 -1 x1469 -1 x1470 >= 0 ;
+2 x1837 +2 x1838 +2 x1839 -1 x1468 -1 x1469 -1 x1470 -1 x1471 -1 x1472 -1 x1473 >= 0 ;
+2 x1840 +2 x1841 +2 x1842 -1 x1471 -1 x1472 -1 x1473 -1 x1474 -1 x1475 -1 x1476 >= 0 ;
+2 x1843 +2 x1844 +2 x1845 -1 x1474 -1 x1475 -1 x1476 -1 x1477 -1 x1478 -1 x1479 >= 0 ;
+2 x1846 +2 x1847 +2 x1848 -1 x1477 -1 x1478 -1 x1479 -1 x1480 -1 x1481 -1 x1482 >= 0 ;
+2 x1849 +2 x1850 +2 x1851 -1 x1480 -1 x1481 -1 x1482 -1 x1483 -1 x1484 -1 x1485 >= 0 ;
+2 x1852 +2 x1853 +2 x1854 -1 x1483 -1 x1484 -1 x1485 -1 x1486 -1 x1487 -1 x1488 >= 0 ;
+2 x1855 +2 x1856 +2 x1857 -1 x1486 -1 x1487 -1 x1488 -1 x1489 -1 x1490 -1 x1491 >= 0 ;
+2 x1858 +2 x1859 +2 x1860 -1 x1489 -1 x1490 -1 x1491 -1 x1492 -1 x1493 -1 x1494 >= 0 ;
+2 x1861 +2 x1862 +2 x1863 -1 x1495 -1 x1496 -1 x1497 -1 x1498 -1 x1499 -1 x1500 >= 0 ;
+2 x1864 +2 x1865 +2 x1866 -1 x1498 -1 x1499 -1 x1500 -1 x1501 -1 x1502 -1 x1503 >= 0 ;
+2 x1867 +2 x1868 +2 x1869 -1 x1501 -1 x1502 -1 x1503 -1 x1504 -1 x1505 -1 x1506 >= 0 ;
+2 x1870 +2 x1871 +2 x1872 -1 x1504 -1 x1505 -1 x1506 -1 x1507 -1 x1508 -1 x1509 >= 0 ;
+2 x1873 +2 x1874 +2 x1875 -1 x1507 -1 x1508 -1 x1509 -1 x1510 -1 x1511 -1 x1512 >= 0 ;
+2 x1876 +2 x1877 +2 x1878 -1 x1510 -1 x1511 -1 x1512 -1 x1513 -1 x1514 -1 x1515 >= 0 ;
+2 x1879 +2 x1880 +2 x1881 -1 x1513 -1 x1514 -1 x1515 -1 x1516 -1 x1517 -1 x1518 >= 0 ;
+2 x1882 +2 x1883 +2 x1884 -1 x1516 -1 x1517 -1 x1518 -1 x1519 -1 x1520 -1 x1521 >= 0 ;
+2 x1885 +2 x1886 +2 x1887 -1 x1519 -1 x1520 -1 x1521 -1 x1522 -1 x1523 -1 x1524 >= 0 ;
+2 x1888 +2 x1889 +2 x1890 -1 x1522 -1 x1523 -1 x1524 -1 x1525 -1 x1526 -1 x1527 >= 0 ;
+2 x1891 +2 x1892 +2 x1893 -1 x1525 -1 x1526 -1 x1527 -1 x1528 -1 x1529 -1 x1530 >= 0 ;
+2 x1894 +2 x1895 +2 x1896 -1 x1528 -1 x1529 -1 x1530 -1 x1531 -1 x1532 -1 x1533 >= 0 ;
+2 x1897 +2 x1898 +2 x1899 -1 x1531 -1 x1532 -1 x1533 -1 x1534 -1 x1535 -1 x1536 >= 0 ;
+2 x1900 +2 x1901 +2 x1902 -1 x1534 -1 x1535 -1 x1536 -1 x1537 -1 x1538 -1 x1539 >= 0 ;
+2 x1903 +2 x1904 +2 x1905 -1 x1537 -1 x1538 -1 x1539 -1 x1540 -1 x1541 -1 x1542 >= 0 ;
+2 x1906 +2 x1907 +2 x1908 -1 x1540 -1 x1541 -1 x1542 -1 x1543 -1 x1544 -1 x1545 >= 0 ;
+2 x1909 +2 x1910 +2 x1911 -1 x1543 -1 x1544 -1 x1545 -1 x1546 -1 x1547 -1 x1548 >= 0 ;
+2 x1912 +2 x1913 +2 x1914 -1 x1546 -1 x1547 -1 x1548 -1 x1549 -1 x1550 -1 x1551 >= 0 ;
+2 x1915 +2 x1916 +2 x1917 -1 x1549 -1 x1550 -1 x1551 -1 x1552 -1 x1553 -1 x1554 >= 0 ;
+2 x1918 +2 x1919 +2 x1920 -1 x1552 -1 x1553 -1 x1554 -1 x1555 -1 x1556 -1 x1557 >= 0 ;
+2 x1921 +2 x1922 +2 x1923 -1 x1555 -1 x1556 -1 x1557 -1 x1558 -1 x1559 -1 x1560 >= 0 ;
+2 x1924 +2 x1925 +2 x1926 -1 x1558 -1 x1559 -1 x1560 -1 x1561 -1 x1562 -1 x1563 >= 0 ;
+2 x1927 +2 x1928 +2 x1929 -1 x1561 -1 x1562 -1 x1563 -1 x1564 -1 x1565 -1 x1566 >= 0 ;
+2 x1930 +2 x1931 +2 x1932 -1 x1564 -1 x1565 -1 x1566 -1 x1567 -1 x1568 -1 x1569 >= 0 ;
+2 x1933 +2 x1934 +2 x1935 -1 x1567 -1 x1568 -1 x1569 -1 x1570 -1 x1571 -1 x1572 >= 0 ;
+2 x1936 +2 x1937 +2 x1938 -1 x1570 -1 x1571 -1 x1572 -1 x1573 -1 x1574 -1 x1575 >= 0 ;
+2 x1939 +2 x1940 +2 x1941 -1 x1573 -1 x1574 -1 x1575 -1 x1576 -1 x1577 -1 x1578 >= 0 ;
+2 x1942 +2 x1943 +2 x1944 -1 x1576 -1 x1577 -1 x1578 -1 x1579 -1 x1580 -1 x1581 >= 0 ;
+2 x1945 +2 x1946 +2 x1947 -1 x1579 -1 x1580 -1 x1581 -1 x1582 -1 x1583 -1 x1584 >= 0 ;
+2 x1948 +2 x1949 +2 x1950 -1 x1582 -1 x1583 -1 x1584 -1 x1585 -1 x1586 -1 x1587 >= 0 ;
+2 x1951 +2 x1952 +2 x1953 -1 x1585 -1 x1586 -1 x1587 -1 x1588 -1 x1589 -1 x1590 >= 0 ;
+2 x1954 +2 x1955 +2 x1956 -1 x1588 -1 x1589 -1 x1590 -1 x1591 -1 x1592 -1 x1593 >= 0 ;
+2 x1957 +2 x1958 +2 x1959 -1 x1591 -1 x1592 -1 x1593 -1 x1594 -1 x1595 -1 x1596 >= 0 ;
+2 x1960 +2 x1961 +2 x1962 -1 x1594 -1 x1595 -1 x1596 -1 x1597 -1 x1598 -1 x1599 >= 0 ;
+2 x1963 +2 x1964 +2 x1965 -1 x1597 -1 x1598 -1 x1599 -1 x1600 -1 x1601 -1 x1602 >= 0 ;
+2 x1966 +2 x1967 +2 x1968 -1 x1600 -1 x1601 -1 x1602 -1 x1603 -1 x1604 -1 x1605 >= 0 ;
+2 x1969 +2 x1970 +2 x1971 -1 x1603 -1 x1604 -1 x1605 -1 x1606 -1 x1607 -1 x1608 >= 0 ;
+2 x1972 +2 x1973 +2 x1974 -1 x1606 -1 x1607 -1 x1608 -1 x1609 -1 x1610 -1 x1611 >= 0 ;
+2 x1975 +2 x1976 +2 x1977 -1 x1609 -1 x1610 -1 x1611 -1 x1612 -1 x1613 -1 x1614 >= 0 ;
+2 x1978 +2 x1979 +2 x1980 -1 x1612 -1 x1613 -1 x1614 -1 x1615 -1 x1616 -1 x1617 >= 0 ;
+2 x1981 +2 x1982 +2 x1983 -1 x1615 -1 x1616 -1 x1617 -1 x1618 -1 x1619 -1 x1620 >= 0 ;
+2 x1984 +2 x1985 +2 x1986 -1 x1618 -1 x1619 -1 x1620 -1 x1621 -1 x1622 -1 x1623 >= 0 ;
+2 x1987 +2 x1988 +2 x1989 -1 x1621 -1 x1622 -1 x1623 -1 x1624 -1 x1625 -1 x1626 >= 0 ;
+2 x1990 +2 x1991 +2 x1992 -1 x1624 -1 x1625 -1 x1626 -1 x1627 -1 x1628 -1 x1629 >= 0 ;
+2 x1993 +2 x1994 +2 x1995 -1 x1627 -1 x1628 -1 x1629 -1 x1630 -1 x1631 -1 x1632 >= 0 ;
+2 x1996 +2 x1997 +2 x1998 -1 x1630 -1 x1631 -1 x1632 -1 x1633 -1 x1634 -1 x1635 >= 0 ;
+2 x1999 +2 x2000 +2 x2001 -1 x1633 -1 x1634 -1 x1635 -1 x1636 -1 x1637 -1 x1638 >= 0 ;
+2 x2002 +2 x2003 +2 x2004 -1 x1636 -1 x1637 -1 x1638 -1 x1639 -1 x1640 -1 x1641 >= 0 ;
+2 x2005 +2 x2006 +2 x2007 -1 x1639 -1 x1640 -1 x1641 -1 x1642 -1 x1643 -1 x1644 >= 0 ;
+2 x2008 +2 x2009 +2 x2010 -1 x1642 -1 x1643 -1 x1644 -1 x1645 -1 x1646 -1 x1647 >= 0 ;
+2 x2011 +2 x2012 +2 x2013 -1 x1645 -1 x1646 -1 x1647 -1 x1648 -1 x1649 -1 x1650 >= 0 ;
+2 x2014 +2 x2015 +2 x2016 -1 x1648 -1 x1649 -1 x1650 -1 x1651 -1 x1652 -1 x1653 >= 0 ;
+2 x2017 +2 x2018 +2 x2019 -1 x1651 -1 x1652 -1 x1653 -1 x1654 -1 x1655 -1 x1656 >= 0 ;
+2 x2020 +2 x2021 +2 x2022 -1 x1654 -1 x1655 -1 x1656 -1 x1657 -1 x1658 -1 x1659 >= 0 ;
+2 x2023 +2 x2024 +2 x2025 -1 x1657 -1 x1658 -1 x1659 -1 x1660 -1 x1661 -1 x1662 >= 0 ;
+2 x2026 +2 x2027 +2 x2028 -1 x1660 -1 x1661 -1 x1662 -1 x1663 -1 x1664 -1 x1665 >= 0 ;
+2 x2029 +2 x2030 +2 x2031 -1 x1663 -1 x1664 -1 x1665 -1 x1666 -1 x1667 -1 x1668 >= 0 ;
+2 x2032 +2 x2033 +2 x2034 -1 x1666 -1 x1667 -1 x1668 -1 x1669 -1 x1670 -1 x1671 >= 0 ;
+2 x2035 +2 x2036 +2 x2037 -1 x1669 -1 x1670 -1 x1671 -1 x1672 -1 x1673 -1 x1674 >= 0 ;
+2 x2038 +2 x2039 +2 x2040 -1 x1672 -1 x1673 -1 x1674 -1 x1675 -1 x1676 -1 x1677 >= 0 ;
+2 x2041 +2 x2042 +2 x2043 -1 x1675 -1 x1676 -1 x1677 -1 x1678 -1 x1679 -1 x1680 >= 0 ;
+2 x2044 +2 x2045 +2 x2046 -1 x1678 -1 x1679 -1 x1680 -1 x1681 -1 x1682 -1 x1683 >= 0 ;
+2 x2047 +2 x2048 +2 x2049 -1 x1681 -1 x1682 -1 x1683 -1 x1684 -1 x1685 -1 x1686 >= 0 ;
+2 x2050 +2 x2051 +2 x2052 -1 x1684 -1 x1685 -1 x1686 -1 x1687 -1 x1688 -1 x1689 >= 0 ;
+2 x2053 +2 x2054 +2 x2055 -1 x1687 -1 x1688 -1 x1689 -1 x1690 -1 x1691 -1 x1692 >= 0 ;
+2 x2056 +2 x2057 +2 x2058 -1 x1690 -1 x1691 -1 x1692 -1 x1693 -1 x1694 -1 x1695 >= 0 ;
+2 x2059 +2 x2060 +2 x2061 -1 x1693 -1 x1694 -1 x1695 -1 x1696 -1 x1697 -1 x1698 >= 0 ;
+2 x2062 +2 x2063 +2 x2064 -1 x1696 -1 x1697 -1 x1698 -1 x1699 -1 x1700 -1 x1701 >= 0 ;
+2 x2065 +2 x2066 +2 x2067 -1 x1699 -1 x1700 -1 x1701 -1 x1702 -1 x1703 -1 x1704 >= 0 ;
+2 x2068 +2 x2069 +2 x2070 -1 x1702 -1 x1703 -1 x1704 -1 x1705 -1 x1706 -1 x1707 >= 0 ;
+2 x2071 +2 x2072 +2 x2073 -1 x1705 -1 x1706 -1 x1707 -1 x1708 -1 x1709 -1 x1710 >= 0 ;
+2 x2074 +2 x2075 +2 x2076 -1 x1708 -1 x1709 -1 x1710 -1 x1711 -1 x1712 -1 x1713 >= 0 ;
+2 x2077 +2 x2078 +2 x2079 -1 x1711 -1 x1712 -1 x1713 -1 x1714 -1 x1715 -1 x1716 >= 0 ;
+2 x2080 +2 x2081 +2 x2082 -1 x1714 -1 x1715 -1 x1716 -1 x1717 -1 x1718 -1 x1719 >= 0 ;
+2 x2083 +2 x2084 +2 x2085 -1 x1717 -1 x1718 -1 x1719 -1 x1720 -1 x1721 -1 x1722 >= 0 ;
+2 x2086 +2 x2087 +2 x2088 -1 x1720 -1 x1721 -1 x1722 -1 x1723 -1 x1724 -1 x1725 >= 0 ;
+2 x2089 +2 x2090 +2 x2091 -1 x1723 -1 x1724 -1 x1725 -1 x1726 -1 x1727 -1 x1728 >= 0 ;
+2 x2092 +2 x2093 +2 x2094 -1 x1726 -1 x1727 -1 x1728 -1 x1729 -1 x1730 -1 x1731 >= 0 ;
+2 x2095 +2 x2096 +2 x2097 -1 x1729 -1 x1730 -1 x1731 -1 x1732 -1 x1733 -1 x1734 >= 0 ;
+2 x2098 +2 x2099 +2 x2100 -1 x1732 -1 x1733 -1 x1734 -1 x1735 -1 x1736 -1 x1737 >= 0 ;
+2 x2101 +2 x2102 +2 x2103 -1 x1735 -1 x1736 -1 x1737 -1 x1738 -1 x1739 -1 x1740 >= 0 ;
+2 x2104 +2 x2105 +2 x2106 -1 x1738 -1 x1739 -1 x1740 -1 x1741 -1 x1742 -1 x1743 >= 0 ;
+2 x2107 +2 x2108 +2 x2109 -1 x1741 -1 x1742 -1 x1743 -1 x1744 -1 x1745 -1 x1746 >= 0 ;
+2 x2110 +2 x2111 +2 x2112 -1 x1744 -1 x1745 -1 x1746 -1 x1747 -1 x1748 -1 x1749 >= 0 ;
+2 x2113 +2 x2114 +2 x2115 -1 x1747 -1 x1748 -1 x1749 -1 x1750 -1 x1751 -1 x1752 >= 0 ;
+2 x2116 +2 x2117 +2 x2118 -1 x1750 -1 x1751 -1 x1752 -1 x1753 -1 x1754 -1 x1755 >= 0 ;
+2 x2119 +2 x2120 +2 x2121 -1 x1753 -1 x1754 -1 x1755 -1 x1756 -1 x1757 -1 x1758 >= 0 ;
+2 x2122 +2 x2123 +2 x2124 -1 x1756 -1 x1757 -1 x1758 -1 x1759 -1 x1760 -1 x1761 >= 0 ;
+2 x2125 +2 x2126 +2 x2127 -1 x1759 -1 x1760 -1 x1761 -1 x1762 -1 x1763 -1 x1764 >= 0 ;
+2 x2128 +2 x2129 +2 x2130 -1 x1762 -1 x1763 -1 x1764 -1 x1765 -1 x1766 -1 x1767 >= 0 ;
+2 x2131 +2 x2132 +2 x2133 -1 x1765 -1 x1766 -1 x1767 -1 x1768 -1 x1769 -1 x1770 >= 0 ;
+2 x2134 +2 x2135 +2 x2136 -1 x1768 -1 x1769 -1 x1770 -1 x1771 -1 x1772 -1 x1773 >= 0 ;
+2 x2137 +2 x2138 +2 x2139 -1 x1771 -1 x1772 -1 x1773 -1 x1774 -1 x1775 -1 x1776 >= 0 ;
+2 x2140 +2 x2141 +2 x2142 -1 x1774 -1 x1775 -1 x1776 -1 x1777 -1 x1778 -1 x1779 >= 0 ;
+2 x2143 +2 x2144 +2 x2145 -1 x1777 -1 x1778 -1 x1779 -1 x1780 -1 x1781 -1 x1782 >= 0 ;
+2 x2146 +2 x2147 +2 x2148 -1 x1780 -1 x1781 -1 x1782 -1 x1783 -1 x1784 -1 x1785 >= 0 ;
+2 x2149 +2 x2150 +2 x2151 -1 x1783 -1 x1784 -1 x1785 -1 x1786 -1 x1787 -1 x1788 >= 0 ;
+2 x2152 +2 x2153 +2 x2154 -1 x1786 -1 x1787 -1 x1788 -1 x1789 -1 x1790 -1 x1791 >= 0 ;
+2 x2155 +2 x2156 +2 x2157 -1 x1789 -1 x1790 -1 x1791 -1 x1792 -1 x1793 -1 x1794 >= 0 ;
+2 x2158 +2 x2159 +2 x2160 -1 x1792 -1 x1793 -1 x1794 -1 x1795 -1 x1796 -1 x1797 >= 0 ;
+2 x2161 +2 x2162 +2 x2163 -1 x1795 -1 x1796 -1 x1797 -1 x1798 -1 x1799 -1 x1800 >= 0 ;
+2 x2164 +2 x2165 +2 x2166 -1 x1798 -1 x1799 -1 x1800 -1 x1801 -1 x1802 -1 x1803 >= 0 ;
+2 x2167 +2 x2168 +2 x2169 -1 x1801 -1 x1802 -1 x1803 -1 x1804 -1 x1805 -1 x1806 >= 0 ;
+2 x2170 +2 x2171 +2 x2172 -1 x1804 -1 x1805 -1 x1806 -1 x1807 -1 x1808 -1 x1809 >= 0 ;
+2 x2173 +2 x2174 +2 x2175 -1 x1807 -1 x1808 -1 x1809 -1 x1810 -1 x1811 -1 x1812 >= 0 ;
+2 x2176 +2 x2177 +2 x2178 -1 x1810 -1 x1811 -1 x1812 -1 x1813 -1 x1814 -1 x1815 >= 0 ;
+2 x2179 +2 x2180 +2 x2181 -1 x1813 -1 x1814 -1 x1815 -1 x1816 -1 x1817 -1 x1818 >= 0 ;
+2 x2182 +2 x2183 +2 x2184 -1 x1816 -1 x1817 -1 x1818 -1 x1819 -1 x1820 -1 x1821 >= 0 ;
+2 x2185 +2 x2186 +2 x2187 -1 x1819 -1 x1820 -1 x1821 -1 x1822 -1 x1823 -1 x1824 >= 0 ;
+2 x2188 +2 x2189 +2 x2190 -1 x1822 -1 x1823 -1 x1824 -1 x1825 -1 x1826 -1 x1827 >= 0 ;
+2 x2191 +2 x2192 +2 x2193 -1 x1825 -1 x1826 -1 x1827 -1 x1828 -1 x1829 -1 x1830 >= 0 ;
+2 x2194 +2 x2195 +2 x2196 -1 x1828 -1 x1829 -1 x1830 -1 x1831 -1 x1832 -1 x1833 >= 0 ;
+2 x2197 +2 x2198 +2 x2199 -1 x1831 -1 x1832 -1 x1833 -1 x1834 -1 x1835 -1 x1836 >= 0 ;
+2 x2200 +2 x2201 +2 x2202 -1 x1834 -1 x1835 -1 x1836 -1 x1837 -1 x1838 -1 x1839 >= 0 ;
+2 x2203 +2 x2204 +2 x2205 -1 x1837 -1 x1838 -1 x1839 -1 x1840 -1 x1841 -1 x1842 >= 0 ;
+2 x2206 +2 x2207 +2 x2208 -1 x1840 -1 x1841 -1 x1842 -1 x1843 -1 x1844 -1 x1845 >= 0 ;
+2 x2209 +2 x2210 +2 x2211 -1 x1843 -1 x1844 -1 x1845 -1 x1846 -1 x1847 -1 x1848 >= 0 ;
+2 x2212 +2 x2213 +2 x2214 -1 x1846 -1 x1847 -1 x1848 -1 x1849 -1 x1850 -1 x1851 >= 0 ;
+2 x2215 +2 x2216 +2 x2217 -1 x1849 -1 x1850 -1 x1851 -1 x1852 -1 x1853 -1 x1854 >= 0 ;
+2 x2218 +2 x2219 +2 x2220 -1 x1852 -1 x1853 -1 x1854 -1 x1855 -1 x1856 -1 x1857 >= 0 ;
+2 x2221 +2 x2222 +2 x2223 -1 x1855 -1 x1856 -1 x1857 -1 x1858 -1 x1859 -1 x1860 >= 0 ;
+2 x2224 +2 x2225 +2 x2226 -1 x1861 -1 x1862 -1 x1863 -1 x1864 -1 x1865 -1 x1866 >= 0 ;
+2 x2227 +2 x2228 +2 x2229 -1 x1864 -1 x1865 -1 x1866 -1 x1867 -1 x1868 -1 x1869 >= 0 ;
+2 x2230 +2 x2231 +2 x2232 -1 x1867 -1 x1868 -1 x1869 -1 x1870 -1 x1871 -1 x1872 >= 0 ;
+2 x2233 +2 x2234 +2 x2235 -1 x1870 -1 x1871 -1 x1872 -1 x1873 -1 x1874 -1 x1875 >= 0 ;
+2 x2236 +2 x2237 +2 x2238 -1 x1873 -1 x1874 -1 x1875 -1 x1876 -1 x1877 -1 x1878 >= 0 ;
+2 x2239 +2 x2240 +2 x2241 -1 x1876 -1 x1877 -1 x1878 -1 x1879 -1 x1880 -1 x1881 >= 0 ;
+2 x2242 +2 x2243 +2 x2244 -1 x1879 -1 x1880 -1 x1881 -1 x1882 -1 x1883 -1 x1884 >= 0 ;
+2 x2245 +2 x2246 +2 x2247 -1 x1882 -1 x1883 -1 x1884 -1 x1885 -1 x1886 -1 x1887 >= 0 ;
+2 x2248 +2 x2249 +2 x2250 -1 x1885 -1 x1886 -1 x1887 -1 x1888 -1 x1889 -1 x1890 >= 0 ;
+2 x2251 +2 x2252 +2 x2253 -1 x1888 -1 x1889 -1 x1890 -1 x1891 -1 x1892 -1 x1893 >= 0 ;
+2 x2254 +2 x2255 +2 x2256 -1 x1891 -1 x1892 -1 x1893 -1 x1894 -1 x1895 -1 x1896 >= 0 ;
+2 x2257 +2 x2258 +2 x2259 -1 x1894 -1 x1895 -1 x1896 -1 x1897 -1 x1898 -1 x1899 >= 0 ;
+2 x2260 +2 x2261 +2 x2262 -1 x1897 -1 x1898 -1 x1899 -1 x1900 -1 x1901 -1 x1902 >= 0 ;
+2 x2263 +2 x2264 +2 x2265 -1 x1900 -1 x1901 -1 x1902 -1 x1903 -1 x1904 -1 x1905 >= 0 ;
+2 x2266 +2 x2267 +2 x2268 -1 x1903 -1 x1904 -1 x1905 -1 x1906 -1 x1907 -1 x1908 >= 0 ;
+2 x2269 +2 x2270 +2 x2271 -1 x1906 -1 x1907 -1 x1908 -1 x1909 -1 x1910 -1 x1911 >= 0 ;
+2 x2272 +2 x2273 +2 x2274 -1 x1909 -1 x1910 -1 x1911 -1 x1912 -1 x1913 -1 x1914 >= 0 ;
+2 x2275 +2 x2276 +2 x2277 -1 x1912 -1 x1913 -1 x1914 -1 x1915 -1 x1916 -1 x1917 >= 0 ;
+2 x2278 +2 x2279 +2 x2280 -1 x1915 -1 x1916 -1 x1917 -1 x1918 -1 x1919 -1 x1920 >= 0 ;
+2 x2281 +2 x2282 +2 x2283 -1 x1918 -1 x1919 -1 x1920 -1 x1921 -1 x1922 -1 x1923 >= 0 ;
+2 x2284 +2 x2285 +2 x2286 -1 x1921 -1 x1922 -1 x1923 -1 x1924 -1 x1925 -1 x1926 >= 0 ;
+2 x2287 +2 x2288 +2 x2289 -1 x1924 -1 x1925 -1 x1926 -1 x1927 -1 x1928 -1 x1929 >= 0 ;
+2 x2290 +2 x2291 +2 x2292 -1 x1927 -1 x1928 -1 x1929 -1 x1930 -1 x1931 -1 x1932 >= 0 ;
+2 x2293 +2 x2294 +2 x2295 -1 x1930 -1 x1931 -1 x1932 -1 x1933 -1 x1934 -1 x1935 >= 0 ;
+2 x2296 +2 x2297 +2 x2298 -1 x1933 -1 x1934 -1 x1935 -1 x1936 -1 x1937 -1 x1938 >= 0 ;
+2 x2299 +2 x2300 +2 x2301 -1 x1936 -1 x1937 -1 x1938 -1 x1939 -1 x1940 -1 x1941 >= 0 ;
+2 x2302 +2 x2303 +2 x2304 -1 x1939 -1 x1940 -1 x1941 -1 x1942 -1 x1943 -1 x1944 >= 0 ;
+2 x2305 +2 x2306 +2 x2307 -1 x1942 -1 x1943 -1 x1944 -1 x1945 -1 x1946 -1 x1947 >= 0 ;
+2 x2308 +2 x2309 +2 x2310 -1 x1945 -1 x1946 -1 x1947 -1 x1948 -1 x1949 -1 x1950 >= 0 ;
+2 x2311 +2 x2312 +2 x2313 -1 x1948 -1 x1949 -1 x1950 -1 x1951 -1 x1952 -1 x1953 >= 0 ;
+2 x2314 +2 x2315 +2 x2316 -1 x1951 -1 x1952 -1 x1953 -1 x1954 -1 x1955 -1 x1956 >= 0 ;
+2 x2317 +2 x2318 +2 x2319 -1 x1954 -1 x1955 -1 x1956 -1 x1957 -1 x1958 -1 x1959 >= 0 ;
+2 x2320 +2 x2321 +2 x2322 -1 x1957 -1 x1958 -1 x1959 -1 x1960 -1 x1961 -1 x1962 >= 0 ;
+2 x2323 +2 x2324 +2 x2325 -1 x1960 -1 x1961 -1 x1962 -1 x1963 -1 x1964 -1 x1965 >= 0 ;
+2 x2326 +2 x2327 +2 x2328 -1 x1963 -1 x1964 -1 x1965 -1 x1966 -1 x1967 -1 x1968 >= 0 ;
+2 x2329 +2 x2330 +2 x2331 -1 x1966 -1 x1967 -1 x1968 -1 x1969 -1 x1970 -1 x1971 >= 0 ;
+2 x2332 +2 x2333 +2 x2334 -1 x1969 -1 x1970 -1 x1971 -1 x1972 -1 x1973 -1 x1974 >= 0 ;
+2 x2335 +2 x2336 +2 x2337 -1 x1972 -1 x1973 -1 x1974 -1 x1975 -1 x1976 -1 x1977 >= 0 ;
+2 x2338 +2 x2339 +2 x2340 -1 x1975 -1 x1976 -1 x1977 -1 x1978 -1 x1979 -1 x1980 >= 0 ;
+2 x2341 +2 x2342 +2 x2343 -1 x1978 -1 x1979 -1 x1980 -1 x1981 -1 x1982 -1 x1983 >= 0 ;
+2 x2344 +2 x2345 +2 x2346 -1 x1981 -1 x1982 -1 x1983 -1 x1984 -1 x1985 -1 x1986 >= 0 ;
+2 x2347 +2 x2348 +2 x2349 -1 x1984 -1 x1985 -1 x1986 -1 x1987 -1 x1988 -1 x1989 >= 0 ;
+2 x2350 +2 x2351 +2 x2352 -1 x1987 -1 x1988 -1 x1989 -1 x1990 -1 x1991 -1 x1992 >= 0 ;
+2 x2353 +2 x2354 +2 x2355 -1 x1990 -1 x1991 -1 x1992 -1 x1993 -1 x1994 -1 x1995 >= 0 ;
+2 x2356 +2 x2357 +2 x2358 -1 x1993 -1 x1994 -1 x1995 -1 x1996 -1 x1997 -1 x1998 >= 0 ;
+2 x2359 +2 x2360 +2 x2361 -1 x1996 -1 x1997 -1 x1998 -1 x1999 -1 x2000 -1 x2001 >= 0 ;
+2 x2362 +2 x2363 +2 x2364 -1 x1999 -1 x2000 -1 x2001 -1 x2002 -1 x2003 -1 x2004 >= 0 ;
+2 x2365 +2 x2366 +2 x2367 -1 x2002 -1 x2003 -1 x2004 -1 x2005 -1 x2006 -1 x2007 >= 0 ;
+2 x2368 +2 x2369 +2 x2370 -1 x2005 -1 x2006 -1 x2007 -1 x2008 -1 x2009 -1 x2010 >= 0 ;
+2 x2371 +2 x2372 +2 x2373 -1 x2008 -1 x2009 -1 x2010 -1 x2011 -1 x2012 -1 x2013 >= 0 ;
+2 x2374 +2 x2375 +2 x2376 -1 x2011 -1 x2012 -1 x2013 -1 x2014 -1 x2015 -1 x2016 >= 0 ;
+2 x2377 +2 x2378 +2 x2379 -1 x2014 -1 x2015 -1 x2016 -1 x2017 -1 x2018 -1 x2019 >= 0 ;
+2 x2380 +2 x2381 +2 x2382 -1 x2017 -1 x2018 -1 x2019 -1 x2020 -1 x2021 -1 x2022 >= 0 ;
+2 x2383 +2 x2384 +2 x2385 -1 x2020 -1 x2021 -1 x2022 -1 x2023 -1 x2024 -1 x2025 >= 0 ;
+2 x2386 +2 x2387 +2 x2388 -1 x2023 -1 x2024 -1 x2025 -1 x2026 -1 x2027 -1 x2028 >= 0 ;
+2 x2389 +2 x2390 +2 x2391 -1 x2026 -1 x2027 -1 x2028 -1 x2029 -1 x2030 -1 x2031 >= 0 ;
+2 x2392 +2 x2393 +2 x2394 -1 x2029 -1 x2030 -1 x2031 -1 x2032 -1 x2033 -1 x2034 >= 0 ;
+2 x2395 +2 x2396 +2 x2397 -1 x2032 -1 x2033 -1 x2034 -1 x2035 -1 x2036 -1 x2037 >= 0 ;
+2 x2398 +2 x2399 +2 x2400 -1 x2035 -1 x2036 -1 x2037 -1 x2038 -1 x2039 -1 x2040 >= 0 ;
+2 x2401 +2 x2402 +2 x2403 -1 x2038 -1 x2039 -1 x2040 -1 x2041 -1 x2042 -1 x2043 >= 0 ;
+2 x2404 +2 x2405 +2 x2406 -1 x2041 -1 x2042 -1 x2043 -1 x2044 -1 x2045 -1 x2046 >= 0 ;
+2 x2407 +2 x2408 +2 x2409 -1 x2044 -1 x2045 -1 x2046 -1 x2047 -1 x2048 -1 x2049 >= 0 ;
+2 x2410 +2 x2411 +2 x2412 -1 x2047 -1 x2048 -1 x2049 -1 x2050 -1 x2051 -1 x2052 >= 0 ;
+2 x2413 +2 x2414 +2 x2415 -1 x2050 -1 x2051 -1 x2052 -1 x2053 -1 x2054 -1 x2055 >= 0 ;
+2 x2416 +2 x2417 +2 x2418 -1 x2053 -1 x2054 -1 x2055 -1 x2056 -1 x2057 -1 x2058 >= 0 ;
+2 x2419 +2 x2420 +2 x2421 -1 x2056 -1 x2057 -1 x2058 -1 x2059 -1 x2060 -1 x2061 >= 0 ;
+2 x2422 +2 x2423 +2 x2424 -1 x2059 -1 x2060 -1 x2061 -1 x2062 -1 x2063 -1 x2064 >= 0 ;
+2 x2425 +2 x2426 +2 x2427 -1 x2062 -1 x2063 -1 x2064 -1 x2065 -1 x2066 -1 x2067 >= 0 ;
+2 x2428 +2 x2429 +2 x2430 -1 x2065 -1 x2066 -1 x2067 -1 x2068 -1 x2069 -1 x2070 >= 0 ;
+2 x2431 +2 x2432 +2 x2433 -1 x2068 -1 x2069 -1 x2070 -1 x2071 -1 x2072 -1 x2073 >= 0 ;
+2 x2434 +2 x2435 +2 x2436 -1 x2071 -1 x2072 -1 x2073 -1 x2074 -1 x2075 -1 x2076 >= 0 ;
+2 x2437 +2 x2438 +2 x2439 -1 x2074 -1 x2075 -1 x2076 -1 x2077 -1 x2078 -1 x2079 >= 0 ;
+2 x2440 +2 x2441 +2 x2442 -1 x2077 -1 x2078 -1 x2079 -1 x2080 -1 x2081 -1 x2082 >= 0 ;
+2 x2443 +2 x2444 +2 x2445 -1 x2080 -1 x2081 -1 x2082 -1 x2083 -1 x2084 -1 x2085 >= 0 ;
+2 x2446 +2 x2447 +2 x2448 -1 x2083 -1 x2084 -1 x2085 -1 x2086 -1 x2087 -1 x2088 >= 0 ;
+2 x2449 +2 x2450 +2 x2451 -1 x2086 -1 x2087 -1 x2088 -1 x2089 -1 x2090 -1 x2091 >= 0 ;
+2 x2452 +2 x2453 +2 x2454 -1 x2089 -1 x2090 -1 x2091 -1 x2092 -1 x2093 -1 x2094 >= 0 ;
+2 x2455 +2 x2456 +2 x2457 -1 x2092 -1 x2093 -1 x2094 -1 x2095 -1 x2096 -1 x2097 >= 0 ;
+2 x2458 +2 x2459 +2 x2460 -1 x2095 -1 x2096 -1 x2097 -1 x2098 -1 x2099 -1 x2100 >= 0 ;
+2 x2461 +2 x2462 +2 x2463 -1 x2098 -1 x2099 -1 x2100 -1 x2101 -1 x2102 -1 x2103 >= 0 ;
+2 x2464 +2 x2465 +2 x2466 -1 x2101 -1 x2102 -1 x2103 -1 x2104 -1 x2105 -1 x2106 >= 0 ;
+2 x2467 +2 x2468 +2 x2469 -1 x2104 -1 x2105 -1 x2106 -1 x2107 -1 x2108 -1 x2109 >= 0 ;
+2 x2470 +2 x2471 +2 x2472 -1 x2107 -1 x2108 -1 x2109 -1 x2110 -1 x2111 -1 x2112 >= 0 ;
+2 x2473 +2 x2474 +2 x2475 -1 x2110 -1 x2111 -1 x2112 -1 x2113 -1 x2114 -1 x2115 >= 0 ;
+2 x2476 +2 x2477 +2 x2478 -1 x2113 -1 x2114 -1 x2115 -1 x2116 -1 x2117 -1 x2118 >= 0 ;
+2 x2479 +2 x2480 +2 x2481 -1 x2116 -1 x2117 -1 x2118 -1 x2119 -1 x2120 -1 x2121 >= 0 ;
+2 x2482 +2 x2483 +2 x2484 -1 x2119 -1 x2120 -1 x2121 -1 x2122 -1 x2123 -1 x2124 >= 0 ;
+2 x2485 +2 x2486 +2 x2487 -1 x2122 -1 x2123 -1 x2124 -1 x2125 -1 x2126 -1 x2127 >= 0 ;
+2 x2488 +2 x2489 +2 x2490 -1 x2125 -1 x2126 -1 x2127 -1 x2128 -1 x2129 -1 x2130 >= 0 ;
+2 x2491 +2 x2492 +2 x2493 -1 x2128 -1 x2129 -1 x2130 -1 x2131 -1 x2132 -1 x2133 >= 0 ;
+2 x2494 +2 x2495 +2 x2496 -1 x2131 -1 x2132 -1 x2133 -1 x2134 -1 x2135 -1 x2136 >= 0 ;
+2 x2497 +2 x2498 +2 x2499 -1 x2134 -1 x2135 -1 x2136 -1 x2137 -1 x2138 -1 x2139 >= 0 ;
+2 x2500 +2 x2501 +2 x2502 -1 x2137 -1 x2138 -1 x2139 -1 x2140 -1 x2141 -1 x2142 >= 0 ;
+2 x2503 +2 x2504 +2 x2505 -1 x2140 -1 x2141 -1 x2142 -1 x2143 -1 x2144 -1 x2145 >= 0 ;
+2 x2506 +2 x2507 +2 x2508 -1 x2143 -1 x2144 -1 x2145 -1 x2146 -1 x2147 -1 x2148 >= 0 ;
+2 x2509 +2 x2510 +2 x2511 -1 x2146 -1 x2147 -1 x2148 -1 x2149 -1 x2150 -1 x2151 >= 0 ;
+2 x2512 +2 x2513 +2 x2514 -1 x2149 -1 x2150 -1 x2151 -1 x2152 -1 x2153 -1 x2154 >= 0 ;
+2 x2515 +2 x2516 +2 x2517 -1 x2152 -1 x2153 -1 x2154 -1 x2155 -1 x2156 -1 x2157 >= 0 ;
+2 x2518 +2 x2519 +2 x2520 -1 x2155 -1 x2156 -1 x2157 -1 x2158 -1 x2159 -1 x2160 >= 0 ;
+2 x2521 +2 x2522 +2 x2523 -1 x2158 -1 x2159 -1 x2160 -1 x2161 -1 x2162 -1 x2163 >= 0 ;
+2 x2524 +2 x2525 +2 x2526 -1 x2161 -1 x2162 -1 x2163 -1 x2164 -1 x2165 -1 x2166 >= 0 ;
+2 x2527 +2 x2528 +2 x2529 -1 x2164 -1 x2165 -1 x2166 -1 x2167 -1 x2168 -1 x2169 >= 0 ;
+2 x2530 +2 x2531 +2 x2532 -1 x2167 -1 x2168 -1 x2169 -1 x2170 -1 x2171 -1 x2172 >= 0 ;
+2 x2533 +2 x2534 +2 x2535 -1 x2170 -1 x2171 -1 x2172 -1 x2173 -1 x2174 -1 x2175 >= 0 ;
+2 x2536 +2 x2537 +2 x2538 -1 x2173 -1 x2174 -1 x2175 -1 x2176 -1 x2177 -1 x2178 >= 0 ;
+2 x2539 +2 x2540 +2 x2541 -1 x2176 -1 x2177 -1 x2178 -1 x2179 -1 x2180 -1 x2181 >= 0 ;
+2 x2542 +2 x2543 +2 x2544 -1 x2179 -1 x2180 -1 x2181 -1 x2182 -1 x2183 -1 x2184 >= 0 ;
+2 x2545 +2 x2546 +2 x2547 -1 x2182 -1 x2183 -1 x2184 -1 x2185 -1 x2186 -1 x2187 >= 0 ;
+2 x2548 +2 x2549 +2 x2550 -1 x2185 -1 x2186 -1 x2187 -1 x2188 -1 x2189 -1 x2190 >= 0 ;
+2 x2551 +2 x2552 +2 x2553 -1 x2188 -1 x2189 -1 x2190 -1 x2191 -1 x2192 -1 x2193 >= 0 ;
+2 x2554 +2 x2555 +2 x2556 -1 x2191 -1 x2192 -1 x2193 -1 x2194 -1 x2195 -1 x2196 >= 0 ;
+2 x2557 +2 x2558 +2 x2559 -1 x2194 -1 x2195 -1 x2196 -1 x2197 -1 x2198 -1 x2199 >= 0 ;
+2 x2560 +2 x2561 +2 x2562 -1 x2197 -1 x2198 -1 x2199 -1 x2200 -1 x2201 -1 x2202 >= 0 ;
+2 x2563 +2 x2564 +2 x2565 -1 x2200 -1 x2201 -1 x2202 -1 x2203 -1 x2204 -1 x2205 >= 0 ;
+2 x2566 +2 x2567 +2 x2568 -1 x2203 -1 x2204 -1 x2205 -1 x2206 -1 x2207 -1 x2208 >= 0 ;
+2 x2569 +2 x2570 +2 x2571 -1 x2206 -1 x2207 -1 x2208 -1 x2209 -1 x2210 -1 x2211 >= 0 ;
+2 x2572 +2 x2573 +2 x2574 -1 x2209 -1 x2210 -1 x2211 -1 x2212 -1 x2213 -1 x2214 >= 0 ;
+2 x2575 +2 x2576 +2 x2577 -1 x2212 -1 x2213 -1 x2214 -1 x2215 -1 x2216 -1 x2217 >= 0 ;
+2 x2578 +2 x2579 +2 x2580 -1 x2215 -1 x2216 -1 x2217 -1 x2218 -1 x2219 -1 x2220 >= 0 ;
+2 x2581 +2 x2582 +2 x2583 -1 x2218 -1 x2219 -1 x2220 -1 x2221 -1 x2222 -1 x2223 >= 0 ;
+2 x2584 +2 x2585 +2 x2586 -1 x2224 -1 x2225 -1 x2226 -1 x2227 -1 x2228 -1 x2229 >= 0 ;
+2 x2587 +2 x2588 +2 x2589 -1 x2227 -1 x2228 -1 x2229 -1 x2230 -1 x2231 -1 x2232 >= 0 ;
+2 x2590 +2 x2591 +2 x2592 -1 x2230 -1 x2231 -1 x2232 -1 x2233 -1 x2234 -1 x2235 >= 0 ;
+2 x2593 +2 x2594 +2 x2595 -1 x2233 -1 x2234 -1 x2235 -1 x2236 -1 x2237 -1 x2238 >= 0 ;
+2 x2596 +2 x2597 +2 x2598 -1 x2236 -1 x2237 -1 x2238 -1 x2239 -1 x2240 -1 x2241 >= 0 ;
+2 x2599 +2 x2600 +2 x2601 -1 x2239 -1 x2240 -1 x2241 -1 x2242 -1 x2243 -1 x2244 >= 0 ;
+2 x2602 +2 x2603 +2 x2604 -1 x2242 -1 x2243 -1 x2244 -1 x2245 -1 x2246 -1 x2247 >= 0 ;
+2 x2605 +2 x2606 +2 x2607 -1 x2245 -1 x2246 -1 x2247 -1 x2248 -1 x2249 -1 x2250 >= 0 ;
+2 x2608 +2 x2609 +2 x2610 -1 x2248 -1 x2249 -1 x2250 -1 x2251 -1 x2252 -1 x2253 >= 0 ;
+2 x2611 +2 x2612 +2 x2613 -1 x2251 -1 x2252 -1 x2253 -1 x2254 -1 x2255 -1 x2256 >= 0 ;
+2 x2614 +2 x2615 +2 x2616 -1 x2254 -1 x2255 -1 x2256 -1 x2257 -1 x2258 -1 x2259 >= 0 ;
+2 x2617 +2 x2618 +2 x2619 -1 x2257 -1 x2258 -1 x2259 -1 x2260 -1 x2261 -1 x2262 >= 0 ;
+2 x2620 +2 x2621 +2 x2622 -1 x2260 -1 x2261 -1 x2262 -1 x2263 -1 x2264 -1 x2265 >= 0 ;
+2 x2623 +2 x2624 +2 x2625 -1 x2263 -1 x2264 -1 x2265 -1 x2266 -1 x2267 -1 x2268 >= 0 ;
+2 x2626 +2 x2627 +2 x2628 -1 x2266 -1 x2267 -1 x2268 -1 x2269 -1 x2270 -1 x2271 >= 0 ;
+2 x2629 +2 x2630 +2 x2631 -1 x2269 -1 x2270 -1 x2271 -1 x2272 -1 x2273 -1 x2274 >= 0 ;
+2 x2632 +2 x2633 +2 x2634 -1 x2272 -1 x2273 -1 x2274 -1 x2275 -1 x2276 -1 x2277 >= 0 ;
+2 x2635 +2 x2636 +2 x2637 -1 x2275 -1 x2276 -1 x2277 -1 x2278 -1 x2279 -1 x2280 >= 0 ;
+2 x2638 +2 x2639 +2 x2640 -1 x2278 -1 x2279 -1 x2280 -1 x2281 -1 x2282 -1 x2283 >= 0 ;
+2 x2641 +2 x2642 +2 x2643 -1 x2281 -1 x2282 -1 x2283 -1 x2284 -1 x2285 -1 x2286 >= 0 ;
+2 x2644 +2 x2645 +2 x2646 -1 x2284 -1 x2285 -1 x2286 -1 x2287 -1 x2288 -1 x2289 >= 0 ;
+2 x2647 +2 x2648 +2 x2649 -1 x2287 -1 x2288 -1 x2289 -1 x2290 -1 x2291 -1 x2292 >= 0 ;
+2 x2650 +2 x2651 +2 x2652 -1 x2290 -1 x2291 -1 x2292 -1 x2293 -1 x2294 -1 x2295 >= 0 ;
+2 x2653 +2 x2654 +2 x2655 -1 x2293 -1 x2294 -1 x2295 -1 x2296 -1 x2297 -1 x2298 >= 0 ;
+2 x2656 +2 x2657 +2 x2658 -1 x2296 -1 x2297 -1 x2298 -1 x2299 -1 x2300 -1 x2301 >= 0 ;
+2 x2659 +2 x2660 +2 x2661 -1 x2299 -1 x2300 -1 x2301 -1 x2302 -1 x2303 -1 x2304 >= 0 ;
+2 x2662 +2 x2663 +2 x2664 -1 x2302 -1 x2303 -1 x2304 -1 x2305 -1 x2306 -1 x2307 >= 0 ;
+2 x2665 +2 x2666 +2 x2667 -1 x2305 -1 x2306 -1 x2307 -1 x2308 -1 x2309 -1 x2310 >= 0 ;
+2 x2668 +2 x2669 +2 x2670 -1 x2308 -1 x2309 -1 x2310 -1 x2311 -1 x2312 -1 x2313 >= 0 ;
+2 x2671 +2 x2672 +2 x2673 -1 x2311 -1 x2312 -1 x2313 -1 x2314 -1 x2315 -1 x2316 >= 0 ;
+2 x2674 +2 x2675 +2 x2676 -1 x2314 -1 x2315 -1 x2316 -1 x2317 -1 x2318 -1 x2319 >= 0 ;
+2 x2677 +2 x2678 +2 x2679 -1 x2317 -1 x2318 -1 x2319 -1 x2320 -1 x2321 -1 x2322 >= 0 ;
+2 x2680 +2 x2681 +2 x2682 -1 x2320 -1 x2321 -1 x2322 -1 x2323 -1 x2324 -1 x2325 >= 0 ;
+2 x2683 +2 x2684 +2 x2685 -1 x2323 -1 x2324 -1 x2325 -1 x2326 -1 x2327 -1 x2328 >= 0 ;
+2 x2686 +2 x2687 +2 x2688 -1 x2326 -1 x2327 -1 x2328 -1 x2329 -1 x2330 -1 x2331 >= 0 ;
+2 x2689 +2 x2690 +2 x2691 -1 x2329 -1 x2330 -1 x2331 -1 x2332 -1 x2333 -1 x2334 >= 0 ;
+2 x2692 +2 x2693 +2 x2694 -1 x2332 -1 x2333 -1 x2334 -1 x2335 -1 x2336 -1 x2337 >= 0 ;
+2 x2695 +2 x2696 +2 x2697 -1 x2335 -1 x2336 -1 x2337 -1 x2338 -1 x2339 -1 x2340 >= 0 ;
+2 x2698 +2 x2699 +2 x2700 -1 x2338 -1 x2339 -1 x2340 -1 x2341 -1 x2342 -1 x2343 >= 0 ;
+2 x2701 +2 x2702 +2 x2703 -1 x2341 -1 x2342 -1 x2343 -1 x2344 -1 x2345 -1 x2346 >= 0 ;
+2 x2704 +2 x2705 +2 x2706 -1 x2344 -1 x2345 -1 x2346 -1 x2347 -1 x2348 -1 x2349 >= 0 ;
+2 x2707 +2 x2708 +2 x2709 -1 x2347 -1 x2348 -1 x2349 -1 x2350 -1 x2351 -1 x2352 >= 0 ;
+2 x2710 +2 x2711 +2 x2712 -1 x2350 -1 x2351 -1 x2352 -1 x2353 -1 x2354 -1 x2355 >= 0 ;
+2 x2713 +2 x2714 +2 x2715 -1 x2353 -1 x2354 -1 x2355 -1 x2356 -1 x2357 -1 x2358 >= 0 ;
+2 x2716 +2 x2717 +2 x2718 -1 x2356 -1 x2357 -1 x2358 -1 x2359 -1 x2360 -1 x2361 >= 0 ;
+2 x2719 +2 x2720 +2 x2721 -1 x2359 -1 x2360 -1 x2361 -1 x2362 -1 x2363 -1 x2364 >= 0 ;
+2 x2722 +2 x2723 +2 x2724 -1 x2362 -1 x2363 -1 x2364 -1 x2365 -1 x2366 -1 x2367 >= 0 ;
+2 x2725 +2 x2726 +2 x2727 -1 x2365 -1 x2366 -1 x2367 -1 x2368 -1 x2369 -1 x2370 >= 0 ;
+2 x2728 +2 x2729 +2 x2730 -1 x2368 -1 x2369 -1 x2370 -1 x2371 -1 x2372 -1 x2373 >= 0 ;
+2 x2731 +2 x2732 +2 x2733 -1 x2371 -1 x2372 -1 x2373 -1 x2374 -1 x2375 -1 x2376 >= 0 ;
+2 x2734 +2 x2735 +2 x2736 -1 x2374 -1 x2375 -1 x2376 -1 x2377 -1 x2378 -1 x2379 >= 0 ;
+2 x2737 +2 x2738 +2 x2739 -1 x2377 -1 x2378 -1 x2379 -1 x2380 -1 x2381 -1 x2382 >= 0 ;
+2 x2740 +2 x2741 +2 x2742 -1 x2380 -1 x2381 -1 x2382 -1 x2383 -1 x2384 -1 x2385 >= 0 ;
+2 x2743 +2 x2744 +2 x2745 -1 x2383 -1 x2384 -1 x2385 -1 x2386 -1 x2387 -1 x2388 >= 0 ;
+2 x2746 +2 x2747 +2 x2748 -1 x2386 -1 x2387 -1 x2388 -1 x2389 -1 x2390 -1 x2391 >= 0 ;
+2 x2749 +2 x2750 +2 x2751 -1 x2389 -1 x2390 -1 x2391 -1 x2392 -1 x2393 -1 x2394 >= 0 ;
+2 x2752 +2 x2753 +2 x2754 -1 x2392 -1 x2393 -1 x2394 -1 x2395 -1 x2396 -1 x2397 >= 0 ;
+2 x2755 +2 x2756 +2 x2757 -1 x2395 -1 x2396 -1 x2397 -1 x2398 -1 x2399 -1 x2400 >= 0 ;
+2 x2758 +2 x2759 +2 x2760 -1 x2398 -1 x2399 -1 x2400 -1 x2401 -1 x2402 -1 x2403 >= 0 ;
+2 x2761 +2 x2762 +2 x2763 -1 x2401 -1 x2402 -1 x2403 -1 x2404 -1 x2405 -1 x2406 >= 0 ;
+2 x2764 +2 x2765 +2 x2766 -1 x2404 -1 x2405 -1 x2406 -1 x2407 -1 x2408 -1 x2409 >= 0 ;
+2 x2767 +2 x2768 +2 x2769 -1 x2407 -1 x2408 -1 x2409 -1 x2410 -1 x2411 -1 x2412 >= 0 ;
+2 x2770 +2 x2771 +2 x2772 -1 x2410 -1 x2411 -1 x2412 -1 x2413 -1 x2414 -1 x2415 >= 0 ;
+2 x2773 +2 x2774 +2 x2775 -1 x2413 -1 x2414 -1 x2415 -1 x2416 -1 x2417 -1 x2418 >= 0 ;
+2 x2776 +2 x2777 +2 x2778 -1 x2416 -1 x2417 -1 x2418 -1 x2419 -1 x2420 -1 x2421 >= 0 ;
+2 x2779 +2 x2780 +2 x2781 -1 x2419 -1 x2420 -1 x2421 -1 x2422 -1 x2423 -1 x2424 >= 0 ;
+2 x2782 +2 x2783 +2 x2784 -1 x2422 -1 x2423 -1 x2424 -1 x2425 -1 x2426 -1 x2427 >= 0 ;
+2 x2785 +2 x2786 +2 x2787 -1 x2425 -1 x2426 -1 x2427 -1 x2428 -1 x2429 -1 x2430 >= 0 ;
+2 x2788 +2 x2789 +2 x2790 -1 x2428 -1 x2429 -1 x2430 -1 x2431 -1 x2432 -1 x2433 >= 0 ;
+2 x2791 +2 x2792 +2 x2793 -1 x2431 -1 x2432 -1 x2433 -1 x2434 -1 x2435 -1 x2436 >= 0 ;
+2 x2794 +2 x2795 +2 x2796 -1 x2434 -1 x2435 -1 x2436 -1 x2437 -1 x2438 -1 x2439 >= 0 ;
+2 x2797 +2 x2798 +2 x2799 -1 x2437 -1 x2438 -1 x2439 -1 x2440 -1 x2441 -1 x2442 >= 0 ;
+2 x2800 +2 x2801 +2 x2802 -1 x2440 -1 x2441 -1 x2442 -1 x2443 -1 x2444 -1 x2445 >= 0 ;
+2 x2803 +2 x2804 +2 x2805 -1 x2443 -1 x2444 -1 x2445 -1 x2446 -1 x2447 -1 x2448 >= 0 ;
+2 x2806 +2 x2807 +2 x2808 -1 x2446 -1 x2447 -1 x2448 -1 x2449 -1 x2450 -1 x2451 >= 0 ;
+2 x2809 +2 x2810 +2 x2811 -1 x2449 -1 x2450 -1 x2451 -1 x2452 -1 x2453 -1 x2454 >= 0 ;
+2 x2812 +2 x2813 +2 x2814 -1 x2452 -1 x2453 -1 x2454 -1 x2455 -1 x2456 -1 x2457 >= 0 ;
+2 x2815 +2 x2816 +2 x2817 -1 x2455 -1 x2456 -1 x2457 -1 x2458 -1 x2459 -1 x2460 >= 0 ;
+2 x2818 +2 x2819 +2 x2820 -1 x2458 -1 x2459 -1 x2460 -1 x2461 -1 x2462 -1 x2463 >= 0 ;
+2 x2821 +2 x2822 +2 x2823 -1 x2461 -1 x2462 -1 x2463 -1 x2464 -1 x2465 -1 x2466 >= 0 ;
+2 x2824 +2 x2825 +2 x2826 -1 x2464 -1 x2465 -1 x2466 -1 x2467 -1 x2468 -1 x2469 >= 0 ;
+2 x2827 +2 x2828 +2 x2829 -1 x2467 -1 x2468 -1 x2469 -1 x2470 -1 x2471 -1 x2472 >= 0 ;
+2 x2830 +2 x2831 +2 x2832 -1 x2470 -1 x2471 -1 x2472 -1 x2473 -1 x2474 -1 x2475 >= 0 ;
+2 x2833 +2 x2834 +2 x2835 -1 x2473 -1 x2474 -1 x2475 -1 x2476 -1 x2477 -1 x2478 >= 0 ;
+2 x2836 +2 x2837 +2 x2838 -1 x2476 -1 x2477 -1 x2478 -1 x2479 -1 x2480 -1 x2481 >= 0 ;
+2 x2839 +2 x2840 +2 x2841 -1 x2479 -1 x2480 -1 x2481 -1 x2482 -1 x2483 -1 x2484 >= 0 ;
+2 x2842 +2 x2843 +2 x2844 -1 x2482 -1 x2483 -1 x2484 -1 x2485 -1 x2486 -1 x2487 >= 0 ;
+2 x2845 +2 x2846 +2 x2847 -1 x2485 -1 x2486 -1 x2487 -1 x2488 -1 x2489 -1 x2490 >= 0 ;
+2 x2848 +2 x2849 +2 x2850 -1 x2488 -1 x2489 -1 x2490 -1 x2491 -1 x2492 -1 x2493 >= 0 ;
+2 x2851 +2 x2852 +2 x2853 -1 x2491 -1 x2492 -1 x2493 -1 x2494 -1 x2495 -1 x2496 >= 0 ;
+2 x2854 +2 x2855 +2 x2856 -1 x2494 -1 x2495 -1 x2496 -1 x2497 -1 x2498 -1 x2499 >= 0 ;
+2 x2857 +2 x2858 +2 x2859 -1 x2497 -1 x2498 -1 x2499 -1 x2500 -1 x2501 -1 x2502 >= 0 ;
+2 x2860 +2 x2861 +2 x2862 -1 x2500 -1 x2501 -1 x2502 -1 x2503 -1 x2504 -1 x2505 >= 0 ;
+2 x2863 +2 x2864 +2 x2865 -1 x2503 -1 x2504 -1 x2505 -1 x2506 -1 x2507 -1 x2508 >= 0 ;
+2 x2866 +2 x2867 +2 x2868 -1 x2506 -1 x2507 -1 x2508 -1 x2509 -1 x2510 -1 x2511 >= 0 ;
+2 x2869 +2 x2870 +2 x2871 -1 x2509 -1 x2510 -1 x2511 -1 x2512 -1 x2513 -1 x2514 >= 0 ;
+2 x2872 +2 x2873 +2 x2874 -1 x2512 -1 x2513 -1 x2514 -1 x2515 -1 x2516 -1 x2517 >= 0 ;
+2 x2875 +2 x2876 +2 x2877 -1 x2515 -1 x2516 -1 x2517 -1 x2518 -1 x2519 -1 x2520 >= 0 ;
+2 x2878 +2 x2879 +2 x2880 -1 x2518 -1 x2519 -1 x2520 -1 x2521 -1 x2522 -1 x2523 >= 0 ;
+2 x2881 +2 x2882 +2 x2883 -1 x2521 -1 x2522 -1 x2523 -1 x2524 -1 x2525 -1 x2526 >= 0 ;
+2 x2884 +2 x2885 +2 x2886 -1 x2524 -1 x2525 -1 x2526 -1 x2527 -1 x2528 -1 x2529 >= 0 ;
+2 x2887 +2 x2888 +2 x2889 -1 x2527 -1 x2528 -1 x2529 -1 x2530 -1 x2531 -1 x2532 >= 0 ;
+2 x2890 +2 x2891 +2 x2892 -1 x2530 -1 x2531 -1 x2532 -1 x2533 -1 x2534 -1 x2535 >= 0 ;
+2 x2893 +2 x2894 +2 x2895 -1 x2533 -1 x2534 -1 x2535 -1 x2536 -1 x2537 -1 x2538 >= 0 ;
+2 x2896 +2 x2897 +2 x2898 -1 x2536 -1 x2537 -1 x2538 -1 x2539 -1 x2540 -1 x2541 >= 0 ;
+2 x2899 +2 x2900 +2 x2901 -1 x2539 -1 x2540 -1 x2541 -1 x2542 -1 x2543 -1 x2544 >= 0 ;
+2 x2902 +2 x2903 +2 x2904 -1 x2542 -1 x2543 -1 x2544 -1 x2545 -1 x2546 -1 x2547 >= 0 ;
+2 x2905 +2 x2906 +2 x2907 -1 x2545 -1 x2546 -1 x2547 -1 x2548 -1 x2549 -1 x2550 >= 0 ;
+2 x2908 +2 x2909 +2 x2910 -1 x2548 -1 x2549 -1 x2550 -1 x2551 -1 x2552 -1 x2553 >= 0 ;
+2 x2911 +2 x2912 +2 x2913 -1 x2551 -1 x2552 -1 x2553 -1 x2554 -1 x2555 -1 x2556 >= 0 ;
+2 x2914 +2 x2915 +2 x2916 -1 x2554 -1 x2555 -1 x2556 -1 x2557 -1 x2558 -1 x2559 >= 0 ;
+2 x2917 +2 x2918 +2 x2919 -1 x2557 -1 x2558 -1 x2559 -1 x2560 -1 x2561 -1 x2562 >= 0 ;
+2 x2920 +2 x2921 +2 x2922 -1 x2560 -1 x2561 -1 x2562 -1 x2563 -1 x2564 -1 x2565 >= 0 ;
+2 x2923 +2 x2924 +2 x2925 -1 x2563 -1 x2564 -1 x2565 -1 x2566 -1 x2567 -1 x2568 >= 0 ;
+2 x2926 +2 x2927 +2 x2928 -1 x2566 -1 x2567 -1 x2568 -1 x2569 -1 x2570 -1 x2571 >= 0 ;
+2 x2929 +2 x2930 +2 x2931 -1 x2569 -1 x2570 -1 x2571 -1 x2572 -1 x2573 -1 x2574 >= 0 ;
+2 x2932 +2 x2933 +2 x2934 -1 x2572 -1 x2573 -1 x2574 -1 x2575 -1 x2576 -1 x2577 >= 0 ;
+2 x2935 +2 x2936 +2 x2937 -1 x2575 -1 x2576 -1 x2577 -1 x2578 -1 x2579 -1 x2580 >= 0 ;
+2 x2938 +2 x2939 +2 x2940 -1 x2578 -1 x2579 -1 x2580 -1 x2581 -1 x2582 -1 x2583 >= 0 ;
+2 x2941 +2 x2942 +2 x2943 -1 x2584 -1 x2585 -1 x2586 -1 x2587 -1 x2588 -1 x2589 >= 0 ;
+2 x2944 +2 x2945 +2 x2946 -1 x2587 -1 x2588 -1 x2589 -1 x2590 -1 x2591 -1 x2592 >= 0 ;
+2 x2947 +2 x2948 +2 x2949 -1 x2590 -1 x2591 -1 x2592 -1 x2593 -1 x2594 -1 x2595 >= 0 ;
+2 x2950 +2 x2951 +2 x2952 -1 x2593 -1 x2594 -1 x2595 -1 x2596 -1 x2597 -1 x2598 >= 0 ;
+2 x2953 +2 x2954 +2 x2955 -1 x2596 -1 x2597 -1 x2598 -1 x2599 -1 x2600 -1 x2601 >= 0 ;
+2 x2956 +2 x2957 +2 x2958 -1 x2599 -1 x2600 -1 x2601 -1 x2602 -1 x2603 -1 x2604 >= 0 ;
+2 x2959 +2 x2960 +2 x2961 -1 x2602 -1 x2603 -1 x2604 -1 x2605 -1 x2606 -1 x2607 >= 0 ;
+2 x2962 +2 x2963 +2 x2964 -1 x2605 -1 x2606 -1 x2607 -1 x2608 -1 x2609 -1 x2610 >= 0 ;
+2 x2965 +2 x2966 +2 x2967 -1 x2608 -1 x2609 -1 x2610 -1 x2611 -1 x2612 -1 x2613 >= 0 ;
+2 x2968 +2 x2969 +2 x2970 -1 x2611 -1 x2612 -1 x2613 -1 x2614 -1 x2615 -1 x2616 >= 0 ;
+2 x2971 +2 x2972 +2 x2973 -1 x2614 -1 x2615 -1 x2616 -1 x2617 -1 x2618 -1 x2619 >= 0 ;
+2 x2974 +2 x2975 +2 x2976 -1 x2617 -1 x2618 -1 x2619 -1 x2620 -1 x2621 -1 x2622 >= 0 ;
+2 x2977 +2 x2978 +2 x2979 -1 x2620 -1 x2621 -1 x2622 -1 x2623 -1 x2624 -1 x2625 >= 0 ;
+2 x2980 +2 x2981 +2 x2982 -1 x2623 -1 x2624 -1 x2625 -1 x2626 -1 x2627 -1 x2628 >= 0 ;
+2 x2983 +2 x2984 +2 x2985 -1 x2626 -1 x2627 -1 x2628 -1 x2629 -1 x2630 -1 x2631 >= 0 ;
+2 x2986 +2 x2987 +2 x2988 -1 x2629 -1 x2630 -1 x2631 -1 x2632 -1 x2633 -1 x2634 >= 0 ;
+2 x2989 +2 x2990 +2 x2991 -1 x2632 -1 x2633 -1 x2634 -1 x2635 -1 x2636 -1 x2637 >= 0 ;
+2 x2992 +2 x2993 +2 x2994 -1 x2635 -1 x2636 -1 x2637 -1 x2638 -1 x2639 -1 x2640 >= 0 ;
+2 x2995 +2 x2996 +2 x2997 -1 x2638 -1 x2639 -1 x2640 -1 x2641 -1 x2642 -1 x2643 >= 0 ;
+2 x2998 +2 x2999 +2 x3000 -1 x2641 -1 x2642 -1 x2643 -1 x2644 -1 x2645 -1 x2646 >= 0 ;
+2 x3001 +2 x3002 +2 x3003 -1 x2644 -1 x2645 -1 x2646 -1 x2647 -1 x2648 -1 x2649 >= 0 ;
+2 x3004 +2 x3005 +2 x3006 -1 x2647 -1 x2648 -1 x2649 -1 x2650 -1 x2651 -1 x2652 >= 0 ;
+2 x3007 +2 x3008 +2 x3009 -1 x2650 -1 x2651 -1 x2652 -1 x2653 -1 x2654 -1 x2655 >= 0 ;
+2 x3010 +2 x3011 +2 x3012 -1 x2653 -1 x2654 -1 x2655 -1 x2656 -1 x2657 -1 x2658 >= 0 ;
+2 x3013 +2 x3014 +2 x3015 -1 x2656 -1 x2657 -1 x2658 -1 x2659 -1 x2660 -1 x2661 >= 0 ;
+2 x3016 +2 x3017 +2 x3018 -1 x2659 -1 x2660 -1 x2661 -1 x2662 -1 x2663 -1 x2664 >= 0 ;
+2 x3019 +2 x3020 +2 x3021 -1 x2662 -1 x2663 -1 x2664 -1 x2665 -1 x2666 -1 x2667 >= 0 ;
+2 x3022 +2 x3023 +2 x3024 -1 x2665 -1 x2666 -1 x2667 -1 x2668 -1 x2669 -1 x2670 >= 0 ;
+2 x3025 +2 x3026 +2 x3027 -1 x2668 -1 x2669 -1 x2670 -1 x2671 -1 x2672 -1 x2673 >= 0 ;
+2 x3028 +2 x3029 +2 x3030 -1 x2671 -1 x2672 -1 x2673 -1 x2674 -1 x2675 -1 x2676 >= 0 ;
+2 x3031 +2 x3032 +2 x3033 -1 x2674 -1 x2675 -1 x2676 -1 x2677 -1 x2678 -1 x2679 >= 0 ;
+2 x3034 +2 x3035 +2 x3036 -1 x2677 -1 x2678 -1 x2679 -1 x2680 -1 x2681 -1 x2682 >= 0 ;
+2 x3037 +2 x3038 +2 x3039 -1 x2680 -1 x2681 -1 x2682 -1 x2683 -1 x2684 -1 x2685 >= 0 ;
+2 x3040 +2 x3041 +2 x3042 -1 x2683 -1 x2684 -1 x2685 -1 x2686 -1 x2687 -1 x2688 >= 0 ;
+2 x3043 +2 x3044 +2 x3045 -1 x2686 -1 x2687 -1 x2688 -1 x2689 -1 x2690 -1 x2691 >= 0 ;
+2 x3046 +2 x3047 +2 x3048 -1 x2689 -1 x2690 -1 x2691 -1 x2692 -1 x2693 -1 x2694 >= 0 ;
+2 x3049 +2 x3050 +2 x3051 -1 x2692 -1 x2693 -1 x2694 -1 x2695 -1 x2696 -1 x2697 >= 0 ;
+2 x3052 +2 x3053 +2 x3054 -1 x2695 -1 x2696 -1 x2697 -1 x2698 -1 x2699 -1 x2700 >= 0 ;
+2 x3055 +2 x3056 +2 x3057 -1 x2698 -1 x2699 -1 x2700 -1 x2701 -1 x2702 -1 x2703 >= 0 ;
+2 x3058 +2 x3059 +2 x3060 -1 x2701 -1 x2702 -1 x2703 -1 x2704 -1 x2705 -1 x2706 >= 0 ;
+2 x3061 +2 x3062 +2 x3063 -1 x2704 -1 x2705 -1 x2706 -1 x2707 -1 x2708 -1 x2709 >= 0 ;
+2 x3064 +2 x3065 +2 x3066 -1 x2707 -1 x2708 -1 x2709 -1 x2710 -1 x2711 -1 x2712 >= 0 ;
+2 x3067 +2 x3068 +2 x3069 -1 x2710 -1 x2711 -1 x2712 -1 x2713 -1 x2714 -1 x2715 >= 0 ;
+2 x3070 +2 x3071 +2 x3072 -1 x2713 -1 x2714 -1 x2715 -1 x2716 -1 x2717 -1 x2718 >= 0 ;
+2 x3073 +2 x3074 +2 x3075 -1 x2716 -1 x2717 -1 x2718 -1 x2719 -1 x2720 -1 x2721 >= 0 ;
+2 x3076 +2 x3077 +2 x3078 -1 x2719 -1 x2720 -1 x2721 -1 x2722 -1 x2723 -1 x2724 >= 0 ;
+2 x3079 +2 x3080 +2 x3081 -1 x2722 -1 x2723 -1 x2724 -1 x2725 -1 x2726 -1 x2727 >= 0 ;
+2 x3082 +2 x3083 +2 x3084 -1 x2725 -1 x2726 -1 x2727 -1 x2728 -1 x2729 -1 x2730 >= 0 ;
+2 x3085 +2 x3086 +2 x3087 -1 x2728 -1 x2729 -1 x2730 -1 x2731 -1 x2732 -1 x2733 >= 0 ;
+2 x3088 +2 x3089 +2 x3090 -1 x2731 -1 x2732 -1 x2733 -1 x2734 -1 x2735 -1 x2736 >= 0 ;
+2 x3091 +2 x3092 +2 x3093 -1 x2734 -1 x2735 -1 x2736 -1 x2737 -1 x2738 -1 x2739 >= 0 ;
+2 x3094 +2 x3095 +2 x3096 -1 x2737 -1 x2738 -1 x2739 -1 x2740 -1 x2741 -1 x2742 >= 0 ;
+2 x3097 +2 x3098 +2 x3099 -1 x2740 -1 x2741 -1 x2742 -1 x2743 -1 x2744 -1 x2745 >= 0 ;
+2 x3100 +2 x3101 +2 x3102 -1 x2743 -1 x2744 -1 x2745 -1 x2746 -1 x2747 -1 x2748 >= 0 ;
+2 x3103 +2 x3104 +2 x3105 -1 x2746 -1 x2747 -1 x2748 -1 x2749 -1 x2750 -1 x2751 >= 0 ;
+2 x3106 +2 x3107 +2 x3108 -1 x2749 -1 x2750 -1 x2751 -1 x2752 -1 x2753 -1 x2754 >= 0 ;
+2 x3109 +2 x3110 +2 x3111 -1 x2752 -1 x2753 -1 x2754 -1 x2755 -1 x2756 -1 x2757 >= 0 ;
+2 x3112 +2 x3113 +2 x3114 -1 x2755 -1 x2756 -1 x2757 -1 x2758 -1 x2759 -1 x2760 >= 0 ;
+2 x3115 +2 x3116 +2 x3117 -1 x2758 -1 x2759 -1 x2760 -1 x2761 -1 x2762 -1 x2763 >= 0 ;
+2 x3118 +2 x3119 +2 x3120 -1 x2761 -1 x2762 -1 x2763 -1 x2764 -1 x2765 -1 x2766 >= 0 ;
+2 x3121 +2 x3122 +2 x3123 -1 x2764 -1 x2765 -1 x2766 -1 x2767 -1 x2768 -1 x2769 >= 0 ;
+2 x3124 +2 x3125 +2 x3126 -1 x2767 -1 x2768 -1 x2769 -1 x2770 -1 x2771 -1 x2772 >= 0 ;
+2 x3127 +2 x3128 +2 x3129 -1 x2770 -1 x2771 -1 x2772 -1 x2773 -1 x2774 -1 x2775 >= 0 ;
+2 x3130 +2 x3131 +2 x3132 -1 x2773 -1 x2774 -1 x2775 -1 x2776 -1 x2777 -1 x2778 >= 0 ;
+2 x3133 +2 x3134 +2 x3135 -1 x2776 -1 x2777 -1 x2778 -1 x2779 -1 x2780 -1 x2781 >= 0 ;
+2 x3136 +2 x3137 +2 x3138 -1 x2779 -1 x2780 -1 x2781 -1 x2782 -1 x2783 -1 x2784 >= 0 ;
+2 x3139 +2 x3140 +2 x3141 -1 x2782 -1 x2783 -1 x2784 -1 x2785 -1 x2786 -1 x2787 >= 0 ;
+2 x3142 +2 x3143 +2 x3144 -1 x2785 -1 x2786 -1 x2787 -1 x2788 -1 x2789 -1 x2790 >= 0 ;
+2 x3145 +2 x3146 +2 x3147 -1 x2788 -1 x2789 -1 x2790 -1 x2791 -1 x2792 -1 x2793 >= 0 ;
+2 x3148 +2 x3149 +2 x3150 -1 x2791 -1 x2792 -1 x2793 -1 x2794 -1 x2795 -1 x2796 >= 0 ;
+2 x3151 +2 x3152 +2 x3153 -1 x2794 -1 x2795 -1 x2796 -1 x2797 -1 x2798 -1 x2799 >= 0 ;
+2 x3154 +2 x3155 +2 x3156 -1 x2797 -1 x2798 -1 x2799 -1 x2800 -1 x2801 -1 x2802 >= 0 ;
+2 x3157 +2 x3158 +2 x3159 -1 x2800 -1 x2801 -1 x2802 -1 x2803 -1 x2804 -1 x2805 >= 0 ;
+2 x3160 +2 x3161 +2 x3162 -1 x2803 -1 x2804 -1 x2805 -1 x2806 -1 x2807 -1 x2808 >= 0 ;
+2 x3163 +2 x3164 +2 x3165 -1 x2806 -1 x2807 -1 x2808 -1 x2809 -1 x2810 -1 x2811 >= 0 ;
+2 x3166 +2 x3167 +2 x3168 -1 x2809 -1 x2810 -1 x2811 -1 x2812 -1 x2813 -1 x2814 >= 0 ;
+2 x3169 +2 x3170 +2 x3171 -1 x2812 -1 x2813 -1 x2814 -1 x2815 -1 x2816 -1 x2817 >= 0 ;
+2 x3172 +2 x3173 +2 x3174 -1 x2815 -1 x2816 -1 x2817 -1 x2818 -1 x2819 -1 x2820 >= 0 ;
+2 x3175 +2 x3176 +2 x3177 -1 x2818 -1 x2819 -1 x2820 -1 x2821 -1 x2822 -1 x2823 >= 0 ;
+2 x3178 +2 x3179 +2 x3180 -1 x2821 -1 x2822 -1 x2823 -1 x2824 -1 x2825 -1 x2826 >= 0 ;
+2 x3181 +2 x3182 +2 x3183 -1 x2824 -1 x2825 -1 x2826 -1 x2827 -1 x2828 -1 x2829 >= 0 ;
+2 x3184 +2 x3185 +2 x3186 -1 x2827 -1 x2828 -1 x2829 -1 x2830 -1 x2831 -1 x2832 >= 0 ;
+2 x3187 +2 x3188 +2 x3189 -1 x2830 -1 x2831 -1 x2832 -1 x2833 -1 x2834 -1 x2835 >= 0 ;
+2 x3190 +2 x3191 +2 x3192 -1 x2833 -1 x2834 -1 x2835 -1 x2836 -1 x2837 -1 x2838 >= 0 ;
+2 x3193 +2 x3194 +2 x3195 -1 x2836 -1 x2837 -1 x2838 -1 x2839 -1 x2840 -1 x2841 >= 0 ;
+2 x3196 +2 x3197 +2 x3198 -1 x2839 -1 x2840 -1 x2841 -1 x2842 -1 x2843 -1 x2844 >= 0 ;
+2 x3199 +2 x3200 +2 x3201 -1 x2842 -1 x2843 -1 x2844 -1 x2845 -1 x2846 -1 x2847 >= 0 ;
+2 x3202 +2 x3203 +2 x3204 -1 x2845 -1 x2846 -1 x2847 -1 x2848 -1 x2849 -1 x2850 >= 0 ;
+2 x3205 +2 x3206 +2 x3207 -1 x2848 -1 x2849 -1 x2850 -1 x2851 -1 x2852 -1 x2853 >= 0 ;
+2 x3208 +2 x3209 +2 x3210 -1 x2851 -1 x2852 -1 x2853 -1 x2854 -1 x2855 -1 x2856 >= 0 ;
+2 x3211 +2 x3212 +2 x3213 -1 x2854 -1 x2855 -1 x2856 -1 x2857 -1 x2858 -1 x2859 >= 0 ;
+2 x3214 +2 x3215 +2 x3216 -1 x2857 -1 x2858 -1 x2859 -1 x2860 -1 x2861 -1 x2862 >= 0 ;
+2 x3217 +2 x3218 +2 x3219 -1 x2860 -1 x2861 -1 x2862 -1 x2863 -1 x2864 -1 x2865 >= 0 ;
+2 x3220 +2 x3221 +2 x3222 -1 x2863 -1 x2864 -1 x2865 -1 x2866 -1 x2867 -1 x2868 >= 0 ;
+2 x3223 +2 x3224 +2 x3225 -1 x2866 -1 x2867 -1 x2868 -1 x2869 -1 x2870 -1 x2871 >= 0 ;
+2 x3226 +2 x3227 +2 x3228 -1 x2869 -1 x2870 -1 x2871 -1 x2872 -1 x2873 -1 x2874 >= 0 ;
+2 x3229 +2 x3230 +2 x3231 -1 x2872 -1 x2873 -1 x2874 -1 x2875 -1 x2876 -1 x2877 >= 0 ;
+2 x3232 +2 x3233 +2 x3234 -1 x2875 -1 x2876 -1 x2877 -1 x2878 -1 x2879 -1 x2880 >= 0 ;
+2 x3235 +2 x3236 +2 x3237 -1 x2878 -1 x2879 -1 x2880 -1 x2881 -1 x2882 -1 x2883 >= 0 ;
+2 x3238 +2 x3239 +2 x3240 -1 x2881 -1 x2882 -1 x2883 -1 x2884 -1 x2885 -1 x2886 >= 0 ;
+2 x3241 +2 x3242 +2 x3243 -1 x2884 -1 x2885 -1 x2886 -1 x2887 -1 x2888 -1 x2889 >= 0 ;
+2 x3244 +2 x3245 +2 x3246 -1 x2887 -1 x2888 -1 x2889 -1 x2890 -1 x2891 -1 x2892 >= 0 ;
+2 x3247 +2 x3248 +2 x3249 -1 x2890 -1 x2891 -1 x2892 -1 x2893 -1 x2894 -1 x2895 >= 0 ;
+2 x3250 +2 x3251 +2 x3252 -1 x2893 -1 x2894 -1 x2895 -1 x2896 -1 x2897 -1 x2898 >= 0 ;
+2 x3253 +2 x3254 +2 x3255 -1 x2896 -1 x2897 -1 x2898 -1 x2899 -1 x2900 -1 x2901 >= 0 ;
+2 x3256 +2 x3257 +2 x3258 -1 x2899 -1 x2900 -1 x2901 -1 x2902 -1 x2903 -1 x2904 >= 0 ;
+2 x3259 +2 x3260 +2 x3261 -1 x2902 -1 x2903 -1 x2904 -1 x2905 -1 x2906 -1 x2907 >= 0 ;
+2 x3262 +2 x3263 +2 x3264 -1 x2905 -1 x2906 -1 x2907 -1 x2908 -1 x2909 -1 x2910 >= 0 ;
+2 x3265 +2 x3266 +2 x3267 -1 x2908 -1 x2909 -1 x2910 -1 x2911 -1 x2912 -1 x2913 >= 0 ;
+2 x3268 +2 x3269 +2 x3270 -1 x2911 -1 x2912 -1 x2913 -1 x2914 -1 x2915 -1 x2916 >= 0 ;
+2 x3271 +2 x3272 +2 x3273 -1 x2914 -1 x2915 -1 x2916 -1 x2917 -1 x2918 -1 x2919 >= 0 ;
+2 x3274 +2 x3275 +2 x3276 -1 x2917 -1 x2918 -1 x2919 -1 x2920 -1 x2921 -1 x2922 >= 0 ;
+2 x3277 +2 x3278 +2 x3279 -1 x2920 -1 x2921 -1 x2922 -1 x2923 -1 x2924 -1 x2925 >= 0 ;
+2 x3280 +2 x3281 +2 x3282 -1 x2923 -1 x2924 -1 x2925 -1 x2926 -1 x2927 -1 x2928 >= 0 ;
+2 x3283 +2 x3284 +2 x3285 -1 x2926 -1 x2927 -1 x2928 -1 x2929 -1 x2930 -1 x2931 >= 0 ;
+2 x3286 +2 x3287 +2 x3288 -1 x2929 -1 x2930 -1 x2931 -1 x2932 -1 x2933 -1 x2934 >= 0 ;
+2 x3289 +2 x3290 +2 x3291 -1 x2932 -1 x2933 -1 x2934 -1 x2935 -1 x2936 -1 x2937 >= 0 ;
+2 x3292 +2 x3293 +2 x3294 -1 x2935 -1 x2936 -1 x2937 -1 x2938 -1 x2939 -1 x2940 >= 0 ;
+2 x3295 +2 x3296 +2 x3297 -1 x2941 -1 x2942 -1 x2943 -1 x2944 -1 x2945 -1 x2946 >= 0 ;
+2 x3298 +2 x3299 +2 x3300 -1 x2944 -1 x2945 -1 x2946 -1 x2947 -1 x2948 -1 x2949 >= 0 ;
+2 x3301 +2 x3302 +2 x3303 -1 x2947 -1 x2948 -1 x2949 -1 x2950 -1 x2951 -1 x2952 >= 0 ;
+2 x3304 +2 x3305 +2 x3306 -1 x2950 -1 x2951 -1 x2952 -1 x2953 -1 x2954 -1 x2955 >= 0 ;
+2 x3307 +2 x3308 +2 x3309 -1 x2953 -1 x2954 -1 x2955 -1 x2956 -1 x2957 -1 x2958 >= 0 ;
+2 x3310 +2 x3311 +2 x3312 -1 x2956 -1 x2957 -1 x2958 -1 x2959 -1 x2960 -1 x2961 >= 0 ;
+2 x3313 +2 x3314 +2 x3315 -1 x2959 -1 x2960 -1 x2961 -1 x2962 -1 x2963 -1 x2964 >= 0 ;
+2 x3316 +2 x3317 +2 x3318 -1 x2962 -1 x2963 -1 x2964 -1 x2965 -1 x2966 -1 x2967 >= 0 ;
+2 x3319 +2 x3320 +2 x3321 -1 x2965 -1 x2966 -1 x2967 -1 x2968 -1 x2969 -1 x2970 >= 0 ;
+2 x3322 +2 x3323 +2 x3324 -1 x2968 -1 x2969 -1 x2970 -1 x2971 -1 x2972 -1 x2973 >= 0 ;
+2 x3325 +2 x3326 +2 x3327 -1 x2971 -1 x2972 -1 x2973 -1 x2974 -1 x2975 -1 x2976 >= 0 ;
+2 x3328 +2 x3329 +2 x3330 -1 x2974 -1 x2975 -1 x2976 -1 x2977 -1 x2978 -1 x2979 >= 0 ;
+2 x3331 +2 x3332 +2 x3333 -1 x2977 -1 x2978 -1 x2979 -1 x2980 -1 x2981 -1 x2982 >= 0 ;
+2 x3334 +2 x3335 +2 x3336 -1 x2980 -1 x2981 -1 x2982 -1 x2983 -1 x2984 -1 x2985 >= 0 ;
+2 x3337 +2 x3338 +2 x3339 -1 x2983 -1 x2984 -1 x2985 -1 x2986 -1 x2987 -1 x2988 >= 0 ;
+2 x3340 +2 x3341 +2 x3342 -1 x2986 -1 x2987 -1 x2988 -1 x2989 -1 x2990 -1 x2991 >= 0 ;
+2 x3343 +2 x3344 +2 x3345 -1 x2989 -1 x2990 -1 x2991 -1 x2992 -1 x2993 -1 x2994 >= 0 ;
+2 x3346 +2 x3347 +2 x3348 -1 x2992 -1 x2993 -1 x2994 -1 x2995 -1 x2996 -1 x2997 >= 0 ;
+2 x3349 +2 x3350 +2 x3351 -1 x2995 -1 x2996 -1 x2997 -1 x2998 -1 x2999 -1 x3000 >= 0 ;
+2 x3352 +2 x3353 +2 x3354 -1 x2998 -1 x2999 -1 x3000 -1 x3001 -1 x3002 -1 x3003 >= 0 ;
+2 x3355 +2 x3356 +2 x3357 -1 x3001 -1 x3002 -1 x3003 -1 x3004 -1 x3005 -1 x3006 >= 0 ;
+2 x3358 +2 x3359 +2 x3360 -1 x3004 -1 x3005 -1 x3006 -1 x3007 -1 x3008 -1 x3009 >= 0 ;
+2 x3361 +2 x3362 +2 x3363 -1 x3007 -1 x3008 -1 x3009 -1 x3010 -1 x3011 -1 x3012 >= 0 ;
+2 x3364 +2 x3365 +2 x3366 -1 x3010 -1 x3011 -1 x3012 -1 x3013 -1 x3014 -1 x3015 >= 0 ;
+2 x3367 +2 x3368 +2 x3369 -1 x3013 -1 x3014 -1 x3015 -1 x3016 -1 x3017 -1 x3018 >= 0 ;
+2 x3370 +2 x3371 +2 x3372 -1 x3016 -1 x3017 -1 x3018 -1 x3019 -1 x3020 -1 x3021 >= 0 ;
+2 x3373 +2 x3374 +2 x3375 -1 x3019 -1 x3020 -1 x3021 -1 x3022 -1 x3023 -1 x3024 >= 0 ;
+2 x3376 +2 x3377 +2 x3378 -1 x3022 -1 x3023 -1 x3024 -1 x3025 -1 x3026 -1 x3027 >= 0 ;
+2 x3379 +2 x3380 +2 x3381 -1 x3025 -1 x3026 -1 x3027 -1 x3028 -1 x3029 -1 x3030 >= 0 ;
+2 x3382 +2 x3383 +2 x3384 -1 x3028 -1 x3029 -1 x3030 -1 x3031 -1 x3032 -1 x3033 >= 0 ;
+2 x3385 +2 x3386 +2 x3387 -1 x3031 -1 x3032 -1 x3033 -1 x3034 -1 x3035 -1 x3036 >= 0 ;
+2 x3388 +2 x3389 +2 x3390 -1 x3034 -1 x3035 -1 x3036 -1 x3037 -1 x3038 -1 x3039 >= 0 ;
+2 x3391 +2 x3392 +2 x3393 -1 x3037 -1 x3038 -1 x3039 -1 x3040 -1 x3041 -1 x3042 >= 0 ;
+2 x3394 +2 x3395 +2 x3396 -1 x3040 -1 x3041 -1 x3042 -1 x3043 -1 x3044 -1 x3045 >= 0 ;
+2 x3397 +2 x3398 +2 x3399 -1 x3043 -1 x3044 -1 x3045 -1 x3046 -1 x3047 -1 x3048 >= 0 ;
+2 x3400 +2 x3401 +2 x3402 -1 x3046 -1 x3047 -1 x3048 -1 x3049 -1 x3050 -1 x3051 >= 0 ;
+2 x3403 +2 x3404 +2 x3405 -1 x3049 -1 x3050 -1 x3051 -1 x3052 -1 x3053 -1 x3054 >= 0 ;
+2 x3406 +2 x3407 +2 x3408 -1 x3052 -1 x3053 -1 x3054 -1 x3055 -1 x3056 -1 x3057 >= 0 ;
+2 x3409 +2 x3410 +2 x3411 -1 x3055 -1 x3056 -1 x3057 -1 x3058 -1 x3059 -1 x3060 >= 0 ;
+2 x3412 +2 x3413 +2 x3414 -1 x3058 -1 x3059 -1 x3060 -1 x3061 -1 x3062 -1 x3063 >= 0 ;
+2 x3415 +2 x3416 +2 x3417 -1 x3061 -1 x3062 -1 x3063 -1 x3064 -1 x3065 -1 x3066 >= 0 ;
+2 x3418 +2 x3419 +2 x3420 -1 x3064 -1 x3065 -1 x3066 -1 x3067 -1 x3068 -1 x3069 >= 0 ;
+2 x3421 +2 x3422 +2 x3423 -1 x3067 -1 x3068 -1 x3069 -1 x3070 -1 x3071 -1 x3072 >= 0 ;
+2 x3424 +2 x3425 +2 x3426 -1 x3070 -1 x3071 -1 x3072 -1 x3073 -1 x3074 -1 x3075 >= 0 ;
+2 x3427 +2 x3428 +2 x3429 -1 x3073 -1 x3074 -1 x3075 -1 x3076 -1 x3077 -1 x3078 >= 0 ;
+2 x3430 +2 x3431 +2 x3432 -1 x3076 -1 x3077 -1 x3078 -1 x3079 -1 x3080 -1 x3081 >= 0 ;
+2 x3433 +2 x3434 +2 x3435 -1 x3079 -1 x3080 -1 x3081 -1 x3082 -1 x3083 -1 x3084 >= 0 ;
+2 x3436 +2 x3437 +2 x3438 -1 x3082 -1 x3083 -1 x3084 -1 x3085 -1 x3086 -1 x3087 >= 0 ;
+2 x3439 +2 x3440 +2 x3441 -1 x3085 -1 x3086 -1 x3087 -1 x3088 -1 x3089 -1 x3090 >= 0 ;
+2 x3442 +2 x3443 +2 x3444 -1 x3088 -1 x3089 -1 x3090 -1 x3091 -1 x3092 -1 x3093 >= 0 ;
+2 x3445 +2 x3446 +2 x3447 -1 x3091 -1 x3092 -1 x3093 -1 x3094 -1 x3095 -1 x3096 >= 0 ;
+2 x3448 +2 x3449 +2 x3450 -1 x3094 -1 x3095 -1 x3096 -1 x3097 -1 x3098 -1 x3099 >= 0 ;
+2 x3451 +2 x3452 +2 x3453 -1 x3097 -1 x3098 -1 x3099 -1 x3100 -1 x3101 -1 x3102 >= 0 ;
+2 x3454 +2 x3455 +2 x3456 -1 x3100 -1 x3101 -1 x3102 -1 x3103 -1 x3104 -1 x3105 >= 0 ;
+2 x3457 +2 x3458 +2 x3459 -1 x3103 -1 x3104 -1 x3105 -1 x3106 -1 x3107 -1 x3108 >= 0 ;
+2 x3460 +2 x3461 +2 x3462 -1 x3106 -1 x3107 -1 x3108 -1 x3109 -1 x3110 -1 x3111 >= 0 ;
+2 x3463 +2 x3464 +2 x3465 -1 x3109 -1 x3110 -1 x3111 -1 x3112 -1 x3113 -1 x3114 >= 0 ;
+2 x3466 +2 x3467 +2 x3468 -1 x3112 -1 x3113 -1 x3114 -1 x3115 -1 x3116 -1 x3117 >= 0 ;
+2 x3469 +2 x3470 +2 x3471 -1 x3115 -1 x3116 -1 x3117 -1 x3118 -1 x3119 -1 x3120 >= 0 ;
+2 x3472 +2 x3473 +2 x3474 -1 x3118 -1 x3119 -1 x3120 -1 x3121 -1 x3122 -1 x3123 >= 0 ;
+2 x3475 +2 x3476 +2 x3477 -1 x3121 -1 x3122 -1 x3123 -1 x3124 -1 x3125 -1 x3126 >= 0 ;
+2 x3478 +2 x3479 +2 x3480 -1 x3124 -1 x3125 -1 x3126 -1 x3127 -1 x3128 -1 x3129 >= 0 ;
+2 x3481 +2 x3482 +2 x3483 -1 x3127 -1 x3128 -1 x3129 -1 x3130 -1 x3131 -1 x3132 >= 0 ;
+2 x3484 +2 x3485 +2 x3486 -1 x3130 -1 x3131 -1 x3132 -1 x3133 -1 x3134 -1 x3135 >= 0 ;
+2 x3487 +2 x3488 +2 x3489 -1 x3133 -1 x3134 -1 x3135 -1 x3136 -1 x3137 -1 x3138 >= 0 ;
+2 x3490 +2 x3491 +2 x3492 -1 x3136 -1 x3137 -1 x3138 -1 x3139 -1 x3140 -1 x3141 >= 0 ;
+2 x3493 +2 x3494 +2 x3495 -1 x3139 -1 x3140 -1 x3141 -1 x3142 -1 x3143 -1 x3144 >= 0 ;
+2 x3496 +2 x3497 +2 x3498 -1 x3142 -1 x3143 -1 x3144 -1 x3145 -1 x3146 -1 x3147 >= 0 ;
+2 x3499 +2 x3500 +2 x3501 -1 x3145 -1 x3146 -1 x3147 -1 x3148 -1 x3149 -1 x3150 >= 0 ;
+2 x3502 +2 x3503 +2 x3504 -1 x3148 -1 x3149 -1 x3150 -1 x3151 -1 x3152 -1 x3153 >= 0 ;
+2 x3505 +2 x3506 +2 x3507 -1 x3151 -1 x3152 -1 x3153 -1 x3154 -1 x3155 -1 x3156 >= 0 ;
+2 x3508 +2 x3509 +2 x3510 -1 x3154 -1 x3155 -1 x3156 -1 x3157 -1 x3158 -1 x3159 >= 0 ;
+2 x3511 +2 x3512 +2 x3513 -1 x3157 -1 x3158 -1 x3159 -1 x3160 -1 x3161 -1 x3162 >= 0 ;
+2 x3514 +2 x3515 +2 x3516 -1 x3160 -1 x3161 -1 x3162 -1 x3163 -1 x3164 -1 x3165 >= 0 ;
+2 x3517 +2 x3518 +2 x3519 -1 x3163 -1 x3164 -1 x3165 -1 x3166 -1 x3167 -1 x3168 >= 0 ;
+2 x3520 +2 x3521 +2 x3522 -1 x3166 -1 x3167 -1 x3168 -1 x3169 -1 x3170 -1 x3171 >= 0 ;
+2 x3523 +2 x3524 +2 x3525 -1 x3169 -1 x3170 -1 x3171 -1 x3172 -1 x3173 -1 x3174 >= 0 ;
+2 x3526 +2 x3527 +2 x3528 -1 x3172 -1 x3173 -1 x3174 -1 x3175 -1 x3176 -1 x3177 >= 0 ;
+2 x3529 +2 x3530 +2 x3531 -1 x3175 -1 x3176 -1 x3177 -1 x3178 -1 x3179 -1 x3180 >= 0 ;
+2 x3532 +2 x3533 +2 x3534 -1 x3178 -1 x3179 -1 x3180 -1 x3181 -1 x3182 -1 x3183 >= 0 ;
+2 x3535 +2 x3536 +2 x3537 -1 x3181 -1 x3182 -1 x3183 -1 x3184 -1 x3185 -1 x3186 >= 0 ;
+2 x3538 +2 x3539 +2 x3540 -1 x3184 -1 x3185 -1 x3186 -1 x3187 -1 x3188 -1 x3189 >= 0 ;
+2 x3541 +2 x3542 +2 x3543 -1 x3187 -1 x3188 -1 x3189 -1 x3190 -1 x3191 -1 x3192 >= 0 ;
+2 x3544 +2 x3545 +2 x3546 -1 x3190 -1 x3191 -1 x3192 -1 x3193 -1 x3194 -1 x3195 >= 0 ;
+2 x3547 +2 x3548 +2 x3549 -1 x3193 -1 x3194 -1 x3195 -1 x3196 -1 x3197 -1 x3198 >= 0 ;
+2 x3550 +2 x3551 +2 x3552 -1 x3196 -1 x3197 -1 x3198 -1 x3199 -1 x3200 -1 x3201 >= 0 ;
+2 x3553 +2 x3554 +2 x3555 -1 x3199 -1 x3200 -1 x3201 -1 x3202 -1 x3203 -1 x3204 >= 0 ;
+2 x3556 +2 x3557 +2 x3558 -1 x3202 -1 x3203 -1 x3204 -1 x3205 -1 x3206 -1 x3207 >= 0 ;
+2 x3559 +2 x3560 +2 x3561 -1 x3205 -1 x3206 -1 x3207 -1 x3208 -1 x3209 -1 x3210 >= 0 ;
+2 x3562 +2 x3563 +2 x3564 -1 x3208 -1 x3209 -1 x3210 -1 x3211 -1 x3212 -1 x3213 >= 0 ;
+2 x3565 +2 x3566 +2 x3567 -1 x3211 -1 x3212 -1 x3213 -1 x3214 -1 x3215 -1 x3216 >= 0 ;
+2 x3568 +2 x3569 +2 x3570 -1 x3214 -1 x3215 -1 x3216 -1 x3217 -1 x3218 -1 x3219 >= 0 ;
+2 x3571 +2 x3572 +2 x3573 -1 x3217 -1 x3218 -1 x3219 -1 x3220 -1 x3221 -1 x3222 >= 0 ;
+2 x3574 +2 x3575 +2 x3576 -1 x3220 -1 x3221 -1 x3222 -1 x3223 -1 x3224 -1 x3225 >= 0 ;
+2 x3577 +2 x3578 +2 x3579 -1 x3223 -1 x3224 -1 x3225 -1 x3226 -1 x3227 -1 x3228 >= 0 ;
+2 x3580 +2 x3581 +2 x3582 -1 x3226 -1 x3227 -1 x3228 -1 x3229 -1 x3230 -1 x3231 >= 0 ;
+2 x3583 +2 x3584 +2 x3585 -1 x3229 -1 x3230 -1 x3231 -1 x3232 -1 x3233 -1 x3234 >= 0 ;
+2 x3586 +2 x3587 +2 x3588 -1 x3232 -1 x3233 -1 x3234 -1 x3235 -1 x3236 -1 x3237 >= 0 ;
+2 x3589 +2 x3590 +2 x3591 -1 x3235 -1 x3236 -1 x3237 -1 x3238 -1 x3239 -1 x3240 >= 0 ;
+2 x3592 +2 x3593 +2 x3594 -1 x3238 -1 x3239 -1 x3240 -1 x3241 -1 x3242 -1 x3243 >= 0 ;
+2 x3595 +2 x3596 +2 x3597 -1 x3241 -1 x3242 -1 x3243 -1 x3244 -1 x3245 -1 x3246 >= 0 ;
+2 x3598 +2 x3599 +2 x3600 -1 x3244 -1 x3245 -1 x3246 -1 x3247 -1 x3248 -1 x3249 >= 0 ;
+2 x3601 +2 x3602 +2 x3603 -1 x3247 -1 x3248 -1 x3249 -1 x3250 -1 x3251 -1 x3252 >= 0 ;
+2 x3604 +2 x3605 +2 x3606 -1 x3250 -1 x3251 -1 x3252 -1 x3253 -1 x3254 -1 x3255 >= 0 ;
+2 x3607 +2 x3608 +2 x3609 -1 x3253 -1 x3254 -1 x3255 -1 x3256 -1 x3257 -1 x3258 >= 0 ;
+2 x3610 +2 x3611 +2 x3612 -1 x3256 -1 x3257 -1 x3258 -1 x3259 -1 x3260 -1 x3261 >= 0 ;
+2 x3613 +2 x3614 +2 x3615 -1 x3259 -1 x3260 -1 x3261 -1 x3262 -1 x3263 -1 x3264 >= 0 ;
+2 x3616 +2 x3617 +2 x3618 -1 x3262 -1 x3263 -1 x3264 -1 x3265 -1 x3266 -1 x3267 >= 0 ;
+2 x3619 +2 x3620 +2 x3621 -1 x3265 -1 x3266 -1 x3267 -1 x3268 -1 x3269 -1 x3270 >= 0 ;
+2 x3622 +2 x3623 +2 x3624 -1 x3268 -1 x3269 -1 x3270 -1 x3271 -1 x3272 -1 x3273 >= 0 ;
+2 x3625 +2 x3626 +2 x3627 -1 x3271 -1 x3272 -1 x3273 -1 x3274 -1 x3275 -1 x3276 >= 0 ;
+2 x3628 +2 x3629 +2 x3630 -1 x3274 -1 x3275 -1 x3276 -1 x3277 -1 x3278 -1 x3279 >= 0 ;
+2 x3631 +2 x3632 +2 x3633 -1 x3277 -1 x3278 -1 x3279 -1 x3280 -1 x3281 -1 x3282 >= 0 ;
+2 x3634 +2 x3635 +2 x3636 -1 x3280 -1 x3281 -1 x3282 -1 x3283 -1 x3284 -1 x3285 >= 0 ;
+2 x3637 +2 x3638 +2 x3639 -1 x3283 -1 x3284 -1 x3285 -1 x3286 -1 x3287 -1 x3288 >= 0 ;
+2 x3640 +2 x3641 +2 x3642 -1 x3286 -1 x3287 -1 x3288 -1 x3289 -1 x3290 -1 x3291 >= 0 ;
+2 x3643 +2 x3644 +2 x3645 -1 x3289 -1 x3290 -1 x3291 -1 x3292 -1 x3293 -1 x3294 >= 0 ;
+2 x3646 +2 x3647 +2 x3648 -1 x3295 -1 x3296 -1 x3297 -1 x3298 -1 x3299 -1 x3300 >= 0 ;
+2 x3649 +2 x3650 +2 x3651 -1 x3298 -1 x3299 -1 x3300 -1 x3301 -1 x3302 -1 x3303 >= 0 ;
+2 x3652 +2 x3653 +2 x3654 -1 x3301 -1 x3302 -1 x3303 -1 x3304 -1 x3305 -1 x3306 >= 0 ;
+2 x3655 +2 x3656 +2 x3657 -1 x3304 -1 x3305 -1 x3306 -1 x3307 -1 x3308 -1 x3309 >= 0 ;
+2 x3658 +2 x3659 +2 x3660 -1 x3307 -1 x3308 -1 x3309 -1 x3310 -1 x3311 -1 x3312 >= 0 ;
+2 x3661 +2 x3662 +2 x3663 -1 x3310 -1 x3311 -1 x3312 -1 x3313 -1 x3314 -1 x3315 >= 0 ;
+2 x3664 +2 x3665 +2 x3666 -1 x3313 -1 x3314 -1 x3315 -1 x3316 -1 x3317 -1 x3318 >= 0 ;
+2 x3667 +2 x3668 +2 x3669 -1 x3316 -1 x3317 -1 x3318 -1 x3319 -1 x3320 -1 x3321 >= 0 ;
+2 x3670 +2 x3671 +2 x3672 -1 x3319 -1 x3320 -1 x3321 -1 x3322 -1 x3323 -1 x3324 >= 0 ;
+2 x3673 +2 x3674 +2 x3675 -1 x3322 -1 x3323 -1 x3324 -1 x3325 -1 x3326 -1 x3327 >= 0 ;
+2 x3676 +2 x3677 +2 x3678 -1 x3325 -1 x3326 -1 x3327 -1 x3328 -1 x3329 -1 x3330 >= 0 ;
+2 x3679 +2 x3680 +2 x3681 -1 x3328 -1 x3329 -1 x3330 -1 x3331 -1 x3332 -1 x3333 >= 0 ;
+2 x3682 +2 x3683 +2 x3684 -1 x3331 -1 x3332 -1 x3333 -1 x3334 -1 x3335 -1 x3336 >= 0 ;
+2 x3685 +2 x3686 +2 x3687 -1 x3334 -1 x3335 -1 x3336 -1 x3337 -1 x3338 -1 x3339 >= 0 ;
+2 x3688 +2 x3689 +2 x3690 -1 x3337 -1 x3338 -1 x3339 -1 x3340 -1 x3341 -1 x3342 >= 0 ;
+2 x3691 +2 x3692 +2 x3693 -1 x3340 -1 x3341 -1 x3342 -1 x3343 -1 x3344 -1 x3345 >= 0 ;
+2 x3694 +2 x3695 +2 x3696 -1 x3343 -1 x3344 -1 x3345 -1 x3346 -1 x3347 -1 x3348 >= 0 ;
+2 x3697 +2 x3698 +2 x3699 -1 x3346 -1 x3347 -1 x3348 -1 x3349 -1 x3350 -1 x3351 >= 0 ;
+2 x3700 +2 x3701 +2 x3702 -1 x3349 -1 x3350 -1 x3351 -1 x3352 -1 x3353 -1 x3354 >= 0 ;
+2 x3703 +2 x3704 +2 x3705 -1 x3352 -1 x3353 -1 x3354 -1 x3355 -1 x3356 -1 x3357 >= 0 ;
+2 x3706 +2 x3707 +2 x3708 -1 x3355 -1 x3356 -1 x3357 -1 x3358 -1 x3359 -1 x3360 >= 0 ;
+2 x3709 +2 x3710 +2 x3711 -1 x3358 -1 x3359 -1 x3360 -1 x3361 -1 x3362 -1 x3363 >= 0 ;
+2 x3712 +2 x3713 +2 x3714 -1 x3361 -1 x3362 -1 x3363 -1 x3364 -1 x3365 -1 x3366 >= 0 ;
+2 x3715 +2 x3716 +2 x3717 -1 x3364 -1 x3365 -1 x3366 -1 x3367 -1 x3368 -1 x3369 >= 0 ;
+2 x3718 +2 x3719 +2 x3720 -1 x3367 -1 x3368 -1 x3369 -1 x3370 -1 x3371 -1 x3372 >= 0 ;
+2 x3721 +2 x3722 +2 x3723 -1 x3370 -1 x3371 -1 x3372 -1 x3373 -1 x3374 -1 x3375 >= 0 ;
+2 x3724 +2 x3725 +2 x3726 -1 x3373 -1 x3374 -1 x3375 -1 x3376 -1 x3377 -1 x3378 >= 0 ;
+2 x3727 +2 x3728 +2 x3729 -1 x3376 -1 x3377 -1 x3378 -1 x3379 -1 x3380 -1 x3381 >= 0 ;
+2 x3730 +2 x3731 +2 x3732 -1 x3379 -1 x3380 -1 x3381 -1 x3382 -1 x3383 -1 x3384 >= 0 ;
+2 x3733 +2 x3734 +2 x3735 -1 x3382 -1 x3383 -1 x3384 -1 x3385 -1 x3386 -1 x3387 >= 0 ;
+2 x3736 +2 x3737 +2 x3738 -1 x3385 -1 x3386 -1 x3387 -1 x3388 -1 x3389 -1 x3390 >= 0 ;
+2 x3739 +2 x3740 +2 x3741 -1 x3388 -1 x3389 -1 x3390 -1 x3391 -1 x3392 -1 x3393 >= 0 ;
+2 x3742 +2 x3743 +2 x3744 -1 x3391 -1 x3392 -1 x3393 -1 x3394 -1 x3395 -1 x3396 >= 0 ;
+2 x3745 +2 x3746 +2 x3747 -1 x3394 -1 x3395 -1 x3396 -1 x3397 -1 x3398 -1 x3399 >= 0 ;
+2 x3748 +2 x3749 +2 x3750 -1 x3397 -1 x3398 -1 x3399 -1 x3400 -1 x3401 -1 x3402 >= 0 ;
+2 x3751 +2 x3752 +2 x3753 -1 x3400 -1 x3401 -1 x3402 -1 x3403 -1 x3404 -1 x3405 >= 0 ;
+2 x3754 +2 x3755 +2 x3756 -1 x3403 -1 x3404 -1 x3405 -1 x3406 -1 x3407 -1 x3408 >= 0 ;
+2 x3757 +2 x3758 +2 x3759 -1 x3406 -1 x3407 -1 x3408 -1 x3409 -1 x3410 -1 x3411 >= 0 ;
+2 x3760 +2 x3761 +2 x3762 -1 x3409 -1 x3410 -1 x3411 -1 x3412 -1 x3413 -1 x3414 >= 0 ;
+2 x3763 +2 x3764 +2 x3765 -1 x3412 -1 x3413 -1 x3414 -1 x3415 -1 x3416 -1 x3417 >= 0 ;
+2 x3766 +2 x3767 +2 x3768 -1 x3415 -1 x3416 -1 x3417 -1 x3418 -1 x3419 -1 x3420 >= 0 ;
+2 x3769 +2 x3770 +2 x3771 -1 x3418 -1 x3419 -1 x3420 -1 x3421 -1 x3422 -1 x3423 >= 0 ;
+2 x3772 +2 x3773 +2 x3774 -1 x3421 -1 x3422 -1 x3423 -1 x3424 -1 x3425 -1 x3426 >= 0 ;
+2 x3775 +2 x3776 +2 x3777 -1 x3424 -1 x3425 -1 x3426 -1 x3427 -1 x3428 -1 x3429 >= 0 ;
+2 x3778 +2 x3779 +2 x3780 -1 x3427 -1 x3428 -1 x3429 -1 x3430 -1 x3431 -1 x3432 >= 0 ;
+2 x3781 +2 x3782 +2 x3783 -1 x3430 -1 x3431 -1 x3432 -1 x3433 -1 x3434 -1 x3435 >= 0 ;
+2 x3784 +2 x3785 +2 x3786 -1 x3433 -1 x3434 -1 x3435 -1 x3436 -1 x3437 -1 x3438 >= 0 ;
+2 x3787 +2 x3788 +2 x3789 -1 x3436 -1 x3437 -1 x3438 -1 x3439 -1 x3440 -1 x3441 >= 0 ;
+2 x3790 +2 x3791 +2 x3792 -1 x3439 -1 x3440 -1 x3441 -1 x3442 -1 x3443 -1 x3444 >= 0 ;
+2 x3793 +2 x3794 +2 x3795 -1 x3442 -1 x3443 -1 x3444 -1 x3445 -1 x3446 -1 x3447 >= 0 ;
+2 x3796 +2 x3797 +2 x3798 -1 x3445 -1 x3446 -1 x3447 -1 x3448 -1 x3449 -1 x3450 >= 0 ;
+2 x3799 +2 x3800 +2 x3801 -1 x3448 -1 x3449 -1 x3450 -1 x3451 -1 x3452 -1 x3453 >= 0 ;
+2 x3802 +2 x3803 +2 x3804 -1 x3451 -1 x3452 -1 x3453 -1 x3454 -1 x3455 -1 x3456 >= 0 ;
+2 x3805 +2 x3806 +2 x3807 -1 x3454 -1 x3455 -1 x3456 -1 x3457 -1 x3458 -1 x3459 >= 0 ;
+2 x3808 +2 x3809 +2 x3810 -1 x3457 -1 x3458 -1 x3459 -1 x3460 -1 x3461 -1 x3462 >= 0 ;
+2 x3811 +2 x3812 +2 x3813 -1 x3460 -1 x3461 -1 x3462 -1 x3463 -1 x3464 -1 x3465 >= 0 ;
+2 x3814 +2 x3815 +2 x3816 -1 x3463 -1 x3464 -1 x3465 -1 x3466 -1 x3467 -1 x3468 >= 0 ;
+2 x3817 +2 x3818 +2 x3819 -1 x3466 -1 x3467 -1 x3468 -1 x3469 -1 x3470 -1 x3471 >= 0 ;
+2 x3820 +2 x3821 +2 x3822 -1 x3469 -1 x3470 -1 x3471 -1 x3472 -1 x3473 -1 x3474 >= 0 ;
+2 x3823 +2 x3824 +2 x3825 -1 x3472 -1 x3473 -1 x3474 -1 x3475 -1 x3476 -1 x3477 >= 0 ;
+2 x3826 +2 x3827 +2 x3828 -1 x3475 -1 x3476 -1 x3477 -1 x3478 -1 x3479 -1 x3480 >= 0 ;
+2 x3829 +2 x3830 +2 x3831 -1 x3478 -1 x3479 -1 x3480 -1 x3481 -1 x3482 -1 x3483 >= 0 ;
+2 x3832 +2 x3833 +2 x3834 -1 x3481 -1 x3482 -1 x3483 -1 x3484 -1 x3485 -1 x3486 >= 0 ;
+2 x3835 +2 x3836 +2 x3837 -1 x3484 -1 x3485 -1 x3486 -1 x3487 -1 x3488 -1 x3489 >= 0 ;
+2 x3838 +2 x3839 +2 x3840 -1 x3487 -1 x3488 -1 x3489 -1 x3490 -1 x3491 -1 x3492 >= 0 ;
+2 x3841 +2 x3842 +2 x3843 -1 x3490 -1 x3491 -1 x3492 -1 x3493 -1 x3494 -1 x3495 >= 0 ;
+2 x3844 +2 x3845 +2 x3846 -1 x3493 -1 x3494 -1 x3495 -1 x3496 -1 x3497 -1 x3498 >= 0 ;
+2 x3847 +2 x3848 +2 x3849 -1 x3496 -1 x3497 -1 x3498 -1 x3499 -1 x3500 -1 x3501 >= 0 ;
+2 x3850 +2 x3851 +2 x3852 -1 x3499 -1 x3500 -1 x3501 -1 x3502 -1 x3503 -1 x3504 >= 0 ;
+2 x3853 +2 x3854 +2 x3855 -1 x3502 -1 x3503 -1 x3504 -1 x3505 -1 x3506 -1 x3507 >= 0 ;
+2 x3856 +2 x3857 +2 x3858 -1 x3505 -1 x3506 -1 x3507 -1 x3508 -1 x3509 -1 x3510 >= 0 ;
+2 x3859 +2 x3860 +2 x3861 -1 x3508 -1 x3509 -1 x3510 -1 x3511 -1 x3512 -1 x3513 >= 0 ;
+2 x3862 +2 x3863 +2 x3864 -1 x3511 -1 x3512 -1 x3513 -1 x3514 -1 x3515 -1 x3516 >= 0 ;
+2 x3865 +2 x3866 +2 x3867 -1 x3514 -1 x3515 -1 x3516 -1 x3517 -1 x3518 -1 x3519 >= 0 ;
+2 x3868 +2 x3869 +2 x3870 -1 x3517 -1 x3518 -1 x3519 -1 x3520 -1 x3521 -1 x3522 >= 0 ;
+2 x3871 +2 x3872 +2 x3873 -1 x3520 -1 x3521 -1 x3522 -1 x3523 -1 x3524 -1 x3525 >= 0 ;
+2 x3874 +2 x3875 +2 x3876 -1 x3523 -1 x3524 -1 x3525 -1 x3526 -1 x3527 -1 x3528 >= 0 ;
+2 x3877 +2 x3878 +2 x3879 -1 x3526 -1 x3527 -1 x3528 -1 x3529 -1 x3530 -1 x3531 >= 0 ;
+2 x3880 +2 x3881 +2 x3882 -1 x3529 -1 x3530 -1 x3531 -1 x3532 -1 x3533 -1 x3534 >= 0 ;
+2 x3883 +2 x3884 +2 x3885 -1 x3532 -1 x3533 -1 x3534 -1 x3535 -1 x3536 -1 x3537 >= 0 ;
+2 x3886 +2 x3887 +2 x3888 -1 x3535 -1 x3536 -1 x3537 -1 x3538 -1 x3539 -1 x3540 >= 0 ;
+2 x3889 +2 x3890 +2 x3891 -1 x3538 -1 x3539 -1 x3540 -1 x3541 -1 x3542 -1 x3543 >= 0 ;
+2 x3892 +2 x3893 +2 x3894 -1 x3541 -1 x3542 -1 x3543 -1 x3544 -1 x3545 -1 x3546 >= 0 ;
+2 x3895 +2 x3896 +2 x3897 -1 x3544 -1 x3545 -1 x3546 -1 x3547 -1 x3548 -1 x3549 >= 0 ;
+2 x3898 +2 x3899 +2 x3900 -1 x3547 -1 x3548 -1 x3549 -1 x3550 -1 x3551 -1 x3552 >= 0 ;
+2 x3901 +2 x3902 +2 x3903 -1 x3550 -1 x3551 -1 x3552 -1 x3553 -1 x3554 -1 x3555 >= 0 ;
+2 x3904 +2 x3905 +2 x3906 -1 x3553 -1 x3554 -1 x3555 -1 x3556 -1 x3557 -1 x3558 >= 0 ;
+2 x3907 +2 x3908 +2 x3909 -1 x3556 -1 x3557 -1 x3558 -1 x3559 -1 x3560 -1 x3561 >= 0 ;
+2 x3910 +2 x3911 +2 x3912 -1 x3559 -1 x3560 -1 x3561 -1 x3562 -1 x3563 -1 x3564 >= 0 ;
+2 x3913 +2 x3914 +2 x3915 -1 x3562 -1 x3563 -1 x3564 -1 x3565 -1 x3566 -1 x3567 >= 0 ;
+2 x3916 +2 x3917 +2 x3918 -1 x3565 -1 x3566 -1 x3567 -1 x3568 -1 x3569 -1 x3570 >= 0 ;
+2 x3919 +2 x3920 +2 x3921 -1 x3568 -1 x3569 -1 x3570 -1 x3571 -1 x3572 -1 x3573 >= 0 ;
+2 x3922 +2 x3923 +2 x3924 -1 x3571 -1 x3572 -1 x3573 -1 x3574 -1 x3575 -1 x3576 >= 0 ;
+2 x3925 +2 x3926 +2 x3927 -1 x3574 -1 x3575 -1 x3576 -1 x3577 -1 x3578 -1 x3579 >= 0 ;
+2 x3928 +2 x3929 +2 x3930 -1 x3577 -1 x3578 -1 x3579 -1 x3580 -1 x3581 -1 x3582 >= 0 ;
+2 x3931 +2 x3932 +2 x3933 -1 x3580 -1 x3581 -1 x3582 -1 x3583 -1 x3584 -1 x3585 >= 0 ;
+2 x3934 +2 x3935 +2 x3936 -1 x3583 -1 x3584 -1 x3585 -1 x3586 -1 x3587 -1 x3588 >= 0 ;
+2 x3937 +2 x3938 +2 x3939 -1 x3586 -1 x3587 -1 x3588 -1 x3589 -1 x3590 -1 x3591 >= 0 ;
+2 x3940 +2 x3941 +2 x3942 -1 x3589 -1 x3590 -1 x3591 -1 x3592 -1 x3593 -1 x3594 >= 0 ;
+2 x3943 +2 x3944 +2 x3945 -1 x3592 -1 x3593 -1 x3594 -1 x3595 -1 x3596 -1 x3597 >= 0 ;
+2 x3946 +2 x3947 +2 x3948 -1 x3595 -1 x3596 -1 x3597 -1 x3598 -1 x3599 -1 x3600 >= 0 ;
+2 x3949 +2 x3950 +2 x3951 -1 x3598 -1 x3599 -1 x3600 -1 x3601 -1 x3602 -1 x3603 >= 0 ;
+2 x3952 +2 x3953 +2 x3954 -1 x3601 -1 x3602 -1 x3603 -1 x3604 -1 x3605 -1 x3606 >= 0 ;
+2 x3955 +2 x3956 +2 x3957 -1 x3604 -1 x3605 -1 x3606 -1 x3607 -1 x3608 -1 x3609 >= 0 ;
+2 x3958 +2 x3959 +2 x3960 -1 x3607 -1 x3608 -1 x3609 -1 x3610 -1 x3611 -1 x3612 >= 0 ;
+2 x3961 +2 x3962 +2 x3963 -1 x3610 -1 x3611 -1 x3612 -1 x3613 -1 x3614 -1 x3615 >= 0 ;
+2 x3964 +2 x3965 +2 x3966 -1 x3613 -1 x3614 -1 x3615 -1 x3616 -1 x3617 -1 x3618 >= 0 ;
+2 x3967 +2 x3968 +2 x3969 -1 x3616 -1 x3617 -1 x3618 -1 x3619 -1 x3620 -1 x3621 >= 0 ;
+2 x3970 +2 x3971 +2 x3972 -1 x3619 -1 x3620 -1 x3621 -1 x3622 -1 x3623 -1 x3624 >= 0 ;
+2 x3973 +2 x3974 +2 x3975 -1 x3622 -1 x3623 -1 x3624 -1 x3625 -1 x3626 -1 x3627 >= 0 ;
+2 x3976 +2 x3977 +2 x3978 -1 x3625 -1 x3626 -1 x3627 -1 x3628 -1 x3629 -1 x3630 >= 0 ;
+2 x3979 +2 x3980 +2 x3981 -1 x3628 -1 x3629 -1 x3630 -1 x3631 -1 x3632 -1 x3633 >= 0 ;
+2 x3982 +2 x3983 +2 x3984 -1 x3631 -1 x3632 -1 x3633 -1 x3634 -1 x3635 -1 x3636 >= 0 ;
+2 x3985 +2 x3986 +2 x3987 -1 x3634 -1 x3635 -1 x3636 -1 x3637 -1 x3638 -1 x3639 >= 0 ;
+2 x3988 +2 x3989 +2 x3990 -1 x3637 -1 x3638 -1 x3639 -1 x3640 -1 x3641 -1 x3642 >= 0 ;
+2 x3991 +2 x3992 +2 x3993 -1 x3640 -1 x3641 -1 x3642 -1 x3643 -1 x3644 -1 x3645 >= 0 ;
+2 x3994 +2 x3995 +2 x3996 -1 x3646 -1 x3647 -1 x3648 -1 x3649 -1 x3650 -1 x3651 >= 0 ;
+2 x3997 +2 x3998 +2 x3999 -1 x3649 -1 x3650 -1 x3651 -1 x3652 -1 x3653 -1 x3654 >= 0 ;
+2 x4000 +2 x4001 +2 x4002 -1 x3652 -1 x3653 -1 x3654 -1 x3655 -1 x3656 -1 x3657 >= 0 ;
+2 x4003 +2 x4004 +2 x4005 -1 x3655 -1 x3656 -1 x3657 -1 x3658 -1 x3659 -1 x3660 >= 0 ;
+2 x4006 +2 x4007 +2 x4008 -1 x3658 -1 x3659 -1 x3660 -1 x3661 -1 x3662 -1 x3663 >= 0 ;
+2 x4009 +2 x4010 +2 x4011 -1 x3661 -1 x3662 -1 x3663 -1 x3664 -1 x3665 -1 x3666 >= 0 ;
+2 x4012 +2 x4013 +2 x4014 -1 x3664 -1 x3665 -1 x3666 -1 x3667 -1 x3668 -1 x3669 >= 0 ;
+2 x4015 +2 x4016 +2 x4017 -1 x3667 -1 x3668 -1 x3669 -1 x3670 -1 x3671 -1 x3672 >= 0 ;
+2 x4018 +2 x4019 +2 x4020 -1 x3670 -1 x3671 -1 x3672 -1 x3673 -1 x3674 -1 x3675 >= 0 ;
+2 x4021 +2 x4022 +2 x4023 -1 x3673 -1 x3674 -1 x3675 -1 x3676 -1 x3677 -1 x3678 >= 0 ;
+2 x4024 +2 x4025 +2 x4026 -1 x3676 -1 x3677 -1 x3678 -1 x3679 -1 x3680 -1 x3681 >= 0 ;
+2 x4027 +2 x4028 +2 x4029 -1 x3679 -1 x3680 -1 x3681 -1 x3682 -1 x3683 -1 x3684 >= 0 ;
+2 x4030 +2 x4031 +2 x4032 -1 x3682 -1 x3683 -1 x3684 -1 x3685 -1 x3686 -1 x3687 >= 0 ;
+2 x4033 +2 x4034 +2 x4035 -1 x3685 -1 x3686 -1 x3687 -1 x3688 -1 x3689 -1 x3690 >= 0 ;
+2 x4036 +2 x4037 +2 x4038 -1 x3688 -1 x3689 -1 x3690 -1 x3691 -1 x3692 -1 x3693 >= 0 ;
+2 x4039 +2 x4040 +2 x4041 -1 x3691 -1 x3692 -1 x3693 -1 x3694 -1 x3695 -1 x3696 >= 0 ;
+2 x4042 +2 x4043 +2 x4044 -1 x3694 -1 x3695 -1 x3696 -1 x3697 -1 x3698 -1 x3699 >= 0 ;
+2 x4045 +2 x4046 +2 x4047 -1 x3697 -1 x3698 -1 x3699 -1 x3700 -1 x3701 -1 x3702 >= 0 ;
+2 x4048 +2 x4049 +2 x4050 -1 x3700 -1 x3701 -1 x3702 -1 x3703 -1 x3704 -1 x3705 >= 0 ;
+2 x4051 +2 x4052 +2 x4053 -1 x3703 -1 x3704 -1 x3705 -1 x3706 -1 x3707 -1 x3708 >= 0 ;
+2 x4054 +2 x4055 +2 x4056 -1 x3706 -1 x3707 -1 x3708 -1 x3709 -1 x3710 -1 x3711 >= 0 ;
+2 x4057 +2 x4058 +2 x4059 -1 x3709 -1 x3710 -1 x3711 -1 x3712 -1 x3713 -1 x3714 >= 0 ;
+2 x4060 +2 x4061 +2 x4062 -1 x3712 -1 x3713 -1 x3714 -1 x3715 -1 x3716 -1 x3717 >= 0 ;
+2 x4063 +2 x4064 +2 x4065 -1 x3715 -1 x3716 -1 x3717 -1 x3718 -1 x3719 -1 x3720 >= 0 ;
+2 x4066 +2 x4067 +2 x4068 -1 x3718 -1 x3719 -1 x3720 -1 x3721 -1 x3722 -1 x3723 >= 0 ;
+2 x4069 +2 x4070 +2 x4071 -1 x3721 -1 x3722 -1 x3723 -1 x3724 -1 x3725 -1 x3726 >= 0 ;
+2 x4072 +2 x4073 +2 x4074 -1 x3724 -1 x3725 -1 x3726 -1 x3727 -1 x3728 -1 x3729 >= 0 ;
+2 x4075 +2 x4076 +2 x4077 -1 x3727 -1 x3728 -1 x3729 -1 x3730 -1 x3731 -1 x3732 >= 0 ;
+2 x4078 +2 x4079 +2 x4080 -1 x3730 -1 x3731 -1 x3732 -1 x3733 -1 x3734 -1 x3735 >= 0 ;
+2 x4081 +2 x4082 +2 x4083 -1 x3733 -1 x3734 -1 x3735 -1 x3736 -1 x3737 -1 x3738 >= 0 ;
+2 x4084 +2 x4085 +2 x4086 -1 x3736 -1 x3737 -1 x3738 -1 x3739 -1 x3740 -1 x3741 >= 0 ;
+2 x4087 +2 x4088 +2 x4089 -1 x3739 -1 x3740 -1 x3741 -1 x3742 -1 x3743 -1 x3744 >= 0 ;
+2 x4090 +2 x4091 +2 x4092 -1 x3742 -1 x3743 -1 x3744 -1 x3745 -1 x3746 -1 x3747 >= 0 ;
+2 x4093 +2 x4094 +2 x4095 -1 x3745 -1 x3746 -1 x3747 -1 x3748 -1 x3749 -1 x3750 >= 0 ;
+2 x4096 +2 x4097 +2 x4098 -1 x3748 -1 x3749 -1 x3750 -1 x3751 -1 x3752 -1 x3753 >= 0 ;
+2 x4099 +2 x4100 +2 x4101 -1 x3751 -1 x3752 -1 x3753 -1 x3754 -1 x3755 -1 x3756 >= 0 ;
+2 x4102 +2 x4103 +2 x4104 -1 x3754 -1 x3755 -1 x3756 -1 x3757 -1 x3758 -1 x3759 >= 0 ;
+2 x4105 +2 x4106 +2 x4107 -1 x3757 -1 x3758 -1 x3759 -1 x3760 -1 x3761 -1 x3762 >= 0 ;
+2 x4108 +2 x4109 +2 x4110 -1 x3760 -1 x3761 -1 x3762 -1 x3763 -1 x3764 -1 x3765 >= 0 ;
+2 x4111 +2 x4112 +2 x4113 -1 x3763 -1 x3764 -1 x3765 -1 x3766 -1 x3767 -1 x3768 >= 0 ;
+2 x4114 +2 x4115 +2 x4116 -1 x3766 -1 x3767 -1 x3768 -1 x3769 -1 x3770 -1 x3771 >= 0 ;
+2 x4117 +2 x4118 +2 x4119 -1 x3769 -1 x3770 -1 x3771 -1 x3772 -1 x3773 -1 x3774 >= 0 ;
+2 x4120 +2 x4121 +2 x4122 -1 x3772 -1 x3773 -1 x3774 -1 x3775 -1 x3776 -1 x3777 >= 0 ;
+2 x4123 +2 x4124 +2 x4125 -1 x3775 -1 x3776 -1 x3777 -1 x3778 -1 x3779 -1 x3780 >= 0 ;
+2 x4126 +2 x4127 +2 x4128 -1 x3778 -1 x3779 -1 x3780 -1 x3781 -1 x3782 -1 x3783 >= 0 ;
+2 x4129 +2 x4130 +2 x4131 -1 x3781 -1 x3782 -1 x3783 -1 x3784 -1 x3785 -1 x3786 >= 0 ;
+2 x4132 +2 x4133 +2 x4134 -1 x3784 -1 x3785 -1 x3786 -1 x3787 -1 x3788 -1 x3789 >= 0 ;
+2 x4135 +2 x4136 +2 x4137 -1 x3787 -1 x3788 -1 x3789 -1 x3790 -1 x3791 -1 x3792 >= 0 ;
+2 x4138 +2 x4139 +2 x4140 -1 x3790 -1 x3791 -1 x3792 -1 x3793 -1 x3794 -1 x3795 >= 0 ;
+2 x4141 +2 x4142 +2 x4143 -1 x3793 -1 x3794 -1 x3795 -1 x3796 -1 x3797 -1 x3798 >= 0 ;
+2 x4144 +2 x4145 +2 x4146 -1 x3796 -1 x3797 -1 x3798 -1 x3799 -1 x3800 -1 x3801 >= 0 ;
+2 x4147 +2 x4148 +2 x4149 -1 x3799 -1 x3800 -1 x3801 -1 x3802 -1 x3803 -1 x3804 >= 0 ;
+2 x4150 +2 x4151 +2 x4152 -1 x3802 -1 x3803 -1 x3804 -1 x3805 -1 x3806 -1 x3807 >= 0 ;
+2 x4153 +2 x4154 +2 x4155 -1 x3805 -1 x3806 -1 x3807 -1 x3808 -1 x3809 -1 x3810 >= 0 ;
+2 x4156 +2 x4157 +2 x4158 -1 x3808 -1 x3809 -1 x3810 -1 x3811 -1 x3812 -1 x3813 >= 0 ;
+2 x4159 +2 x4160 +2 x4161 -1 x3811 -1 x3812 -1 x3813 -1 x3814 -1 x3815 -1 x3816 >= 0 ;
+2 x4162 +2 x4163 +2 x4164 -1 x3814 -1 x3815 -1 x3816 -1 x3817 -1 x3818 -1 x3819 >= 0 ;
+2 x4165 +2 x4166 +2 x4167 -1 x3817 -1 x3818 -1 x3819 -1 x3820 -1 x3821 -1 x3822 >= 0 ;
+2 x4168 +2 x4169 +2 x4170 -1 x3820 -1 x3821 -1 x3822 -1 x3823 -1 x3824 -1 x3825 >= 0 ;
+2 x4171 +2 x4172 +2 x4173 -1 x3823 -1 x3824 -1 x3825 -1 x3826 -1 x3827 -1 x3828 >= 0 ;
+2 x4174 +2 x4175 +2 x4176 -1 x3826 -1 x3827 -1 x3828 -1 x3829 -1 x3830 -1 x3831 >= 0 ;
+2 x4177 +2 x4178 +2 x4179 -1 x3829 -1 x3830 -1 x3831 -1 x3832 -1 x3833 -1 x3834 >= 0 ;
+2 x4180 +2 x4181 +2 x4182 -1 x3832 -1 x3833 -1 x3834 -1 x3835 -1 x3836 -1 x3837 >= 0 ;
+2 x4183 +2 x4184 +2 x4185 -1 x3835 -1 x3836 -1 x3837 -1 x3838 -1 x3839 -1 x3840 >= 0 ;
+2 x4186 +2 x4187 +2 x4188 -1 x3838 -1 x3839 -1 x3840 -1 x3841 -1 x3842 -1 x3843 >= 0 ;
+2 x4189 +2 x4190 +2 x4191 -1 x3841 -1 x3842 -1 x3843 -1 x3844 -1 x3845 -1 x3846 >= 0 ;
+2 x4192 +2 x4193 +2 x4194 -1 x3844 -1 x3845 -1 x3846 -1 x3847 -1 x3848 -1 x3849 >= 0 ;
+2 x4195 +2 x4196 +2 x4197 -1 x3847 -1 x3848 -1 x3849 -1 x3850 -1 x3851 -1 x3852 >= 0 ;
+2 x4198 +2 x4199 +2 x4200 -1 x3850 -1 x3851 -1 x3852 -1 x3853 -1 x3854 -1 x3855 >= 0 ;
+2 x4201 +2 x4202 +2 x4203 -1 x3853 -1 x3854 -1 x3855 -1 x3856 -1 x3857 -1 x3858 >= 0 ;
+2 x4204 +2 x4205 +2 x4206 -1 x3856 -1 x3857 -1 x3858 -1 x3859 -1 x3860 -1 x3861 >= 0 ;
+2 x4207 +2 x4208 +2 x4209 -1 x3859 -1 x3860 -1 x3861 -1 x3862 -1 x3863 -1 x3864 >= 0 ;
+2 x4210 +2 x4211 +2 x4212 -1 x3862 -1 x3863 -1 x3864 -1 x3865 -1 x3866 -1 x3867 >= 0 ;
+2 x4213 +2 x4214 +2 x4215 -1 x3865 -1 x3866 -1 x3867 -1 x3868 -1 x3869 -1 x3870 >= 0 ;
+2 x4216 +2 x4217 +2 x4218 -1 x3868 -1 x3869 -1 x3870 -1 x3871 -1 x3872 -1 x3873 >= 0 ;
+2 x4219 +2 x4220 +2 x4221 -1 x3871 -1 x3872 -1 x3873 -1 x3874 -1 x3875 -1 x3876 >= 0 ;
+2 x4222 +2 x4223 +2 x4224 -1 x3874 -1 x3875 -1 x3876 -1 x3877 -1 x3878 -1 x3879 >= 0 ;
+2 x4225 +2 x4226 +2 x4227 -1 x3877 -1 x3878 -1 x3879 -1 x3880 -1 x3881 -1 x3882 >= 0 ;
+2 x4228 +2 x4229 +2 x4230 -1 x3880 -1 x3881 -1 x3882 -1 x3883 -1 x3884 -1 x3885 >= 0 ;
+2 x4231 +2 x4232 +2 x4233 -1 x3883 -1 x3884 -1 x3885 -1 x3886 -1 x3887 -1 x3888 >= 0 ;
+2 x4234 +2 x4235 +2 x4236 -1 x3886 -1 x3887 -1 x3888 -1 x3889 -1 x3890 -1 x3891 >= 0 ;
+2 x4237 +2 x4238 +2 x4239 -1 x3889 -1 x3890 -1 x3891 -1 x3892 -1 x3893 -1 x3894 >= 0 ;
+2 x4240 +2 x4241 +2 x4242 -1 x3892 -1 x3893 -1 x3894 -1 x3895 -1 x3896 -1 x3897 >= 0 ;
+2 x4243 +2 x4244 +2 x4245 -1 x3895 -1 x3896 -1 x3897 -1 x3898 -1 x3899 -1 x3900 >= 0 ;
+2 x4246 +2 x4247 +2 x4248 -1 x3898 -1 x3899 -1 x3900 -1 x3901 -1 x3902 -1 x3903 >= 0 ;
+2 x4249 +2 x4250 +2 x4251 -1 x3901 -1 x3902 -1 x3903 -1 x3904 -1 x3905 -1 x3906 >= 0 ;
+2 x4252 +2 x4253 +2 x4254 -1 x3904 -1 x3905 -1 x3906 -1 x3907 -1 x3908 -1 x3909 >= 0 ;
+2 x4255 +2 x4256 +2 x4257 -1 x3907 -1 x3908 -1 x3909 -1 x3910 -1 x3911 -1 x3912 >= 0 ;
+2 x4258 +2 x4259 +2 x4260 -1 x3910 -1 x3911 -1 x3912 -1 x3913 -1 x3914 -1 x3915 >= 0 ;
+2 x4261 +2 x4262 +2 x4263 -1 x3913 -1 x3914 -1 x3915 -1 x3916 -1 x3917 -1 x3918 >= 0 ;
+2 x4264 +2 x4265 +2 x4266 -1 x3916 -1 x3917 -1 x3918 -1 x3919 -1 x3920 -1 x3921 >= 0 ;
+2 x4267 +2 x4268 +2 x4269 -1 x3919 -1 x3920 -1 x3921 -1 x3922 -1 x3923 -1 x3924 >= 0 ;
+2 x4270 +2 x4271 +2 x4272 -1 x3922 -1 x3923 -1 x3924 -1 x3925 -1 x3926 -1 x3927 >= 0 ;
+2 x4273 +2 x4274 +2 x4275 -1 x3925 -1 x3926 -1 x3927 -1 x3928 -1 x3929 -1 x3930 >= 0 ;
+2 x4276 +2 x4277 +2 x4278 -1 x3928 -1 x3929 -1 x3930 -1 x3931 -1 x3932 -1 x3933 >= 0 ;
+2 x4279 +2 x4280 +2 x4281 -1 x3931 -1 x3932 -1 x3933 -1 x3934 -1 x3935 -1 x3936 >= 0 ;
+2 x4282 +2 x4283 +2 x4284 -1 x3934 -1 x3935 -1 x3936 -1 x3937 -1 x3938 -1 x3939 >= 0 ;
+2 x4285 +2 x4286 +2 x4287 -1 x3937 -1 x3938 -1 x3939 -1 x3940 -1 x3941 -1 x3942 >= 0 ;
+2 x4288 +2 x4289 +2 x4290 -1 x3940 -1 x3941 -1 x3942 -1 x3943 -1 x3944 -1 x3945 >= 0 ;
+2 x4291 +2 x4292 +2 x4293 -1 x3943 -1 x3944 -1 x3945 -1 x3946 -1 x3947 -1 x3948 >= 0 ;
+2 x4294 +2 x4295 +2 x4296 -1 x3946 -1 x3947 -1 x3948 -1 x3949 -1 x3950 -1 x3951 >= 0 ;
+2 x4297 +2 x4298 +2 x4299 -1 x3949 -1 x3950 -1 x3951 -1 x3952 -1 x3953 -1 x3954 >= 0 ;
+2 x4300 +2 x4301 +2 x4302 -1 x3952 -1 x3953 -1 x3954 -1 x3955 -1 x3956 -1 x3957 >= 0 ;
+2 x4303 +2 x4304 +2 x4305 -1 x3955 -1 x3956 -1 x3957 -1 x3958 -1 x3959 -1 x3960 >= 0 ;
+2 x4306 +2 x4307 +2 x4308 -1 x3958 -1 x3959 -1 x3960 -1 x3961 -1 x3962 -1 x3963 >= 0 ;
+2 x4309 +2 x4310 +2 x4311 -1 x3961 -1 x3962 -1 x3963 -1 x3964 -1 x3965 -1 x3966 >= 0 ;
+2 x4312 +2 x4313 +2 x4314 -1 x3964 -1 x3965 -1 x3966 -1 x3967 -1 x3968 -1 x3969 >= 0 ;
+2 x4315 +2 x4316 +2 x4317 -1 x3967 -1 x3968 -1 x3969 -1 x3970 -1 x3971 -1 x3972 >= 0 ;
+2 x4318 +2 x4319 +2 x4320 -1 x3970 -1 x3971 -1 x3972 -1 x3973 -1 x3974 -1 x3975 >= 0 ;
+2 x4321 +2 x4322 +2 x4323 -1 x3973 -1 x3974 -1 x3975 -1 x3976 -1 x3977 -1 x3978 >= 0 ;
+2 x4324 +2 x4325 +2 x4326 -1 x3976 -1 x3977 -1 x3978 -1 x3979 -1 x3980 -1 x3981 >= 0 ;
+2 x4327 +2 x4328 +2 x4329 -1 x3979 -1 x3980 -1 x3981 -1 x3982 -1 x3983 -1 x3984 >= 0 ;
+2 x4330 +2 x4331 +2 x4332 -1 x3982 -1 x3983 -1 x3984 -1 x3985 -1 x3986 -1 x3987 >= 0 ;
+2 x4333 +2 x4334 +2 x4335 -1 x3985 -1 x3986 -1 x3987 -1 x3988 -1 x3989 -1 x3990 >= 0 ;
+2 x4336 +2 x4337 +2 x4338 -1 x3988 -1 x3989 -1 x3990 -1 x3991 -1 x3992 -1 x3993 >= 0 ;
+2 x4339 +2 x4340 +2 x4341 -1 x3994 -1 x3995 -1 x3996 -1 x3997 -1 x3998 -1 x3999 >= 0 ;
+2 x4342 +2 x4343 +2 x4344 -1 x3997 -1 x3998 -1 x3999 -1 x4000 -1 x4001 -1 x4002 >= 0 ;
+2 x4345 +2 x4346 +2 x4347 -1 x4000 -1 x4001 -1 x4002 -1 x4003 -1 x4004 -1 x4005 >= 0 ;
+2 x4348 +2 x4349 +2 x4350 -1 x4003 -1 x4004 -1 x4005 -1 x4006 -1 x4007 -1 x4008 >= 0 ;
+2 x4351 +2 x4352 +2 x4353 -1 x4006 -1 x4007 -1 x4008 -1 x4009 -1 x4010 -1 x4011 >= 0 ;
+2 x4354 +2 x4355 +2 x4356 -1 x4009 -1 x4010 -1 x4011 -1 x4012 -1 x4013 -1 x4014 >= 0 ;
+2 x4357 +2 x4358 +2 x4359 -1 x4012 -1 x4013 -1 x4014 -1 x4015 -1 x4016 -1 x4017 >= 0 ;
+2 x4360 +2 x4361 +2 x4362 -1 x4015 -1 x4016 -1 x4017 -1 x4018 -1 x4019 -1 x4020 >= 0 ;
+2 x4363 +2 x4364 +2 x4365 -1 x4018 -1 x4019 -1 x4020 -1 x4021 -1 x4022 -1 x4023 >= 0 ;
+2 x4366 +2 x4367 +2 x4368 -1 x4021 -1 x4022 -1 x4023 -1 x4024 -1 x4025 -1 x4026 >= 0 ;
+2 x4369 +2 x4370 +2 x4371 -1 x4024 -1 x4025 -1 x4026 -1 x4027 -1 x4028 -1 x4029 >= 0 ;
+2 x4372 +2 x4373 +2 x4374 -1 x4027 -1 x4028 -1 x4029 -1 x4030 -1 x4031 -1 x4032 >= 0 ;
+2 x4375 +2 x4376 +2 x4377 -1 x4030 -1 x4031 -1 x4032 -1 x4033 -1 x4034 -1 x4035 >= 0 ;
+2 x4378 +2 x4379 +2 x4380 -1 x4033 -1 x4034 -1 x4035 -1 x4036 -1 x4037 -1 x4038 >= 0 ;
+2 x4381 +2 x4382 +2 x4383 -1 x4036 -1 x4037 -1 x4038 -1 x4039 -1 x4040 -1 x4041 >= 0 ;
+2 x4384 +2 x4385 +2 x4386 -1 x4039 -1 x4040 -1 x4041 -1 x4042 -1 x4043 -1 x4044 >= 0 ;
+2 x4387 +2 x4388 +2 x4389 -1 x4042 -1 x4043 -1 x4044 -1 x4045 -1 x4046 -1 x4047 >= 0 ;
+2 x4390 +2 x4391 +2 x4392 -1 x4045 -1 x4046 -1 x4047 -1 x4048 -1 x4049 -1 x4050 >= 0 ;
+2 x4393 +2 x4394 +2 x4395 -1 x4048 -1 x4049 -1 x4050 -1 x4051 -1 x4052 -1 x4053 >= 0 ;
+2 x4396 +2 x4397 +2 x4398 -1 x4051 -1 x4052 -1 x4053 -1 x4054 -1 x4055 -1 x4056 >= 0 ;
+2 x4399 +2 x4400 +2 x4401 -1 x4054 -1 x4055 -1 x4056 -1 x4057 -1 x4058 -1 x4059 >= 0 ;
+2 x4402 +2 x4403 +2 x4404 -1 x4057 -1 x4058 -1 x4059 -1 x4060 -1 x4061 -1 x4062 >= 0 ;
+2 x4405 +2 x4406 +2 x4407 -1 x4060 -1 x4061 -1 x4062 -1 x4063 -1 x4064 -1 x4065 >= 0 ;
+2 x4408 +2 x4409 +2 x4410 -1 x4063 -1 x4064 -1 x4065 -1 x4066 -1 x4067 -1 x4068 >= 0 ;
+2 x4411 +2 x4412 +2 x4413 -1 x4066 -1 x4067 -1 x4068 -1 x4069 -1 x4070 -1 x4071 >= 0 ;
+2 x4414 +2 x4415 +2 x4416 -1 x4069 -1 x4070 -1 x4071 -1 x4072 -1 x4073 -1 x4074 >= 0 ;
+2 x4417 +2 x4418 +2 x4419 -1 x4072 -1 x4073 -1 x4074 -1 x4075 -1 x4076 -1 x4077 >= 0 ;
+2 x4420 +2 x4421 +2 x4422 -1 x4075 -1 x4076 -1 x4077 -1 x4078 -1 x4079 -1 x4080 >= 0 ;
+2 x4423 +2 x4424 +2 x4425 -1 x4078 -1 x4079 -1 x4080 -1 x4081 -1 x4082 -1 x4083 >= 0 ;
+2 x4426 +2 x4427 +2 x4428 -1 x4081 -1 x4082 -1 x4083 -1 x4084 -1 x4085 -1 x4086 >= 0 ;
+2 x4429 +2 x4430 +2 x4431 -1 x4084 -1 x4085 -1 x4086 -1 x4087 -1 x4088 -1 x4089 >= 0 ;
+2 x4432 +2 x4433 +2 x4434 -1 x4087 -1 x4088 -1 x4089 -1 x4090 -1 x4091 -1 x4092 >= 0 ;
+2 x4435 +2 x4436 +2 x4437 -1 x4090 -1 x4091 -1 x4092 -1 x4093 -1 x4094 -1 x4095 >= 0 ;
+2 x4438 +2 x4439 +2 x4440 -1 x4093 -1 x4094 -1 x4095 -1 x4096 -1 x4097 -1 x4098 >= 0 ;
+2 x4441 +2 x4442 +2 x4443 -1 x4096 -1 x4097 -1 x4098 -1 x4099 -1 x4100 -1 x4101 >= 0 ;
+2 x4444 +2 x4445 +2 x4446 -1 x4099 -1 x4100 -1 x4101 -1 x4102 -1 x4103 -1 x4104 >= 0 ;
+2 x4447 +2 x4448 +2 x4449 -1 x4102 -1 x4103 -1 x4104 -1 x4105 -1 x4106 -1 x4107 >= 0 ;
+2 x4450 +2 x4451 +2 x4452 -1 x4105 -1 x4106 -1 x4107 -1 x4108 -1 x4109 -1 x4110 >= 0 ;
+2 x4453 +2 x4454 +2 x4455 -1 x4108 -1 x4109 -1 x4110 -1 x4111 -1 x4112 -1 x4113 >= 0 ;
+2 x4456 +2 x4457 +2 x4458 -1 x4111 -1 x4112 -1 x4113 -1 x4114 -1 x4115 -1 x4116 >= 0 ;
+2 x4459 +2 x4460 +2 x4461 -1 x4114 -1 x4115 -1 x4116 -1 x4117 -1 x4118 -1 x4119 >= 0 ;
+2 x4462 +2 x4463 +2 x4464 -1 x4117 -1 x4118 -1 x4119 -1 x4120 -1 x4121 -1 x4122 >= 0 ;
+2 x4465 +2 x4466 +2 x4467 -1 x4120 -1 x4121 -1 x4122 -1 x4123 -1 x4124 -1 x4125 >= 0 ;
+2 x4468 +2 x4469 +2 x4470 -1 x4123 -1 x4124 -1 x4125 -1 x4126 -1 x4127 -1 x4128 >= 0 ;
+2 x4471 +2 x4472 +2 x4473 -1 x4126 -1 x4127 -1 x4128 -1 x4129 -1 x4130 -1 x4131 >= 0 ;
+2 x4474 +2 x4475 +2 x4476 -1 x4129 -1 x4130 -1 x4131 -1 x4132 -1 x4133 -1 x4134 >= 0 ;
+2 x4477 +2 x4478 +2 x4479 -1 x4132 -1 x4133 -1 x4134 -1 x4135 -1 x4136 -1 x4137 >= 0 ;
+2 x4480 +2 x4481 +2 x4482 -1 x4135 -1 x4136 -1 x4137 -1 x4138 -1 x4139 -1 x4140 >= 0 ;
+2 x4483 +2 x4484 +2 x4485 -1 x4138 -1 x4139 -1 x4140 -1 x4141 -1 x4142 -1 x4143 >= 0 ;
+2 x4486 +2 x4487 +2 x4488 -1 x4141 -1 x4142 -1 x4143 -1 x4144 -1 x4145 -1 x4146 >= 0 ;
+2 x4489 +2 x4490 +2 x4491 -1 x4144 -1 x4145 -1 x4146 -1 x4147 -1 x4148 -1 x4149 >= 0 ;
+2 x4492 +2 x4493 +2 x4494 -1 x4147 -1 x4148 -1 x4149 -1 x4150 -1 x4151 -1 x4152 >= 0 ;
+2 x4495 +2 x4496 +2 x4497 -1 x4150 -1 x4151 -1 x4152 -1 x4153 -1 x4154 -1 x4155 >= 0 ;
+2 x4498 +2 x4499 +2 x4500 -1 x4153 -1 x4154 -1 x4155 -1 x4156 -1 x4157 -1 x4158 >= 0 ;
+2 x4501 +2 x4502 +2 x4503 -1 x4156 -1 x4157 -1 x4158 -1 x4159 -1 x4160 -1 x4161 >= 0 ;
+2 x4504 +2 x4505 +2 x4506 -1 x4159 -1 x4160 -1 x4161 -1 x4162 -1 x4163 -1 x4164 >= 0 ;
+2 x4507 +2 x4508 +2 x4509 -1 x4162 -1 x4163 -1 x4164 -1 x4165 -1 x4166 -1 x4167 >= 0 ;
+2 x4510 +2 x4511 +2 x4512 -1 x4165 -1 x4166 -1 x4167 -1 x4168 -1 x4169 -1 x4170 >= 0 ;
+2 x4513 +2 x4514 +2 x4515 -1 x4168 -1 x4169 -1 x4170 -1 x4171 -1 x4172 -1 x4173 >= 0 ;
+2 x4516 +2 x4517 +2 x4518 -1 x4171 -1 x4172 -1 x4173 -1 x4174 -1 x4175 -1 x4176 >= 0 ;
+2 x4519 +2 x4520 +2 x4521 -1 x4174 -1 x4175 -1 x4176 -1 x4177 -1 x4178 -1 x4179 >= 0 ;
+2 x4522 +2 x4523 +2 x4524 -1 x4177 -1 x4178 -1 x4179 -1 x4180 -1 x4181 -1 x4182 >= 0 ;
+2 x4525 +2 x4526 +2 x4527 -1 x4180 -1 x4181 -1 x4182 -1 x4183 -1 x4184 -1 x4185 >= 0 ;
+2 x4528 +2 x4529 +2 x4530 -1 x4183 -1 x4184 -1 x4185 -1 x4186 -1 x4187 -1 x4188 >= 0 ;
+2 x4531 +2 x4532 +2 x4533 -1 x4186 -1 x4187 -1 x4188 -1 x4189 -1 x4190 -1 x4191 >= 0 ;
+2 x4534 +2 x4535 +2 x4536 -1 x4189 -1 x4190 -1 x4191 -1 x4192 -1 x4193 -1 x4194 >= 0 ;
+2 x4537 +2 x4538 +2 x4539 -1 x4192 -1 x4193 -1 x4194 -1 x4195 -1 x4196 -1 x4197 >= 0 ;
+2 x4540 +2 x4541 +2 x4542 -1 x4195 -1 x4196 -1 x4197 -1 x4198 -1 x4199 -1 x4200 >= 0 ;
+2 x4543 +2 x4544 +2 x4545 -1 x4198 -1 x4199 -1 x4200 -1 x4201 -1 x4202 -1 x4203 >= 0 ;
+2 x4546 +2 x4547 +2 x4548 -1 x4201 -1 x4202 -1 x4203 -1 x4204 -1 x4205 -1 x4206 >= 0 ;
+2 x4549 +2 x4550 +2 x4551 -1 x4204 -1 x4205 -1 x4206 -1 x4207 -1 x4208 -1 x4209 >= 0 ;
+2 x4552 +2 x4553 +2 x4554 -1 x4207 -1 x4208 -1 x4209 -1 x4210 -1 x4211 -1 x4212 >= 0 ;
+2 x4555 +2 x4556 +2 x4557 -1 x4210 -1 x4211 -1 x4212 -1 x4213 -1 x4214 -1 x4215 >= 0 ;
+2 x4558 +2 x4559 +2 x4560 -1 x4213 -1 x4214 -1 x4215 -1 x4216 -1 x4217 -1 x4218 >= 0 ;
+2 x4561 +2 x4562 +2 x4563 -1 x4216 -1 x4217 -1 x4218 -1 x4219 -1 x4220 -1 x4221 >= 0 ;
+2 x4564 +2 x4565 +2 x4566 -1 x4219 -1 x4220 -1 x4221 -1 x4222 -1 x4223 -1 x4224 >= 0 ;
+2 x4567 +2 x4568 +2 x4569 -1 x4222 -1 x4223 -1 x4224 -1 x4225 -1 x4226 -1 x4227 >= 0 ;
+2 x4570 +2 x4571 +2 x4572 -1 x4225 -1 x4226 -1 x4227 -1 x4228 -1 x4229 -1 x4230 >= 0 ;
+2 x4573 +2 x4574 +2 x4575 -1 x4228 -1 x4229 -1 x4230 -1 x4231 -1 x4232 -1 x4233 >= 0 ;
+2 x4576 +2 x4577 +2 x4578 -1 x4231 -1 x4232 -1 x4233 -1 x4234 -1 x4235 -1 x4236 >= 0 ;
+2 x4579 +2 x4580 +2 x4581 -1 x4234 -1 x4235 -1 x4236 -1 x4237 -1 x4238 -1 x4239 >= 0 ;
+2 x4582 +2 x4583 +2 x4584 -1 x4237 -1 x4238 -1 x4239 -1 x4240 -1 x4241 -1 x4242 >= 0 ;
+2 x4585 +2 x4586 +2 x4587 -1 x4240 -1 x4241 -1 x4242 -1 x4243 -1 x4244 -1 x4245 >= 0 ;
+2 x4588 +2 x4589 +2 x4590 -1 x4243 -1 x4244 -1 x4245 -1 x4246 -1 x4247 -1 x4248 >= 0 ;
+2 x4591 +2 x4592 +2 x4593 -1 x4246 -1 x4247 -1 x4248 -1 x4249 -1 x4250 -1 x4251 >= 0 ;
+2 x4594 +2 x4595 +2 x4596 -1 x4249 -1 x4250 -1 x4251 -1 x4252 -1 x4253 -1 x4254 >= 0 ;
+2 x4597 +2 x4598 +2 x4599 -1 x4252 -1 x4253 -1 x4254 -1 x4255 -1 x4256 -1 x4257 >= 0 ;
+2 x4600 +2 x4601 +2 x4602 -1 x4255 -1 x4256 -1 x4257 -1 x4258 -1 x4259 -1 x4260 >= 0 ;
+2 x4603 +2 x4604 +2 x4605 -1 x4258 -1 x4259 -1 x4260 -1 x4261 -1 x4262 -1 x4263 >= 0 ;
+2 x4606 +2 x4607 +2 x4608 -1 x4261 -1 x4262 -1 x4263 -1 x4264 -1 x4265 -1 x4266 >= 0 ;
+2 x4609 +2 x4610 +2 x4611 -1 x4264 -1 x4265 -1 x4266 -1 x4267 -1 x4268 -1 x4269 >= 0 ;
+2 x4612 +2 x4613 +2 x4614 -1 x4267 -1 x4268 -1 x4269 -1 x4270 -1 x4271 -1 x4272 >= 0 ;
+2 x4615 +2 x4616 +2 x4617 -1 x4270 -1 x4271 -1 x4272 -1 x4273 -1 x4274 -1 x4275 >= 0 ;
+2 x4618 +2 x4619 +2 x4620 -1 x4273 -1 x4274 -1 x4275 -1 x4276 -1 x4277 -1 x4278 >= 0 ;
+2 x4621 +2 x4622 +2 x4623 -1 x4276 -1 x4277 -1 x4278 -1 x4279 -1 x4280 -1 x4281 >= 0 ;
+2 x4624 +2 x4625 +2 x4626 -1 x4279 -1 x4280 -1 x4281 -1 x4282 -1 x4283 -1 x4284 >= 0 ;
+2 x4627 +2 x4628 +2 x4629 -1 x4282 -1 x4283 -1 x4284 -1 x4285 -1 x4286 -1 x4287 >= 0 ;
+2 x4630 +2 x4631 +2 x4632 -1 x4285 -1 x4286 -1 x4287 -1 x4288 -1 x4289 -1 x4290 >= 0 ;
+2 x4633 +2 x4634 +2 x4635 -1 x4288 -1 x4289 -1 x4290 -1 x4291 -1 x4292 -1 x4293 >= 0 ;
+2 x4636 +2 x4637 +2 x4638 -1 x4291 -1 x4292 -1 x4293 -1 x4294 -1 x4295 -1 x4296 >= 0 ;
+2 x4639 +2 x4640 +2 x4641 -1 x4294 -1 x4295 -1 x4296 -1 x4297 -1 x4298 -1 x4299 >= 0 ;
+2 x4642 +2 x4643 +2 x4644 -1 x4297 -1 x4298 -1 x4299 -1 x4300 -1 x4301 -1 x4302 >= 0 ;
+2 x4645 +2 x4646 +2 x4647 -1 x4300 -1 x4301 -1 x4302 -1 x4303 -1 x4304 -1 x4305 >= 0 ;
+2 x4648 +2 x4649 +2 x4650 -1 x4303 -1 x4304 -1 x4305 -1 x4306 -1 x4307 -1 x4308 >= 0 ;
+2 x4651 +2 x4652 +2 x4653 -1 x4306 -1 x4307 -1 x4308 -1 x4309 -1 x4310 -1 x4311 >= 0 ;
+2 x4654 +2 x4655 +2 x4656 -1 x4309 -1 x4310 -1 x4311 -1 x4312 -1 x4313 -1 x4314 >= 0 ;
+2 x4657 +2 x4658 +2 x4659 -1 x4312 -1 x4313 -1 x4314 -1 x4315 -1 x4316 -1 x4317 >= 0 ;
+2 x4660 +2 x4661 +2 x4662 -1 x4315 -1 x4316 -1 x4317 -1 x4318 -1 x4319 -1 x4320 >= 0 ;
+2 x4663 +2 x4664 +2 x4665 -1 x4318 -1 x4319 -1 x4320 -1 x4321 -1 x4322 -1 x4323 >= 0 ;
+2 x4666 +2 x4667 +2 x4668 -1 x4321 -1 x4322 -1 x4323 -1 x4324 -1 x4325 -1 x4326 >= 0 ;
+2 x4669 +2 x4670 +2 x4671 -1 x4324 -1 x4325 -1 x4326 -1 x4327 -1 x4328 -1 x4329 >= 0 ;
+2 x4672 +2 x4673 +2 x4674 -1 x4327 -1 x4328 -1 x4329 -1 x4330 -1 x4331 -1 x4332 >= 0 ;
+2 x4675 +2 x4676 +2 x4677 -1 x4330 -1 x4331 -1 x4332 -1 x4333 -1 x4334 -1 x4335 >= 0 ;
+2 x4678 +2 x4679 +2 x4680 -1 x4333 -1 x4334 -1 x4335 -1 x4336 -1 x4337 -1 x4338 >= 0 ;
+2 x4681 +2 x4682 +2 x4683 -1 x4339 -1 x4340 -1 x4341 -1 x4342 -1 x4343 -1 x4344 >= 0 ;
+2 x4684 +2 x4685 +2 x4686 -1 x4342 -1 x4343 -1 x4344 -1 x4345 -1 x4346 -1 x4347 >= 0 ;
+2 x4687 +2 x4688 +2 x4689 -1 x4345 -1 x4346 -1 x4347 -1 x4348 -1 x4349 -1 x4350 >= 0 ;
+2 x4690 +2 x4691 +2 x4692 -1 x4348 -1 x4349 -1 x4350 -1 x4351 -1 x4352 -1 x4353 >= 0 ;
+2 x4693 +2 x4694 +2 x4695 -1 x4351 -1 x4352 -1 x4353 -1 x4354 -1 x4355 -1 x4356 >= 0 ;
+2 x4696 +2 x4697 +2 x4698 -1 x4354 -1 x4355 -1 x4356 -1 x4357 -1 x4358 -1 x4359 >= 0 ;
+2 x4699 +2 x4700 +2 x4701 -1 x4357 -1 x4358 -1 x4359 -1 x4360 -1 x4361 -1 x4362 >= 0 ;
+2 x4702 +2 x4703 +2 x4704 -1 x4360 -1 x4361 -1 x4362 -1 x4363 -1 x4364 -1 x4365 >= 0 ;
+2 x4705 +2 x4706 +2 x4707 -1 x4363 -1 x4364 -1 x4365 -1 x4366 -1 x4367 -1 x4368 >= 0 ;
+2 x4708 +2 x4709 +2 x4710 -1 x4366 -1 x4367 -1 x4368 -1 x4369 -1 x4370 -1 x4371 >= 0 ;
+2 x4711 +2 x4712 +2 x4713 -1 x4369 -1 x4370 -1 x4371 -1 x4372 -1 x4373 -1 x4374 >= 0 ;
+2 x4714 +2 x4715 +2 x4716 -1 x4372 -1 x4373 -1 x4374 -1 x4375 -1 x4376 -1 x4377 >= 0 ;
+2 x4717 +2 x4718 +2 x4719 -1 x4375 -1 x4376 -1 x4377 -1 x4378 -1 x4379 -1 x4380 >= 0 ;
+2 x4720 +2 x4721 +2 x4722 -1 x4378 -1 x4379 -1 x4380 -1 x4381 -1 x4382 -1 x4383 >= 0 ;
+2 x4723 +2 x4724 +2 x4725 -1 x4381 -1 x4382 -1 x4383 -1 x4384 -1 x4385 -1 x4386 >= 0 ;
+2 x4726 +2 x4727 +2 x4728 -1 x4384 -1 x4385 -1 x4386 -1 x4387 -1 x4388 -1 x4389 >= 0 ;
+2 x4729 +2 x4730 +2 x4731 -1 x4387 -1 x4388 -1 x4389 -1 x4390 -1 x4391 -1 x4392 >= 0 ;
+2 x4732 +2 x4733 +2 x4734 -1 x4390 -1 x4391 -1 x4392 -1 x4393 -1 x4394 -1 x4395 >= 0 ;
+2 x4735 +2 x4736 +2 x4737 -1 x4393 -1 x4394 -1 x4395 -1 x4396 -1 x4397 -1 x4398 >= 0 ;
+2 x4738 +2 x4739 +2 x4740 -1 x4396 -1 x4397 -1 x4398 -1 x4399 -1 x4400 -1 x4401 >= 0 ;
+2 x4741 +2 x4742 +2 x4743 -1 x4399 -1 x4400 -1 x4401 -1 x4402 -1 x4403 -1 x4404 >= 0 ;
+2 x4744 +2 x4745 +2 x4746 -1 x4402 -1 x4403 -1 x4404 -1 x4405 -1 x4406 -1 x4407 >= 0 ;
+2 x4747 +2 x4748 +2 x4749 -1 x4405 -1 x4406 -1 x4407 -1 x4408 -1 x4409 -1 x4410 >= 0 ;
+2 x4750 +2 x4751 +2 x4752 -1 x4408 -1 x4409 -1 x4410 -1 x4411 -1 x4412 -1 x4413 >= 0 ;
+2 x4753 +2 x4754 +2 x4755 -1 x4411 -1 x4412 -1 x4413 -1 x4414 -1 x4415 -1 x4416 >= 0 ;
+2 x4756 +2 x4757 +2 x4758 -1 x4414 -1 x4415 -1 x4416 -1 x4417 -1 x4418 -1 x4419 >= 0 ;
+2 x4759 +2 x4760 +2 x4761 -1 x4417 -1 x4418 -1 x4419 -1 x4420 -1 x4421 -1 x4422 >= 0 ;
+2 x4762 +2 x4763 +2 x4764 -1 x4420 -1 x4421 -1 x4422 -1 x4423 -1 x4424 -1 x4425 >= 0 ;
+2 x4765 +2 x4766 +2 x4767 -1 x4423 -1 x4424 -1 x4425 -1 x4426 -1 x4427 -1 x4428 >= 0 ;
+2 x4768 +2 x4769 +2 x4770 -1 x4426 -1 x4427 -1 x4428 -1 x4429 -1 x4430 -1 x4431 >= 0 ;
+2 x4771 +2 x4772 +2 x4773 -1 x4429 -1 x4430 -1 x4431 -1 x4432 -1 x4433 -1 x4434 >= 0 ;
+2 x4774 +2 x4775 +2 x4776 -1 x4432 -1 x4433 -1 x4434 -1 x4435 -1 x4436 -1 x4437 >= 0 ;
+2 x4777 +2 x4778 +2 x4779 -1 x4435 -1 x4436 -1 x4437 -1 x4438 -1 x4439 -1 x4440 >= 0 ;
+2 x4780 +2 x4781 +2 x4782 -1 x4438 -1 x4439 -1 x4440 -1 x4441 -1 x4442 -1 x4443 >= 0 ;
+2 x4783 +2 x4784 +2 x4785 -1 x4441 -1 x4442 -1 x4443 -1 x4444 -1 x4445 -1 x4446 >= 0 ;
+2 x4786 +2 x4787 +2 x4788 -1 x4444 -1 x4445 -1 x4446 -1 x4447 -1 x4448 -1 x4449 >= 0 ;
+2 x4789 +2 x4790 +2 x4791 -1 x4447 -1 x4448 -1 x4449 -1 x4450 -1 x4451 -1 x4452 >= 0 ;
+2 x4792 +2 x4793 +2 x4794 -1 x4450 -1 x4451 -1 x4452 -1 x4453 -1 x4454 -1 x4455 >= 0 ;
+2 x4795 +2 x4796 +2 x4797 -1 x4453 -1 x4454 -1 x4455 -1 x4456 -1 x4457 -1 x4458 >= 0 ;
+2 x4798 +2 x4799 +2 x4800 -1 x4456 -1 x4457 -1 x4458 -1 x4459 -1 x4460 -1 x4461 >= 0 ;
+2 x4801 +2 x4802 +2 x4803 -1 x4459 -1 x4460 -1 x4461 -1 x4462 -1 x4463 -1 x4464 >= 0 ;
+2 x4804 +2 x4805 +2 x4806 -1 x4462 -1 x4463 -1 x4464 -1 x4465 -1 x4466 -1 x4467 >= 0 ;
+2 x4807 +2 x4808 +2 x4809 -1 x4465 -1 x4466 -1 x4467 -1 x4468 -1 x4469 -1 x4470 >= 0 ;
+2 x4810 +2 x4811 +2 x4812 -1 x4468 -1 x4469 -1 x4470 -1 x4471 -1 x4472 -1 x4473 >= 0 ;
+2 x4813 +2 x4814 +2 x4815 -1 x4471 -1 x4472 -1 x4473 -1 x4474 -1 x4475 -1 x4476 >= 0 ;
+2 x4816 +2 x4817 +2 x4818 -1 x4474 -1 x4475 -1 x4476 -1 x4477 -1 x4478 -1 x4479 >= 0 ;
+2 x4819 +2 x4820 +2 x4821 -1 x4477 -1 x4478 -1 x4479 -1 x4480 -1 x4481 -1 x4482 >= 0 ;
+2 x4822 +2 x4823 +2 x4824 -1 x4480 -1 x4481 -1 x4482 -1 x4483 -1 x4484 -1 x4485 >= 0 ;
+2 x4825 +2 x4826 +2 x4827 -1 x4483 -1 x4484 -1 x4485 -1 x4486 -1 x4487 -1 x4488 >= 0 ;
+2 x4828 +2 x4829 +2 x4830 -1 x4486 -1 x4487 -1 x4488 -1 x4489 -1 x4490 -1 x4491 >= 0 ;
+2 x4831 +2 x4832 +2 x4833 -1 x4489 -1 x4490 -1 x4491 -1 x4492 -1 x4493 -1 x4494 >= 0 ;
+2 x4834 +2 x4835 +2 x4836 -1 x4492 -1 x4493 -1 x4494 -1 x4495 -1 x4496 -1 x4497 >= 0 ;
+2 x4837 +2 x4838 +2 x4839 -1 x4495 -1 x4496 -1 x4497 -1 x4498 -1 x4499 -1 x4500 >= 0 ;
+2 x4840 +2 x4841 +2 x4842 -1 x4498 -1 x4499 -1 x4500 -1 x4501 -1 x4502 -1 x4503 >= 0 ;
+2 x4843 +2 x4844 +2 x4845 -1 x4501 -1 x4502 -1 x4503 -1 x4504 -1 x4505 -1 x4506 >= 0 ;
+2 x4846 +2 x4847 +2 x4848 -1 x4504 -1 x4505 -1 x4506 -1 x4507 -1 x4508 -1 x4509 >= 0 ;
+2 x4849 +2 x4850 +2 x4851 -1 x4507 -1 x4508 -1 x4509 -1 x4510 -1 x4511 -1 x4512 >= 0 ;
+2 x4852 +2 x4853 +2 x4854 -1 x4510 -1 x4511 -1 x4512 -1 x4513 -1 x4514 -1 x4515 >= 0 ;
+2 x4855 +2 x4856 +2 x4857 -1 x4513 -1 x4514 -1 x4515 -1 x4516 -1 x4517 -1 x4518 >= 0 ;
+2 x4858 +2 x4859 +2 x4860 -1 x4516 -1 x4517 -1 x4518 -1 x4519 -1 x4520 -1 x4521 >= 0 ;
+2 x4861 +2 x4862 +2 x4863 -1 x4519 -1 x4520 -1 x4521 -1 x4522 -1 x4523 -1 x4524 >= 0 ;
+2 x4864 +2 x4865 +2 x4866 -1 x4522 -1 x4523 -1 x4524 -1 x4525 -1 x4526 -1 x4527 >= 0 ;
+2 x4867 +2 x4868 +2 x4869 -1 x4525 -1 x4526 -1 x4527 -1 x4528 -1 x4529 -1 x4530 >= 0 ;
+2 x4870 +2 x4871 +2 x4872 -1 x4528 -1 x4529 -1 x4530 -1 x4531 -1 x4532 -1 x4533 >= 0 ;
+2 x4873 +2 x4874 +2 x4875 -1 x4531 -1 x4532 -1 x4533 -1 x4534 -1 x4535 -1 x4536 >= 0 ;
+2 x4876 +2 x4877 +2 x4878 -1 x4534 -1 x4535 -1 x4536 -1 x4537 -1 x4538 -1 x4539 >= 0 ;
+2 x4879 +2 x4880 +2 x4881 -1 x4537 -1 x4538 -1 x4539 -1 x4540 -1 x4541 -1 x4542 >= 0 ;
+2 x4882 +2 x4883 +2 x4884 -1 x4540 -1 x4541 -1 x4542 -1 x4543 -1 x4544 -1 x4545 >= 0 ;
+2 x4885 +2 x4886 +2 x4887 -1 x4543 -1 x4544 -1 x4545 -1 x4546 -1 x4547 -1 x4548 >= 0 ;
+2 x4888 +2 x4889 +2 x4890 -1 x4546 -1 x4547 -1 x4548 -1 x4549 -1 x4550 -1 x4551 >= 0 ;
+2 x4891 +2 x4892 +2 x4893 -1 x4549 -1 x4550 -1 x4551 -1 x4552 -1 x4553 -1 x4554 >= 0 ;
+2 x4894 +2 x4895 +2 x4896 -1 x4552 -1 x4553 -1 x4554 -1 x4555 -1 x4556 -1 x4557 >= 0 ;
+2 x4897 +2 x4898 +2 x4899 -1 x4555 -1 x4556 -1 x4557 -1 x4558 -1 x4559 -1 x4560 >= 0 ;
+2 x4900 +2 x4901 +2 x4902 -1 x4558 -1 x4559 -1 x4560 -1 x4561 -1 x4562 -1 x4563 >= 0 ;
+2 x4903 +2 x4904 +2 x4905 -1 x4561 -1 x4562 -1 x4563 -1 x4564 -1 x4565 -1 x4566 >= 0 ;
+2 x4906 +2 x4907 +2 x4908 -1 x4564 -1 x4565 -1 x4566 -1 x4567 -1 x4568 -1 x4569 >= 0 ;
+2 x4909 +2 x4910 +2 x4911 -1 x4567 -1 x4568 -1 x4569 -1 x4570 -1 x4571 -1 x4572 >= 0 ;
+2 x4912 +2 x4913 +2 x4914 -1 x4570 -1 x4571 -1 x4572 -1 x4573 -1 x4574 -1 x4575 >= 0 ;
+2 x4915 +2 x4916 +2 x4917 -1 x4573 -1 x4574 -1 x4575 -1 x4576 -1 x4577 -1 x4578 >= 0 ;
+2 x4918 +2 x4919 +2 x4920 -1 x4576 -1 x4577 -1 x4578 -1 x4579 -1 x4580 -1 x4581 >= 0 ;
+2 x4921 +2 x4922 +2 x4923 -1 x4579 -1 x4580 -1 x4581 -1 x4582 -1 x4583 -1 x4584 >= 0 ;
+2 x4924 +2 x4925 +2 x4926 -1 x4582 -1 x4583 -1 x4584 -1 x4585 -1 x4586 -1 x4587 >= 0 ;
+2 x4927 +2 x4928 +2 x4929 -1 x4585 -1 x4586 -1 x4587 -1 x4588 -1 x4589 -1 x4590 >= 0 ;
+2 x4930 +2 x4931 +2 x4932 -1 x4588 -1 x4589 -1 x4590 -1 x4591 -1 x4592 -1 x4593 >= 0 ;
+2 x4933 +2 x4934 +2 x4935 -1 x4591 -1 x4592 -1 x4593 -1 x4594 -1 x4595 -1 x4596 >= 0 ;
+2 x4936 +2 x4937 +2 x4938 -1 x4594 -1 x4595 -1 x4596 -1 x4597 -1 x4598 -1 x4599 >= 0 ;
+2 x4939 +2 x4940 +2 x4941 -1 x4597 -1 x4598 -1 x4599 -1 x4600 -1 x4601 -1 x4602 >= 0 ;
+2 x4942 +2 x4943 +2 x4944 -1 x4600 -1 x4601 -1 x4602 -1 x4603 -1 x4604 -1 x4605 >= 0 ;
+2 x4945 +2 x4946 +2 x4947 -1 x4603 -1 x4604 -1 x4605 -1 x4606 -1 x4607 -1 x4608 >= 0 ;
+2 x4948 +2 x4949 +2 x4950 -1 x4606 -1 x4607 -1 x4608 -1 x4609 -1 x4610 -1 x4611 >= 0 ;
+2 x4951 +2 x4952 +2 x4953 -1 x4609 -1 x4610 -1 x4611 -1 x4612 -1 x4613 -1 x4614 >= 0 ;
+2 x4954 +2 x4955 +2 x4956 -1 x4612 -1 x4613 -1 x4614 -1 x4615 -1 x4616 -1 x4617 >= 0 ;
+2 x4957 +2 x4958 +2 x4959 -1 x4615 -1 x4616 -1 x4617 -1 x4618 -1 x4619 -1 x4620 >= 0 ;
+2 x4960 +2 x4961 +2 x4962 -1 x4618 -1 x4619 -1 x4620 -1 x4621 -1 x4622 -1 x4623 >= 0 ;
+2 x4963 +2 x4964 +2 x4965 -1 x4621 -1 x4622 -1 x4623 -1 x4624 -1 x4625 -1 x4626 >= 0 ;
+2 x4966 +2 x4967 +2 x4968 -1 x4624 -1 x4625 -1 x4626 -1 x4627 -1 x4628 -1 x4629 >= 0 ;
+2 x4969 +2 x4970 +2 x4971 -1 x4627 -1 x4628 -1 x4629 -1 x4630 -1 x4631 -1 x4632 >= 0 ;
+2 x4972 +2 x4973 +2 x4974 -1 x4630 -1 x4631 -1 x4632 -1 x4633 -1 x4634 -1 x4635 >= 0 ;
+2 x4975 +2 x4976 +2 x4977 -1 x4633 -1 x4634 -1 x4635 -1 x4636 -1 x4637 -1 x4638 >= 0 ;
+2 x4978 +2 x4979 +2 x4980 -1 x4636 -1 x4637 -1 x4638 -1 x4639 -1 x4640 -1 x4641 >= 0 ;
+2 x4981 +2 x4982 +2 x4983 -1 x4639 -1 x4640 -1 x4641 -1 x4642 -1 x4643 -1 x4644 >= 0 ;
+2 x4984 +2 x4985 +2 x4986 -1 x4642 -1 x4643 -1 x4644 -1 x4645 -1 x4646 -1 x4647 >= 0 ;
+2 x4987 +2 x4988 +2 x4989 -1 x4645 -1 x4646 -1 x4647 -1 x4648 -1 x4649 -1 x4650 >= 0 ;
+2 x4990 +2 x4991 +2 x4992 -1 x4648 -1 x4649 -1 x4650 -1 x4651 -1 x4652 -1 x4653 >= 0 ;
+2 x4993 +2 x4994 +2 x4995 -1 x4651 -1 x4652 -1 x4653 -1 x4654 -1 x4655 -1 x4656 >= 0 ;
+2 x4996 +2 x4997 +2 x4998 -1 x4654 -1 x4655 -1 x4656 -1 x4657 -1 x4658 -1 x4659 >= 0 ;
+2 x4999 +2 x5000 +2 x5001 -1 x4657 -1 x4658 -1 x4659 -1 x4660 -1 x4661 -1 x4662 >= 0 ;
+2 x5002 +2 x5003 +2 x5004 -1 x4660 -1 x4661 -1 x4662 -1 x4663 -1 x4664 -1 x4665 >= 0 ;
+2 x5005 +2 x5006 +2 x5007 -1 x4663 -1 x4664 -1 x4665 -1 x4666 -1 x4667 -1 x4668 >= 0 ;
+2 x5008 +2 x5009 +2 x5010 -1 x4666 -1 x4667 -1 x4668 -1 x4669 -1 x4670 -1 x4671 >= 0 ;
+2 x5011 +2 x5012 +2 x5013 -1 x4669 -1 x4670 -1 x4671 -1 x4672 -1 x4673 -1 x4674 >= 0 ;
+2 x5014 +2 x5015 +2 x5016 -1 x4672 -1 x4673 -1 x4674 -1 x4675 -1 x4676 -1 x4677 >= 0 ;
+2 x5017 +2 x5018 +2 x5019 -1 x4675 -1 x4676 -1 x4677 -1 x4678 -1 x4679 -1 x4680 >= 0 ;
+2 x5020 +2 x5021 +2 x5022 -1 x4681 -1 x4682 -1 x4683 -1 x4684 -1 x4685 -1 x4686 >= 0 ;
+2 x5023 +2 x5024 +2 x5025 -1 x4684 -1 x4685 -1 x4686 -1 x4687 -1 x4688 -1 x4689 >= 0 ;
+2 x5026 +2 x5027 +2 x5028 -1 x4687 -1 x4688 -1 x4689 -1 x4690 -1 x4691 -1 x4692 >= 0 ;
+2 x5029 +2 x5030 +2 x5031 -1 x4690 -1 x4691 -1 x4692 -1 x4693 -1 x4694 -1 x4695 >= 0 ;
+2 x5032 +2 x5033 +2 x5034 -1 x4693 -1 x4694 -1 x4695 -1 x4696 -1 x4697 -1 x4698 >= 0 ;
+2 x5035 +2 x5036 +2 x5037 -1 x4696 -1 x4697 -1 x4698 -1 x4699 -1 x4700 -1 x4701 >= 0 ;
+2 x5038 +2 x5039 +2 x5040 -1 x4699 -1 x4700 -1 x4701 -1 x4702 -1 x4703 -1 x4704 >= 0 ;
+2 x5041 +2 x5042 +2 x5043 -1 x4702 -1 x4703 -1 x4704 -1 x4705 -1 x4706 -1 x4707 >= 0 ;
+2 x5044 +2 x5045 +2 x5046 -1 x4705 -1 x4706 -1 x4707 -1 x4708 -1 x4709 -1 x4710 >= 0 ;
+2 x5047 +2 x5048 +2 x5049 -1 x4708 -1 x4709 -1 x4710 -1 x4711 -1 x4712 -1 x4713 >= 0 ;
+2 x5050 +2 x5051 +2 x5052 -1 x4711 -1 x4712 -1 x4713 -1 x4714 -1 x4715 -1 x4716 >= 0 ;
+2 x5053 +2 x5054 +2 x5055 -1 x4714 -1 x4715 -1 x4716 -1 x4717 -1 x4718 -1 x4719 >= 0 ;
+2 x5056 +2 x5057 +2 x5058 -1 x4717 -1 x4718 -1 x4719 -1 x4720 -1 x4721 -1 x4722 >= 0 ;
+2 x5059 +2 x5060 +2 x5061 -1 x4720 -1 x4721 -1 x4722 -1 x4723 -1 x4724 -1 x4725 >= 0 ;
+2 x5062 +2 x5063 +2 x5064 -1 x4723 -1 x4724 -1 x4725 -1 x4726 -1 x4727 -1 x4728 >= 0 ;
+2 x5065 +2 x5066 +2 x5067 -1 x4726 -1 x4727 -1 x4728 -1 x4729 -1 x4730 -1 x4731 >= 0 ;
+2 x5068 +2 x5069 +2 x5070 -1 x4729 -1 x4730 -1 x4731 -1 x4732 -1 x4733 -1 x4734 >= 0 ;
+2 x5071 +2 x5072 +2 x5073 -1 x4732 -1 x4733 -1 x4734 -1 x4735 -1 x4736 -1 x4737 >= 0 ;
+2 x5074 +2 x5075 +2 x5076 -1 x4735 -1 x4736 -1 x4737 -1 x4738 -1 x4739 -1 x4740 >= 0 ;
+2 x5077 +2 x5078 +2 x5079 -1 x4738 -1 x4739 -1 x4740 -1 x4741 -1 x4742 -1 x4743 >= 0 ;
+2 x5080 +2 x5081 +2 x5082 -1 x4741 -1 x4742 -1 x4743 -1 x4744 -1 x4745 -1 x4746 >= 0 ;
+2 x5083 +2 x5084 +2 x5085 -1 x4744 -1 x4745 -1 x4746 -1 x4747 -1 x4748 -1 x4749 >= 0 ;
+2 x5086 +2 x5087 +2 x5088 -1 x4747 -1 x4748 -1 x4749 -1 x4750 -1 x4751 -1 x4752 >= 0 ;
+2 x5089 +2 x5090 +2 x5091 -1 x4750 -1 x4751 -1 x4752 -1 x4753 -1 x4754 -1 x4755 >= 0 ;
+2 x5092 +2 x5093 +2 x5094 -1 x4753 -1 x4754 -1 x4755 -1 x4756 -1 x4757 -1 x4758 >= 0 ;
+2 x5095 +2 x5096 +2 x5097 -1 x4756 -1 x4757 -1 x4758 -1 x4759 -1 x4760 -1 x4761 >= 0 ;
+2 x5098 +2 x5099 +2 x5100 -1 x4759 -1 x4760 -1 x4761 -1 x4762 -1 x4763 -1 x4764 >= 0 ;
+2 x5101 +2 x5102 +2 x5103 -1 x4762 -1 x4763 -1 x4764 -1 x4765 -1 x4766 -1 x4767 >= 0 ;
+2 x5104 +2 x5105 +2 x5106 -1 x4765 -1 x4766 -1 x4767 -1 x4768 -1 x4769 -1 x4770 >= 0 ;
+2 x5107 +2 x5108 +2 x5109 -1 x4768 -1 x4769 -1 x4770 -1 x4771 -1 x4772 -1 x4773 >= 0 ;
+2 x5110 +2 x5111 +2 x5112 -1 x4771 -1 x4772 -1 x4773 -1 x4774 -1 x4775 -1 x4776 >= 0 ;
+2 x5113 +2 x5114 +2 x5115 -1 x4774 -1 x4775 -1 x4776 -1 x4777 -1 x4778 -1 x4779 >= 0 ;
+2 x5116 +2 x5117 +2 x5118 -1 x4777 -1 x4778 -1 x4779 -1 x4780 -1 x4781 -1 x4782 >= 0 ;
+2 x5119 +2 x5120 +2 x5121 -1 x4780 -1 x4781 -1 x4782 -1 x4783 -1 x4784 -1 x4785 >= 0 ;
+2 x5122 +2 x5123 +2 x5124 -1 x4783 -1 x4784 -1 x4785 -1 x4786 -1 x4787 -1 x4788 >= 0 ;
+2 x5125 +2 x5126 +2 x5127 -1 x4786 -1 x4787 -1 x4788 -1 x4789 -1 x4790 -1 x4791 >= 0 ;
+2 x5128 +2 x5129 +2 x5130 -1 x4789 -1 x4790 -1 x4791 -1 x4792 -1 x4793 -1 x4794 >= 0 ;
+2 x5131 +2 x5132 +2 x5133 -1 x4792 -1 x4793 -1 x4794 -1 x4795 -1 x4796 -1 x4797 >= 0 ;
+2 x5134 +2 x5135 +2 x5136 -1 x4795 -1 x4796 -1 x4797 -1 x4798 -1 x4799 -1 x4800 >= 0 ;
+2 x5137 +2 x5138 +2 x5139 -1 x4798 -1 x4799 -1 x4800 -1 x4801 -1 x4802 -1 x4803 >= 0 ;
+2 x5140 +2 x5141 +2 x5142 -1 x4801 -1 x4802 -1 x4803 -1 x4804 -1 x4805 -1 x4806 >= 0 ;
+2 x5143 +2 x5144 +2 x5145 -1 x4804 -1 x4805 -1 x4806 -1 x4807 -1 x4808 -1 x4809 >= 0 ;
+2 x5146 +2 x5147 +2 x5148 -1 x4807 -1 x4808 -1 x4809 -1 x4810 -1 x4811 -1 x4812 >= 0 ;
+2 x5149 +2 x5150 +2 x5151 -1 x4810 -1 x4811 -1 x4812 -1 x4813 -1 x4814 -1 x4815 >= 0 ;
+2 x5152 +2 x5153 +2 x5154 -1 x4813 -1 x4814 -1 x4815 -1 x4816 -1 x4817 -1 x4818 >= 0 ;
+2 x5155 +2 x5156 +2 x5157 -1 x4816 -1 x4817 -1 x4818 -1 x4819 -1 x4820 -1 x4821 >= 0 ;
+2 x5158 +2 x5159 +2 x5160 -1 x4819 -1 x4820 -1 x4821 -1 x4822 -1 x4823 -1 x4824 >= 0 ;
+2 x5161 +2 x5162 +2 x5163 -1 x4822 -1 x4823 -1 x4824 -1 x4825 -1 x4826 -1 x4827 >= 0 ;
+2 x5164 +2 x5165 +2 x5166 -1 x4825 -1 x4826 -1 x4827 -1 x4828 -1 x4829 -1 x4830 >= 0 ;
+2 x5167 +2 x5168 +2 x5169 -1 x4828 -1 x4829 -1 x4830 -1 x4831 -1 x4832 -1 x4833 >= 0 ;
+2 x5170 +2 x5171 +2 x5172 -1 x4831 -1 x4832 -1 x4833 -1 x4834 -1 x4835 -1 x4836 >= 0 ;
+2 x5173 +2 x5174 +2 x5175 -1 x4834 -1 x4835 -1 x4836 -1 x4837 -1 x4838 -1 x4839 >= 0 ;
+2 x5176 +2 x5177 +2 x5178 -1 x4837 -1 x4838 -1 x4839 -1 x4840 -1 x4841 -1 x4842 >= 0 ;
+2 x5179 +2 x5180 +2 x5181 -1 x4840 -1 x4841 -1 x4842 -1 x4843 -1 x4844 -1 x4845 >= 0 ;
+2 x5182 +2 x5183 +2 x5184 -1 x4843 -1 x4844 -1 x4845 -1 x4846 -1 x4847 -1 x4848 >= 0 ;
+2 x5185 +2 x5186 +2 x5187 -1 x4846 -1 x4847 -1 x4848 -1 x4849 -1 x4850 -1 x4851 >= 0 ;
+2 x5188 +2 x5189 +2 x5190 -1 x4849 -1 x4850 -1 x4851 -1 x4852 -1 x4853 -1 x4854 >= 0 ;
+2 x5191 +2 x5192 +2 x5193 -1 x4852 -1 x4853 -1 x4854 -1 x4855 -1 x4856 -1 x4857 >= 0 ;
+2 x5194 +2 x5195 +2 x5196 -1 x4855 -1 x4856 -1 x4857 -1 x4858 -1 x4859 -1 x4860 >= 0 ;
+2 x5197 +2 x5198 +2 x5199 -1 x4858 -1 x4859 -1 x4860 -1 x4861 -1 x4862 -1 x4863 >= 0 ;
+2 x5200 +2 x5201 +2 x5202 -1 x4861 -1 x4862 -1 x4863 -1 x4864 -1 x4865 -1 x4866 >= 0 ;
+2 x5203 +2 x5204 +2 x5205 -1 x4864 -1 x4865 -1 x4866 -1 x4867 -1 x4868 -1 x4869 >= 0 ;
+2 x5206 +2 x5207 +2 x5208 -1 x4867 -1 x4868 -1 x4869 -1 x4870 -1 x4871 -1 x4872 >= 0 ;
+2 x5209 +2 x5210 +2 x5211 -1 x4870 -1 x4871 -1 x4872 -1 x4873 -1 x4874 -1 x4875 >= 0 ;
+2 x5212 +2 x5213 +2 x5214 -1 x4873 -1 x4874 -1 x4875 -1 x4876 -1 x4877 -1 x4878 >= 0 ;
+2 x5215 +2 x5216 +2 x5217 -1 x4876 -1 x4877 -1 x4878 -1 x4879 -1 x4880 -1 x4881 >= 0 ;
+2 x5218 +2 x5219 +2 x5220 -1 x4879 -1 x4880 -1 x4881 -1 x4882 -1 x4883 -1 x4884 >= 0 ;
+2 x5221 +2 x5222 +2 x5223 -1 x4882 -1 x4883 -1 x4884 -1 x4885 -1 x4886 -1 x4887 >= 0 ;
+2 x5224 +2 x5225 +2 x5226 -1 x4885 -1 x4886 -1 x4887 -1 x4888 -1 x4889 -1 x4890 >= 0 ;
+2 x5227 +2 x5228 +2 x5229 -1 x4888 -1 x4889 -1 x4890 -1 x4891 -1 x4892 -1 x4893 >= 0 ;
+2 x5230 +2 x5231 +2 x5232 -1 x4891 -1 x4892 -1 x4893 -1 x4894 -1 x4895 -1 x4896 >= 0 ;
+2 x5233 +2 x5234 +2 x5235 -1 x4894 -1 x4895 -1 x4896 -1 x4897 -1 x4898 -1 x4899 >= 0 ;
+2 x5236 +2 x5237 +2 x5238 -1 x4897 -1 x4898 -1 x4899 -1 x4900 -1 x4901 -1 x4902 >= 0 ;
+2 x5239 +2 x5240 +2 x5241 -1 x4900 -1 x4901 -1 x4902 -1 x4903 -1 x4904 -1 x4905 >= 0 ;
+2 x5242 +2 x5243 +2 x5244 -1 x4903 -1 x4904 -1 x4905 -1 x4906 -1 x4907 -1 x4908 >= 0 ;
+2 x5245 +2 x5246 +2 x5247 -1 x4906 -1 x4907 -1 x4908 -1 x4909 -1 x4910 -1 x4911 >= 0 ;
+2 x5248 +2 x5249 +2 x5250 -1 x4909 -1 x4910 -1 x4911 -1 x4912 -1 x4913 -1 x4914 >= 0 ;
+2 x5251 +2 x5252 +2 x5253 -1 x4912 -1 x4913 -1 x4914 -1 x4915 -1 x4916 -1 x4917 >= 0 ;
+2 x5254 +2 x5255 +2 x5256 -1 x4915 -1 x4916 -1 x4917 -1 x4918 -1 x4919 -1 x4920 >= 0 ;
+2 x5257 +2 x5258 +2 x5259 -1 x4918 -1 x4919 -1 x4920 -1 x4921 -1 x4922 -1 x4923 >= 0 ;
+2 x5260 +2 x5261 +2 x5262 -1 x4921 -1 x4922 -1 x4923 -1 x4924 -1 x4925 -1 x4926 >= 0 ;
+2 x5263 +2 x5264 +2 x5265 -1 x4924 -1 x4925 -1 x4926 -1 x4927 -1 x4928 -1 x4929 >= 0 ;
+2 x5266 +2 x5267 +2 x5268 -1 x4927 -1 x4928 -1 x4929 -1 x4930 -1 x4931 -1 x4932 >= 0 ;
+2 x5269 +2 x5270 +2 x5271 -1 x4930 -1 x4931 -1 x4932 -1 x4933 -1 x4934 -1 x4935 >= 0 ;
+2 x5272 +2 x5273 +2 x5274 -1 x4933 -1 x4934 -1 x4935 -1 x4936 -1 x4937 -1 x4938 >= 0 ;
+2 x5275 +2 x5276 +2 x5277 -1 x4936 -1 x4937 -1 x4938 -1 x4939 -1 x4940 -1 x4941 >= 0 ;
+2 x5278 +2 x5279 +2 x5280 -1 x4939 -1 x4940 -1 x4941 -1 x4942 -1 x4943 -1 x4944 >= 0 ;
+2 x5281 +2 x5282 +2 x5283 -1 x4942 -1 x4943 -1 x4944 -1 x4945 -1 x4946 -1 x4947 >= 0 ;
+2 x5284 +2 x5285 +2 x5286 -1 x4945 -1 x4946 -1 x4947 -1 x4948 -1 x4949 -1 x4950 >= 0 ;
+2 x5287 +2 x5288 +2 x5289 -1 x4948 -1 x4949 -1 x4950 -1 x4951 -1 x4952 -1 x4953 >= 0 ;
+2 x5290 +2 x5291 +2 x5292 -1 x4951 -1 x4952 -1 x4953 -1 x4954 -1 x4955 -1 x4956 >= 0 ;
+2 x5293 +2 x5294 +2 x5295 -1 x4954 -1 x4955 -1 x4956 -1 x4957 -1 x4958 -1 x4959 >= 0 ;
+2 x5296 +2 x5297 +2 x5298 -1 x4957 -1 x4958 -1 x4959 -1 x4960 -1 x4961 -1 x4962 >= 0 ;
+2 x5299 +2 x5300 +2 x5301 -1 x4960 -1 x4961 -1 x4962 -1 x4963 -1 x4964 -1 x4965 >= 0 ;
+2 x5302 +2 x5303 +2 x5304 -1 x4963 -1 x4964 -1 x4965 -1 x4966 -1 x4967 -1 x4968 >= 0 ;
+2 x5305 +2 x5306 +2 x5307 -1 x4966 -1 x4967 -1 x4968 -1 x4969 -1 x4970 -1 x4971 >= 0 ;
+2 x5308 +2 x5309 +2 x5310 -1 x4969 -1 x4970 -1 x4971 -1 x4972 -1 x4973 -1 x4974 >= 0 ;
+2 x5311 +2 x5312 +2 x5313 -1 x4972 -1 x4973 -1 x4974 -1 x4975 -1 x4976 -1 x4977 >= 0 ;
+2 x5314 +2 x5315 +2 x5316 -1 x4975 -1 x4976 -1 x4977 -1 x4978 -1 x4979 -1 x4980 >= 0 ;
+2 x5317 +2 x5318 +2 x5319 -1 x4978 -1 x4979 -1 x4980 -1 x4981 -1 x4982 -1 x4983 >= 0 ;
+2 x5320 +2 x5321 +2 x5322 -1 x4981 -1 x4982 -1 x4983 -1 x4984 -1 x4985 -1 x4986 >= 0 ;
+2 x5323 +2 x5324 +2 x5325 -1 x4984 -1 x4985 -1 x4986 -1 x4987 -1 x4988 -1 x4989 >= 0 ;
+2 x5326 +2 x5327 +2 x5328 -1 x4987 -1 x4988 -1 x4989 -1 x4990 -1 x4991 -1 x4992 >= 0 ;
+2 x5329 +2 x5330 +2 x5331 -1 x4990 -1 x4991 -1 x4992 -1 x4993 -1 x4994 -1 x4995 >= 0 ;
+2 x5332 +2 x5333 +2 x5334 -1 x4993 -1 x4994 -1 x4995 -1 x4996 -1 x4997 -1 x4998 >= 0 ;
+2 x5335 +2 x5336 +2 x5337 -1 x4996 -1 x4997 -1 x4998 -1 x4999 -1 x5000 -1 x5001 >= 0 ;
+2 x5338 +2 x5339 +2 x5340 -1 x4999 -1 x5000 -1 x5001 -1 x5002 -1 x5003 -1 x5004 >= 0 ;
+2 x5341 +2 x5342 +2 x5343 -1 x5002 -1 x5003 -1 x5004 -1 x5005 -1 x5006 -1 x5007 >= 0 ;
+2 x5344 +2 x5345 +2 x5346 -1 x5005 -1 x5006 -1 x5007 -1 x5008 -1 x5009 -1 x5010 >= 0 ;
+2 x5347 +2 x5348 +2 x5349 -1 x5008 -1 x5009 -1 x5010 -1 x5011 -1 x5012 -1 x5013 >= 0 ;
+2 x5350 +2 x5351 +2 x5352 -1 x5011 -1 x5012 -1 x5013 -1 x5014 -1 x5015 -1 x5016 >= 0 ;
+2 x5353 +2 x5354 +2 x5355 -1 x5014 -1 x5015 -1 x5016 -1 x5017 -1 x5018 -1 x5019 >= 0 ;
+2 x5356 +2 x5357 +2 x5358 -1 x5020 -1 x5021 -1 x5022 -1 x5023 -1 x5024 -1 x5025 >= 0 ;
+2 x5359 +2 x5360 +2 x5361 -1 x5023 -1 x5024 -1 x5025 -1 x5026 -1 x5027 -1 x5028 >= 0 ;
+2 x5362 +2 x5363 +2 x5364 -1 x5026 -1 x5027 -1 x5028 -1 x5029 -1 x5030 -1 x5031 >= 0 ;
+2 x5365 +2 x5366 +2 x5367 -1 x5029 -1 x5030 -1 x5031 -1 x5032 -1 x5033 -1 x5034 >= 0 ;
+2 x5368 +2 x5369 +2 x5370 -1 x5032 -1 x5033 -1 x5034 -1 x5035 -1 x5036 -1 x5037 >= 0 ;
+2 x5371 +2 x5372 +2 x5373 -1 x5035 -1 x5036 -1 x5037 -1 x5038 -1 x5039 -1 x5040 >= 0 ;
+2 x5374 +2 x5375 +2 x5376 -1 x5038 -1 x5039 -1 x5040 -1 x5041 -1 x5042 -1 x5043 >= 0 ;
+2 x5377 +2 x5378 +2 x5379 -1 x5041 -1 x5042 -1 x5043 -1 x5044 -1 x5045 -1 x5046 >= 0 ;
+2 x5380 +2 x5381 +2 x5382 -1 x5044 -1 x5045 -1 x5046 -1 x5047 -1 x5048 -1 x5049 >= 0 ;
+2 x5383 +2 x5384 +2 x5385 -1 x5047 -1 x5048 -1 x5049 -1 x5050 -1 x5051 -1 x5052 >= 0 ;
+2 x5386 +2 x5387 +2 x5388 -1 x5050 -1 x5051 -1 x5052 -1 x5053 -1 x5054 -1 x5055 >= 0 ;
+2 x5389 +2 x5390 +2 x5391 -1 x5053 -1 x5054 -1 x5055 -1 x5056 -1 x5057 -1 x5058 >= 0 ;
+2 x5392 +2 x5393 +2 x5394 -1 x5056 -1 x5057 -1 x5058 -1 x5059 -1 x5060 -1 x5061 >= 0 ;
+2 x5395 +2 x5396 +2 x5397 -1 x5059 -1 x5060 -1 x5061 -1 x5062 -1 x5063 -1 x5064 >= 0 ;
+2 x5398 +2 x5399 +2 x5400 -1 x5062 -1 x5063 -1 x5064 -1 x5065 -1 x5066 -1 x5067 >= 0 ;
+2 x5401 +2 x5402 +2 x5403 -1 x5065 -1 x5066 -1 x5067 -1 x5068 -1 x5069 -1 x5070 >= 0 ;
+2 x5404 +2 x5405 +2 x5406 -1 x5068 -1 x5069 -1 x5070 -1 x5071 -1 x5072 -1 x5073 >= 0 ;
+2 x5407 +2 x5408 +2 x5409 -1 x5071 -1 x5072 -1 x5073 -1 x5074 -1 x5075 -1 x5076 >= 0 ;
+2 x5410 +2 x5411 +2 x5412 -1 x5074 -1 x5075 -1 x5076 -1 x5077 -1 x5078 -1 x5079 >= 0 ;
+2 x5413 +2 x5414 +2 x5415 -1 x5077 -1 x5078 -1 x5079 -1 x5080 -1 x5081 -1 x5082 >= 0 ;
+2 x5416 +2 x5417 +2 x5418 -1 x5080 -1 x5081 -1 x5082 -1 x5083 -1 x5084 -1 x5085 >= 0 ;
+2 x5419 +2 x5420 +2 x5421 -1 x5083 -1 x5084 -1 x5085 -1 x5086 -1 x5087 -1 x5088 >= 0 ;
+2 x5422 +2 x5423 +2 x5424 -1 x5086 -1 x5087 -1 x5088 -1 x5089 -1 x5090 -1 x5091 >= 0 ;
+2 x5425 +2 x5426 +2 x5427 -1 x5089 -1 x5090 -1 x5091 -1 x5092 -1 x5093 -1 x5094 >= 0 ;
+2 x5428 +2 x5429 +2 x5430 -1 x5092 -1 x5093 -1 x5094 -1 x5095 -1 x5096 -1 x5097 >= 0 ;
+2 x5431 +2 x5432 +2 x5433 -1 x5095 -1 x5096 -1 x5097 -1 x5098 -1 x5099 -1 x5100 >= 0 ;
+2 x5434 +2 x5435 +2 x5436 -1 x5098 -1 x5099 -1 x5100 -1 x5101 -1 x5102 -1 x5103 >= 0 ;
+2 x5437 +2 x5438 +2 x5439 -1 x5101 -1 x5102 -1 x5103 -1 x5104 -1 x5105 -1 x5106 >= 0 ;
+2 x5440 +2 x5441 +2 x5442 -1 x5104 -1 x5105 -1 x5106 -1 x5107 -1 x5108 -1 x5109 >= 0 ;
+2 x5443 +2 x5444 +2 x5445 -1 x5107 -1 x5108 -1 x5109 -1 x5110 -1 x5111 -1 x5112 >= 0 ;
+2 x5446 +2 x5447 +2 x5448 -1 x5110 -1 x5111 -1 x5112 -1 x5113 -1 x5114 -1 x5115 >= 0 ;
+2 x5449 +2 x5450 +2 x5451 -1 x5113 -1 x5114 -1 x5115 -1 x5116 -1 x5117 -1 x5118 >= 0 ;
+2 x5452 +2 x5453 +2 x5454 -1 x5116 -1 x5117 -1 x5118 -1 x5119 -1 x5120 -1 x5121 >= 0 ;
+2 x5455 +2 x5456 +2 x5457 -1 x5119 -1 x5120 -1 x5121 -1 x5122 -1 x5123 -1 x5124 >= 0 ;
+2 x5458 +2 x5459 +2 x5460 -1 x5122 -1 x5123 -1 x5124 -1 x5125 -1 x5126 -1 x5127 >= 0 ;
+2 x5461 +2 x5462 +2 x5463 -1 x5125 -1 x5126 -1 x5127 -1 x5128 -1 x5129 -1 x5130 >= 0 ;
+2 x5464 +2 x5465 +2 x5466 -1 x5128 -1 x5129 -1 x5130 -1 x5131 -1 x5132 -1 x5133 >= 0 ;
+2 x5467 +2 x5468 +2 x5469 -1 x5131 -1 x5132 -1 x5133 -1 x5134 -1 x5135 -1 x5136 >= 0 ;
+2 x5470 +2 x5471 +2 x5472 -1 x5134 -1 x5135 -1 x5136 -1 x5137 -1 x5138 -1 x5139 >= 0 ;
+2 x5473 +2 x5474 +2 x5475 -1 x5137 -1 x5138 -1 x5139 -1 x5140 -1 x5141 -1 x5142 >= 0 ;
+2 x5476 +2 x5477 +2 x5478 -1 x5140 -1 x5141 -1 x5142 -1 x5143 -1 x5144 -1 x5145 >= 0 ;
+2 x5479 +2 x5480 +2 x5481 -1 x5143 -1 x5144 -1 x5145 -1 x5146 -1 x5147 -1 x5148 >= 0 ;
+2 x5482 +2 x5483 +2 x5484 -1 x5146 -1 x5147 -1 x5148 -1 x5149 -1 x5150 -1 x5151 >= 0 ;
+2 x5485 +2 x5486 +2 x5487 -1 x5149 -1 x5150 -1 x5151 -1 x5152 -1 x5153 -1 x5154 >= 0 ;
+2 x5488 +2 x5489 +2 x5490 -1 x5152 -1 x5153 -1 x5154 -1 x5155 -1 x5156 -1 x5157 >= 0 ;
+2 x5491 +2 x5492 +2 x5493 -1 x5155 -1 x5156 -1 x5157 -1 x5158 -1 x5159 -1 x5160 >= 0 ;
+2 x5494 +2 x5495 +2 x5496 -1 x5158 -1 x5159 -1 x5160 -1 x5161 -1 x5162 -1 x5163 >= 0 ;
+2 x5497 +2 x5498 +2 x5499 -1 x5161 -1 x5162 -1 x5163 -1 x5164 -1 x5165 -1 x5166 >= 0 ;
+2 x5500 +2 x5501 +2 x5502 -1 x5164 -1 x5165 -1 x5166 -1 x5167 -1 x5168 -1 x5169 >= 0 ;
+2 x5503 +2 x5504 +2 x5505 -1 x5167 -1 x5168 -1 x5169 -1 x5170 -1 x5171 -1 x5172 >= 0 ;
+2 x5506 +2 x5507 +2 x5508 -1 x5170 -1 x5171 -1 x5172 -1 x5173 -1 x5174 -1 x5175 >= 0 ;
+2 x5509 +2 x5510 +2 x5511 -1 x5173 -1 x5174 -1 x5175 -1 x5176 -1 x5177 -1 x5178 >= 0 ;
+2 x5512 +2 x5513 +2 x5514 -1 x5176 -1 x5177 -1 x5178 -1 x5179 -1 x5180 -1 x5181 >= 0 ;
+2 x5515 +2 x5516 +2 x5517 -1 x5179 -1 x5180 -1 x5181 -1 x5182 -1 x5183 -1 x5184 >= 0 ;
+2 x5518 +2 x5519 +2 x5520 -1 x5182 -1 x5183 -1 x5184 -1 x5185 -1 x5186 -1 x5187 >= 0 ;
+2 x5521 +2 x5522 +2 x5523 -1 x5185 -1 x5186 -1 x5187 -1 x5188 -1 x5189 -1 x5190 >= 0 ;
+2 x5524 +2 x5525 +2 x5526 -1 x5188 -1 x5189 -1 x5190 -1 x5191 -1 x5192 -1 x5193 >= 0 ;
+2 x5527 +2 x5528 +2 x5529 -1 x5191 -1 x5192 -1 x5193 -1 x5194 -1 x5195 -1 x5196 >= 0 ;
+2 x5530 +2 x5531 +2 x5532 -1 x5194 -1 x5195 -1 x5196 -1 x5197 -1 x5198 -1 x5199 >= 0 ;
+2 x5533 +2 x5534 +2 x5535 -1 x5197 -1 x5198 -1 x5199 -1 x5200 -1 x5201 -1 x5202 >= 0 ;
+2 x5536 +2 x5537 +2 x5538 -1 x5200 -1 x5201 -1 x5202 -1 x5203 -1 x5204 -1 x5205 >= 0 ;
+2 x5539 +2 x5540 +2 x5541 -1 x5203 -1 x5204 -1 x5205 -1 x5206 -1 x5207 -1 x5208 >= 0 ;
+2 x5542 +2 x5543 +2 x5544 -1 x5206 -1 x5207 -1 x5208 -1 x5209 -1 x5210 -1 x5211 >= 0 ;
+2 x5545 +2 x5546 +2 x5547 -1 x5209 -1 x5210 -1 x5211 -1 x5212 -1 x5213 -1 x5214 >= 0 ;
+2 x5548 +2 x5549 +2 x5550 -1 x5212 -1 x5213 -1 x5214 -1 x5215 -1 x5216 -1 x5217 >= 0 ;
+2 x5551 +2 x5552 +2 x5553 -1 x5215 -1 x5216 -1 x5217 -1 x5218 -1 x5219 -1 x5220 >= 0 ;
+2 x5554 +2 x5555 +2 x5556 -1 x5218 -1 x5219 -1 x5220 -1 x5221 -1 x5222 -1 x5223 >= 0 ;
+2 x5557 +2 x5558 +2 x5559 -1 x5221 -1 x5222 -1 x5223 -1 x5224 -1 x5225 -1 x5226 >= 0 ;
+2 x5560 +2 x5561 +2 x5562 -1 x5224 -1 x5225 -1 x5226 -1 x5227 -1 x5228 -1 x5229 >= 0 ;
+2 x5563 +2 x5564 +2 x5565 -1 x5227 -1 x5228 -1 x5229 -1 x5230 -1 x5231 -1 x5232 >= 0 ;
+2 x5566 +2 x5567 +2 x5568 -1 x5230 -1 x5231 -1 x5232 -1 x5233 -1 x5234 -1 x5235 >= 0 ;
+2 x5569 +2 x5570 +2 x5571 -1 x5233 -1 x5234 -1 x5235 -1 x5236 -1 x5237 -1 x5238 >= 0 ;
+2 x5572 +2 x5573 +2 x5574 -1 x5236 -1 x5237 -1 x5238 -1 x5239 -1 x5240 -1 x5241 >= 0 ;
+2 x5575 +2 x5576 +2 x5577 -1 x5239 -1 x5240 -1 x5241 -1 x5242 -1 x5243 -1 x5244 >= 0 ;
+2 x5578 +2 x5579 +2 x5580 -1 x5242 -1 x5243 -1 x5244 -1 x5245 -1 x5246 -1 x5247 >= 0 ;
+2 x5581 +2 x5582 +2 x5583 -1 x5245 -1 x5246 -1 x5247 -1 x5248 -1 x5249 -1 x5250 >= 0 ;
+2 x5584 +2 x5585 +2 x5586 -1 x5248 -1 x5249 -1 x5250 -1 x5251 -1 x5252 -1 x5253 >= 0 ;
+2 x5587 +2 x5588 +2 x5589 -1 x5251 -1 x5252 -1 x5253 -1 x5254 -1 x5255 -1 x5256 >= 0 ;
+2 x5590 +2 x5591 +2 x5592 -1 x5254 -1 x5255 -1 x5256 -1 x5257 -1 x5258 -1 x5259 >= 0 ;
+2 x5593 +2 x5594 +2 x5595 -1 x5257 -1 x5258 -1 x5259 -1 x5260 -1 x5261 -1 x5262 >= 0 ;
+2 x5596 +2 x5597 +2 x5598 -1 x5260 -1 x5261 -1 x5262 -1 x5263 -1 x5264 -1 x5265 >= 0 ;
+2 x5599 +2 x5600 +2 x5601 -1 x5263 -1 x5264 -1 x5265 -1 x5266 -1 x5267 -1 x5268 >= 0 ;
+2 x5602 +2 x5603 +2 x5604 -1 x5266 -1 x5267 -1 x5268 -1 x5269 -1 x5270 -1 x5271 >= 0 ;
+2 x5605 +2 x5606 +2 x5607 -1 x5269 -1 x5270 -1 x5271 -1 x5272 -1 x5273 -1 x5274 >= 0 ;
+2 x5608 +2 x5609 +2 x5610 -1 x5272 -1 x5273 -1 x5274 -1 x5275 -1 x5276 -1 x5277 >= 0 ;
+2 x5611 +2 x5612 +2 x5613 -1 x5275 -1 x5276 -1 x5277 -1 x5278 -1 x5279 -1 x5280 >= 0 ;
+2 x5614 +2 x5615 +2 x5616 -1 x5278 -1 x5279 -1 x5280 -1 x5281 -1 x5282 -1 x5283 >= 0 ;
+2 x5617 +2 x5618 +2 x5619 -1 x5281 -1 x5282 -1 x5283 -1 x5284 -1 x5285 -1 x5286 >= 0 ;
+2 x5620 +2 x5621 +2 x5622 -1 x5284 -1 x5285 -1 x5286 -1 x5287 -1 x5288 -1 x5289 >= 0 ;
+2 x5623 +2 x5624 +2 x5625 -1 x5287 -1 x5288 -1 x5289 -1 x5290 -1 x5291 -1 x5292 >= 0 ;
+2 x5626 +2 x5627 +2 x5628 -1 x5290 -1 x5291 -1 x5292 -1 x5293 -1 x5294 -1 x5295 >= 0 ;
+2 x5629 +2 x5630 +2 x5631 -1 x5293 -1 x5294 -1 x5295 -1 x5296 -1 x5297 -1 x5298 >= 0 ;
+2 x5632 +2 x5633 +2 x5634 -1 x5296 -1 x5297 -1 x5298 -1 x5299 -1 x5300 -1 x5301 >= 0 ;
+2 x5635 +2 x5636 +2 x5637 -1 x5299 -1 x5300 -1 x5301 -1 x5302 -1 x5303 -1 x5304 >= 0 ;
+2 x5638 +2 x5639 +2 x5640 -1 x5302 -1 x5303 -1 x5304 -1 x5305 -1 x5306 -1 x5307 >= 0 ;
+2 x5641 +2 x5642 +2 x5643 -1 x5305 -1 x5306 -1 x5307 -1 x5308 -1 x5309 -1 x5310 >= 0 ;
+2 x5644 +2 x5645 +2 x5646 -1 x5308 -1 x5309 -1 x5310 -1 x5311 -1 x5312 -1 x5313 >= 0 ;
+2 x5647 +2 x5648 +2 x5649 -1 x5311 -1 x5312 -1 x5313 -1 x5314 -1 x5315 -1 x5316 >= 0 ;
+2 x5650 +2 x5651 +2 x5652 -1 x5314 -1 x5315 -1 x5316 -1 x5317 -1 x5318 -1 x5319 >= 0 ;
+2 x5653 +2 x5654 +2 x5655 -1 x5317 -1 x5318 -1 x5319 -1 x5320 -1 x5321 -1 x5322 >= 0 ;
+2 x5656 +2 x5657 +2 x5658 -1 x5320 -1 x5321 -1 x5322 -1 x5323 -1 x5324 -1 x5325 >= 0 ;
+2 x5659 +2 x5660 +2 x5661 -1 x5323 -1 x5324 -1 x5325 -1 x5326 -1 x5327 -1 x5328 >= 0 ;
+2 x5662 +2 x5663 +2 x5664 -1 x5326 -1 x5327 -1 x5328 -1 x5329 -1 x5330 -1 x5331 >= 0 ;
+2 x5665 +2 x5666 +2 x5667 -1 x5329 -1 x5330 -1 x5331 -1 x5332 -1 x5333 -1 x5334 >= 0 ;
+2 x5668 +2 x5669 +2 x5670 -1 x5332 -1 x5333 -1 x5334 -1 x5335 -1 x5336 -1 x5337 >= 0 ;
+2 x5671 +2 x5672 +2 x5673 -1 x5335 -1 x5336 -1 x5337 -1 x5338 -1 x5339 -1 x5340 >= 0 ;
+2 x5674 +2 x5675 +2 x5676 -1 x5338 -1 x5339 -1 x5340 -1 x5341 -1 x5342 -1 x5343 >= 0 ;
+2 x5677 +2 x5678 +2 x5679 -1 x5341 -1 x5342 -1 x5343 -1 x5344 -1 x5345 -1 x5346 >= 0 ;
+2 x5680 +2 x5681 +2 x5682 -1 x5344 -1 x5345 -1 x5346 -1 x5347 -1 x5348 -1 x5349 >= 0 ;
+2 x5683 +2 x5684 +2 x5685 -1 x5347 -1 x5348 -1 x5349 -1 x5350 -1 x5351 -1 x5352 >= 0 ;
+2 x5686 +2 x5687 +2 x5688 -1 x5350 -1 x5351 -1 x5352 -1 x5353 -1 x5354 -1 x5355 >= 0 ;
+2 x5689 +2 x5690 +2 x5691 -1 x5356 -1 x5357 -1 x5358 -1 x5359 -1 x5360 -1 x5361 >= 0 ;
+2 x5692 +2 x5693 +2 x5694 -1 x5359 -1 x5360 -1 x5361 -1 x5362 -1 x5363 -1 x5364 >= 0 ;
+2 x5695 +2 x5696 +2 x5697 -1 x5362 -1 x5363 -1 x5364 -1 x5365 -1 x5366 -1 x5367 >= 0 ;
+2 x5698 +2 x5699 +2 x5700 -1 x5365 -1 x5366 -1 x5367 -1 x5368 -1 x5369 -1 x5370 >= 0 ;
+2 x5701 +2 x5702 +2 x5703 -1 x5368 -1 x5369 -1 x5370 -1 x5371 -1 x5372 -1 x5373 >= 0 ;
+2 x5704 +2 x5705 +2 x5706 -1 x5371 -1 x5372 -1 x5373 -1 x5374 -1 x5375 -1 x5376 >= 0 ;
+2 x5707 +2 x5708 +2 x5709 -1 x5374 -1 x5375 -1 x5376 -1 x5377 -1 x5378 -1 x5379 >= 0 ;
+2 x5710 +2 x5711 +2 x5712 -1 x5377 -1 x5378 -1 x5379 -1 x5380 -1 x5381 -1 x5382 >= 0 ;
+2 x5713 +2 x5714 +2 x5715 -1 x5380 -1 x5381 -1 x5382 -1 x5383 -1 x5384 -1 x5385 >= 0 ;
+2 x5716 +2 x5717 +2 x5718 -1 x5383 -1 x5384 -1 x5385 -1 x5386 -1 x5387 -1 x5388 >= 0 ;
+2 x5719 +2 x5720 +2 x5721 -1 x5386 -1 x5387 -1 x5388 -1 x5389 -1 x5390 -1 x5391 >= 0 ;
+2 x5722 +2 x5723 +2 x5724 -1 x5389 -1 x5390 -1 x5391 -1 x5392 -1 x5393 -1 x5394 >= 0 ;
+2 x5725 +2 x5726 +2 x5727 -1 x5392 -1 x5393 -1 x5394 -1 x5395 -1 x5396 -1 x5397 >= 0 ;
+2 x5728 +2 x5729 +2 x5730 -1 x5395 -1 x5396 -1 x5397 -1 x5398 -1 x5399 -1 x5400 >= 0 ;
+2 x5731 +2 x5732 +2 x5733 -1 x5398 -1 x5399 -1 x5400 -1 x5401 -1 x5402 -1 x5403 >= 0 ;
+2 x5734 +2 x5735 +2 x5736 -1 x5401 -1 x5402 -1 x5403 -1 x5404 -1 x5405 -1 x5406 >= 0 ;
+2 x5737 +2 x5738 +2 x5739 -1 x5404 -1 x5405 -1 x5406 -1 x5407 -1 x5408 -1 x5409 >= 0 ;
+2 x5740 +2 x5741 +2 x5742 -1 x5407 -1 x5408 -1 x5409 -1 x5410 -1 x5411 -1 x5412 >= 0 ;
+2 x5743 +2 x5744 +2 x5745 -1 x5410 -1 x5411 -1 x5412 -1 x5413 -1 x5414 -1 x5415 >= 0 ;
+2 x5746 +2 x5747 +2 x5748 -1 x5413 -1 x5414 -1 x5415 -1 x5416 -1 x5417 -1 x5418 >= 0 ;
+2 x5749 +2 x5750 +2 x5751 -1 x5416 -1 x5417 -1 x5418 -1 x5419 -1 x5420 -1 x5421 >= 0 ;
+2 x5752 +2 x5753 +2 x5754 -1 x5419 -1 x5420 -1 x5421 -1 x5422 -1 x5423 -1 x5424 >= 0 ;
+2 x5755 +2 x5756 +2 x5757 -1 x5422 -1 x5423 -1 x5424 -1 x5425 -1 x5426 -1 x5427 >= 0 ;
+2 x5758 +2 x5759 +2 x5760 -1 x5425 -1 x5426 -1 x5427 -1 x5428 -1 x5429 -1 x5430 >= 0 ;
+2 x5761 +2 x5762 +2 x5763 -1 x5428 -1 x5429 -1 x5430 -1 x5431 -1 x5432 -1 x5433 >= 0 ;
+2 x5764 +2 x5765 +2 x5766 -1 x5431 -1 x5432 -1 x5433 -1 x5434 -1 x5435 -1 x5436 >= 0 ;
+2 x5767 +2 x5768 +2 x5769 -1 x5434 -1 x5435 -1 x5436 -1 x5437 -1 x5438 -1 x5439 >= 0 ;
+2 x5770 +2 x5771 +2 x5772 -1 x5437 -1 x5438 -1 x5439 -1 x5440 -1 x5441 -1 x5442 >= 0 ;
+2 x5773 +2 x5774 +2 x5775 -1 x5440 -1 x5441 -1 x5442 -1 x5443 -1 x5444 -1 x5445 >= 0 ;
+2 x5776 +2 x5777 +2 x5778 -1 x5443 -1 x5444 -1 x5445 -1 x5446 -1 x5447 -1 x5448 >= 0 ;
+2 x5779 +2 x5780 +2 x5781 -1 x5446 -1 x5447 -1 x5448 -1 x5449 -1 x5450 -1 x5451 >= 0 ;
+2 x5782 +2 x5783 +2 x5784 -1 x5449 -1 x5450 -1 x5451 -1 x5452 -1 x5453 -1 x5454 >= 0 ;
+2 x5785 +2 x5786 +2 x5787 -1 x5452 -1 x5453 -1 x5454 -1 x5455 -1 x5456 -1 x5457 >= 0 ;
+2 x5788 +2 x5789 +2 x5790 -1 x5455 -1 x5456 -1 x5457 -1 x5458 -1 x5459 -1 x5460 >= 0 ;
+2 x5791 +2 x5792 +2 x5793 -1 x5458 -1 x5459 -1 x5460 -1 x5461 -1 x5462 -1 x5463 >= 0 ;
+2 x5794 +2 x5795 +2 x5796 -1 x5461 -1 x5462 -1 x5463 -1 x5464 -1 x5465 -1 x5466 >= 0 ;
+2 x5797 +2 x5798 +2 x5799 -1 x5464 -1 x5465 -1 x5466 -1 x5467 -1 x5468 -1 x5469 >= 0 ;
+2 x5800 +2 x5801 +2 x5802 -1 x5467 -1 x5468 -1 x5469 -1 x5470 -1 x5471 -1 x5472 >= 0 ;
+2 x5803 +2 x5804 +2 x5805 -1 x5470 -1 x5471 -1 x5472 -1 x5473 -1 x5474 -1 x5475 >= 0 ;
+2 x5806 +2 x5807 +2 x5808 -1 x5473 -1 x5474 -1 x5475 -1 x5476 -1 x5477 -1 x5478 >= 0 ;
+2 x5809 +2 x5810 +2 x5811 -1 x5476 -1 x5477 -1 x5478 -1 x5479 -1 x5480 -1 x5481 >= 0 ;
+2 x5812 +2 x5813 +2 x5814 -1 x5479 -1 x5480 -1 x5481 -1 x5482 -1 x5483 -1 x5484 >= 0 ;
+2 x5815 +2 x5816 +2 x5817 -1 x5482 -1 x5483 -1 x5484 -1 x5485 -1 x5486 -1 x5487 >= 0 ;
+2 x5818 +2 x5819 +2 x5820 -1 x5485 -1 x5486 -1 x5487 -1 x5488 -1 x5489 -1 x5490 >= 0 ;
+2 x5821 +2 x5822 +2 x5823 -1 x5488 -1 x5489 -1 x5490 -1 x5491 -1 x5492 -1 x5493 >= 0 ;
+2 x5824 +2 x5825 +2 x5826 -1 x5491 -1 x5492 -1 x5493 -1 x5494 -1 x5495 -1 x5496 >= 0 ;
+2 x5827 +2 x5828 +2 x5829 -1 x5494 -1 x5495 -1 x5496 -1 x5497 -1 x5498 -1 x5499 >= 0 ;
+2 x5830 +2 x5831 +2 x5832 -1 x5497 -1 x5498 -1 x5499 -1 x5500 -1 x5501 -1 x5502 >= 0 ;
+2 x5833 +2 x5834 +2 x5835 -1 x5500 -1 x5501 -1 x5502 -1 x5503 -1 x5504 -1 x5505 >= 0 ;
+2 x5836 +2 x5837 +2 x5838 -1 x5503 -1 x5504 -1 x5505 -1 x5506 -1 x5507 -1 x5508 >= 0 ;
+2 x5839 +2 x5840 +2 x5841 -1 x5506 -1 x5507 -1 x5508 -1 x5509 -1 x5510 -1 x5511 >= 0 ;
+2 x5842 +2 x5843 +2 x5844 -1 x5509 -1 x5510 -1 x5511 -1 x5512 -1 x5513 -1 x5514 >= 0 ;
+2 x5845 +2 x5846 +2 x5847 -1 x5512 -1 x5513 -1 x5514 -1 x5515 -1 x5516 -1 x5517 >= 0 ;
+2 x5848 +2 x5849 +2 x5850 -1 x5515 -1 x5516 -1 x5517 -1 x5518 -1 x5519 -1 x5520 >= 0 ;
+2 x5851 +2 x5852 +2 x5853 -1 x5518 -1 x5519 -1 x5520 -1 x5521 -1 x5522 -1 x5523 >= 0 ;
+2 x5854 +2 x5855 +2 x5856 -1 x5521 -1 x5522 -1 x5523 -1 x5524 -1 x5525 -1 x5526 >= 0 ;
+2 x5857 +2 x5858 +2 x5859 -1 x5524 -1 x5525 -1 x5526 -1 x5527 -1 x5528 -1 x5529 >= 0 ;
+2 x5860 +2 x5861 +2 x5862 -1 x5527 -1 x5528 -1 x5529 -1 x5530 -1 x5531 -1 x5532 >= 0 ;
+2 x5863 +2 x5864 +2 x5865 -1 x5530 -1 x5531 -1 x5532 -1 x5533 -1 x5534 -1 x5535 >= 0 ;
+2 x5866 +2 x5867 +2 x5868 -1 x5533 -1 x5534 -1 x5535 -1 x5536 -1 x5537 -1 x5538 >= 0 ;
+2 x5869 +2 x5870 +2 x5871 -1 x5536 -1 x5537 -1 x5538 -1 x5539 -1 x5540 -1 x5541 >= 0 ;
+2 x5872 +2 x5873 +2 x5874 -1 x5539 -1 x5540 -1 x5541 -1 x5542 -1 x5543 -1 x5544 >= 0 ;
+2 x5875 +2 x5876 +2 x5877 -1 x5542 -1 x5543 -1 x5544 -1 x5545 -1 x5546 -1 x5547 >= 0 ;
+2 x5878 +2 x5879 +2 x5880 -1 x5545 -1 x5546 -1 x5547 -1 x5548 -1 x5549 -1 x5550 >= 0 ;
+2 x5881 +2 x5882 +2 x5883 -1 x5548 -1 x5549 -1 x5550 -1 x5551 -1 x5552 -1 x5553 >= 0 ;
+2 x5884 +2 x5885 +2 x5886 -1 x5551 -1 x5552 -1 x5553 -1 x5554 -1 x5555 -1 x5556 >= 0 ;
+2 x5887 +2 x5888 +2 x5889 -1 x5554 -1 x5555 -1 x5556 -1 x5557 -1 x5558 -1 x5559 >= 0 ;
+2 x5890 +2 x5891 +2 x5892 -1 x5557 -1 x5558 -1 x5559 -1 x5560 -1 x5561 -1 x5562 >= 0 ;
+2 x5893 +2 x5894 +2 x5895 -1 x5560 -1 x5561 -1 x5562 -1 x5563 -1 x5564 -1 x5565 >= 0 ;
+2 x5896 +2 x5897 +2 x5898 -1 x5563 -1 x5564 -1 x5565 -1 x5566 -1 x5567 -1 x5568 >= 0 ;
+2 x5899 +2 x5900 +2 x5901 -1 x5566 -1 x5567 -1 x5568 -1 x5569 -1 x5570 -1 x5571 >= 0 ;
+2 x5902 +2 x5903 +2 x5904 -1 x5569 -1 x5570 -1 x5571 -1 x5572 -1 x5573 -1 x5574 >= 0 ;
+2 x5905 +2 x5906 +2 x5907 -1 x5572 -1 x5573 -1 x5574 -1 x5575 -1 x5576 -1 x5577 >= 0 ;
+2 x5908 +2 x5909 +2 x5910 -1 x5575 -1 x5576 -1 x5577 -1 x5578 -1 x5579 -1 x5580 >= 0 ;
+2 x5911 +2 x5912 +2 x5913 -1 x5578 -1 x5579 -1 x5580 -1 x5581 -1 x5582 -1 x5583 >= 0 ;
+2 x5914 +2 x5915 +2 x5916 -1 x5581 -1 x5582 -1 x5583 -1 x5584 -1 x5585 -1 x5586 >= 0 ;
+2 x5917 +2 x5918 +2 x5919 -1 x5584 -1 x5585 -1 x5586 -1 x5587 -1 x5588 -1 x5589 >= 0 ;
+2 x5920 +2 x5921 +2 x5922 -1 x5587 -1 x5588 -1 x5589 -1 x5590 -1 x5591 -1 x5592 >= 0 ;
+2 x5923 +2 x5924 +2 x5925 -1 x5590 -1 x5591 -1 x5592 -1 x5593 -1 x5594 -1 x5595 >= 0 ;
+2 x5926 +2 x5927 +2 x5928 -1 x5593 -1 x5594 -1 x5595 -1 x5596 -1 x5597 -1 x5598 >= 0 ;
+2 x5929 +2 x5930 +2 x5931 -1 x5596 -1 x5597 -1 x5598 -1 x5599 -1 x5600 -1 x5601 >= 0 ;
+2 x5932 +2 x5933 +2 x5934 -1 x5599 -1 x5600 -1 x5601 -1 x5602 -1 x5603 -1 x5604 >= 0 ;
+2 x5935 +2 x5936 +2 x5937 -1 x5602 -1 x5603 -1 x5604 -1 x5605 -1 x5606 -1 x5607 >= 0 ;
+2 x5938 +2 x5939 +2 x5940 -1 x5605 -1 x5606 -1 x5607 -1 x5608 -1 x5609 -1 x5610 >= 0 ;
+2 x5941 +2 x5942 +2 x5943 -1 x5608 -1 x5609 -1 x5610 -1 x5611 -1 x5612 -1 x5613 >= 0 ;
+2 x5944 +2 x5945 +2 x5946 -1 x5611 -1 x5612 -1 x5613 -1 x5614 -1 x5615 -1 x5616 >= 0 ;
+2 x5947 +2 x5948 +2 x5949 -1 x5614 -1 x5615 -1 x5616 -1 x5617 -1 x5618 -1 x5619 >= 0 ;
+2 x5950 +2 x5951 +2 x5952 -1 x5617 -1 x5618 -1 x5619 -1 x5620 -1 x5621 -1 x5622 >= 0 ;
+2 x5953 +2 x5954 +2 x5955 -1 x5620 -1 x5621 -1 x5622 -1 x5623 -1 x5624 -1 x5625 >= 0 ;
+2 x5956 +2 x5957 +2 x5958 -1 x5623 -1 x5624 -1 x5625 -1 x5626 -1 x5627 -1 x5628 >= 0 ;
+2 x5959 +2 x5960 +2 x5961 -1 x5626 -1 x5627 -1 x5628 -1 x5629 -1 x5630 -1 x5631 >= 0 ;
+2 x5962 +2 x5963 +2 x5964 -1 x5629 -1 x5630 -1 x5631 -1 x5632 -1 x5633 -1 x5634 >= 0 ;
+2 x5965 +2 x5966 +2 x5967 -1 x5632 -1 x5633 -1 x5634 -1 x5635 -1 x5636 -1 x5637 >= 0 ;
+2 x5968 +2 x5969 +2 x5970 -1 x5635 -1 x5636 -1 x5637 -1 x5638 -1 x5639 -1 x5640 >= 0 ;
+2 x5971 +2 x5972 +2 x5973 -1 x5638 -1 x5639 -1 x5640 -1 x5641 -1 x5642 -1 x5643 >= 0 ;
+2 x5974 +2 x5975 +2 x5976 -1 x5641 -1 x5642 -1 x5643 -1 x5644 -1 x5645 -1 x5646 >= 0 ;
+2 x5977 +2 x5978 +2 x5979 -1 x5644 -1 x5645 -1 x5646 -1 x5647 -1 x5648 -1 x5649 >= 0 ;
+2 x5980 +2 x5981 +2 x5982 -1 x5647 -1 x5648 -1 x5649 -1 x5650 -1 x5651 -1 x5652 >= 0 ;
+2 x5983 +2 x5984 +2 x5985 -1 x5650 -1 x5651 -1 x5652 -1 x5653 -1 x5654 -1 x5655 >= 0 ;
+2 x5986 +2 x5987 +2 x5988 -1 x5653 -1 x5654 -1 x5655 -1 x5656 -1 x5657 -1 x5658 >= 0 ;
+2 x5989 +2 x5990 +2 x5991 -1 x5656 -1 x5657 -1 x5658 -1 x5659 -1 x5660 -1 x5661 >= 0 ;
+2 x5992 +2 x5993 +2 x5994 -1 x5659 -1 x5660 -1 x5661 -1 x5662 -1 x5663 -1 x5664 >= 0 ;
+2 x5995 +2 x5996 +2 x5997 -1 x5662 -1 x5663 -1 x5664 -1 x5665 -1 x5666 -1 x5667 >= 0 ;
+2 x5998 +2 x5999 +2 x6000 -1 x5665 -1 x5666 -1 x5667 -1 x5668 -1 x5669 -1 x5670 >= 0 ;
+2 x6001 +2 x6002 +2 x6003 -1 x5668 -1 x5669 -1 x5670 -1 x5671 -1 x5672 -1 x5673 >= 0 ;
+2 x6004 +2 x6005 +2 x6006 -1 x5671 -1 x5672 -1 x5673 -1 x5674 -1 x5675 -1 x5676 >= 0 ;
+2 x6007 +2 x6008 +2 x6009 -1 x5674 -1 x5675 -1 x5676 -1 x5677 -1 x5678 -1 x5679 >= 0 ;
+2 x6010 +2 x6011 +2 x6012 -1 x5677 -1 x5678 -1 x5679 -1 x5680 -1 x5681 -1 x5682 >= 0 ;
+2 x6013 +2 x6014 +2 x6015 -1 x5680 -1 x5681 -1 x5682 -1 x5683 -1 x5684 -1 x5685 >= 0 ;
+2 x6016 +2 x6017 +2 x6018 -1 x5683 -1 x5684 -1 x5685 -1 x5686 -1 x5687 -1 x5688 >= 0 ;
+2 x6019 +2 x6020 +2 x6021 -1 x5689 -1 x5690 -1 x5691 -1 x5692 -1 x5693 -1 x5694 >= 0 ;
+2 x6022 +2 x6023 +2 x6024 -1 x5692 -1 x5693 -1 x5694 -1 x5695 -1 x5696 -1 x5697 >= 0 ;
+2 x6025 +2 x6026 +2 x6027 -1 x5695 -1 x5696 -1 x5697 -1 x5698 -1 x5699 -1 x5700 >= 0 ;
+2 x6028 +2 x6029 +2 x6030 -1 x5698 -1 x5699 -1 x5700 -1 x5701 -1 x5702 -1 x5703 >= 0 ;
+2 x6031 +2 x6032 +2 x6033 -1 x5701 -1 x5702 -1 x5703 -1 x5704 -1 x5705 -1 x5706 >= 0 ;
+2 x6034 +2 x6035 +2 x6036 -1 x5704 -1 x5705 -1 x5706 -1 x5707 -1 x5708 -1 x5709 >= 0 ;
+2 x6037 +2 x6038 +2 x6039 -1 x5707 -1 x5708 -1 x5709 -1 x5710 -1 x5711 -1 x5712 >= 0 ;
+2 x6040 +2 x6041 +2 x6042 -1 x5710 -1 x5711 -1 x5712 -1 x5713 -1 x5714 -1 x5715 >= 0 ;
+2 x6043 +2 x6044 +2 x6045 -1 x5713 -1 x5714 -1 x5715 -1 x5716 -1 x5717 -1 x5718 >= 0 ;
+2 x6046 +2 x6047 +2 x6048 -1 x5716 -1 x5717 -1 x5718 -1 x5719 -1 x5720 -1 x5721 >= 0 ;
+2 x6049 +2 x6050 +2 x6051 -1 x5719 -1 x5720 -1 x5721 -1 x5722 -1 x5723 -1 x5724 >= 0 ;
+2 x6052 +2 x6053 +2 x6054 -1 x5722 -1 x5723 -1 x5724 -1 x5725 -1 x5726 -1 x5727 >= 0 ;
+2 x6055 +2 x6056 +2 x6057 -1 x5725 -1 x5726 -1 x5727 -1 x5728 -1 x5729 -1 x5730 >= 0 ;
+2 x6058 +2 x6059 +2 x6060 -1 x5728 -1 x5729 -1 x5730 -1 x5731 -1 x5732 -1 x5733 >= 0 ;
+2 x6061 +2 x6062 +2 x6063 -1 x5731 -1 x5732 -1 x5733 -1 x5734 -1 x5735 -1 x5736 >= 0 ;
+2 x6064 +2 x6065 +2 x6066 -1 x5734 -1 x5735 -1 x5736 -1 x5737 -1 x5738 -1 x5739 >= 0 ;
+2 x6067 +2 x6068 +2 x6069 -1 x5737 -1 x5738 -1 x5739 -1 x5740 -1 x5741 -1 x5742 >= 0 ;
+2 x6070 +2 x6071 +2 x6072 -1 x5740 -1 x5741 -1 x5742 -1 x5743 -1 x5744 -1 x5745 >= 0 ;
+2 x6073 +2 x6074 +2 x6075 -1 x5743 -1 x5744 -1 x5745 -1 x5746 -1 x5747 -1 x5748 >= 0 ;
+2 x6076 +2 x6077 +2 x6078 -1 x5746 -1 x5747 -1 x5748 -1 x5749 -1 x5750 -1 x5751 >= 0 ;
+2 x6079 +2 x6080 +2 x6081 -1 x5749 -1 x5750 -1 x5751 -1 x5752 -1 x5753 -1 x5754 >= 0 ;
+2 x6082 +2 x6083 +2 x6084 -1 x5752 -1 x5753 -1 x5754 -1 x5755 -1 x5756 -1 x5757 >= 0 ;
+2 x6085 +2 x6086 +2 x6087 -1 x5755 -1 x5756 -1 x5757 -1 x5758 -1 x5759 -1 x5760 >= 0 ;
+2 x6088 +2 x6089 +2 x6090 -1 x5758 -1 x5759 -1 x5760 -1 x5761 -1 x5762 -1 x5763 >= 0 ;
+2 x6091 +2 x6092 +2 x6093 -1 x5761 -1 x5762 -1 x5763 -1 x5764 -1 x5765 -1 x5766 >= 0 ;
+2 x6094 +2 x6095 +2 x6096 -1 x5764 -1 x5765 -1 x5766 -1 x5767 -1 x5768 -1 x5769 >= 0 ;
+2 x6097 +2 x6098 +2 x6099 -1 x5767 -1 x5768 -1 x5769 -1 x5770 -1 x5771 -1 x5772 >= 0 ;
+2 x6100 +2 x6101 +2 x6102 -1 x5770 -1 x5771 -1 x5772 -1 x5773 -1 x5774 -1 x5775 >= 0 ;
+2 x6103 +2 x6104 +2 x6105 -1 x5773 -1 x5774 -1 x5775 -1 x5776 -1 x5777 -1 x5778 >= 0 ;
+2 x6106 +2 x6107 +2 x6108 -1 x5776 -1 x5777 -1 x5778 -1 x5779 -1 x5780 -1 x5781 >= 0 ;
+2 x6109 +2 x6110 +2 x6111 -1 x5779 -1 x5780 -1 x5781 -1 x5782 -1 x5783 -1 x5784 >= 0 ;
+2 x6112 +2 x6113 +2 x6114 -1 x5782 -1 x5783 -1 x5784 -1 x5785 -1 x5786 -1 x5787 >= 0 ;
+2 x6115 +2 x6116 +2 x6117 -1 x5785 -1 x5786 -1 x5787 -1 x5788 -1 x5789 -1 x5790 >= 0 ;
+2 x6118 +2 x6119 +2 x6120 -1 x5788 -1 x5789 -1 x5790 -1 x5791 -1 x5792 -1 x5793 >= 0 ;
+2 x6121 +2 x6122 +2 x6123 -1 x5791 -1 x5792 -1 x5793 -1 x5794 -1 x5795 -1 x5796 >= 0 ;
+2 x6124 +2 x6125 +2 x6126 -1 x5794 -1 x5795 -1 x5796 -1 x5797 -1 x5798 -1 x5799 >= 0 ;
+2 x6127 +2 x6128 +2 x6129 -1 x5797 -1 x5798 -1 x5799 -1 x5800 -1 x5801 -1 x5802 >= 0 ;
+2 x6130 +2 x6131 +2 x6132 -1 x5800 -1 x5801 -1 x5802 -1 x5803 -1 x5804 -1 x5805 >= 0 ;
+2 x6133 +2 x6134 +2 x6135 -1 x5803 -1 x5804 -1 x5805 -1 x5806 -1 x5807 -1 x5808 >= 0 ;
+2 x6136 +2 x6137 +2 x6138 -1 x5806 -1 x5807 -1 x5808 -1 x5809 -1 x5810 -1 x5811 >= 0 ;
+2 x6139 +2 x6140 +2 x6141 -1 x5809 -1 x5810 -1 x5811 -1 x5812 -1 x5813 -1 x5814 >= 0 ;
+2 x6142 +2 x6143 +2 x6144 -1 x5812 -1 x5813 -1 x5814 -1 x5815 -1 x5816 -1 x5817 >= 0 ;
+2 x6145 +2 x6146 +2 x6147 -1 x5815 -1 x5816 -1 x5817 -1 x5818 -1 x5819 -1 x5820 >= 0 ;
+2 x6148 +2 x6149 +2 x6150 -1 x5818 -1 x5819 -1 x5820 -1 x5821 -1 x5822 -1 x5823 >= 0 ;
+2 x6151 +2 x6152 +2 x6153 -1 x5821 -1 x5822 -1 x5823 -1 x5824 -1 x5825 -1 x5826 >= 0 ;
+2 x6154 +2 x6155 +2 x6156 -1 x5824 -1 x5825 -1 x5826 -1 x5827 -1 x5828 -1 x5829 >= 0 ;
+2 x6157 +2 x6158 +2 x6159 -1 x5827 -1 x5828 -1 x5829 -1 x5830 -1 x5831 -1 x5832 >= 0 ;
+2 x6160 +2 x6161 +2 x6162 -1 x5830 -1 x5831 -1 x5832 -1 x5833 -1 x5834 -1 x5835 >= 0 ;
+2 x6163 +2 x6164 +2 x6165 -1 x5833 -1 x5834 -1 x5835 -1 x5836 -1 x5837 -1 x5838 >= 0 ;
+2 x6166 +2 x6167 +2 x6168 -1 x5836 -1 x5837 -1 x5838 -1 x5839 -1 x5840 -1 x5841 >= 0 ;
+2 x6169 +2 x6170 +2 x6171 -1 x5839 -1 x5840 -1 x5841 -1 x5842 -1 x5843 -1 x5844 >= 0 ;
+2 x6172 +2 x6173 +2 x6174 -1 x5842 -1 x5843 -1 x5844 -1 x5845 -1 x5846 -1 x5847 >= 0 ;
+2 x6175 +2 x6176 +2 x6177 -1 x5845 -1 x5846 -1 x5847 -1 x5848 -1 x5849 -1 x5850 >= 0 ;
+2 x6178 +2 x6179 +2 x6180 -1 x5848 -1 x5849 -1 x5850 -1 x5851 -1 x5852 -1 x5853 >= 0 ;
+2 x6181 +2 x6182 +2 x6183 -1 x5851 -1 x5852 -1 x5853 -1 x5854 -1 x5855 -1 x5856 >= 0 ;
+2 x6184 +2 x6185 +2 x6186 -1 x5854 -1 x5855 -1 x5856 -1 x5857 -1 x5858 -1 x5859 >= 0 ;
+2 x6187 +2 x6188 +2 x6189 -1 x5857 -1 x5858 -1 x5859 -1 x5860 -1 x5861 -1 x5862 >= 0 ;
+2 x6190 +2 x6191 +2 x6192 -1 x5860 -1 x5861 -1 x5862 -1 x5863 -1 x5864 -1 x5865 >= 0 ;
+2 x6193 +2 x6194 +2 x6195 -1 x5863 -1 x5864 -1 x5865 -1 x5866 -1 x5867 -1 x5868 >= 0 ;
+2 x6196 +2 x6197 +2 x6198 -1 x5866 -1 x5867 -1 x5868 -1 x5869 -1 x5870 -1 x5871 >= 0 ;
+2 x6199 +2 x6200 +2 x6201 -1 x5869 -1 x5870 -1 x5871 -1 x5872 -1 x5873 -1 x5874 >= 0 ;
+2 x6202 +2 x6203 +2 x6204 -1 x5872 -1 x5873 -1 x5874 -1 x5875 -1 x5876 -1 x5877 >= 0 ;
+2 x6205 +2 x6206 +2 x6207 -1 x5875 -1 x5876 -1 x5877 -1 x5878 -1 x5879 -1 x5880 >= 0 ;
+2 x6208 +2 x6209 +2 x6210 -1 x5878 -1 x5879 -1 x5880 -1 x5881 -1 x5882 -1 x5883 >= 0 ;
+2 x6211 +2 x6212 +2 x6213 -1 x5881 -1 x5882 -1 x5883 -1 x5884 -1 x5885 -1 x5886 >= 0 ;
+2 x6214 +2 x6215 +2 x6216 -1 x5884 -1 x5885 -1 x5886 -1 x5887 -1 x5888 -1 x5889 >= 0 ;
+2 x6217 +2 x6218 +2 x6219 -1 x5887 -1 x5888 -1 x5889 -1 x5890 -1 x5891 -1 x5892 >= 0 ;
+2 x6220 +2 x6221 +2 x6222 -1 x5890 -1 x5891 -1 x5892 -1 x5893 -1 x5894 -1 x5895 >= 0 ;
+2 x6223 +2 x6224 +2 x6225 -1 x5893 -1 x5894 -1 x5895 -1 x5896 -1 x5897 -1 x5898 >= 0 ;
+2 x6226 +2 x6227 +2 x6228 -1 x5896 -1 x5897 -1 x5898 -1 x5899 -1 x5900 -1 x5901 >= 0 ;
+2 x6229 +2 x6230 +2 x6231 -1 x5899 -1 x5900 -1 x5901 -1 x5902 -1 x5903 -1 x5904 >= 0 ;
+2 x6232 +2 x6233 +2 x6234 -1 x5902 -1 x5903 -1 x5904 -1 x5905 -1 x5906 -1 x5907 >= 0 ;
+2 x6235 +2 x6236 +2 x6237 -1 x5905 -1 x5906 -1 x5907 -1 x5908 -1 x5909 -1 x5910 >= 0 ;
+2 x6238 +2 x6239 +2 x6240 -1 x5908 -1 x5909 -1 x5910 -1 x5911 -1 x5912 -1 x5913 >= 0 ;
+2 x6241 +2 x6242 +2 x6243 -1 x5911 -1 x5912 -1 x5913 -1 x5914 -1 x5915 -1 x5916 >= 0 ;
+2 x6244 +2 x6245 +2 x6246 -1 x5914 -1 x5915 -1 x5916 -1 x5917 -1 x5918 -1 x5919 >= 0 ;
+2 x6247 +2 x6248 +2 x6249 -1 x5917 -1 x5918 -1 x5919 -1 x5920 -1 x5921 -1 x5922 >= 0 ;
+2 x6250 +2 x6251 +2 x6252 -1 x5920 -1 x5921 -1 x5922 -1 x5923 -1 x5924 -1 x5925 >= 0 ;
+2 x6253 +2 x6254 +2 x6255 -1 x5923 -1 x5924 -1 x5925 -1 x5926 -1 x5927 -1 x5928 >= 0 ;
+2 x6256 +2 x6257 +2 x6258 -1 x5926 -1 x5927 -1 x5928 -1 x5929 -1 x5930 -1 x5931 >= 0 ;
+2 x6259 +2 x6260 +2 x6261 -1 x5929 -1 x5930 -1 x5931 -1 x5932 -1 x5933 -1 x5934 >= 0 ;
+2 x6262 +2 x6263 +2 x6264 -1 x5932 -1 x5933 -1 x5934 -1 x5935 -1 x5936 -1 x5937 >= 0 ;
+2 x6265 +2 x6266 +2 x6267 -1 x5935 -1 x5936 -1 x5937 -1 x5938 -1 x5939 -1 x5940 >= 0 ;
+2 x6268 +2 x6269 +2 x6270 -1 x5938 -1 x5939 -1 x5940 -1 x5941 -1 x5942 -1 x5943 >= 0 ;
+2 x6271 +2 x6272 +2 x6273 -1 x5941 -1 x5942 -1 x5943 -1 x5944 -1 x5945 -1 x5946 >= 0 ;
+2 x6274 +2 x6275 +2 x6276 -1 x5944 -1 x5945 -1 x5946 -1 x5947 -1 x5948 -1 x5949 >= 0 ;
+2 x6277 +2 x6278 +2 x6279 -1 x5947 -1 x5948 -1 x5949 -1 x5950 -1 x5951 -1 x5952 >= 0 ;
+2 x6280 +2 x6281 +2 x6282 -1 x5950 -1 x5951 -1 x5952 -1 x5953 -1 x5954 -1 x5955 >= 0 ;
+2 x6283 +2 x6284 +2 x6285 -1 x5953 -1 x5954 -1 x5955 -1 x5956 -1 x5957 -1 x5958 >= 0 ;
+2 x6286 +2 x6287 +2 x6288 -1 x5956 -1 x5957 -1 x5958 -1 x5959 -1 x5960 -1 x5961 >= 0 ;
+2 x6289 +2 x6290 +2 x6291 -1 x5959 -1 x5960 -1 x5961 -1 x5962 -1 x5963 -1 x5964 >= 0 ;
+2 x6292 +2 x6293 +2 x6294 -1 x5962 -1 x5963 -1 x5964 -1 x5965 -1 x5966 -1 x5967 >= 0 ;
+2 x6295 +2 x6296 +2 x6297 -1 x5965 -1 x5966 -1 x5967 -1 x5968 -1 x5969 -1 x5970 >= 0 ;
+2 x6298 +2 x6299 +2 x6300 -1 x5968 -1 x5969 -1 x5970 -1 x5971 -1 x5972 -1 x5973 >= 0 ;
+2 x6301 +2 x6302 +2 x6303 -1 x5971 -1 x5972 -1 x5973 -1 x5974 -1 x5975 -1 x5976 >= 0 ;
+2 x6304 +2 x6305 +2 x6306 -1 x5974 -1 x5975 -1 x5976 -1 x5977 -1 x5978 -1 x5979 >= 0 ;
+2 x6307 +2 x6308 +2 x6309 -1 x5977 -1 x5978 -1 x5979 -1 x5980 -1 x5981 -1 x5982 >= 0 ;
+2 x6310 +2 x6311 +2 x6312 -1 x5980 -1 x5981 -1 x5982 -1 x5983 -1 x5984 -1 x5985 >= 0 ;
+2 x6313 +2 x6314 +2 x6315 -1 x5983 -1 x5984 -1 x5985 -1 x5986 -1 x5987 -1 x5988 >= 0 ;
+2 x6316 +2 x6317 +2 x6318 -1 x5986 -1 x5987 -1 x5988 -1 x5989 -1 x5990 -1 x5991 >= 0 ;
+2 x6319 +2 x6320 +2 x6321 -1 x5989 -1 x5990 -1 x5991 -1 x5992 -1 x5993 -1 x5994 >= 0 ;
+2 x6322 +2 x6323 +2 x6324 -1 x5992 -1 x5993 -1 x5994 -1 x5995 -1 x5996 -1 x5997 >= 0 ;
+2 x6325 +2 x6326 +2 x6327 -1 x5995 -1 x5996 -1 x5997 -1 x5998 -1 x5999 -1 x6000 >= 0 ;
+2 x6328 +2 x6329 +2 x6330 -1 x5998 -1 x5999 -1 x6000 -1 x6001 -1 x6002 -1 x6003 >= 0 ;
+2 x6331 +2 x6332 +2 x6333 -1 x6001 -1 x6002 -1 x6003 -1 x6004 -1 x6005 -1 x6006 >= 0 ;
+2 x6334 +2 x6335 +2 x6336 -1 x6004 -1 x6005 -1 x6006 -1 x6007 -1 x6008 -1 x6009 >= 0 ;
+2 x6337 +2 x6338 +2 x6339 -1 x6007 -1 x6008 -1 x6009 -1 x6010 -1 x6011 -1 x6012 >= 0 ;
+2 x6340 +2 x6341 +2 x6342 -1 x6010 -1 x6011 -1 x6012 -1 x6013 -1 x6014 -1 x6015 >= 0 ;
+2 x6343 +2 x6344 +2 x6345 -1 x6013 -1 x6014 -1 x6015 -1 x6016 -1 x6017 -1 x6018 >= 0 ;
+2 x6346 +2 x6347 +2 x6348 -1 x6019 -1 x6020 -1 x6021 -1 x6022 -1 x6023 -1 x6024 >= 0 ;
+2 x6349 +2 x6350 +2 x6351 -1 x6022 -1 x6023 -1 x6024 -1 x6025 -1 x6026 -1 x6027 >= 0 ;
+2 x6352 +2 x6353 +2 x6354 -1 x6025 -1 x6026 -1 x6027 -1 x6028 -1 x6029 -1 x6030 >= 0 ;
+2 x6355 +2 x6356 +2 x6357 -1 x6028 -1 x6029 -1 x6030 -1 x6031 -1 x6032 -1 x6033 >= 0 ;
+2 x6358 +2 x6359 +2 x6360 -1 x6031 -1 x6032 -1 x6033 -1 x6034 -1 x6035 -1 x6036 >= 0 ;
+2 x6361 +2 x6362 +2 x6363 -1 x6034 -1 x6035 -1 x6036 -1 x6037 -1 x6038 -1 x6039 >= 0 ;
+2 x6364 +2 x6365 +2 x6366 -1 x6037 -1 x6038 -1 x6039 -1 x6040 -1 x6041 -1 x6042 >= 0 ;
+2 x6367 +2 x6368 +2 x6369 -1 x6040 -1 x6041 -1 x6042 -1 x6043 -1 x6044 -1 x6045 >= 0 ;
+2 x6370 +2 x6371 +2 x6372 -1 x6043 -1 x6044 -1 x6045 -1 x6046 -1 x6047 -1 x6048 >= 0 ;
+2 x6373 +2 x6374 +2 x6375 -1 x6046 -1 x6047 -1 x6048 -1 x6049 -1 x6050 -1 x6051 >= 0 ;
+2 x6376 +2 x6377 +2 x6378 -1 x6049 -1 x6050 -1 x6051 -1 x6052 -1 x6053 -1 x6054 >= 0 ;
+2 x6379 +2 x6380 +2 x6381 -1 x6052 -1 x6053 -1 x6054 -1 x6055 -1 x6056 -1 x6057 >= 0 ;
+2 x6382 +2 x6383 +2 x6384 -1 x6055 -1 x6056 -1 x6057 -1 x6058 -1 x6059 -1 x6060 >= 0 ;
+2 x6385 +2 x6386 +2 x6387 -1 x6058 -1 x6059 -1 x6060 -1 x6061 -1 x6062 -1 x6063 >= 0 ;
+2 x6388 +2 x6389 +2 x6390 -1 x6061 -1 x6062 -1 x6063 -1 x6064 -1 x6065 -1 x6066 >= 0 ;
+2 x6391 +2 x6392 +2 x6393 -1 x6064 -1 x6065 -1 x6066 -1 x6067 -1 x6068 -1 x6069 >= 0 ;
+2 x6394 +2 x6395 +2 x6396 -1 x6067 -1 x6068 -1 x6069 -1 x6070 -1 x6071 -1 x6072 >= 0 ;
+2 x6397 +2 x6398 +2 x6399 -1 x6070 -1 x6071 -1 x6072 -1 x6073 -1 x6074 -1 x6075 >= 0 ;
+2 x6400 +2 x6401 +2 x6402 -1 x6073 -1 x6074 -1 x6075 -1 x6076 -1 x6077 -1 x6078 >= 0 ;
+2 x6403 +2 x6404 +2 x6405 -1 x6076 -1 x6077 -1 x6078 -1 x6079 -1 x6080 -1 x6081 >= 0 ;
+2 x6406 +2 x6407 +2 x6408 -1 x6079 -1 x6080 -1 x6081 -1 x6082 -1 x6083 -1 x6084 >= 0 ;
+2 x6409 +2 x6410 +2 x6411 -1 x6082 -1 x6083 -1 x6084 -1 x6085 -1 x6086 -1 x6087 >= 0 ;
+2 x6412 +2 x6413 +2 x6414 -1 x6085 -1 x6086 -1 x6087 -1 x6088 -1 x6089 -1 x6090 >= 0 ;
+2 x6415 +2 x6416 +2 x6417 -1 x6088 -1 x6089 -1 x6090 -1 x6091 -1 x6092 -1 x6093 >= 0 ;
+2 x6418 +2 x6419 +2 x6420 -1 x6091 -1 x6092 -1 x6093 -1 x6094 -1 x6095 -1 x6096 >= 0 ;
+2 x6421 +2 x6422 +2 x6423 -1 x6094 -1 x6095 -1 x6096 -1 x6097 -1 x6098 -1 x6099 >= 0 ;
+2 x6424 +2 x6425 +2 x6426 -1 x6097 -1 x6098 -1 x6099 -1 x6100 -1 x6101 -1 x6102 >= 0 ;
+2 x6427 +2 x6428 +2 x6429 -1 x6100 -1 x6101 -1 x6102 -1 x6103 -1 x6104 -1 x6105 >= 0 ;
+2 x6430 +2 x6431 +2 x6432 -1 x6103 -1 x6104 -1 x6105 -1 x6106 -1 x6107 -1 x6108 >= 0 ;
+2 x6433 +2 x6434 +2 x6435 -1 x6106 -1 x6107 -1 x6108 -1 x6109 -1 x6110 -1 x6111 >= 0 ;
+2 x6436 +2 x6437 +2 x6438 -1 x6109 -1 x6110 -1 x6111 -1 x6112 -1 x6113 -1 x6114 >= 0 ;
+2 x6439 +2 x6440 +2 x6441 -1 x6112 -1 x6113 -1 x6114 -1 x6115 -1 x6116 -1 x6117 >= 0 ;
+2 x6442 +2 x6443 +2 x6444 -1 x6115 -1 x6116 -1 x6117 -1 x6118 -1 x6119 -1 x6120 >= 0 ;
+2 x6445 +2 x6446 +2 x6447 -1 x6118 -1 x6119 -1 x6120 -1 x6121 -1 x6122 -1 x6123 >= 0 ;
+2 x6448 +2 x6449 +2 x6450 -1 x6121 -1 x6122 -1 x6123 -1 x6124 -1 x6125 -1 x6126 >= 0 ;
+2 x6451 +2 x6452 +2 x6453 -1 x6124 -1 x6125 -1 x6126 -1 x6127 -1 x6128 -1 x6129 >= 0 ;
+2 x6454 +2 x6455 +2 x6456 -1 x6127 -1 x6128 -1 x6129 -1 x6130 -1 x6131 -1 x6132 >= 0 ;
+2 x6457 +2 x6458 +2 x6459 -1 x6130 -1 x6131 -1 x6132 -1 x6133 -1 x6134 -1 x6135 >= 0 ;
+2 x6460 +2 x6461 +2 x6462 -1 x6133 -1 x6134 -1 x6135 -1 x6136 -1 x6137 -1 x6138 >= 0 ;
+2 x6463 +2 x6464 +2 x6465 -1 x6136 -1 x6137 -1 x6138 -1 x6139 -1 x6140 -1 x6141 >= 0 ;
+2 x6466 +2 x6467 +2 x6468 -1 x6139 -1 x6140 -1 x6141 -1 x6142 -1 x6143 -1 x6144 >= 0 ;
+2 x6469 +2 x6470 +2 x6471 -1 x6142 -1 x6143 -1 x6144 -1 x6145 -1 x6146 -1 x6147 >= 0 ;
+2 x6472 +2 x6473 +2 x6474 -1 x6145 -1 x6146 -1 x6147 -1 x6148 -1 x6149 -1 x6150 >= 0 ;
+2 x6475 +2 x6476 +2 x6477 -1 x6148 -1 x6149 -1 x6150 -1 x6151 -1 x6152 -1 x6153 >= 0 ;
+2 x6478 +2 x6479 +2 x6480 -1 x6151 -1 x6152 -1 x6153 -1 x6154 -1 x6155 -1 x6156 >= 0 ;
+2 x6481 +2 x6482 +2 x6483 -1 x6154 -1 x6155 -1 x6156 -1 x6157 -1 x6158 -1 x6159 >= 0 ;
+2 x6484 +2 x6485 +2 x6486 -1 x6157 -1 x6158 -1 x6159 -1 x6160 -1 x6161 -1 x6162 >= 0 ;
+2 x6487 +2 x6488 +2 x6489 -1 x6160 -1 x6161 -1 x6162 -1 x6163 -1 x6164 -1 x6165 >= 0 ;
+2 x6490 +2 x6491 +2 x6492 -1 x6163 -1 x6164 -1 x6165 -1 x6166 -1 x6167 -1 x6168 >= 0 ;
+2 x6493 +2 x6494 +2 x6495 -1 x6166 -1 x6167 -1 x6168 -1 x6169 -1 x6170 -1 x6171 >= 0 ;
+2 x6496 +2 x6497 +2 x6498 -1 x6169 -1 x6170 -1 x6171 -1 x6172 -1 x6173 -1 x6174 >= 0 ;
+2 x6499 +2 x6500 +2 x6501 -1 x6172 -1 x6173 -1 x6174 -1 x6175 -1 x6176 -1 x6177 >= 0 ;
+2 x6502 +2 x6503 +2 x6504 -1 x6175 -1 x6176 -1 x6177 -1 x6178 -1 x6179 -1 x6180 >= 0 ;
+2 x6505 +2 x6506 +2 x6507 -1 x6178 -1 x6179 -1 x6180 -1 x6181 -1 x6182 -1 x6183 >= 0 ;
+2 x6508 +2 x6509 +2 x6510 -1 x6181 -1 x6182 -1 x6183 -1 x6184 -1 x6185 -1 x6186 >= 0 ;
+2 x6511 +2 x6512 +2 x6513 -1 x6184 -1 x6185 -1 x6186 -1 x6187 -1 x6188 -1 x6189 >= 0 ;
+2 x6514 +2 x6515 +2 x6516 -1 x6187 -1 x6188 -1 x6189 -1 x6190 -1 x6191 -1 x6192 >= 0 ;
+2 x6517 +2 x6518 +2 x6519 -1 x6190 -1 x6191 -1 x6192 -1 x6193 -1 x6194 -1 x6195 >= 0 ;
+2 x6520 +2 x6521 +2 x6522 -1 x6193 -1 x6194 -1 x6195 -1 x6196 -1 x6197 -1 x6198 >= 0 ;
+2 x6523 +2 x6524 +2 x6525 -1 x6196 -1 x6197 -1 x6198 -1 x6199 -1 x6200 -1 x6201 >= 0 ;
+2 x6526 +2 x6527 +2 x6528 -1 x6199 -1 x6200 -1 x6201 -1 x6202 -1 x6203 -1 x6204 >= 0 ;
+2 x6529 +2 x6530 +2 x6531 -1 x6202 -1 x6203 -1 x6204 -1 x6205 -1 x6206 -1 x6207 >= 0 ;
+2 x6532 +2 x6533 +2 x6534 -1 x6205 -1 x6206 -1 x6207 -1 x6208 -1 x6209 -1 x6210 >= 0 ;
+2 x6535 +2 x6536 +2 x6537 -1 x6208 -1 x6209 -1 x6210 -1 x6211 -1 x6212 -1 x6213 >= 0 ;
+2 x6538 +2 x6539 +2 x6540 -1 x6211 -1 x6212 -1 x6213 -1 x6214 -1 x6215 -1 x6216 >= 0 ;
+2 x6541 +2 x6542 +2 x6543 -1 x6214 -1 x6215 -1 x6216 -1 x6217 -1 x6218 -1 x6219 >= 0 ;
+2 x6544 +2 x6545 +2 x6546 -1 x6217 -1 x6218 -1 x6219 -1 x6220 -1 x6221 -1 x6222 >= 0 ;
+2 x6547 +2 x6548 +2 x6549 -1 x6220 -1 x6221 -1 x6222 -1 x6223 -1 x6224 -1 x6225 >= 0 ;
+2 x6550 +2 x6551 +2 x6552 -1 x6223 -1 x6224 -1 x6225 -1 x6226 -1 x6227 -1 x6228 >= 0 ;
+2 x6553 +2 x6554 +2 x6555 -1 x6226 -1 x6227 -1 x6228 -1 x6229 -1 x6230 -1 x6231 >= 0 ;
+2 x6556 +2 x6557 +2 x6558 -1 x6229 -1 x6230 -1 x6231 -1 x6232 -1 x6233 -1 x6234 >= 0 ;
+2 x6559 +2 x6560 +2 x6561 -1 x6232 -1 x6233 -1 x6234 -1 x6235 -1 x6236 -1 x6237 >= 0 ;
+2 x6562 +2 x6563 +2 x6564 -1 x6235 -1 x6236 -1 x6237 -1 x6238 -1 x6239 -1 x6240 >= 0 ;
+2 x6565 +2 x6566 +2 x6567 -1 x6238 -1 x6239 -1 x6240 -1 x6241 -1 x6242 -1 x6243 >= 0 ;
+2 x6568 +2 x6569 +2 x6570 -1 x6241 -1 x6242 -1 x6243 -1 x6244 -1 x6245 -1 x6246 >= 0 ;
+2 x6571 +2 x6572 +2 x6573 -1 x6244 -1 x6245 -1 x6246 -1 x6247 -1 x6248 -1 x6249 >= 0 ;
+2 x6574 +2 x6575 +2 x6576 -1 x6247 -1 x6248 -1 x6249 -1 x6250 -1 x6251 -1 x6252 >= 0 ;
+2 x6577 +2 x6578 +2 x6579 -1 x6250 -1 x6251 -1 x6252 -1 x6253 -1 x6254 -1 x6255 >= 0 ;
+2 x6580 +2 x6581 +2 x6582 -1 x6253 -1 x6254 -1 x6255 -1 x6256 -1 x6257 -1 x6258 >= 0 ;
+2 x6583 +2 x6584 +2 x6585 -1 x6256 -1 x6257 -1 x6258 -1 x6259 -1 x6260 -1 x6261 >= 0 ;
+2 x6586 +2 x6587 +2 x6588 -1 x6259 -1 x6260 -1 x6261 -1 x6262 -1 x6263 -1 x6264 >= 0 ;
+2 x6589 +2 x6590 +2 x6591 -1 x6262 -1 x6263 -1 x6264 -1 x6265 -1 x6266 -1 x6267 >= 0 ;
+2 x6592 +2 x6593 +2 x6594 -1 x6265 -1 x6266 -1 x6267 -1 x6268 -1 x6269 -1 x6270 >= 0 ;
+2 x6595 +2 x6596 +2 x6597 -1 x6268 -1 x6269 -1 x6270 -1 x6271 -1 x6272 -1 x6273 >= 0 ;
+2 x6598 +2 x6599 +2 x6600 -1 x6271 -1 x6272 -1 x6273 -1 x6274 -1 x6275 -1 x6276 >= 0 ;
+2 x6601 +2 x6602 +2 x6603 -1 x6274 -1 x6275 -1 x6276 -1 x6277 -1 x6278 -1 x6279 >= 0 ;
+2 x6604 +2 x6605 +2 x6606 -1 x6277 -1 x6278 -1 x6279 -1 x6280 -1 x6281 -1 x6282 >= 0 ;
+2 x6607 +2 x6608 +2 x6609 -1 x6280 -1 x6281 -1 x6282 -1 x6283 -1 x6284 -1 x6285 >= 0 ;
+2 x6610 +2 x6611 +2 x6612 -1 x6283 -1 x6284 -1 x6285 -1 x6286 -1 x6287 -1 x6288 >= 0 ;
+2 x6613 +2 x6614 +2 x6615 -1 x6286 -1 x6287 -1 x6288 -1 x6289 -1 x6290 -1 x6291 >= 0 ;
+2 x6616 +2 x6617 +2 x6618 -1 x6289 -1 x6290 -1 x6291 -1 x6292 -1 x6293 -1 x6294 >= 0 ;
+2 x6619 +2 x6620 +2 x6621 -1 x6292 -1 x6293 -1 x6294 -1 x6295 -1 x6296 -1 x6297 >= 0 ;
+2 x6622 +2 x6623 +2 x6624 -1 x6295 -1 x6296 -1 x6297 -1 x6298 -1 x6299 -1 x6300 >= 0 ;
+2 x6625 +2 x6626 +2 x6627 -1 x6298 -1 x6299 -1 x6300 -1 x6301 -1 x6302 -1 x6303 >= 0 ;
+2 x6628 +2 x6629 +2 x6630 -1 x6301 -1 x6302 -1 x6303 -1 x6304 -1 x6305 -1 x6306 >= 0 ;
+2 x6631 +2 x6632 +2 x6633 -1 x6304 -1 x6305 -1 x6306 -1 x6307 -1 x6308 -1 x6309 >= 0 ;
+2 x6634 +2 x6635 +2 x6636 -1 x6307 -1 x6308 -1 x6309 -1 x6310 -1 x6311 -1 x6312 >= 0 ;
+2 x6637 +2 x6638 +2 x6639 -1 x6310 -1 x6311 -1 x6312 -1 x6313 -1 x6314 -1 x6315 >= 0 ;
+2 x6640 +2 x6641 +2 x6642 -1 x6313 -1 x6314 -1 x6315 -1 x6316 -1 x6317 -1 x6318 >= 0 ;
+2 x6643 +2 x6644 +2 x6645 -1 x6316 -1 x6317 -1 x6318 -1 x6319 -1 x6320 -1 x6321 >= 0 ;
+2 x6646 +2 x6647 +2 x6648 -1 x6319 -1 x6320 -1 x6321 -1 x6322 -1 x6323 -1 x6324 >= 0 ;
+2 x6649 +2 x6650 +2 x6651 -1 x6322 -1 x6323 -1 x6324 -1 x6325 -1 x6326 -1 x6327 >= 0 ;
+2 x6652 +2 x6653 +2 x6654 -1 x6325 -1 x6326 -1 x6327 -1 x6328 -1 x6329 -1 x6330 >= 0 ;
+2 x6655 +2 x6656 +2 x6657 -1 x6328 -1 x6329 -1 x6330 -1 x6331 -1 x6332 -1 x6333 >= 0 ;
+2 x6658 +2 x6659 +2 x6660 -1 x6331 -1 x6332 -1 x6333 -1 x6334 -1 x6335 -1 x6336 >= 0 ;
+2 x6661 +2 x6662 +2 x6663 -1 x6334 -1 x6335 -1 x6336 -1 x6337 -1 x6338 -1 x6339 >= 0 ;
+2 x6664 +2 x6665 +2 x6666 -1 x6337 -1 x6338 -1 x6339 -1 x6340 -1 x6341 -1 x6342 >= 0 ;
+2 x6667 +2 x6668 +2 x6669 -1 x6340 -1 x6341 -1 x6342 -1 x6343 -1 x6344 -1 x6345 >= 0 ;
+2 x6670 +2 x6671 +2 x6672 -1 x6346 -1 x6347 -1 x6348 -1 x6349 -1 x6350 -1 x6351 >= 0 ;
+2 x6673 +2 x6674 +2 x6675 -1 x6349 -1 x6350 -1 x6351 -1 x6352 -1 x6353 -1 x6354 >= 0 ;
+2 x6676 +2 x6677 +2 x6678 -1 x6352 -1 x6353 -1 x6354 -1 x6355 -1 x6356 -1 x6357 >= 0 ;
+2 x6679 +2 x6680 +2 x6681 -1 x6355 -1 x6356 -1 x6357 -1 x6358 -1 x6359 -1 x6360 >= 0 ;
+2 x6682 +2 x6683 +2 x6684 -1 x6358 -1 x6359 -1 x6360 -1 x6361 -1 x6362 -1 x6363 >= 0 ;
+2 x6685 +2 x6686 +2 x6687 -1 x6361 -1 x6362 -1 x6363 -1 x6364 -1 x6365 -1 x6366 >= 0 ;
+2 x6688 +2 x6689 +2 x6690 -1 x6364 -1 x6365 -1 x6366 -1 x6367 -1 x6368 -1 x6369 >= 0 ;
+2 x6691 +2 x6692 +2 x6693 -1 x6367 -1 x6368 -1 x6369 -1 x6370 -1 x6371 -1 x6372 >= 0 ;
+2 x6694 +2 x6695 +2 x6696 -1 x6370 -1 x6371 -1 x6372 -1 x6373 -1 x6374 -1 x6375 >= 0 ;
+2 x6697 +2 x6698 +2 x6699 -1 x6373 -1 x6374 -1 x6375 -1 x6376 -1 x6377 -1 x6378 >= 0 ;
+2 x6700 +2 x6701 +2 x6702 -1 x6376 -1 x6377 -1 x6378 -1 x6379 -1 x6380 -1 x6381 >= 0 ;
+2 x6703 +2 x6704 +2 x6705 -1 x6379 -1 x6380 -1 x6381 -1 x6382 -1 x6383 -1 x6384 >= 0 ;
+2 x6706 +2 x6707 +2 x6708 -1 x6382 -1 x6383 -1 x6384 -1 x6385 -1 x6386 -1 x6387 >= 0 ;
+2 x6709 +2 x6710 +2 x6711 -1 x6385 -1 x6386 -1 x6387 -1 x6388 -1 x6389 -1 x6390 >= 0 ;
+2 x6712 +2 x6713 +2 x6714 -1 x6388 -1 x6389 -1 x6390 -1 x6391 -1 x6392 -1 x6393 >= 0 ;
+2 x6715 +2 x6716 +2 x6717 -1 x6391 -1 x6392 -1 x6393 -1 x6394 -1 x6395 -1 x6396 >= 0 ;
+2 x6718 +2 x6719 +2 x6720 -1 x6394 -1 x6395 -1 x6396 -1 x6397 -1 x6398 -1 x6399 >= 0 ;
+2 x6721 +2 x6722 +2 x6723 -1 x6397 -1 x6398 -1 x6399 -1 x6400 -1 x6401 -1 x6402 >= 0 ;
+2 x6724 +2 x6725 +2 x6726 -1 x6400 -1 x6401 -1 x6402 -1 x6403 -1 x6404 -1 x6405 >= 0 ;
+2 x6727 +2 x6728 +2 x6729 -1 x6403 -1 x6404 -1 x6405 -1 x6406 -1 x6407 -1 x6408 >= 0 ;
+2 x6730 +2 x6731 +2 x6732 -1 x6406 -1 x6407 -1 x6408 -1 x6409 -1 x6410 -1 x6411 >= 0 ;
+2 x6733 +2 x6734 +2 x6735 -1 x6409 -1 x6410 -1 x6411 -1 x6412 -1 x6413 -1 x6414 >= 0 ;
+2 x6736 +2 x6737 +2 x6738 -1 x6412 -1 x6413 -1 x6414 -1 x6415 -1 x6416 -1 x6417 >= 0 ;
+2 x6739 +2 x6740 +2 x6741 -1 x6415 -1 x6416 -1 x6417 -1 x6418 -1 x6419 -1 x6420 >= 0 ;
+2 x6742 +2 x6743 +2 x6744 -1 x6418 -1 x6419 -1 x6420 -1 x6421 -1 x6422 -1 x6423 >= 0 ;
+2 x6745 +2 x6746 +2 x6747 -1 x6421 -1 x6422 -1 x6423 -1 x6424 -1 x6425 -1 x6426 >= 0 ;
+2 x6748 +2 x6749 +2 x6750 -1 x6424 -1 x6425 -1 x6426 -1 x6427 -1 x6428 -1 x6429 >= 0 ;
+2 x6751 +2 x6752 +2 x6753 -1 x6427 -1 x6428 -1 x6429 -1 x6430 -1 x6431 -1 x6432 >= 0 ;
+2 x6754 +2 x6755 +2 x6756 -1 x6430 -1 x6431 -1 x6432 -1 x6433 -1 x6434 -1 x6435 >= 0 ;
+2 x6757 +2 x6758 +2 x6759 -1 x6433 -1 x6434 -1 x6435 -1 x6436 -1 x6437 -1 x6438 >= 0 ;
+2 x6760 +2 x6761 +2 x6762 -1 x6436 -1 x6437 -1 x6438 -1 x6439 -1 x6440 -1 x6441 >= 0 ;
+2 x6763 +2 x6764 +2 x6765 -1 x6439 -1 x6440 -1 x6441 -1 x6442 -1 x6443 -1 x6444 >= 0 ;
+2 x6766 +2 x6767 +2 x6768 -1 x6442 -1 x6443 -1 x6444 -1 x6445 -1 x6446 -1 x6447 >= 0 ;
+2 x6769 +2 x6770 +2 x6771 -1 x6445 -1 x6446 -1 x6447 -1 x6448 -1 x6449 -1 x6450 >= 0 ;
+2 x6772 +2 x6773 +2 x6774 -1 x6448 -1 x6449 -1 x6450 -1 x6451 -1 x6452 -1 x6453 >= 0 ;
+2 x6775 +2 x6776 +2 x6777 -1 x6451 -1 x6452 -1 x6453 -1 x6454 -1 x6455 -1 x6456 >= 0 ;
+2 x6778 +2 x6779 +2 x6780 -1 x6454 -1 x6455 -1 x6456 -1 x6457 -1 x6458 -1 x6459 >= 0 ;
+2 x6781 +2 x6782 +2 x6783 -1 x6457 -1 x6458 -1 x6459 -1 x6460 -1 x6461 -1 x6462 >= 0 ;
+2 x6784 +2 x6785 +2 x6786 -1 x6460 -1 x6461 -1 x6462 -1 x6463 -1 x6464 -1 x6465 >= 0 ;
+2 x6787 +2 x6788 +2 x6789 -1 x6463 -1 x6464 -1 x6465 -1 x6466 -1 x6467 -1 x6468 >= 0 ;
+2 x6790 +2 x6791 +2 x6792 -1 x6466 -1 x6467 -1 x6468 -1 x6469 -1 x6470 -1 x6471 >= 0 ;
+2 x6793 +2 x6794 +2 x6795 -1 x6469 -1 x6470 -1 x6471 -1 x6472 -1 x6473 -1 x6474 >= 0 ;
+2 x6796 +2 x6797 +2 x6798 -1 x6472 -1 x6473 -1 x6474 -1 x6475 -1 x6476 -1 x6477 >= 0 ;
+2 x6799 +2 x6800 +2 x6801 -1 x6475 -1 x6476 -1 x6477 -1 x6478 -1 x6479 -1 x6480 >= 0 ;
+2 x6802 +2 x6803 +2 x6804 -1 x6478 -1 x6479 -1 x6480 -1 x6481 -1 x6482 -1 x6483 >= 0 ;
+2 x6805 +2 x6806 +2 x6807 -1 x6481 -1 x6482 -1 x6483 -1 x6484 -1 x6485 -1 x6486 >= 0 ;
+2 x6808 +2 x6809 +2 x6810 -1 x6484 -1 x6485 -1 x6486 -1 x6487 -1 x6488 -1 x6489 >= 0 ;
+2 x6811 +2 x6812 +2 x6813 -1 x6487 -1 x6488 -1 x6489 -1 x6490 -1 x6491 -1 x6492 >= 0 ;
+2 x6814 +2 x6815 +2 x6816 -1 x6490 -1 x6491 -1 x6492 -1 x6493 -1 x6494 -1 x6495 >= 0 ;
+2 x6817 +2 x6818 +2 x6819 -1 x6493 -1 x6494 -1 x6495 -1 x6496 -1 x6497 -1 x6498 >= 0 ;
+2 x6820 +2 x6821 +2 x6822 -1 x6496 -1 x6497 -1 x6498 -1 x6499 -1 x6500 -1 x6501 >= 0 ;
+2 x6823 +2 x6824 +2 x6825 -1 x6499 -1 x6500 -1 x6501 -1 x6502 -1 x6503 -1 x6504 >= 0 ;
+2 x6826 +2 x6827 +2 x6828 -1 x6502 -1 x6503 -1 x6504 -1 x6505 -1 x6506 -1 x6507 >= 0 ;
+2 x6829 +2 x6830 +2 x6831 -1 x6505 -1 x6506 -1 x6507 -1 x6508 -1 x6509 -1 x6510 >= 0 ;
+2 x6832 +2 x6833 +2 x6834 -1 x6508 -1 x6509 -1 x6510 -1 x6511 -1 x6512 -1 x6513 >= 0 ;
+2 x6835 +2 x6836 +2 x6837 -1 x6511 -1 x6512 -1 x6513 -1 x6514 -1 x6515 -1 x6516 >= 0 ;
+2 x6838 +2 x6839 +2 x6840 -1 x6514 -1 x6515 -1 x6516 -1 x6517 -1 x6518 -1 x6519 >= 0 ;
+2 x6841 +2 x6842 +2 x6843 -1 x6517 -1 x6518 -1 x6519 -1 x6520 -1 x6521 -1 x6522 >= 0 ;
+2 x6844 +2 x6845 +2 x6846 -1 x6520 -1 x6521 -1 x6522 -1 x6523 -1 x6524 -1 x6525 >= 0 ;
+2 x6847 +2 x6848 +2 x6849 -1 x6523 -1 x6524 -1 x6525 -1 x6526 -1 x6527 -1 x6528 >= 0 ;
+2 x6850 +2 x6851 +2 x6852 -1 x6526 -1 x6527 -1 x6528 -1 x6529 -1 x6530 -1 x6531 >= 0 ;
+2 x6853 +2 x6854 +2 x6855 -1 x6529 -1 x6530 -1 x6531 -1 x6532 -1 x6533 -1 x6534 >= 0 ;
+2 x6856 +2 x6857 +2 x6858 -1 x6532 -1 x6533 -1 x6534 -1 x6535 -1 x6536 -1 x6537 >= 0 ;
+2 x6859 +2 x6860 +2 x6861 -1 x6535 -1 x6536 -1 x6537 -1 x6538 -1 x6539 -1 x6540 >= 0 ;
+2 x6862 +2 x6863 +2 x6864 -1 x6538 -1 x6539 -1 x6540 -1 x6541 -1 x6542 -1 x6543 >= 0 ;
+2 x6865 +2 x6866 +2 x6867 -1 x6541 -1 x6542 -1 x6543 -1 x6544 -1 x6545 -1 x6546 >= 0 ;
+2 x6868 +2 x6869 +2 x6870 -1 x6544 -1 x6545 -1 x6546 -1 x6547 -1 x6548 -1 x6549 >= 0 ;
+2 x6871 +2 x6872 +2 x6873 -1 x6547 -1 x6548 -1 x6549 -1 x6550 -1 x6551 -1 x6552 >= 0 ;
+2 x6874 +2 x6875 +2 x6876 -1 x6550 -1 x6551 -1 x6552 -1 x6553 -1 x6554 -1 x6555 >= 0 ;
+2 x6877 +2 x6878 +2 x6879 -1 x6553 -1 x6554 -1 x6555 -1 x6556 -1 x6557 -1 x6558 >= 0 ;
+2 x6880 +2 x6881 +2 x6882 -1 x6556 -1 x6557 -1 x6558 -1 x6559 -1 x6560 -1 x6561 >= 0 ;
+2 x6883 +2 x6884 +2 x6885 -1 x6559 -1 x6560 -1 x6561 -1 x6562 -1 x6563 -1 x6564 >= 0 ;
+2 x6886 +2 x6887 +2 x6888 -1 x6562 -1 x6563 -1 x6564 -1 x6565 -1 x6566 -1 x6567 >= 0 ;
+2 x6889 +2 x6890 +2 x6891 -1 x6565 -1 x6566 -1 x6567 -1 x6568 -1 x6569 -1 x6570 >= 0 ;
+2 x6892 +2 x6893 +2 x6894 -1 x6568 -1 x6569 -1 x6570 -1 x6571 -1 x6572 -1 x6573 >= 0 ;
+2 x6895 +2 x6896 +2 x6897 -1 x6571 -1 x6572 -1 x6573 -1 x6574 -1 x6575 -1 x6576 >= 0 ;
+2 x6898 +2 x6899 +2 x6900 -1 x6574 -1 x6575 -1 x6576 -1 x6577 -1 x6578 -1 x6579 >= 0 ;
+2 x6901 +2 x6902 +2 x6903 -1 x6577 -1 x6578 -1 x6579 -1 x6580 -1 x6581 -1 x6582 >= 0 ;
+2 x6904 +2 x6905 +2 x6906 -1 x6580 -1 x6581 -1 x6582 -1 x6583 -1 x6584 -1 x6585 >= 0 ;
+2 x6907 +2 x6908 +2 x6909 -1 x6583 -1 x6584 -1 x6585 -1 x6586 -1 x6587 -1 x6588 >= 0 ;
+2 x6910 +2 x6911 +2 x6912 -1 x6586 -1 x6587 -1 x6588 -1 x6589 -1 x6590 -1 x6591 >= 0 ;
+2 x6913 +2 x6914 +2 x6915 -1 x6589 -1 x6590 -1 x6591 -1 x6592 -1 x6593 -1 x6594 >= 0 ;
+2 x6916 +2 x6917 +2 x6918 -1 x6592 -1 x6593 -1 x6594 -1 x6595 -1 x6596 -1 x6597 >= 0 ;
+2 x6919 +2 x6920 +2 x6921 -1 x6595 -1 x6596 -1 x6597 -1 x6598 -1 x6599 -1 x6600 >= 0 ;
+2 x6922 +2 x6923 +2 x6924 -1 x6598 -1 x6599 -1 x6600 -1 x6601 -1 x6602 -1 x6603 >= 0 ;
+2 x6925 +2 x6926 +2 x6927 -1 x6601 -1 x6602 -1 x6603 -1 x6604 -1 x6605 -1 x6606 >= 0 ;
+2 x6928 +2 x6929 +2 x6930 -1 x6604 -1 x6605 -1 x6606 -1 x6607 -1 x6608 -1 x6609 >= 0 ;
+2 x6931 +2 x6932 +2 x6933 -1 x6607 -1 x6608 -1 x6609 -1 x6610 -1 x6611 -1 x6612 >= 0 ;
+2 x6934 +2 x6935 +2 x6936 -1 x6610 -1 x6611 -1 x6612 -1 x6613 -1 x6614 -1 x6615 >= 0 ;
+2 x6937 +2 x6938 +2 x6939 -1 x6613 -1 x6614 -1 x6615 -1 x6616 -1 x6617 -1 x6618 >= 0 ;
+2 x6940 +2 x6941 +2 x6942 -1 x6616 -1 x6617 -1 x6618 -1 x6619 -1 x6620 -1 x6621 >= 0 ;
+2 x6943 +2 x6944 +2 x6945 -1 x6619 -1 x6620 -1 x6621 -1 x6622 -1 x6623 -1 x6624 >= 0 ;
+2 x6946 +2 x6947 +2 x6948 -1 x6622 -1 x6623 -1 x6624 -1 x6625 -1 x6626 -1 x6627 >= 0 ;
+2 x6949 +2 x6950 +2 x6951 -1 x6625 -1 x6626 -1 x6627 -1 x6628 -1 x6629 -1 x6630 >= 0 ;
+2 x6952 +2 x6953 +2 x6954 -1 x6628 -1 x6629 -1 x6630 -1 x6631 -1 x6632 -1 x6633 >= 0 ;
+2 x6955 +2 x6956 +2 x6957 -1 x6631 -1 x6632 -1 x6633 -1 x6634 -1 x6635 -1 x6636 >= 0 ;
+2 x6958 +2 x6959 +2 x6960 -1 x6634 -1 x6635 -1 x6636 -1 x6637 -1 x6638 -1 x6639 >= 0 ;
+2 x6961 +2 x6962 +2 x6963 -1 x6637 -1 x6638 -1 x6639 -1 x6640 -1 x6641 -1 x6642 >= 0 ;
+2 x6964 +2 x6965 +2 x6966 -1 x6640 -1 x6641 -1 x6642 -1 x6643 -1 x6644 -1 x6645 >= 0 ;
+2 x6967 +2 x6968 +2 x6969 -1 x6643 -1 x6644 -1 x6645 -1 x6646 -1 x6647 -1 x6648 >= 0 ;
+2 x6970 +2 x6971 +2 x6972 -1 x6646 -1 x6647 -1 x6648 -1 x6649 -1 x6650 -1 x6651 >= 0 ;
+2 x6973 +2 x6974 +2 x6975 -1 x6649 -1 x6650 -1 x6651 -1 x6652 -1 x6653 -1 x6654 >= 0 ;
+2 x6976 +2 x6977 +2 x6978 -1 x6652 -1 x6653 -1 x6654 -1 x6655 -1 x6656 -1 x6657 >= 0 ;
+2 x6979 +2 x6980 +2 x6981 -1 x6655 -1 x6656 -1 x6657 -1 x6658 -1 x6659 -1 x6660 >= 0 ;
+2 x6982 +2 x6983 +2 x6984 -1 x6658 -1 x6659 -1 x6660 -1 x6661 -1 x6662 -1 x6663 >= 0 ;
+2 x6985 +2 x6986 +2 x6987 -1 x6661 -1 x6662 -1 x6663 -1 x6664 -1 x6665 -1 x6666 >= 0 ;
+2 x6988 +2 x6989 +2 x6990 -1 x6664 -1 x6665 -1 x6666 -1 x6667 -1 x6668 -1 x6669 >= 0 ;
+2 x6991 +2 x6992 +2 x6993 -1 x6670 -1 x6671 -1 x6672 -1 x6673 -1 x6674 -1 x6675 >= 0 ;
+2 x6994 +2 x6995 +2 x6996 -1 x6673 -1 x6674 -1 x6675 -1 x6676 -1 x6677 -1 x6678 >= 0 ;
+2 x6997 +2 x6998 +2 x6999 -1 x6676 -1 x6677 -1 x6678 -1 x6679 -1 x6680 -1 x6681 >= 0 ;
+2 x7000 +2 x7001 +2 x7002 -1 x6679 -1 x6680 -1 x6681 -1 x6682 -1 x6683 -1 x6684 >= 0 ;
+2 x7003 +2 x7004 +2 x7005 -1 x6682 -1 x6683 -1 x6684 -1 x6685 -1 x6686 -1 x6687 >= 0 ;
+2 x7006 +2 x7007 +2 x7008 -1 x6685 -1 x6686 -1 x6687 -1 x6688 -1 x6689 -1 x6690 >= 0 ;
+2 x7009 +2 x7010 +2 x7011 -1 x6688 -1 x6689 -1 x6690 -1 x6691 -1 x6692 -1 x6693 >= 0 ;
+2 x7012 +2 x7013 +2 x7014 -1 x6691 -1 x6692 -1 x6693 -1 x6694 -1 x6695 -1 x6696 >= 0 ;
+2 x7015 +2 x7016 +2 x7017 -1 x6694 -1 x6695 -1 x6696 -1 x6697 -1 x6698 -1 x6699 >= 0 ;
+2 x7018 +2 x7019 +2 x7020 -1 x6697 -1 x6698 -1 x6699 -1 x6700 -1 x6701 -1 x6702 >= 0 ;
+2 x7021 +2 x7022 +2 x7023 -1 x6700 -1 x6701 -1 x6702 -1 x6703 -1 x6704 -1 x6705 >= 0 ;
+2 x7024 +2 x7025 +2 x7026 -1 x6703 -1 x6704 -1 x6705 -1 x6706 -1 x6707 -1 x6708 >= 0 ;
+2 x7027 +2 x7028 +2 x7029 -1 x6706 -1 x6707 -1 x6708 -1 x6709 -1 x6710 -1 x6711 >= 0 ;
+2 x7030 +2 x7031 +2 x7032 -1 x6709 -1 x6710 -1 x6711 -1 x6712 -1 x6713 -1 x6714 >= 0 ;
+2 x7033 +2 x7034 +2 x7035 -1 x6712 -1 x6713 -1 x6714 -1 x6715 -1 x6716 -1 x6717 >= 0 ;
+2 x7036 +2 x7037 +2 x7038 -1 x6715 -1 x6716 -1 x6717 -1 x6718 -1 x6719 -1 x6720 >= 0 ;
+2 x7039 +2 x7040 +2 x7041 -1 x6718 -1 x6719 -1 x6720 -1 x6721 -1 x6722 -1 x6723 >= 0 ;
+2 x7042 +2 x7043 +2 x7044 -1 x6721 -1 x6722 -1 x6723 -1 x6724 -1 x6725 -1 x6726 >= 0 ;
+2 x7045 +2 x7046 +2 x7047 -1 x6724 -1 x6725 -1 x6726 -1 x6727 -1 x6728 -1 x6729 >= 0 ;
+2 x7048 +2 x7049 +2 x7050 -1 x6727 -1 x6728 -1 x6729 -1 x6730 -1 x6731 -1 x6732 >= 0 ;
+2 x7051 +2 x7052 +2 x7053 -1 x6730 -1 x6731 -1 x6732 -1 x6733 -1 x6734 -1 x6735 >= 0 ;
+2 x7054 +2 x7055 +2 x7056 -1 x6733 -1 x6734 -1 x6735 -1 x6736 -1 x6737 -1 x6738 >= 0 ;
+2 x7057 +2 x7058 +2 x7059 -1 x6736 -1 x6737 -1 x6738 -1 x6739 -1 x6740 -1 x6741 >= 0 ;
+2 x7060 +2 x7061 +2 x7062 -1 x6739 -1 x6740 -1 x6741 -1 x6742 -1 x6743 -1 x6744 >= 0 ;
+2 x7063 +2 x7064 +2 x7065 -1 x6742 -1 x6743 -1 x6744 -1 x6745 -1 x6746 -1 x6747 >= 0 ;
+2 x7066 +2 x7067 +2 x7068 -1 x6745 -1 x6746 -1 x6747 -1 x6748 -1 x6749 -1 x6750 >= 0 ;
+2 x7069 +2 x7070 +2 x7071 -1 x6748 -1 x6749 -1 x6750 -1 x6751 -1 x6752 -1 x6753 >= 0 ;
+2 x7072 +2 x7073 +2 x7074 -1 x6751 -1 x6752 -1 x6753 -1 x6754 -1 x6755 -1 x6756 >= 0 ;
+2 x7075 +2 x7076 +2 x7077 -1 x6754 -1 x6755 -1 x6756 -1 x6757 -1 x6758 -1 x6759 >= 0 ;
+2 x7078 +2 x7079 +2 x7080 -1 x6757 -1 x6758 -1 x6759 -1 x6760 -1 x6761 -1 x6762 >= 0 ;
+2 x7081 +2 x7082 +2 x7083 -1 x6760 -1 x6761 -1 x6762 -1 x6763 -1 x6764 -1 x6765 >= 0 ;
+2 x7084 +2 x7085 +2 x7086 -1 x6763 -1 x6764 -1 x6765 -1 x6766 -1 x6767 -1 x6768 >= 0 ;
+2 x7087 +2 x7088 +2 x7089 -1 x6766 -1 x6767 -1 x6768 -1 x6769 -1 x6770 -1 x6771 >= 0 ;
+2 x7090 +2 x7091 +2 x7092 -1 x6769 -1 x6770 -1 x6771 -1 x6772 -1 x6773 -1 x6774 >= 0 ;
+2 x7093 +2 x7094 +2 x7095 -1 x6772 -1 x6773 -1 x6774 -1 x6775 -1 x6776 -1 x6777 >= 0 ;
+2 x7096 +2 x7097 +2 x7098 -1 x6775 -1 x6776 -1 x6777 -1 x6778 -1 x6779 -1 x6780 >= 0 ;
+2 x7099 +2 x7100 +2 x7101 -1 x6778 -1 x6779 -1 x6780 -1 x6781 -1 x6782 -1 x6783 >= 0 ;
+2 x7102 +2 x7103 +2 x7104 -1 x6781 -1 x6782 -1 x6783 -1 x6784 -1 x6785 -1 x6786 >= 0 ;
+2 x7105 +2 x7106 +2 x7107 -1 x6784 -1 x6785 -1 x6786 -1 x6787 -1 x6788 -1 x6789 >= 0 ;
+2 x7108 +2 x7109 +2 x7110 -1 x6787 -1 x6788 -1 x6789 -1 x6790 -1 x6791 -1 x6792 >= 0 ;
+2 x7111 +2 x7112 +2 x7113 -1 x6790 -1 x6791 -1 x6792 -1 x6793 -1 x6794 -1 x6795 >= 0 ;
+2 x7114 +2 x7115 +2 x7116 -1 x6793 -1 x6794 -1 x6795 -1 x6796 -1 x6797 -1 x6798 >= 0 ;
+2 x7117 +2 x7118 +2 x7119 -1 x6796 -1 x6797 -1 x6798 -1 x6799 -1 x6800 -1 x6801 >= 0 ;
+2 x7120 +2 x7121 +2 x7122 -1 x6799 -1 x6800 -1 x6801 -1 x6802 -1 x6803 -1 x6804 >= 0 ;
+2 x7123 +2 x7124 +2 x7125 -1 x6802 -1 x6803 -1 x6804 -1 x6805 -1 x6806 -1 x6807 >= 0 ;
+2 x7126 +2 x7127 +2 x7128 -1 x6805 -1 x6806 -1 x6807 -1 x6808 -1 x6809 -1 x6810 >= 0 ;
+2 x7129 +2 x7130 +2 x7131 -1 x6808 -1 x6809 -1 x6810 -1 x6811 -1 x6812 -1 x6813 >= 0 ;
+2 x7132 +2 x7133 +2 x7134 -1 x6811 -1 x6812 -1 x6813 -1 x6814 -1 x6815 -1 x6816 >= 0 ;
+2 x7135 +2 x7136 +2 x7137 -1 x6814 -1 x6815 -1 x6816 -1 x6817 -1 x6818 -1 x6819 >= 0 ;
+2 x7138 +2 x7139 +2 x7140 -1 x6817 -1 x6818 -1 x6819 -1 x6820 -1 x6821 -1 x6822 >= 0 ;
+2 x7141 +2 x7142 +2 x7143 -1 x6820 -1 x6821 -1 x6822 -1 x6823 -1 x6824 -1 x6825 >= 0 ;
+2 x7144 +2 x7145 +2 x7146 -1 x6823 -1 x6824 -1 x6825 -1 x6826 -1 x6827 -1 x6828 >= 0 ;
+2 x7147 +2 x7148 +2 x7149 -1 x6826 -1 x6827 -1 x6828 -1 x6829 -1 x6830 -1 x6831 >= 0 ;
+2 x7150 +2 x7151 +2 x7152 -1 x6829 -1 x6830 -1 x6831 -1 x6832 -1 x6833 -1 x6834 >= 0 ;
+2 x7153 +2 x7154 +2 x7155 -1 x6832 -1 x6833 -1 x6834 -1 x6835 -1 x6836 -1 x6837 >= 0 ;
+2 x7156 +2 x7157 +2 x7158 -1 x6835 -1 x6836 -1 x6837 -1 x6838 -1 x6839 -1 x6840 >= 0 ;
+2 x7159 +2 x7160 +2 x7161 -1 x6838 -1 x6839 -1 x6840 -1 x6841 -1 x6842 -1 x6843 >= 0 ;
+2 x7162 +2 x7163 +2 x7164 -1 x6841 -1 x6842 -1 x6843 -1 x6844 -1 x6845 -1 x6846 >= 0 ;
+2 x7165 +2 x7166 +2 x7167 -1 x6844 -1 x6845 -1 x6846 -1 x6847 -1 x6848 -1 x6849 >= 0 ;
+2 x7168 +2 x7169 +2 x7170 -1 x6847 -1 x6848 -1 x6849 -1 x6850 -1 x6851 -1 x6852 >= 0 ;
+2 x7171 +2 x7172 +2 x7173 -1 x6850 -1 x6851 -1 x6852 -1 x6853 -1 x6854 -1 x6855 >= 0 ;
+2 x7174 +2 x7175 +2 x7176 -1 x6853 -1 x6854 -1 x6855 -1 x6856 -1 x6857 -1 x6858 >= 0 ;
+2 x7177 +2 x7178 +2 x7179 -1 x6856 -1 x6857 -1 x6858 -1 x6859 -1 x6860 -1 x6861 >= 0 ;
+2 x7180 +2 x7181 +2 x7182 -1 x6859 -1 x6860 -1 x6861 -1 x6862 -1 x6863 -1 x6864 >= 0 ;
+2 x7183 +2 x7184 +2 x7185 -1 x6862 -1 x6863 -1 x6864 -1 x6865 -1 x6866 -1 x6867 >= 0 ;
+2 x7186 +2 x7187 +2 x7188 -1 x6865 -1 x6866 -1 x6867 -1 x6868 -1 x6869 -1 x6870 >= 0 ;
+2 x7189 +2 x7190 +2 x7191 -1 x6868 -1 x6869 -1 x6870 -1 x6871 -1 x6872 -1 x6873 >= 0 ;
+2 x7192 +2 x7193 +2 x7194 -1 x6871 -1 x6872 -1 x6873 -1 x6874 -1 x6875 -1 x6876 >= 0 ;
+2 x7195 +2 x7196 +2 x7197 -1 x6874 -1 x6875 -1 x6876 -1 x6877 -1 x6878 -1 x6879 >= 0 ;
+2 x7198 +2 x7199 +2 x7200 -1 x6877 -1 x6878 -1 x6879 -1 x6880 -1 x6881 -1 x6882 >= 0 ;
+2 x7201 +2 x7202 +2 x7203 -1 x6880 -1 x6881 -1 x6882 -1 x6883 -1 x6884 -1 x6885 >= 0 ;
+2 x7204 +2 x7205 +2 x7206 -1 x6883 -1 x6884 -1 x6885 -1 x6886 -1 x6887 -1 x6888 >= 0 ;
+2 x7207 +2 x7208 +2 x7209 -1 x6886 -1 x6887 -1 x6888 -1 x6889 -1 x6890 -1 x6891 >= 0 ;
+2 x7210 +2 x7211 +2 x7212 -1 x6889 -1 x6890 -1 x6891 -1 x6892 -1 x6893 -1 x6894 >= 0 ;
+2 x7213 +2 x7214 +2 x7215 -1 x6892 -1 x6893 -1 x6894 -1 x6895 -1 x6896 -1 x6897 >= 0 ;
+2 x7216 +2 x7217 +2 x7218 -1 x6895 -1 x6896 -1 x6897 -1 x6898 -1 x6899 -1 x6900 >= 0 ;
+2 x7219 +2 x7220 +2 x7221 -1 x6898 -1 x6899 -1 x6900 -1 x6901 -1 x6902 -1 x6903 >= 0 ;
+2 x7222 +2 x7223 +2 x7224 -1 x6901 -1 x6902 -1 x6903 -1 x6904 -1 x6905 -1 x6906 >= 0 ;
+2 x7225 +2 x7226 +2 x7227 -1 x6904 -1 x6905 -1 x6906 -1 x6907 -1 x6908 -1 x6909 >= 0 ;
+2 x7228 +2 x7229 +2 x7230 -1 x6907 -1 x6908 -1 x6909 -1 x6910 -1 x6911 -1 x6912 >= 0 ;
+2 x7231 +2 x7232 +2 x7233 -1 x6910 -1 x6911 -1 x6912 -1 x6913 -1 x6914 -1 x6915 >= 0 ;
+2 x7234 +2 x7235 +2 x7236 -1 x6913 -1 x6914 -1 x6915 -1 x6916 -1 x6917 -1 x6918 >= 0 ;
+2 x7237 +2 x7238 +2 x7239 -1 x6916 -1 x6917 -1 x6918 -1 x6919 -1 x6920 -1 x6921 >= 0 ;
+2 x7240 +2 x7241 +2 x7242 -1 x6919 -1 x6920 -1 x6921 -1 x6922 -1 x6923 -1 x6924 >= 0 ;
+2 x7243 +2 x7244 +2 x7245 -1 x6922 -1 x6923 -1 x6924 -1 x6925 -1 x6926 -1 x6927 >= 0 ;
+2 x7246 +2 x7247 +2 x7248 -1 x6925 -1 x6926 -1 x6927 -1 x6928 -1 x6929 -1 x6930 >= 0 ;
+2 x7249 +2 x7250 +2 x7251 -1 x6928 -1 x6929 -1 x6930 -1 x6931 -1 x6932 -1 x6933 >= 0 ;
+2 x7252 +2 x7253 +2 x7254 -1 x6931 -1 x6932 -1 x6933 -1 x6934 -1 x6935 -1 x6936 >= 0 ;
+2 x7255 +2 x7256 +2 x7257 -1 x6934 -1 x6935 -1 x6936 -1 x6937 -1 x6938 -1 x6939 >= 0 ;
+2 x7258 +2 x7259 +2 x7260 -1 x6937 -1 x6938 -1 x6939 -1 x6940 -1 x6941 -1 x6942 >= 0 ;
+2 x7261 +2 x7262 +2 x7263 -1 x6940 -1 x6941 -1 x6942 -1 x6943 -1 x6944 -1 x6945 >= 0 ;
+2 x7264 +2 x7265 +2 x7266 -1 x6943 -1 x6944 -1 x6945 -1 x6946 -1 x6947 -1 x6948 >= 0 ;
+2 x7267 +2 x7268 +2 x7269 -1 x6946 -1 x6947 -1 x6948 -1 x6949 -1 x6950 -1 x6951 >= 0 ;
+2 x7270 +2 x7271 +2 x7272 -1 x6949 -1 x6950 -1 x6951 -1 x6952 -1 x6953 -1 x6954 >= 0 ;
+2 x7273 +2 x7274 +2 x7275 -1 x6952 -1 x6953 -1 x6954 -1 x6955 -1 x6956 -1 x6957 >= 0 ;
+2 x7276 +2 x7277 +2 x7278 -1 x6955 -1 x6956 -1 x6957 -1 x6958 -1 x6959 -1 x6960 >= 0 ;
+2 x7279 +2 x7280 +2 x7281 -1 x6958 -1 x6959 -1 x6960 -1 x6961 -1 x6962 -1 x6963 >= 0 ;
+2 x7282 +2 x7283 +2 x7284 -1 x6961 -1 x6962 -1 x6963 -1 x6964 -1 x6965 -1 x6966 >= 0 ;
+2 x7285 +2 x7286 +2 x7287 -1 x6964 -1 x6965 -1 x6966 -1 x6967 -1 x6968 -1 x6969 >= 0 ;
+2 x7288 +2 x7289 +2 x7290 -1 x6967 -1 x6968 -1 x6969 -1 x6970 -1 x6971 -1 x6972 >= 0 ;
+2 x7291 +2 x7292 +2 x7293 -1 x6970 -1 x6971 -1 x6972 -1 x6973 -1 x6974 -1 x6975 >= 0 ;
+2 x7294 +2 x7295 +2 x7296 -1 x6973 -1 x6974 -1 x6975 -1 x6976 -1 x6977 -1 x6978 >= 0 ;
+2 x7297 +2 x7298 +2 x7299 -1 x6976 -1 x6977 -1 x6978 -1 x6979 -1 x6980 -1 x6981 >= 0 ;
+2 x7300 +2 x7301 +2 x7302 -1 x6979 -1 x6980 -1 x6981 -1 x6982 -1 x6983 -1 x6984 >= 0 ;
+2 x7303 +2 x7304 +2 x7305 -1 x6982 -1 x6983 -1 x6984 -1 x6985 -1 x6986 -1 x6987 >= 0 ;
+2 x7306 +2 x7307 +2 x7308 -1 x6985 -1 x6986 -1 x6987 -1 x6988 -1 x6989 -1 x6990 >= 0 ;
+2 x7309 +2 x7310 +2 x7311 -1 x6991 -1 x6992 -1 x6993 -1 x6994 -1 x6995 -1 x6996 >= 0 ;
+2 x7312 +2 x7313 +2 x7314 -1 x6994 -1 x6995 -1 x6996 -1 x6997 -1 x6998 -1 x6999 >= 0 ;
+2 x7315 +2 x7316 +2 x7317 -1 x6997 -1 x6998 -1 x6999 -1 x7000 -1 x7001 -1 x7002 >= 0 ;
+2 x7318 +2 x7319 +2 x7320 -1 x7000 -1 x7001 -1 x7002 -1 x7003 -1 x7004 -1 x7005 >= 0 ;
+2 x7321 +2 x7322 +2 x7323 -1 x7003 -1 x7004 -1 x7005 -1 x7006 -1 x7007 -1 x7008 >= 0 ;
+2 x7324 +2 x7325 +2 x7326 -1 x7006 -1 x7007 -1 x7008 -1 x7009 -1 x7010 -1 x7011 >= 0 ;
+2 x7327 +2 x7328 +2 x7329 -1 x7009 -1 x7010 -1 x7011 -1 x7012 -1 x7013 -1 x7014 >= 0 ;
+2 x7330 +2 x7331 +2 x7332 -1 x7012 -1 x7013 -1 x7014 -1 x7015 -1 x7016 -1 x7017 >= 0 ;
+2 x7333 +2 x7334 +2 x7335 -1 x7015 -1 x7016 -1 x7017 -1 x7018 -1 x7019 -1 x7020 >= 0 ;
+2 x7336 +2 x7337 +2 x7338 -1 x7018 -1 x7019 -1 x7020 -1 x7021 -1 x7022 -1 x7023 >= 0 ;
+2 x7339 +2 x7340 +2 x7341 -1 x7021 -1 x7022 -1 x7023 -1 x7024 -1 x7025 -1 x7026 >= 0 ;
+2 x7342 +2 x7343 +2 x7344 -1 x7024 -1 x7025 -1 x7026 -1 x7027 -1 x7028 -1 x7029 >= 0 ;
+2 x7345 +2 x7346 +2 x7347 -1 x7027 -1 x7028 -1 x7029 -1 x7030 -1 x7031 -1 x7032 >= 0 ;
+2 x7348 +2 x7349 +2 x7350 -1 x7030 -1 x7031 -1 x7032 -1 x7033 -1 x7034 -1 x7035 >= 0 ;
+2 x7351 +2 x7352 +2 x7353 -1 x7033 -1 x7034 -1 x7035 -1 x7036 -1 x7037 -1 x7038 >= 0 ;
+2 x7354 +2 x7355 +2 x7356 -1 x7036 -1 x7037 -1 x7038 -1 x7039 -1 x7040 -1 x7041 >= 0 ;
+2 x7357 +2 x7358 +2 x7359 -1 x7039 -1 x7040 -1 x7041 -1 x7042 -1 x7043 -1 x7044 >= 0 ;
+2 x7360 +2 x7361 +2 x7362 -1 x7042 -1 x7043 -1 x7044 -1 x7045 -1 x7046 -1 x7047 >= 0 ;
+2 x7363 +2 x7364 +2 x7365 -1 x7045 -1 x7046 -1 x7047 -1 x7048 -1 x7049 -1 x7050 >= 0 ;
+2 x7366 +2 x7367 +2 x7368 -1 x7048 -1 x7049 -1 x7050 -1 x7051 -1 x7052 -1 x7053 >= 0 ;
+2 x7369 +2 x7370 +2 x7371 -1 x7051 -1 x7052 -1 x7053 -1 x7054 -1 x7055 -1 x7056 >= 0 ;
+2 x7372 +2 x7373 +2 x7374 -1 x7054 -1 x7055 -1 x7056 -1 x7057 -1 x7058 -1 x7059 >= 0 ;
+2 x7375 +2 x7376 +2 x7377 -1 x7057 -1 x7058 -1 x7059 -1 x7060 -1 x7061 -1 x7062 >= 0 ;
+2 x7378 +2 x7379 +2 x7380 -1 x7060 -1 x7061 -1 x7062 -1 x7063 -1 x7064 -1 x7065 >= 0 ;
+2 x7381 +2 x7382 +2 x7383 -1 x7063 -1 x7064 -1 x7065 -1 x7066 -1 x7067 -1 x7068 >= 0 ;
+2 x7384 +2 x7385 +2 x7386 -1 x7066 -1 x7067 -1 x7068 -1 x7069 -1 x7070 -1 x7071 >= 0 ;
+2 x7387 +2 x7388 +2 x7389 -1 x7069 -1 x7070 -1 x7071 -1 x7072 -1 x7073 -1 x7074 >= 0 ;
+2 x7390 +2 x7391 +2 x7392 -1 x7072 -1 x7073 -1 x7074 -1 x7075 -1 x7076 -1 x7077 >= 0 ;
+2 x7393 +2 x7394 +2 x7395 -1 x7075 -1 x7076 -1 x7077 -1 x7078 -1 x7079 -1 x7080 >= 0 ;
+2 x7396 +2 x7397 +2 x7398 -1 x7078 -1 x7079 -1 x7080 -1 x7081 -1 x7082 -1 x7083 >= 0 ;
+2 x7399 +2 x7400 +2 x7401 -1 x7081 -1 x7082 -1 x7083 -1 x7084 -1 x7085 -1 x7086 >= 0 ;
+2 x7402 +2 x7403 +2 x7404 -1 x7084 -1 x7085 -1 x7086 -1 x7087 -1 x7088 -1 x7089 >= 0 ;
+2 x7405 +2 x7406 +2 x7407 -1 x7087 -1 x7088 -1 x7089 -1 x7090 -1 x7091 -1 x7092 >= 0 ;
+2 x7408 +2 x7409 +2 x7410 -1 x7090 -1 x7091 -1 x7092 -1 x7093 -1 x7094 -1 x7095 >= 0 ;
+2 x7411 +2 x7412 +2 x7413 -1 x7093 -1 x7094 -1 x7095 -1 x7096 -1 x7097 -1 x7098 >= 0 ;
+2 x7414 +2 x7415 +2 x7416 -1 x7096 -1 x7097 -1 x7098 -1 x7099 -1 x7100 -1 x7101 >= 0 ;
+2 x7417 +2 x7418 +2 x7419 -1 x7099 -1 x7100 -1 x7101 -1 x7102 -1 x7103 -1 x7104 >= 0 ;
+2 x7420 +2 x7421 +2 x7422 -1 x7102 -1 x7103 -1 x7104 -1 x7105 -1 x7106 -1 x7107 >= 0 ;
+2 x7423 +2 x7424 +2 x7425 -1 x7105 -1 x7106 -1 x7107 -1 x7108 -1 x7109 -1 x7110 >= 0 ;
+2 x7426 +2 x7427 +2 x7428 -1 x7108 -1 x7109 -1 x7110 -1 x7111 -1 x7112 -1 x7113 >= 0 ;
+2 x7429 +2 x7430 +2 x7431 -1 x7111 -1 x7112 -1 x7113 -1 x7114 -1 x7115 -1 x7116 >= 0 ;
+2 x7432 +2 x7433 +2 x7434 -1 x7114 -1 x7115 -1 x7116 -1 x7117 -1 x7118 -1 x7119 >= 0 ;
+2 x7435 +2 x7436 +2 x7437 -1 x7117 -1 x7118 -1 x7119 -1 x7120 -1 x7121 -1 x7122 >= 0 ;
+2 x7438 +2 x7439 +2 x7440 -1 x7120 -1 x7121 -1 x7122 -1 x7123 -1 x7124 -1 x7125 >= 0 ;
+2 x7441 +2 x7442 +2 x7443 -1 x7123 -1 x7124 -1 x7125 -1 x7126 -1 x7127 -1 x7128 >= 0 ;
+2 x7444 +2 x7445 +2 x7446 -1 x7126 -1 x7127 -1 x7128 -1 x7129 -1 x7130 -1 x7131 >= 0 ;
+2 x7447 +2 x7448 +2 x7449 -1 x7129 -1 x7130 -1 x7131 -1 x7132 -1 x7133 -1 x7134 >= 0 ;
+2 x7450 +2 x7451 +2 x7452 -1 x7132 -1 x7133 -1 x7134 -1 x7135 -1 x7136 -1 x7137 >= 0 ;
+2 x7453 +2 x7454 +2 x7455 -1 x7135 -1 x7136 -1 x7137 -1 x7138 -1 x7139 -1 x7140 >= 0 ;
+2 x7456 +2 x7457 +2 x7458 -1 x7138 -1 x7139 -1 x7140 -1 x7141 -1 x7142 -1 x7143 >= 0 ;
+2 x7459 +2 x7460 +2 x7461 -1 x7141 -1 x7142 -1 x7143 -1 x7144 -1 x7145 -1 x7146 >= 0 ;
+2 x7462 +2 x7463 +2 x7464 -1 x7144 -1 x7145 -1 x7146 -1 x7147 -1 x7148 -1 x7149 >= 0 ;
+2 x7465 +2 x7466 +2 x7467 -1 x7147 -1 x7148 -1 x7149 -1 x7150 -1 x7151 -1 x7152 >= 0 ;
+2 x7468 +2 x7469 +2 x7470 -1 x7150 -1 x7151 -1 x7152 -1 x7153 -1 x7154 -1 x7155 >= 0 ;
+2 x7471 +2 x7472 +2 x7473 -1 x7153 -1 x7154 -1 x7155 -1 x7156 -1 x7157 -1 x7158 >= 0 ;
+2 x7474 +2 x7475 +2 x7476 -1 x7156 -1 x7157 -1 x7158 -1 x7159 -1 x7160 -1 x7161 >= 0 ;
+2 x7477 +2 x7478 +2 x7479 -1 x7159 -1 x7160 -1 x7161 -1 x7162 -1 x7163 -1 x7164 >= 0 ;
+2 x7480 +2 x7481 +2 x7482 -1 x7162 -1 x7163 -1 x7164 -1 x7165 -1 x7166 -1 x7167 >= 0 ;
+2 x7483 +2 x7484 +2 x7485 -1 x7165 -1 x7166 -1 x7167 -1 x7168 -1 x7169 -1 x7170 >= 0 ;
+2 x7486 +2 x7487 +2 x7488 -1 x7168 -1 x7169 -1 x7170 -1 x7171 -1 x7172 -1 x7173 >= 0 ;
+2 x7489 +2 x7490 +2 x7491 -1 x7171 -1 x7172 -1 x7173 -1 x7174 -1 x7175 -1 x7176 >= 0 ;
+2 x7492 +2 x7493 +2 x7494 -1 x7174 -1 x7175 -1 x7176 -1 x7177 -1 x7178 -1 x7179 >= 0 ;
+2 x7495 +2 x7496 +2 x7497 -1 x7177 -1 x7178 -1 x7179 -1 x7180 -1 x7181 -1 x7182 >= 0 ;
+2 x7498 +2 x7499 +2 x7500 -1 x7180 -1 x7181 -1 x7182 -1 x7183 -1 x7184 -1 x7185 >= 0 ;
+2 x7501 +2 x7502 +2 x7503 -1 x7183 -1 x7184 -1 x7185 -1 x7186 -1 x7187 -1 x7188 >= 0 ;
+2 x7504 +2 x7505 +2 x7506 -1 x7186 -1 x7187 -1 x7188 -1 x7189 -1 x7190 -1 x7191 >= 0 ;
+2 x7507 +2 x7508 +2 x7509 -1 x7189 -1 x7190 -1 x7191 -1 x7192 -1 x7193 -1 x7194 >= 0 ;
+2 x7510 +2 x7511 +2 x7512 -1 x7192 -1 x7193 -1 x7194 -1 x7195 -1 x7196 -1 x7197 >= 0 ;
+2 x7513 +2 x7514 +2 x7515 -1 x7195 -1 x7196 -1 x7197 -1 x7198 -1 x7199 -1 x7200 >= 0 ;
+2 x7516 +2 x7517 +2 x7518 -1 x7198 -1 x7199 -1 x7200 -1 x7201 -1 x7202 -1 x7203 >= 0 ;
+2 x7519 +2 x7520 +2 x7521 -1 x7201 -1 x7202 -1 x7203 -1 x7204 -1 x7205 -1 x7206 >= 0 ;
+2 x7522 +2 x7523 +2 x7524 -1 x7204 -1 x7205 -1 x7206 -1 x7207 -1 x7208 -1 x7209 >= 0 ;
+2 x7525 +2 x7526 +2 x7527 -1 x7207 -1 x7208 -1 x7209 -1 x7210 -1 x7211 -1 x7212 >= 0 ;
+2 x7528 +2 x7529 +2 x7530 -1 x7210 -1 x7211 -1 x7212 -1 x7213 -1 x7214 -1 x7215 >= 0 ;
+2 x7531 +2 x7532 +2 x7533 -1 x7213 -1 x7214 -1 x7215 -1 x7216 -1 x7217 -1 x7218 >= 0 ;
+2 x7534 +2 x7535 +2 x7536 -1 x7216 -1 x7217 -1 x7218 -1 x7219 -1 x7220 -1 x7221 >= 0 ;
+2 x7537 +2 x7538 +2 x7539 -1 x7219 -1 x7220 -1 x7221 -1 x7222 -1 x7223 -1 x7224 >= 0 ;
+2 x7540 +2 x7541 +2 x7542 -1 x7222 -1 x7223 -1 x7224 -1 x7225 -1 x7226 -1 x7227 >= 0 ;
+2 x7543 +2 x7544 +2 x7545 -1 x7225 -1 x7226 -1 x7227 -1 x7228 -1 x7229 -1 x7230 >= 0 ;
+2 x7546 +2 x7547 +2 x7548 -1 x7228 -1 x7229 -1 x7230 -1 x7231 -1 x7232 -1 x7233 >= 0 ;
+2 x7549 +2 x7550 +2 x7551 -1 x7231 -1 x7232 -1 x7233 -1 x7234 -1 x7235 -1 x7236 >= 0 ;
+2 x7552 +2 x7553 +2 x7554 -1 x7234 -1 x7235 -1 x7236 -1 x7237 -1 x7238 -1 x7239 >= 0 ;
+2 x7555 +2 x7556 +2 x7557 -1 x7237 -1 x7238 -1 x7239 -1 x7240 -1 x7241 -1 x7242 >= 0 ;
+2 x7558 +2 x7559 +2 x7560 -1 x7240 -1 x7241 -1 x7242 -1 x7243 -1 x7244 -1 x7245 >= 0 ;
+2 x7561 +2 x7562 +2 x7563 -1 x7243 -1 x7244 -1 x7245 -1 x7246 -1 x7247 -1 x7248 >= 0 ;
+2 x7564 +2 x7565 +2 x7566 -1 x7246 -1 x7247 -1 x7248 -1 x7249 -1 x7250 -1 x7251 >= 0 ;
+2 x7567 +2 x7568 +2 x7569 -1 x7249 -1 x7250 -1 x7251 -1 x7252 -1 x7253 -1 x7254 >= 0 ;
+2 x7570 +2 x7571 +2 x7572 -1 x7252 -1 x7253 -1 x7254 -1 x7255 -1 x7256 -1 x7257 >= 0 ;
+2 x7573 +2 x7574 +2 x7575 -1 x7255 -1 x7256 -1 x7257 -1 x7258 -1 x7259 -1 x7260 >= 0 ;
+2 x7576 +2 x7577 +2 x7578 -1 x7258 -1 x7259 -1 x7260 -1 x7261 -1 x7262 -1 x7263 >= 0 ;
+2 x7579 +2 x7580 +2 x7581 -1 x7261 -1 x7262 -1 x7263 -1 x7264 -1 x7265 -1 x7266 >= 0 ;
+2 x7582 +2 x7583 +2 x7584 -1 x7264 -1 x7265 -1 x7266 -1 x7267 -1 x7268 -1 x7269 >= 0 ;
+2 x7585 +2 x7586 +2 x7587 -1 x7267 -1 x7268 -1 x7269 -1 x7270 -1 x7271 -1 x7272 >= 0 ;
+2 x7588 +2 x7589 +2 x7590 -1 x7270 -1 x7271 -1 x7272 -1 x7273 -1 x7274 -1 x7275 >= 0 ;
+2 x7591 +2 x7592 +2 x7593 -1 x7273 -1 x7274 -1 x7275 -1 x7276 -1 x7277 -1 x7278 >= 0 ;
+2 x7594 +2 x7595 +2 x7596 -1 x7276 -1 x7277 -1 x7278 -1 x7279 -1 x7280 -1 x7281 >= 0 ;
+2 x7597 +2 x7598 +2 x7599 -1 x7279 -1 x7280 -1 x7281 -1 x7282 -1 x7283 -1 x7284 >= 0 ;
+2 x7600 +2 x7601 +2 x7602 -1 x7282 -1 x7283 -1 x7284 -1 x7285 -1 x7286 -1 x7287 >= 0 ;
+2 x7603 +2 x7604 +2 x7605 -1 x7285 -1 x7286 -1 x7287 -1 x7288 -1 x7289 -1 x7290 >= 0 ;
+2 x7606 +2 x7607 +2 x7608 -1 x7288 -1 x7289 -1 x7290 -1 x7291 -1 x7292 -1 x7293 >= 0 ;
+2 x7609 +2 x7610 +2 x7611 -1 x7291 -1 x7292 -1 x7293 -1 x7294 -1 x7295 -1 x7296 >= 0 ;
+2 x7612 +2 x7613 +2 x7614 -1 x7294 -1 x7295 -1 x7296 -1 x7297 -1 x7298 -1 x7299 >= 0 ;
+2 x7615 +2 x7616 +2 x7617 -1 x7297 -1 x7298 -1 x7299 -1 x7300 -1 x7301 -1 x7302 >= 0 ;
+2 x7618 +2 x7619 +2 x7620 -1 x7300 -1 x7301 -1 x7302 -1 x7303 -1 x7304 -1 x7305 >= 0 ;
+2 x7621 +2 x7622 +2 x7623 -1 x7303 -1 x7304 -1 x7305 -1 x7306 -1 x7307 -1 x7308 >= 0 ;
+2 x7624 +2 x7625 +2 x7626 -1 x7309 -1 x7310 -1 x7311 -1 x7312 -1 x7313 -1 x7314 >= 0 ;
+2 x7627 +2 x7628 +2 x7629 -1 x7312 -1 x7313 -1 x7314 -1 x7315 -1 x7316 -1 x7317 >= 0 ;
+2 x7630 +2 x7631 +2 x7632 -1 x7315 -1 x7316 -1 x7317 -1 x7318 -1 x7319 -1 x7320 >= 0 ;
+2 x7633 +2 x7634 +2 x7635 -1 x7318 -1 x7319 -1 x7320 -1 x7321 -1 x7322 -1 x7323 >= 0 ;
+2 x7636 +2 x7637 +2 x7638 -1 x7321 -1 x7322 -1 x7323 -1 x7324 -1 x7325 -1 x7326 >= 0 ;
+2 x7639 +2 x7640 +2 x7641 -1 x7324 -1 x7325 -1 x7326 -1 x7327 -1 x7328 -1 x7329 >= 0 ;
+2 x7642 +2 x7643 +2 x7644 -1 x7327 -1 x7328 -1 x7329 -1 x7330 -1 x7331 -1 x7332 >= 0 ;
+2 x7645 +2 x7646 +2 x7647 -1 x7330 -1 x7331 -1 x7332 -1 x7333 -1 x7334 -1 x7335 >= 0 ;
+2 x7648 +2 x7649 +2 x7650 -1 x7333 -1 x7334 -1 x7335 -1 x7336 -1 x7337 -1 x7338 >= 0 ;
+2 x7651 +2 x7652 +2 x7653 -1 x7336 -1 x7337 -1 x7338 -1 x7339 -1 x7340 -1 x7341 >= 0 ;
+2 x7654 +2 x7655 +2 x7656 -1 x7339 -1 x7340 -1 x7341 -1 x7342 -1 x7343 -1 x7344 >= 0 ;
+2 x7657 +2 x7658 +2 x7659 -1 x7342 -1 x7343 -1 x7344 -1 x7345 -1 x7346 -1 x7347 >= 0 ;
+2 x7660 +2 x7661 +2 x7662 -1 x7345 -1 x7346 -1 x7347 -1 x7348 -1 x7349 -1 x7350 >= 0 ;
+2 x7663 +2 x7664 +2 x7665 -1 x7348 -1 x7349 -1 x7350 -1 x7351 -1 x7352 -1 x7353 >= 0 ;
+2 x7666 +2 x7667 +2 x7668 -1 x7351 -1 x7352 -1 x7353 -1 x7354 -1 x7355 -1 x7356 >= 0 ;
+2 x7669 +2 x7670 +2 x7671 -1 x7354 -1 x7355 -1 x7356 -1 x7357 -1 x7358 -1 x7359 >= 0 ;
+2 x7672 +2 x7673 +2 x7674 -1 x7357 -1 x7358 -1 x7359 -1 x7360 -1 x7361 -1 x7362 >= 0 ;
+2 x7675 +2 x7676 +2 x7677 -1 x7360 -1 x7361 -1 x7362 -1 x7363 -1 x7364 -1 x7365 >= 0 ;
+2 x7678 +2 x7679 +2 x7680 -1 x7363 -1 x7364 -1 x7365 -1 x7366 -1 x7367 -1 x7368 >= 0 ;
+2 x7681 +2 x7682 +2 x7683 -1 x7366 -1 x7367 -1 x7368 -1 x7369 -1 x7370 -1 x7371 >= 0 ;
+2 x7684 +2 x7685 +2 x7686 -1 x7369 -1 x7370 -1 x7371 -1 x7372 -1 x7373 -1 x7374 >= 0 ;
+2 x7687 +2 x7688 +2 x7689 -1 x7372 -1 x7373 -1 x7374 -1 x7375 -1 x7376 -1 x7377 >= 0 ;
+2 x7690 +2 x7691 +2 x7692 -1 x7375 -1 x7376 -1 x7377 -1 x7378 -1 x7379 -1 x7380 >= 0 ;
+2 x7693 +2 x7694 +2 x7695 -1 x7378 -1 x7379 -1 x7380 -1 x7381 -1 x7382 -1 x7383 >= 0 ;
+2 x7696 +2 x7697 +2 x7698 -1 x7381 -1 x7382 -1 x7383 -1 x7384 -1 x7385 -1 x7386 >= 0 ;
+2 x7699 +2 x7700 +2 x7701 -1 x7384 -1 x7385 -1 x7386 -1 x7387 -1 x7388 -1 x7389 >= 0 ;
+2 x7702 +2 x7703 +2 x7704 -1 x7387 -1 x7388 -1 x7389 -1 x7390 -1 x7391 -1 x7392 >= 0 ;
+2 x7705 +2 x7706 +2 x7707 -1 x7390 -1 x7391 -1 x7392 -1 x7393 -1 x7394 -1 x7395 >= 0 ;
+2 x7708 +2 x7709 +2 x7710 -1 x7393 -1 x7394 -1 x7395 -1 x7396 -1 x7397 -1 x7398 >= 0 ;
+2 x7711 +2 x7712 +2 x7713 -1 x7396 -1 x7397 -1 x7398 -1 x7399 -1 x7400 -1 x7401 >= 0 ;
+2 x7714 +2 x7715 +2 x7716 -1 x7399 -1 x7400 -1 x7401 -1 x7402 -1 x7403 -1 x7404 >= 0 ;
+2 x7717 +2 x7718 +2 x7719 -1 x7402 -1 x7403 -1 x7404 -1 x7405 -1 x7406 -1 x7407 >= 0 ;
+2 x7720 +2 x7721 +2 x7722 -1 x7405 -1 x7406 -1 x7407 -1 x7408 -1 x7409 -1 x7410 >= 0 ;
+2 x7723 +2 x7724 +2 x7725 -1 x7408 -1 x7409 -1 x7410 -1 x7411 -1 x7412 -1 x7413 >= 0 ;
+2 x7726 +2 x7727 +2 x7728 -1 x7411 -1 x7412 -1 x7413 -1 x7414 -1 x7415 -1 x7416 >= 0 ;
+2 x7729 +2 x7730 +2 x7731 -1 x7414 -1 x7415 -1 x7416 -1 x7417 -1 x7418 -1 x7419 >= 0 ;
+2 x7732 +2 x7733 +2 x7734 -1 x7417 -1 x7418 -1 x7419 -1 x7420 -1 x7421 -1 x7422 >= 0 ;
+2 x7735 +2 x7736 +2 x7737 -1 x7420 -1 x7421 -1 x7422 -1 x7423 -1 x7424 -1 x7425 >= 0 ;
+2 x7738 +2 x7739 +2 x7740 -1 x7423 -1 x7424 -1 x7425 -1 x7426 -1 x7427 -1 x7428 >= 0 ;
+2 x7741 +2 x7742 +2 x7743 -1 x7426 -1 x7427 -1 x7428 -1 x7429 -1 x7430 -1 x7431 >= 0 ;
+2 x7744 +2 x7745 +2 x7746 -1 x7429 -1 x7430 -1 x7431 -1 x7432 -1 x7433 -1 x7434 >= 0 ;
+2 x7747 +2 x7748 +2 x7749 -1 x7432 -1 x7433 -1 x7434 -1 x7435 -1 x7436 -1 x7437 >= 0 ;
+2 x7750 +2 x7751 +2 x7752 -1 x7435 -1 x7436 -1 x7437 -1 x7438 -1 x7439 -1 x7440 >= 0 ;
+2 x7753 +2 x7754 +2 x7755 -1 x7438 -1 x7439 -1 x7440 -1 x7441 -1 x7442 -1 x7443 >= 0 ;
+2 x7756 +2 x7757 +2 x7758 -1 x7441 -1 x7442 -1 x7443 -1 x7444 -1 x7445 -1 x7446 >= 0 ;
+2 x7759 +2 x7760 +2 x7761 -1 x7444 -1 x7445 -1 x7446 -1 x7447 -1 x7448 -1 x7449 >= 0 ;
+2 x7762 +2 x7763 +2 x7764 -1 x7447 -1 x7448 -1 x7449 -1 x7450 -1 x7451 -1 x7452 >= 0 ;
+2 x7765 +2 x7766 +2 x7767 -1 x7450 -1 x7451 -1 x7452 -1 x7453 -1 x7454 -1 x7455 >= 0 ;
+2 x7768 +2 x7769 +2 x7770 -1 x7453 -1 x7454 -1 x7455 -1 x7456 -1 x7457 -1 x7458 >= 0 ;
+2 x7771 +2 x7772 +2 x7773 -1 x7456 -1 x7457 -1 x7458 -1 x7459 -1 x7460 -1 x7461 >= 0 ;
+2 x7774 +2 x7775 +2 x7776 -1 x7459 -1 x7460 -1 x7461 -1 x7462 -1 x7463 -1 x7464 >= 0 ;
+2 x7777 +2 x7778 +2 x7779 -1 x7462 -1 x7463 -1 x7464 -1 x7465 -1 x7466 -1 x7467 >= 0 ;
+2 x7780 +2 x7781 +2 x7782 -1 x7465 -1 x7466 -1 x7467 -1 x7468 -1 x7469 -1 x7470 >= 0 ;
+2 x7783 +2 x7784 +2 x7785 -1 x7468 -1 x7469 -1 x7470 -1 x7471 -1 x7472 -1 x7473 >= 0 ;
+2 x7786 +2 x7787 +2 x7788 -1 x7471 -1 x7472 -1 x7473 -1 x7474 -1 x7475 -1 x7476 >= 0 ;
+2 x7789 +2 x7790 +2 x7791 -1 x7474 -1 x7475 -1 x7476 -1 x7477 -1 x7478 -1 x7479 >= 0 ;
+2 x7792 +2 x7793 +2 x7794 -1 x7477 -1 x7478 -1 x7479 -1 x7480 -1 x7481 -1 x7482 >= 0 ;
+2 x7795 +2 x7796 +2 x7797 -1 x7480 -1 x7481 -1 x7482 -1 x7483 -1 x7484 -1 x7485 >= 0 ;
+2 x7798 +2 x7799 +2 x7800 -1 x7483 -1 x7484 -1 x7485 -1 x7486 -1 x7487 -1 x7488 >= 0 ;
+2 x7801 +2 x7802 +2 x7803 -1 x7486 -1 x7487 -1 x7488 -1 x7489 -1 x7490 -1 x7491 >= 0 ;
+2 x7804 +2 x7805 +2 x7806 -1 x7489 -1 x7490 -1 x7491 -1 x7492 -1 x7493 -1 x7494 >= 0 ;
+2 x7807 +2 x7808 +2 x7809 -1 x7492 -1 x7493 -1 x7494 -1 x7495 -1 x7496 -1 x7497 >= 0 ;
+2 x7810 +2 x7811 +2 x7812 -1 x7495 -1 x7496 -1 x7497 -1 x7498 -1 x7499 -1 x7500 >= 0 ;
+2 x7813 +2 x7814 +2 x7815 -1 x7498 -1 x7499 -1 x7500 -1 x7501 -1 x7502 -1 x7503 >= 0 ;
+2 x7816 +2 x7817 +2 x7818 -1 x7501 -1 x7502 -1 x7503 -1 x7504 -1 x7505 -1 x7506 >= 0 ;
+2 x7819 +2 x7820 +2 x7821 -1 x7504 -1 x7505 -1 x7506 -1 x7507 -1 x7508 -1 x7509 >= 0 ;
+2 x7822 +2 x7823 +2 x7824 -1 x7507 -1 x7508 -1 x7509 -1 x7510 -1 x7511 -1 x7512 >= 0 ;
+2 x7825 +2 x7826 +2 x7827 -1 x7510 -1 x7511 -1 x7512 -1 x7513 -1 x7514 -1 x7515 >= 0 ;
+2 x7828 +2 x7829 +2 x7830 -1 x7513 -1 x7514 -1 x7515 -1 x7516 -1 x7517 -1 x7518 >= 0 ;
+2 x7831 +2 x7832 +2 x7833 -1 x7516 -1 x7517 -1 x7518 -1 x7519 -1 x7520 -1 x7521 >= 0 ;
+2 x7834 +2 x7835 +2 x7836 -1 x7519 -1 x7520 -1 x7521 -1 x7522 -1 x7523 -1 x7524 >= 0 ;
+2 x7837 +2 x7838 +2 x7839 -1 x7522 -1 x7523 -1 x7524 -1 x7525 -1 x7526 -1 x7527 >= 0 ;
+2 x7840 +2 x7841 +2 x7842 -1 x7525 -1 x7526 -1 x7527 -1 x7528 -1 x7529 -1 x7530 >= 0 ;
+2 x7843 +2 x7844 +2 x7845 -1 x7528 -1 x7529 -1 x7530 -1 x7531 -1 x7532 -1 x7533 >= 0 ;
+2 x7846 +2 x7847 +2 x7848 -1 x7531 -1 x7532 -1 x7533 -1 x7534 -1 x7535 -1 x7536 >= 0 ;
+2 x7849 +2 x7850 +2 x7851 -1 x7534 -1 x7535 -1 x7536 -1 x7537 -1 x7538 -1 x7539 >= 0 ;
+2 x7852 +2 x7853 +2 x7854 -1 x7537 -1 x7538 -1 x7539 -1 x7540 -1 x7541 -1 x7542 >= 0 ;
+2 x7855 +2 x7856 +2 x7857 -1 x7540 -1 x7541 -1 x7542 -1 x7543 -1 x7544 -1 x7545 >= 0 ;
+2 x7858 +2 x7859 +2 x7860 -1 x7543 -1 x7544 -1 x7545 -1 x7546 -1 x7547 -1 x7548 >= 0 ;
+2 x7861 +2 x7862 +2 x7863 -1 x7546 -1 x7547 -1 x7548 -1 x7549 -1 x7550 -1 x7551 >= 0 ;
+2 x7864 +2 x7865 +2 x7866 -1 x7549 -1 x7550 -1 x7551 -1 x7552 -1 x7553 -1 x7554 >= 0 ;
+2 x7867 +2 x7868 +2 x7869 -1 x7552 -1 x7553 -1 x7554 -1 x7555 -1 x7556 -1 x7557 >= 0 ;
+2 x7870 +2 x7871 +2 x7872 -1 x7555 -1 x7556 -1 x7557 -1 x7558 -1 x7559 -1 x7560 >= 0 ;
+2 x7873 +2 x7874 +2 x7875 -1 x7558 -1 x7559 -1 x7560 -1 x7561 -1 x7562 -1 x7563 >= 0 ;
+2 x7876 +2 x7877 +2 x7878 -1 x7561 -1 x7562 -1 x7563 -1 x7564 -1 x7565 -1 x7566 >= 0 ;
+2 x7879 +2 x7880 +2 x7881 -1 x7564 -1 x7565 -1 x7566 -1 x7567 -1 x7568 -1 x7569 >= 0 ;
+2 x7882 +2 x7883 +2 x7884 -1 x7567 -1 x7568 -1 x7569 -1 x7570 -1 x7571 -1 x7572 >= 0 ;
+2 x7885 +2 x7886 +2 x7887 -1 x7570 -1 x7571 -1 x7572 -1 x7573 -1 x7574 -1 x7575 >= 0 ;
+2 x7888 +2 x7889 +2 x7890 -1 x7573 -1 x7574 -1 x7575 -1 x7576 -1 x7577 -1 x7578 >= 0 ;
+2 x7891 +2 x7892 +2 x7893 -1 x7576 -1 x7577 -1 x7578 -1 x7579 -1 x7580 -1 x7581 >= 0 ;
+2 x7894 +2 x7895 +2 x7896 -1 x7579 -1 x7580 -1 x7581 -1 x7582 -1 x7583 -1 x7584 >= 0 ;
+2 x7897 +2 x7898 +2 x7899 -1 x7582 -1 x7583 -1 x7584 -1 x7585 -1 x7586 -1 x7587 >= 0 ;
+2 x7900 +2 x7901 +2 x7902 -1 x7585 -1 x7586 -1 x7587 -1 x7588 -1 x7589 -1 x7590 >= 0 ;
+2 x7903 +2 x7904 +2 x7905 -1 x7588 -1 x7589 -1 x7590 -1 x7591 -1 x7592 -1 x7593 >= 0 ;
+2 x7906 +2 x7907 +2 x7908 -1 x7591 -1 x7592 -1 x7593 -1 x7594 -1 x7595 -1 x7596 >= 0 ;
+2 x7909 +2 x7910 +2 x7911 -1 x7594 -1 x7595 -1 x7596 -1 x7597 -1 x7598 -1 x7599 >= 0 ;
+2 x7912 +2 x7913 +2 x7914 -1 x7597 -1 x7598 -1 x7599 -1 x7600 -1 x7601 -1 x7602 >= 0 ;
+2 x7915 +2 x7916 +2 x7917 -1 x7600 -1 x7601 -1 x7602 -1 x7603 -1 x7604 -1 x7605 >= 0 ;
+2 x7918 +2 x7919 +2 x7920 -1 x7603 -1 x7604 -1 x7605 -1 x7606 -1 x7607 -1 x7608 >= 0 ;
+2 x7921 +2 x7922 +2 x7923 -1 x7606 -1 x7607 -1 x7608 -1 x7609 -1 x7610 -1 x7611 >= 0 ;
+2 x7924 +2 x7925 +2 x7926 -1 x7609 -1 x7610 -1 x7611 -1 x7612 -1 x7613 -1 x7614 >= 0 ;
+2 x7927 +2 x7928 +2 x7929 -1 x7612 -1 x7613 -1 x7614 -1 x7615 -1 x7616 -1 x7617 >= 0 ;
+2 x7930 +2 x7931 +2 x7932 -1 x7615 -1 x7616 -1 x7617 -1 x7618 -1 x7619 -1 x7620 >= 0 ;
+2 x7933 +2 x7934 +2 x7935 -1 x7618 -1 x7619 -1 x7620 -1 x7621 -1 x7622 -1 x7623 >= 0 ;
+2 x7936 +2 x7937 +2 x7938 -1 x7624 -1 x7625 -1 x7626 -1 x7627 -1 x7628 -1 x7629 >= 0 ;
+2 x7939 +2 x7940 +2 x7941 -1 x7627 -1 x7628 -1 x7629 -1 x7630 -1 x7631 -1 x7632 >= 0 ;
+2 x7942 +2 x7943 +2 x7944 -1 x7630 -1 x7631 -1 x7632 -1 x7633 -1 x7634 -1 x7635 >= 0 ;
+2 x7945 +2 x7946 +2 x7947 -1 x7633 -1 x7634 -1 x7635 -1 x7636 -1 x7637 -1 x7638 >= 0 ;
+2 x7948 +2 x7949 +2 x7950 -1 x7636 -1 x7637 -1 x7638 -1 x7639 -1 x7640 -1 x7641 >= 0 ;
+2 x7951 +2 x7952 +2 x7953 -1 x7639 -1 x7640 -1 x7641 -1 x7642 -1 x7643 -1 x7644 >= 0 ;
+2 x7954 +2 x7955 +2 x7956 -1 x7642 -1 x7643 -1 x7644 -1 x7645 -1 x7646 -1 x7647 >= 0 ;
+2 x7957 +2 x7958 +2 x7959 -1 x7645 -1 x7646 -1 x7647 -1 x7648 -1 x7649 -1 x7650 >= 0 ;
+2 x7960 +2 x7961 +2 x7962 -1 x7648 -1 x7649 -1 x7650 -1 x7651 -1 x7652 -1 x7653 >= 0 ;
+2 x7963 +2 x7964 +2 x7965 -1 x7651 -1 x7652 -1 x7653 -1 x7654 -1 x7655 -1 x7656 >= 0 ;
+2 x7966 +2 x7967 +2 x7968 -1 x7654 -1 x7655 -1 x7656 -1 x7657 -1 x7658 -1 x7659 >= 0 ;
+2 x7969 +2 x7970 +2 x7971 -1 x7657 -1 x7658 -1 x7659 -1 x7660 -1 x7661 -1 x7662 >= 0 ;
+2 x7972 +2 x7973 +2 x7974 -1 x7660 -1 x7661 -1 x7662 -1 x7663 -1 x7664 -1 x7665 >= 0 ;
+2 x7975 +2 x7976 +2 x7977 -1 x7663 -1 x7664 -1 x7665 -1 x7666 -1 x7667 -1 x7668 >= 0 ;
+2 x7978 +2 x7979 +2 x7980 -1 x7666 -1 x7667 -1 x7668 -1 x7669 -1 x7670 -1 x7671 >= 0 ;
+2 x7981 +2 x7982 +2 x7983 -1 x7669 -1 x7670 -1 x7671 -1 x7672 -1 x7673 -1 x7674 >= 0 ;
+2 x7984 +2 x7985 +2 x7986 -1 x7672 -1 x7673 -1 x7674 -1 x7675 -1 x7676 -1 x7677 >= 0 ;
+2 x7987 +2 x7988 +2 x7989 -1 x7675 -1 x7676 -1 x7677 -1 x7678 -1 x7679 -1 x7680 >= 0 ;
+2 x7990 +2 x7991 +2 x7992 -1 x7678 -1 x7679 -1 x7680 -1 x7681 -1 x7682 -1 x7683 >= 0 ;
+2 x7993 +2 x7994 +2 x7995 -1 x7681 -1 x7682 -1 x7683 -1 x7684 -1 x7685 -1 x7686 >= 0 ;
+2 x7996 +2 x7997 +2 x7998 -1 x7684 -1 x7685 -1 x7686 -1 x7687 -1 x7688 -1 x7689 >= 0 ;
+2 x7999 +2 x8000 +2 x8001 -1 x7687 -1 x7688 -1 x7689 -1 x7690 -1 x7691 -1 x7692 >= 0 ;
+2 x8002 +2 x8003 +2 x8004 -1 x7690 -1 x7691 -1 x7692 -1 x7693 -1 x7694 -1 x7695 >= 0 ;
+2 x8005 +2 x8006 +2 x8007 -1 x7693 -1 x7694 -1 x7695 -1 x7696 -1 x7697 -1 x7698 >= 0 ;
+2 x8008 +2 x8009 +2 x8010 -1 x7696 -1 x7697 -1 x7698 -1 x7699 -1 x7700 -1 x7701 >= 0 ;
+2 x8011 +2 x8012 +2 x8013 -1 x7699 -1 x7700 -1 x7701 -1 x7702 -1 x7703 -1 x7704 >= 0 ;
+2 x8014 +2 x8015 +2 x8016 -1 x7702 -1 x7703 -1 x7704 -1 x7705 -1 x7706 -1 x7707 >= 0 ;
+2 x8017 +2 x8018 +2 x8019 -1 x7705 -1 x7706 -1 x7707 -1 x7708 -1 x7709 -1 x7710 >= 0 ;
+2 x8020 +2 x8021 +2 x8022 -1 x7708 -1 x7709 -1 x7710 -1 x7711 -1 x7712 -1 x7713 >= 0 ;
+2 x8023 +2 x8024 +2 x8025 -1 x7711 -1 x7712 -1 x7713 -1 x7714 -1 x7715 -1 x7716 >= 0 ;
+2 x8026 +2 x8027 +2 x8028 -1 x7714 -1 x7715 -1 x7716 -1 x7717 -1 x7718 -1 x7719 >= 0 ;
+2 x8029 +2 x8030 +2 x8031 -1 x7717 -1 x7718 -1 x7719 -1 x7720 -1 x7721 -1 x7722 >= 0 ;
+2 x8032 +2 x8033 +2 x8034 -1 x7720 -1 x7721 -1 x7722 -1 x7723 -1 x7724 -1 x7725 >= 0 ;
+2 x8035 +2 x8036 +2 x8037 -1 x7723 -1 x7724 -1 x7725 -1 x7726 -1 x7727 -1 x7728 >= 0 ;
+2 x8038 +2 x8039 +2 x8040 -1 x7726 -1 x7727 -1 x7728 -1 x7729 -1 x7730 -1 x7731 >= 0 ;
+2 x8041 +2 x8042 +2 x8043 -1 x7729 -1 x7730 -1 x7731 -1 x7732 -1 x7733 -1 x7734 >= 0 ;
+2 x8044 +2 x8045 +2 x8046 -1 x7732 -1 x7733 -1 x7734 -1 x7735 -1 x7736 -1 x7737 >= 0 ;
+2 x8047 +2 x8048 +2 x8049 -1 x7735 -1 x7736 -1 x7737 -1 x7738 -1 x7739 -1 x7740 >= 0 ;
+2 x8050 +2 x8051 +2 x8052 -1 x7738 -1 x7739 -1 x7740 -1 x7741 -1 x7742 -1 x7743 >= 0 ;
+2 x8053 +2 x8054 +2 x8055 -1 x7741 -1 x7742 -1 x7743 -1 x7744 -1 x7745 -1 x7746 >= 0 ;
+2 x8056 +2 x8057 +2 x8058 -1 x7744 -1 x7745 -1 x7746 -1 x7747 -1 x7748 -1 x7749 >= 0 ;
+2 x8059 +2 x8060 +2 x8061 -1 x7747 -1 x7748 -1 x7749 -1 x7750 -1 x7751 -1 x7752 >= 0 ;
+2 x8062 +2 x8063 +2 x8064 -1 x7750 -1 x7751 -1 x7752 -1 x7753 -1 x7754 -1 x7755 >= 0 ;
+2 x8065 +2 x8066 +2 x8067 -1 x7753 -1 x7754 -1 x7755 -1 x7756 -1 x7757 -1 x7758 >= 0 ;
+2 x8068 +2 x8069 +2 x8070 -1 x7756 -1 x7757 -1 x7758 -1 x7759 -1 x7760 -1 x7761 >= 0 ;
+2 x8071 +2 x8072 +2 x8073 -1 x7759 -1 x7760 -1 x7761 -1 x7762 -1 x7763 -1 x7764 >= 0 ;
+2 x8074 +2 x8075 +2 x8076 -1 x7762 -1 x7763 -1 x7764 -1 x7765 -1 x7766 -1 x7767 >= 0 ;
+2 x8077 +2 x8078 +2 x8079 -1 x7765 -1 x7766 -1 x7767 -1 x7768 -1 x7769 -1 x7770 >= 0 ;
+2 x8080 +2 x8081 +2 x8082 -1 x7768 -1 x7769 -1 x7770 -1 x7771 -1 x7772 -1 x7773 >= 0 ;
+2 x8083 +2 x8084 +2 x8085 -1 x7771 -1 x7772 -1 x7773 -1 x7774 -1 x7775 -1 x7776 >= 0 ;
+2 x8086 +2 x8087 +2 x8088 -1 x7774 -1 x7775 -1 x7776 -1 x7777 -1 x7778 -1 x7779 >= 0 ;
+2 x8089 +2 x8090 +2 x8091 -1 x7777 -1 x7778 -1 x7779 -1 x7780 -1 x7781 -1 x7782 >= 0 ;
+2 x8092 +2 x8093 +2 x8094 -1 x7780 -1 x7781 -1 x7782 -1 x7783 -1 x7784 -1 x7785 >= 0 ;
+2 x8095 +2 x8096 +2 x8097 -1 x7783 -1 x7784 -1 x7785 -1 x7786 -1 x7787 -1 x7788 >= 0 ;
+2 x8098 +2 x8099 +2 x8100 -1 x7786 -1 x7787 -1 x7788 -1 x7789 -1 x7790 -1 x7791 >= 0 ;
+2 x8101 +2 x8102 +2 x8103 -1 x7789 -1 x7790 -1 x7791 -1 x7792 -1 x7793 -1 x7794 >= 0 ;
+2 x8104 +2 x8105 +2 x8106 -1 x7792 -1 x7793 -1 x7794 -1 x7795 -1 x7796 -1 x7797 >= 0 ;
+2 x8107 +2 x8108 +2 x8109 -1 x7795 -1 x7796 -1 x7797 -1 x7798 -1 x7799 -1 x7800 >= 0 ;
+2 x8110 +2 x8111 +2 x8112 -1 x7798 -1 x7799 -1 x7800 -1 x7801 -1 x7802 -1 x7803 >= 0 ;
+2 x8113 +2 x8114 +2 x8115 -1 x7801 -1 x7802 -1 x7803 -1 x7804 -1 x7805 -1 x7806 >= 0 ;
+2 x8116 +2 x8117 +2 x8118 -1 x7804 -1 x7805 -1 x7806 -1 x7807 -1 x7808 -1 x7809 >= 0 ;
+2 x8119 +2 x8120 +2 x8121 -1 x7807 -1 x7808 -1 x7809 -1 x7810 -1 x7811 -1 x7812 >= 0 ;
+2 x8122 +2 x8123 +2 x8124 -1 x7810 -1 x7811 -1 x7812 -1 x7813 -1 x7814 -1 x7815 >= 0 ;
+2 x8125 +2 x8126 +2 x8127 -1 x7813 -1 x7814 -1 x7815 -1 x7816 -1 x7817 -1 x7818 >= 0 ;
+2 x8128 +2 x8129 +2 x8130 -1 x7816 -1 x7817 -1 x7818 -1 x7819 -1 x7820 -1 x7821 >= 0 ;
+2 x8131 +2 x8132 +2 x8133 -1 x7819 -1 x7820 -1 x7821 -1 x7822 -1 x7823 -1 x7824 >= 0 ;
+2 x8134 +2 x8135 +2 x8136 -1 x7822 -1 x7823 -1 x7824 -1 x7825 -1 x7826 -1 x7827 >= 0 ;
+2 x8137 +2 x8138 +2 x8139 -1 x7825 -1 x7826 -1 x7827 -1 x7828 -1 x7829 -1 x7830 >= 0 ;
+2 x8140 +2 x8141 +2 x8142 -1 x7828 -1 x7829 -1 x7830 -1 x7831 -1 x7832 -1 x7833 >= 0 ;
+2 x8143 +2 x8144 +2 x8145 -1 x7831 -1 x7832 -1 x7833 -1 x7834 -1 x7835 -1 x7836 >= 0 ;
+2 x8146 +2 x8147 +2 x8148 -1 x7834 -1 x7835 -1 x7836 -1 x7837 -1 x7838 -1 x7839 >= 0 ;
+2 x8149 +2 x8150 +2 x8151 -1 x7837 -1 x7838 -1 x7839 -1 x7840 -1 x7841 -1 x7842 >= 0 ;
+2 x8152 +2 x8153 +2 x8154 -1 x7840 -1 x7841 -1 x7842 -1 x7843 -1 x7844 -1 x7845 >= 0 ;
+2 x8155 +2 x8156 +2 x8157 -1 x7843 -1 x7844 -1 x7845 -1 x7846 -1 x7847 -1 x7848 >= 0 ;
+2 x8158 +2 x8159 +2 x8160 -1 x7846 -1 x7847 -1 x7848 -1 x7849 -1 x7850 -1 x7851 >= 0 ;
+2 x8161 +2 x8162 +2 x8163 -1 x7849 -1 x7850 -1 x7851 -1 x7852 -1 x7853 -1 x7854 >= 0 ;
+2 x8164 +2 x8165 +2 x8166 -1 x7852 -1 x7853 -1 x7854 -1 x7855 -1 x7856 -1 x7857 >= 0 ;
+2 x8167 +2 x8168 +2 x8169 -1 x7855 -1 x7856 -1 x7857 -1 x7858 -1 x7859 -1 x7860 >= 0 ;
+2 x8170 +2 x8171 +2 x8172 -1 x7858 -1 x7859 -1 x7860 -1 x7861 -1 x7862 -1 x7863 >= 0 ;
+2 x8173 +2 x8174 +2 x8175 -1 x7861 -1 x7862 -1 x7863 -1 x7864 -1 x7865 -1 x7866 >= 0 ;
+2 x8176 +2 x8177 +2 x8178 -1 x7864 -1 x7865 -1 x7866 -1 x7867 -1 x7868 -1 x7869 >= 0 ;
+2 x8179 +2 x8180 +2 x8181 -1 x7867 -1 x7868 -1 x7869 -1 x7870 -1 x7871 -1 x7872 >= 0 ;
+2 x8182 +2 x8183 +2 x8184 -1 x7870 -1 x7871 -1 x7872 -1 x7873 -1 x7874 -1 x7875 >= 0 ;
+2 x8185 +2 x8186 +2 x8187 -1 x7873 -1 x7874 -1 x7875 -1 x7876 -1 x7877 -1 x7878 >= 0 ;
+2 x8188 +2 x8189 +2 x8190 -1 x7876 -1 x7877 -1 x7878 -1 x7879 -1 x7880 -1 x7881 >= 0 ;
+2 x8191 +2 x8192 +2 x8193 -1 x7879 -1 x7880 -1 x7881 -1 x7882 -1 x7883 -1 x7884 >= 0 ;
+2 x8194 +2 x8195 +2 x8196 -1 x7882 -1 x7883 -1 x7884 -1 x7885 -1 x7886 -1 x7887 >= 0 ;
+2 x8197 +2 x8198 +2 x8199 -1 x7885 -1 x7886 -1 x7887 -1 x7888 -1 x7889 -1 x7890 >= 0 ;
+2 x8200 +2 x8201 +2 x8202 -1 x7888 -1 x7889 -1 x7890 -1 x7891 -1 x7892 -1 x7893 >= 0 ;
+2 x8203 +2 x8204 +2 x8205 -1 x7891 -1 x7892 -1 x7893 -1 x7894 -1 x7895 -1 x7896 >= 0 ;
+2 x8206 +2 x8207 +2 x8208 -1 x7894 -1 x7895 -1 x7896 -1 x7897 -1 x7898 -1 x7899 >= 0 ;
+2 x8209 +2 x8210 +2 x8211 -1 x7897 -1 x7898 -1 x7899 -1 x7900 -1 x7901 -1 x7902 >= 0 ;
+2 x8212 +2 x8213 +2 x8214 -1 x7900 -1 x7901 -1 x7902 -1 x7903 -1 x7904 -1 x7905 >= 0 ;
+2 x8215 +2 x8216 +2 x8217 -1 x7903 -1 x7904 -1 x7905 -1 x7906 -1 x7907 -1 x7908 >= 0 ;
+2 x8218 +2 x8219 +2 x8220 -1 x7906 -1 x7907 -1 x7908 -1 x7909 -1 x7910 -1 x7911 >= 0 ;
+2 x8221 +2 x8222 +2 x8223 -1 x7909 -1 x7910 -1 x7911 -1 x7912 -1 x7913 -1 x7914 >= 0 ;
+2 x8224 +2 x8225 +2 x8226 -1 x7912 -1 x7913 -1 x7914 -1 x7915 -1 x7916 -1 x7917 >= 0 ;
+2 x8227 +2 x8228 +2 x8229 -1 x7915 -1 x7916 -1 x7917 -1 x7918 -1 x7919 -1 x7920 >= 0 ;
+2 x8230 +2 x8231 +2 x8232 -1 x7918 -1 x7919 -1 x7920 -1 x7921 -1 x7922 -1 x7923 >= 0 ;
+2 x8233 +2 x8234 +2 x8235 -1 x7921 -1 x7922 -1 x7923 -1 x7924 -1 x7925 -1 x7926 >= 0 ;
+2 x8236 +2 x8237 +2 x8238 -1 x7924 -1 x7925 -1 x7926 -1 x7927 -1 x7928 -1 x7929 >= 0 ;
+2 x8239 +2 x8240 +2 x8241 -1 x7927 -1 x7928 -1 x7929 -1 x7930 -1 x7931 -1 x7932 >= 0 ;
+2 x8242 +2 x8243 +2 x8244 -1 x7930 -1 x7931 -1 x7932 -1 x7933 -1 x7934 -1 x7935 >= 0 ;
+2 x8245 +2 x8246 +2 x8247 -1 x7936 -1 x7937 -1 x7938 -1 x7939 -1 x7940 -1 x7941 >= 0 ;
+2 x8248 +2 x8249 +2 x8250 -1 x7939 -1 x7940 -1 x7941 -1 x7942 -1 x7943 -1 x7944 >= 0 ;
+2 x8251 +2 x8252 +2 x8253 -1 x7942 -1 x7943 -1 x7944 -1 x7945 -1 x7946 -1 x7947 >= 0 ;
+2 x8254 +2 x8255 +2 x8256 -1 x7945 -1 x7946 -1 x7947 -1 x7948 -1 x7949 -1 x7950 >= 0 ;
+2 x8257 +2 x8258 +2 x8259 -1 x7948 -1 x7949 -1 x7950 -1 x7951 -1 x7952 -1 x7953 >= 0 ;
+2 x8260 +2 x8261 +2 x8262 -1 x7951 -1 x7952 -1 x7953 -1 x7954 -1 x7955 -1 x7956 >= 0 ;
+2 x8263 +2 x8264 +2 x8265 -1 x7954 -1 x7955 -1 x7956 -1 x7957 -1 x7958 -1 x7959 >= 0 ;
+2 x8266 +2 x8267 +2 x8268 -1 x7957 -1 x7958 -1 x7959 -1 x7960 -1 x7961 -1 x7962 >= 0 ;
+2 x8269 +2 x8270 +2 x8271 -1 x7960 -1 x7961 -1 x7962 -1 x7963 -1 x7964 -1 x7965 >= 0 ;
+2 x8272 +2 x8273 +2 x8274 -1 x7963 -1 x7964 -1 x7965 -1 x7966 -1 x7967 -1 x7968 >= 0 ;
+2 x8275 +2 x8276 +2 x8277 -1 x7966 -1 x7967 -1 x7968 -1 x7969 -1 x7970 -1 x7971 >= 0 ;
+2 x8278 +2 x8279 +2 x8280 -1 x7969 -1 x7970 -1 x7971 -1 x7972 -1 x7973 -1 x7974 >= 0 ;
+2 x8281 +2 x8282 +2 x8283 -1 x7972 -1 x7973 -1 x7974 -1 x7975 -1 x7976 -1 x7977 >= 0 ;
+2 x8284 +2 x8285 +2 x8286 -1 x7975 -1 x7976 -1 x7977 -1 x7978 -1 x7979 -1 x7980 >= 0 ;
+2 x8287 +2 x8288 +2 x8289 -1 x7978 -1 x7979 -1 x7980 -1 x7981 -1 x7982 -1 x7983 >= 0 ;
+2 x8290 +2 x8291 +2 x8292 -1 x7981 -1 x7982 -1 x7983 -1 x7984 -1 x7985 -1 x7986 >= 0 ;
+2 x8293 +2 x8294 +2 x8295 -1 x7984 -1 x7985 -1 x7986 -1 x7987 -1 x7988 -1 x7989 >= 0 ;
+2 x8296 +2 x8297 +2 x8298 -1 x7987 -1 x7988 -1 x7989 -1 x7990 -1 x7991 -1 x7992 >= 0 ;
+2 x8299 +2 x8300 +2 x8301 -1 x7990 -1 x7991 -1 x7992 -1 x7993 -1 x7994 -1 x7995 >= 0 ;
+2 x8302 +2 x8303 +2 x8304 -1 x7993 -1 x7994 -1 x7995 -1 x7996 -1 x7997 -1 x7998 >= 0 ;
+2 x8305 +2 x8306 +2 x8307 -1 x7996 -1 x7997 -1 x7998 -1 x7999 -1 x8000 -1 x8001 >= 0 ;
+2 x8308 +2 x8309 +2 x8310 -1 x7999 -1 x8000 -1 x8001 -1 x8002 -1 x8003 -1 x8004 >= 0 ;
+2 x8311 +2 x8312 +2 x8313 -1 x8002 -1 x8003 -1 x8004 -1 x8005 -1 x8006 -1 x8007 >= 0 ;
+2 x8314 +2 x8315 +2 x8316 -1 x8005 -1 x8006 -1 x8007 -1 x8008 -1 x8009 -1 x8010 >= 0 ;
+2 x8317 +2 x8318 +2 x8319 -1 x8008 -1 x8009 -1 x8010 -1 x8011 -1 x8012 -1 x8013 >= 0 ;
+2 x8320 +2 x8321 +2 x8322 -1 x8011 -1 x8012 -1 x8013 -1 x8014 -1 x8015 -1 x8016 >= 0 ;
+2 x8323 +2 x8324 +2 x8325 -1 x8014 -1 x8015 -1 x8016 -1 x8017 -1 x8018 -1 x8019 >= 0 ;
+2 x8326 +2 x8327 +2 x8328 -1 x8017 -1 x8018 -1 x8019 -1 x8020 -1 x8021 -1 x8022 >= 0 ;
+2 x8329 +2 x8330 +2 x8331 -1 x8020 -1 x8021 -1 x8022 -1 x8023 -1 x8024 -1 x8025 >= 0 ;
+2 x8332 +2 x8333 +2 x8334 -1 x8023 -1 x8024 -1 x8025 -1 x8026 -1 x8027 -1 x8028 >= 0 ;
+2 x8335 +2 x8336 +2 x8337 -1 x8026 -1 x8027 -1 x8028 -1 x8029 -1 x8030 -1 x8031 >= 0 ;
+2 x8338 +2 x8339 +2 x8340 -1 x8029 -1 x8030 -1 x8031 -1 x8032 -1 x8033 -1 x8034 >= 0 ;
+2 x8341 +2 x8342 +2 x8343 -1 x8032 -1 x8033 -1 x8034 -1 x8035 -1 x8036 -1 x8037 >= 0 ;
+2 x8344 +2 x8345 +2 x8346 -1 x8035 -1 x8036 -1 x8037 -1 x8038 -1 x8039 -1 x8040 >= 0 ;
+2 x8347 +2 x8348 +2 x8349 -1 x8038 -1 x8039 -1 x8040 -1 x8041 -1 x8042 -1 x8043 >= 0 ;
+2 x8350 +2 x8351 +2 x8352 -1 x8041 -1 x8042 -1 x8043 -1 x8044 -1 x8045 -1 x8046 >= 0 ;
+2 x8353 +2 x8354 +2 x8355 -1 x8044 -1 x8045 -1 x8046 -1 x8047 -1 x8048 -1 x8049 >= 0 ;
+2 x8356 +2 x8357 +2 x8358 -1 x8047 -1 x8048 -1 x8049 -1 x8050 -1 x8051 -1 x8052 >= 0 ;
+2 x8359 +2 x8360 +2 x8361 -1 x8050 -1 x8051 -1 x8052 -1 x8053 -1 x8054 -1 x8055 >= 0 ;
+2 x8362 +2 x8363 +2 x8364 -1 x8053 -1 x8054 -1 x8055 -1 x8056 -1 x8057 -1 x8058 >= 0 ;
+2 x8365 +2 x8366 +2 x8367 -1 x8056 -1 x8057 -1 x8058 -1 x8059 -1 x8060 -1 x8061 >= 0 ;
+2 x8368 +2 x8369 +2 x8370 -1 x8059 -1 x8060 -1 x8061 -1 x8062 -1 x8063 -1 x8064 >= 0 ;
+2 x8371 +2 x8372 +2 x8373 -1 x8062 -1 x8063 -1 x8064 -1 x8065 -1 x8066 -1 x8067 >= 0 ;
+2 x8374 +2 x8375 +2 x8376 -1 x8065 -1 x8066 -1 x8067 -1 x8068 -1 x8069 -1 x8070 >= 0 ;
+2 x8377 +2 x8378 +2 x8379 -1 x8068 -1 x8069 -1 x8070 -1 x8071 -1 x8072 -1 x8073 >= 0 ;
+2 x8380 +2 x8381 +2 x8382 -1 x8071 -1 x8072 -1 x8073 -1 x8074 -1 x8075 -1 x8076 >= 0 ;
+2 x8383 +2 x8384 +2 x8385 -1 x8074 -1 x8075 -1 x8076 -1 x8077 -1 x8078 -1 x8079 >= 0 ;
+2 x8386 +2 x8387 +2 x8388 -1 x8077 -1 x8078 -1 x8079 -1 x8080 -1 x8081 -1 x8082 >= 0 ;
+2 x8389 +2 x8390 +2 x8391 -1 x8080 -1 x8081 -1 x8082 -1 x8083 -1 x8084 -1 x8085 >= 0 ;
+2 x8392 +2 x8393 +2 x8394 -1 x8083 -1 x8084 -1 x8085 -1 x8086 -1 x8087 -1 x8088 >= 0 ;
+2 x8395 +2 x8396 +2 x8397 -1 x8086 -1 x8087 -1 x8088 -1 x8089 -1 x8090 -1 x8091 >= 0 ;
+2 x8398 +2 x8399 +2 x8400 -1 x8089 -1 x8090 -1 x8091 -1 x8092 -1 x8093 -1 x8094 >= 0 ;
+2 x8401 +2 x8402 +2 x8403 -1 x8092 -1 x8093 -1 x8094 -1 x8095 -1 x8096 -1 x8097 >= 0 ;
+2 x8404 +2 x8405 +2 x8406 -1 x8095 -1 x8096 -1 x8097 -1 x8098 -1 x8099 -1 x8100 >= 0 ;
+2 x8407 +2 x8408 +2 x8409 -1 x8098 -1 x8099 -1 x8100 -1 x8101 -1 x8102 -1 x8103 >= 0 ;
+2 x8410 +2 x8411 +2 x8412 -1 x8101 -1 x8102 -1 x8103 -1 x8104 -1 x8105 -1 x8106 >= 0 ;
+2 x8413 +2 x8414 +2 x8415 -1 x8104 -1 x8105 -1 x8106 -1 x8107 -1 x8108 -1 x8109 >= 0 ;
+2 x8416 +2 x8417 +2 x8418 -1 x8107 -1 x8108 -1 x8109 -1 x8110 -1 x8111 -1 x8112 >= 0 ;
+2 x8419 +2 x8420 +2 x8421 -1 x8110 -1 x8111 -1 x8112 -1 x8113 -1 x8114 -1 x8115 >= 0 ;
+2 x8422 +2 x8423 +2 x8424 -1 x8113 -1 x8114 -1 x8115 -1 x8116 -1 x8117 -1 x8118 >= 0 ;
+2 x8425 +2 x8426 +2 x8427 -1 x8116 -1 x8117 -1 x8118 -1 x8119 -1 x8120 -1 x8121 >= 0 ;
+2 x8428 +2 x8429 +2 x8430 -1 x8119 -1 x8120 -1 x8121 -1 x8122 -1 x8123 -1 x8124 >= 0 ;
+2 x8431 +2 x8432 +2 x8433 -1 x8122 -1 x8123 -1 x8124 -1 x8125 -1 x8126 -1 x8127 >= 0 ;
+2 x8434 +2 x8435 +2 x8436 -1 x8125 -1 x8126 -1 x8127 -1 x8128 -1 x8129 -1 x8130 >= 0 ;
+2 x8437 +2 x8438 +2 x8439 -1 x8128 -1 x8129 -1 x8130 -1 x8131 -1 x8132 -1 x8133 >= 0 ;
+2 x8440 +2 x8441 +2 x8442 -1 x8131 -1 x8132 -1 x8133 -1 x8134 -1 x8135 -1 x8136 >= 0 ;
+2 x8443 +2 x8444 +2 x8445 -1 x8134 -1 x8135 -1 x8136 -1 x8137 -1 x8138 -1 x8139 >= 0 ;
+2 x8446 +2 x8447 +2 x8448 -1 x8137 -1 x8138 -1 x8139 -1 x8140 -1 x8141 -1 x8142 >= 0 ;
+2 x8449 +2 x8450 +2 x8451 -1 x8140 -1 x8141 -1 x8142 -1 x8143 -1 x8144 -1 x8145 >= 0 ;
+2 x8452 +2 x8453 +2 x8454 -1 x8143 -1 x8144 -1 x8145 -1 x8146 -1 x8147 -1 x8148 >= 0 ;
+2 x8455 +2 x8456 +2 x8457 -1 x8146 -1 x8147 -1 x8148 -1 x8149 -1 x8150 -1 x8151 >= 0 ;
+2 x8458 +2 x8459 +2 x8460 -1 x8149 -1 x8150 -1 x8151 -1 x8152 -1 x8153 -1 x8154 >= 0 ;
+2 x8461 +2 x8462 +2 x8463 -1 x8152 -1 x8153 -1 x8154 -1 x8155 -1 x8156 -1 x8157 >= 0 ;
+2 x8464 +2 x8465 +2 x8466 -1 x8155 -1 x8156 -1 x8157 -1 x8158 -1 x8159 -1 x8160 >= 0 ;
+2 x8467 +2 x8468 +2 x8469 -1 x8158 -1 x8159 -1 x8160 -1 x8161 -1 x8162 -1 x8163 >= 0 ;
+2 x8470 +2 x8471 +2 x8472 -1 x8161 -1 x8162 -1 x8163 -1 x8164 -1 x8165 -1 x8166 >= 0 ;
+2 x8473 +2 x8474 +2 x8475 -1 x8164 -1 x8165 -1 x8166 -1 x8167 -1 x8168 -1 x8169 >= 0 ;
+2 x8476 +2 x8477 +2 x8478 -1 x8167 -1 x8168 -1 x8169 -1 x8170 -1 x8171 -1 x8172 >= 0 ;
+2 x8479 +2 x8480 +2 x8481 -1 x8170 -1 x8171 -1 x8172 -1 x8173 -1 x8174 -1 x8175 >= 0 ;
+2 x8482 +2 x8483 +2 x8484 -1 x8173 -1 x8174 -1 x8175 -1 x8176 -1 x8177 -1 x8178 >= 0 ;
+2 x8485 +2 x8486 +2 x8487 -1 x8176 -1 x8177 -1 x8178 -1 x8179 -1 x8180 -1 x8181 >= 0 ;
+2 x8488 +2 x8489 +2 x8490 -1 x8179 -1 x8180 -1 x8181 -1 x8182 -1 x8183 -1 x8184 >= 0 ;
+2 x8491 +2 x8492 +2 x8493 -1 x8182 -1 x8183 -1 x8184 -1 x8185 -1 x8186 -1 x8187 >= 0 ;
+2 x8494 +2 x8495 +2 x8496 -1 x8185 -1 x8186 -1 x8187 -1 x8188 -1 x8189 -1 x8190 >= 0 ;
+2 x8497 +2 x8498 +2 x8499 -1 x8188 -1 x8189 -1 x8190 -1 x8191 -1 x8192 -1 x8193 >= 0 ;
+2 x8500 +2 x8501 +2 x8502 -1 x8191 -1 x8192 -1 x8193 -1 x8194 -1 x8195 -1 x8196 >= 0 ;
+2 x8503 +2 x8504 +2 x8505 -1 x8194 -1 x8195 -1 x8196 -1 x8197 -1 x8198 -1 x8199 >= 0 ;
+2 x8506 +2 x8507 +2 x8508 -1 x8197 -1 x8198 -1 x8199 -1 x8200 -1 x8201 -1 x8202 >= 0 ;
+2 x8509 +2 x8510 +2 x8511 -1 x8200 -1 x8201 -1 x8202 -1 x8203 -1 x8204 -1 x8205 >= 0 ;
+2 x8512 +2 x8513 +2 x8514 -1 x8203 -1 x8204 -1 x8205 -1 x8206 -1 x8207 -1 x8208 >= 0 ;
+2 x8515 +2 x8516 +2 x8517 -1 x8206 -1 x8207 -1 x8208 -1 x8209 -1 x8210 -1 x8211 >= 0 ;
+2 x8518 +2 x8519 +2 x8520 -1 x8209 -1 x8210 -1 x8211 -1 x8212 -1 x8213 -1 x8214 >= 0 ;
+2 x8521 +2 x8522 +2 x8523 -1 x8212 -1 x8213 -1 x8214 -1 x8215 -1 x8216 -1 x8217 >= 0 ;
+2 x8524 +2 x8525 +2 x8526 -1 x8215 -1 x8216 -1 x8217 -1 x8218 -1 x8219 -1 x8220 >= 0 ;
+2 x8527 +2 x8528 +2 x8529 -1 x8218 -1 x8219 -1 x8220 -1 x8221 -1 x8222 -1 x8223 >= 0 ;
+2 x8530 +2 x8531 +2 x8532 -1 x8221 -1 x8222 -1 x8223 -1 x8224 -1 x8225 -1 x8226 >= 0 ;
+2 x8533 +2 x8534 +2 x8535 -1 x8224 -1 x8225 -1 x8226 -1 x8227 -1 x8228 -1 x8229 >= 0 ;
+2 x8536 +2 x8537 +2 x8538 -1 x8227 -1 x8228 -1 x8229 -1 x8230 -1 x8231 -1 x8232 >= 0 ;
+2 x8539 +2 x8540 +2 x8541 -1 x8230 -1 x8231 -1 x8232 -1 x8233 -1 x8234 -1 x8235 >= 0 ;
+2 x8542 +2 x8543 +2 x8544 -1 x8233 -1 x8234 -1 x8235 -1 x8236 -1 x8237 -1 x8238 >= 0 ;
+2 x8545 +2 x8546 +2 x8547 -1 x8236 -1 x8237 -1 x8238 -1 x8239 -1 x8240 -1 x8241 >= 0 ;
+2 x8548 +2 x8549 +2 x8550 -1 x8239 -1 x8240 -1 x8241 -1 x8242 -1 x8243 -1 x8244 >= 0 ;
+2 x8551 +2 x8552 +2 x8553 -1 x8245 -1 x8246 -1 x8247 -1 x8248 -1 x8249 -1 x8250 >= 0 ;
+2 x8554 +2 x8555 +2 x8556 -1 x8248 -1 x8249 -1 x8250 -1 x8251 -1 x8252 -1 x8253 >= 0 ;
+2 x8557 +2 x8558 +2 x8559 -1 x8251 -1 x8252 -1 x8253 -1 x8254 -1 x8255 -1 x8256 >= 0 ;
+2 x8560 +2 x8561 +2 x8562 -1 x8254 -1 x8255 -1 x8256 -1 x8257 -1 x8258 -1 x8259 >= 0 ;
+2 x8563 +2 x8564 +2 x8565 -1 x8257 -1 x8258 -1 x8259 -1 x8260 -1 x8261 -1 x8262 >= 0 ;
+2 x8566 +2 x8567 +2 x8568 -1 x8260 -1 x8261 -1 x8262 -1 x8263 -1 x8264 -1 x8265 >= 0 ;
+2 x8569 +2 x8570 +2 x8571 -1 x8263 -1 x8264 -1 x8265 -1 x8266 -1 x8267 -1 x8268 >= 0 ;
+2 x8572 +2 x8573 +2 x8574 -1 x8266 -1 x8267 -1 x8268 -1 x8269 -1 x8270 -1 x8271 >= 0 ;
+2 x8575 +2 x8576 +2 x8577 -1 x8269 -1 x8270 -1 x8271 -1 x8272 -1 x8273 -1 x8274 >= 0 ;
+2 x8578 +2 x8579 +2 x8580 -1 x8272 -1 x8273 -1 x8274 -1 x8275 -1 x8276 -1 x8277 >= 0 ;
+2 x8581 +2 x8582 +2 x8583 -1 x8275 -1 x8276 -1 x8277 -1 x8278 -1 x8279 -1 x8280 >= 0 ;
+2 x8584 +2 x8585 +2 x8586 -1 x8278 -1 x8279 -1 x8280 -1 x8281 -1 x8282 -1 x8283 >= 0 ;
+2 x8587 +2 x8588 +2 x8589 -1 x8281 -1 x8282 -1 x8283 -1 x8284 -1 x8285 -1 x8286 >= 0 ;
+2 x8590 +2 x8591 +2 x8592 -1 x8284 -1 x8285 -1 x8286 -1 x8287 -1 x8288 -1 x8289 >= 0 ;
+2 x8593 +2 x8594 +2 x8595 -1 x8287 -1 x8288 -1 x8289 -1 x8290 -1 x8291 -1 x8292 >= 0 ;
+2 x8596 +2 x8597 +2 x8598 -1 x8290 -1 x8291 -1 x8292 -1 x8293 -1 x8294 -1 x8295 >= 0 ;
+2 x8599 +2 x8600 +2 x8601 -1 x8293 -1 x8294 -1 x8295 -1 x8296 -1 x8297 -1 x8298 >= 0 ;
+2 x8602 +2 x8603 +2 x8604 -1 x8296 -1 x8297 -1 x8298 -1 x8299 -1 x8300 -1 x8301 >= 0 ;
+2 x8605 +2 x8606 +2 x8607 -1 x8299 -1 x8300 -1 x8301 -1 x8302 -1 x8303 -1 x8304 >= 0 ;
+2 x8608 +2 x8609 +2 x8610 -1 x8302 -1 x8303 -1 x8304 -1 x8305 -1 x8306 -1 x8307 >= 0 ;
+2 x8611 +2 x8612 +2 x8613 -1 x8305 -1 x8306 -1 x8307 -1 x8308 -1 x8309 -1 x8310 >= 0 ;
+2 x8614 +2 x8615 +2 x8616 -1 x8308 -1 x8309 -1 x8310 -1 x8311 -1 x8312 -1 x8313 >= 0 ;
+2 x8617 +2 x8618 +2 x8619 -1 x8311 -1 x8312 -1 x8313 -1 x8314 -1 x8315 -1 x8316 >= 0 ;
+2 x8620 +2 x8621 +2 x8622 -1 x8314 -1 x8315 -1 x8316 -1 x8317 -1 x8318 -1 x8319 >= 0 ;
+2 x8623 +2 x8624 +2 x8625 -1 x8317 -1 x8318 -1 x8319 -1 x8320 -1 x8321 -1 x8322 >= 0 ;
+2 x8626 +2 x8627 +2 x8628 -1 x8320 -1 x8321 -1 x8322 -1 x8323 -1 x8324 -1 x8325 >= 0 ;
+2 x8629 +2 x8630 +2 x8631 -1 x8323 -1 x8324 -1 x8325 -1 x8326 -1 x8327 -1 x8328 >= 0 ;
+2 x8632 +2 x8633 +2 x8634 -1 x8326 -1 x8327 -1 x8328 -1 x8329 -1 x8330 -1 x8331 >= 0 ;
+2 x8635 +2 x8636 +2 x8637 -1 x8329 -1 x8330 -1 x8331 -1 x8332 -1 x8333 -1 x8334 >= 0 ;
+2 x8638 +2 x8639 +2 x8640 -1 x8332 -1 x8333 -1 x8334 -1 x8335 -1 x8336 -1 x8337 >= 0 ;
+2 x8641 +2 x8642 +2 x8643 -1 x8335 -1 x8336 -1 x8337 -1 x8338 -1 x8339 -1 x8340 >= 0 ;
+2 x8644 +2 x8645 +2 x8646 -1 x8338 -1 x8339 -1 x8340 -1 x8341 -1 x8342 -1 x8343 >= 0 ;
+2 x8647 +2 x8648 +2 x8649 -1 x8341 -1 x8342 -1 x8343 -1 x8344 -1 x8345 -1 x8346 >= 0 ;
+2 x8650 +2 x8651 +2 x8652 -1 x8344 -1 x8345 -1 x8346 -1 x8347 -1 x8348 -1 x8349 >= 0 ;
+2 x8653 +2 x8654 +2 x8655 -1 x8347 -1 x8348 -1 x8349 -1 x8350 -1 x8351 -1 x8352 >= 0 ;
+2 x8656 +2 x8657 +2 x8658 -1 x8350 -1 x8351 -1 x8352 -1 x8353 -1 x8354 -1 x8355 >= 0 ;
+2 x8659 +2 x8660 +2 x8661 -1 x8353 -1 x8354 -1 x8355 -1 x8356 -1 x8357 -1 x8358 >= 0 ;
+2 x8662 +2 x8663 +2 x8664 -1 x8356 -1 x8357 -1 x8358 -1 x8359 -1 x8360 -1 x8361 >= 0 ;
+2 x8665 +2 x8666 +2 x8667 -1 x8359 -1 x8360 -1 x8361 -1 x8362 -1 x8363 -1 x8364 >= 0 ;
+2 x8668 +2 x8669 +2 x8670 -1 x8362 -1 x8363 -1 x8364 -1 x8365 -1 x8366 -1 x8367 >= 0 ;
+2 x8671 +2 x8672 +2 x8673 -1 x8365 -1 x8366 -1 x8367 -1 x8368 -1 x8369 -1 x8370 >= 0 ;
+2 x8674 +2 x8675 +2 x8676 -1 x8368 -1 x8369 -1 x8370 -1 x8371 -1 x8372 -1 x8373 >= 0 ;
+2 x8677 +2 x8678 +2 x8679 -1 x8371 -1 x8372 -1 x8373 -1 x8374 -1 x8375 -1 x8376 >= 0 ;
+2 x8680 +2 x8681 +2 x8682 -1 x8374 -1 x8375 -1 x8376 -1 x8377 -1 x8378 -1 x8379 >= 0 ;
+2 x8683 +2 x8684 +2 x8685 -1 x8377 -1 x8378 -1 x8379 -1 x8380 -1 x8381 -1 x8382 >= 0 ;
+2 x8686 +2 x8687 +2 x8688 -1 x8380 -1 x8381 -1 x8382 -1 x8383 -1 x8384 -1 x8385 >= 0 ;
+2 x8689 +2 x8690 +2 x8691 -1 x8383 -1 x8384 -1 x8385 -1 x8386 -1 x8387 -1 x8388 >= 0 ;
+2 x8692 +2 x8693 +2 x8694 -1 x8386 -1 x8387 -1 x8388 -1 x8389 -1 x8390 -1 x8391 >= 0 ;
+2 x8695 +2 x8696 +2 x8697 -1 x8389 -1 x8390 -1 x8391 -1 x8392 -1 x8393 -1 x8394 >= 0 ;
+2 x8698 +2 x8699 +2 x8700 -1 x8392 -1 x8393 -1 x8394 -1 x8395 -1 x8396 -1 x8397 >= 0 ;
+2 x8701 +2 x8702 +2 x8703 -1 x8395 -1 x8396 -1 x8397 -1 x8398 -1 x8399 -1 x8400 >= 0 ;
+2 x8704 +2 x8705 +2 x8706 -1 x8398 -1 x8399 -1 x8400 -1 x8401 -1 x8402 -1 x8403 >= 0 ;
+2 x8707 +2 x8708 +2 x8709 -1 x8401 -1 x8402 -1 x8403 -1 x8404 -1 x8405 -1 x8406 >= 0 ;
+2 x8710 +2 x8711 +2 x8712 -1 x8404 -1 x8405 -1 x8406 -1 x8407 -1 x8408 -1 x8409 >= 0 ;
+2 x8713 +2 x8714 +2 x8715 -1 x8407 -1 x8408 -1 x8409 -1 x8410 -1 x8411 -1 x8412 >= 0 ;
+2 x8716 +2 x8717 +2 x8718 -1 x8410 -1 x8411 -1 x8412 -1 x8413 -1 x8414 -1 x8415 >= 0 ;
+2 x8719 +2 x8720 +2 x8721 -1 x8413 -1 x8414 -1 x8415 -1 x8416 -1 x8417 -1 x8418 >= 0 ;
+2 x8722 +2 x8723 +2 x8724 -1 x8416 -1 x8417 -1 x8418 -1 x8419 -1 x8420 -1 x8421 >= 0 ;
+2 x8725 +2 x8726 +2 x8727 -1 x8419 -1 x8420 -1 x8421 -1 x8422 -1 x8423 -1 x8424 >= 0 ;
+2 x8728 +2 x8729 +2 x8730 -1 x8422 -1 x8423 -1 x8424 -1 x8425 -1 x8426 -1 x8427 >= 0 ;
+2 x8731 +2 x8732 +2 x8733 -1 x8425 -1 x8426 -1 x8427 -1 x8428 -1 x8429 -1 x8430 >= 0 ;
+2 x8734 +2 x8735 +2 x8736 -1 x8428 -1 x8429 -1 x8430 -1 x8431 -1 x8432 -1 x8433 >= 0 ;
+2 x8737 +2 x8738 +2 x8739 -1 x8431 -1 x8432 -1 x8433 -1 x8434 -1 x8435 -1 x8436 >= 0 ;
+2 x8740 +2 x8741 +2 x8742 -1 x8434 -1 x8435 -1 x8436 -1 x8437 -1 x8438 -1 x8439 >= 0 ;
+2 x8743 +2 x8744 +2 x8745 -1 x8437 -1 x8438 -1 x8439 -1 x8440 -1 x8441 -1 x8442 >= 0 ;
+2 x8746 +2 x8747 +2 x8748 -1 x8440 -1 x8441 -1 x8442 -1 x8443 -1 x8444 -1 x8445 >= 0 ;
+2 x8749 +2 x8750 +2 x8751 -1 x8443 -1 x8444 -1 x8445 -1 x8446 -1 x8447 -1 x8448 >= 0 ;
+2 x8752 +2 x8753 +2 x8754 -1 x8446 -1 x8447 -1 x8448 -1 x8449 -1 x8450 -1 x8451 >= 0 ;
+2 x8755 +2 x8756 +2 x8757 -1 x8449 -1 x8450 -1 x8451 -1 x8452 -1 x8453 -1 x8454 >= 0 ;
+2 x8758 +2 x8759 +2 x8760 -1 x8452 -1 x8453 -1 x8454 -1 x8455 -1 x8456 -1 x8457 >= 0 ;
+2 x8761 +2 x8762 +2 x8763 -1 x8455 -1 x8456 -1 x8457 -1 x8458 -1 x8459 -1 x8460 >= 0 ;
+2 x8764 +2 x8765 +2 x8766 -1 x8458 -1 x8459 -1 x8460 -1 x8461 -1 x8462 -1 x8463 >= 0 ;
+2 x8767 +2 x8768 +2 x8769 -1 x8461 -1 x8462 -1 x8463 -1 x8464 -1 x8465 -1 x8466 >= 0 ;
+2 x8770 +2 x8771 +2 x8772 -1 x8464 -1 x8465 -1 x8466 -1 x8467 -1 x8468 -1 x8469 >= 0 ;
+2 x8773 +2 x8774 +2 x8775 -1 x8467 -1 x8468 -1 x8469 -1 x8470 -1 x8471 -1 x8472 >= 0 ;
+2 x8776 +2 x8777 +2 x8778 -1 x8470 -1 x8471 -1 x8472 -1 x8473 -1 x8474 -1 x8475 >= 0 ;
+2 x8779 +2 x8780 +2 x8781 -1 x8473 -1 x8474 -1 x8475 -1 x8476 -1 x8477 -1 x8478 >= 0 ;
+2 x8782 +2 x8783 +2 x8784 -1 x8476 -1 x8477 -1 x8478 -1 x8479 -1 x8480 -1 x8481 >= 0 ;
+2 x8785 +2 x8786 +2 x8787 -1 x8479 -1 x8480 -1 x8481 -1 x8482 -1 x8483 -1 x8484 >= 0 ;
+2 x8788 +2 x8789 +2 x8790 -1 x8482 -1 x8483 -1 x8484 -1 x8485 -1 x8486 -1 x8487 >= 0 ;
+2 x8791 +2 x8792 +2 x8793 -1 x8485 -1 x8486 -1 x8487 -1 x8488 -1 x8489 -1 x8490 >= 0 ;
+2 x8794 +2 x8795 +2 x8796 -1 x8488 -1 x8489 -1 x8490 -1 x8491 -1 x8492 -1 x8493 >= 0 ;
+2 x8797 +2 x8798 +2 x8799 -1 x8491 -1 x8492 -1 x8493 -1 x8494 -1 x8495 -1 x8496 >= 0 ;
+2 x8800 +2 x8801 +2 x8802 -1 x8494 -1 x8495 -1 x8496 -1 x8497 -1 x8498 -1 x8499 >= 0 ;
+2 x8803 +2 x8804 +2 x8805 -1 x8497 -1 x8498 -1 x8499 -1 x8500 -1 x8501 -1 x8502 >= 0 ;
+2 x8806 +2 x8807 +2 x8808 -1 x8500 -1 x8501 -1 x8502 -1 x8503 -1 x8504 -1 x8505 >= 0 ;
+2 x8809 +2 x8810 +2 x8811 -1 x8503 -1 x8504 -1 x8505 -1 x8506 -1 x8507 -1 x8508 >= 0 ;
+2 x8812 +2 x8813 +2 x8814 -1 x8506 -1 x8507 -1 x8508 -1 x8509 -1 x8510 -1 x8511 >= 0 ;
+2 x8815 +2 x8816 +2 x8817 -1 x8509 -1 x8510 -1 x8511 -1 x8512 -1 x8513 -1 x8514 >= 0 ;
+2 x8818 +2 x8819 +2 x8820 -1 x8512 -1 x8513 -1 x8514 -1 x8515 -1 x8516 -1 x8517 >= 0 ;
+2 x8821 +2 x8822 +2 x8823 -1 x8515 -1 x8516 -1 x8517 -1 x8518 -1 x8519 -1 x8520 >= 0 ;
+2 x8824 +2 x8825 +2 x8826 -1 x8518 -1 x8519 -1 x8520 -1 x8521 -1 x8522 -1 x8523 >= 0 ;
+2 x8827 +2 x8828 +2 x8829 -1 x8521 -1 x8522 -1 x8523 -1 x8524 -1 x8525 -1 x8526 >= 0 ;
+2 x8830 +2 x8831 +2 x8832 -1 x8524 -1 x8525 -1 x8526 -1 x8527 -1 x8528 -1 x8529 >= 0 ;
+2 x8833 +2 x8834 +2 x8835 -1 x8527 -1 x8528 -1 x8529 -1 x8530 -1 x8531 -1 x8532 >= 0 ;
+2 x8836 +2 x8837 +2 x8838 -1 x8530 -1 x8531 -1 x8532 -1 x8533 -1 x8534 -1 x8535 >= 0 ;
+2 x8839 +2 x8840 +2 x8841 -1 x8533 -1 x8534 -1 x8535 -1 x8536 -1 x8537 -1 x8538 >= 0 ;
+2 x8842 +2 x8843 +2 x8844 -1 x8536 -1 x8537 -1 x8538 -1 x8539 -1 x8540 -1 x8541 >= 0 ;
+2 x8845 +2 x8846 +2 x8847 -1 x8539 -1 x8540 -1 x8541 -1 x8542 -1 x8543 -1 x8544 >= 0 ;
+2 x8848 +2 x8849 +2 x8850 -1 x8542 -1 x8543 -1 x8544 -1 x8545 -1 x8546 -1 x8547 >= 0 ;
+2 x8851 +2 x8852 +2 x8853 -1 x8545 -1 x8546 -1 x8547 -1 x8548 -1 x8549 -1 x8550 >= 0 ;
+2 x8854 +2 x8855 +2 x8856 -1 x8551 -1 x8552 -1 x8553 -1 x8554 -1 x8555 -1 x8556 >= 0 ;
+2 x8857 +2 x8858 +2 x8859 -1 x8554 -1 x8555 -1 x8556 -1 x8557 -1 x8558 -1 x8559 >= 0 ;
+2 x8860 +2 x8861 +2 x8862 -1 x8557 -1 x8558 -1 x8559 -1 x8560 -1 x8561 -1 x8562 >= 0 ;
+2 x8863 +2 x8864 +2 x8865 -1 x8560 -1 x8561 -1 x8562 -1 x8563 -1 x8564 -1 x8565 >= 0 ;
+2 x8866 +2 x8867 +2 x8868 -1 x8563 -1 x8564 -1 x8565 -1 x8566 -1 x8567 -1 x8568 >= 0 ;
+2 x8869 +2 x8870 +2 x8871 -1 x8566 -1 x8567 -1 x8568 -1 x8569 -1 x8570 -1 x8571 >= 0 ;
+2 x8872 +2 x8873 +2 x8874 -1 x8569 -1 x8570 -1 x8571 -1 x8572 -1 x8573 -1 x8574 >= 0 ;
+2 x8875 +2 x8876 +2 x8877 -1 x8572 -1 x8573 -1 x8574 -1 x8575 -1 x8576 -1 x8577 >= 0 ;
+2 x8878 +2 x8879 +2 x8880 -1 x8575 -1 x8576 -1 x8577 -1 x8578 -1 x8579 -1 x8580 >= 0 ;
+2 x8881 +2 x8882 +2 x8883 -1 x8578 -1 x8579 -1 x8580 -1 x8581 -1 x8582 -1 x8583 >= 0 ;
+2 x8884 +2 x8885 +2 x8886 -1 x8581 -1 x8582 -1 x8583 -1 x8584 -1 x8585 -1 x8586 >= 0 ;
+2 x8887 +2 x8888 +2 x8889 -1 x8584 -1 x8585 -1 x8586 -1 x8587 -1 x8588 -1 x8589 >= 0 ;
+2 x8890 +2 x8891 +2 x8892 -1 x8587 -1 x8588 -1 x8589 -1 x8590 -1 x8591 -1 x8592 >= 0 ;
+2 x8893 +2 x8894 +2 x8895 -1 x8590 -1 x8591 -1 x8592 -1 x8593 -1 x8594 -1 x8595 >= 0 ;
+2 x8896 +2 x8897 +2 x8898 -1 x8593 -1 x8594 -1 x8595 -1 x8596 -1 x8597 -1 x8598 >= 0 ;
+2 x8899 +2 x8900 +2 x8901 -1 x8596 -1 x8597 -1 x8598 -1 x8599 -1 x8600 -1 x8601 >= 0 ;
+2 x8902 +2 x8903 +2 x8904 -1 x8599 -1 x8600 -1 x8601 -1 x8602 -1 x8603 -1 x8604 >= 0 ;
+2 x8905 +2 x8906 +2 x8907 -1 x8602 -1 x8603 -1 x8604 -1 x8605 -1 x8606 -1 x8607 >= 0 ;
+2 x8908 +2 x8909 +2 x8910 -1 x8605 -1 x8606 -1 x8607 -1 x8608 -1 x8609 -1 x8610 >= 0 ;
+2 x8911 +2 x8912 +2 x8913 -1 x8608 -1 x8609 -1 x8610 -1 x8611 -1 x8612 -1 x8613 >= 0 ;
+2 x8914 +2 x8915 +2 x8916 -1 x8611 -1 x8612 -1 x8613 -1 x8614 -1 x8615 -1 x8616 >= 0 ;
+2 x8917 +2 x8918 +2 x8919 -1 x8614 -1 x8615 -1 x8616 -1 x8617 -1 x8618 -1 x8619 >= 0 ;
+2 x8920 +2 x8921 +2 x8922 -1 x8617 -1 x8618 -1 x8619 -1 x8620 -1 x8621 -1 x8622 >= 0 ;
+2 x8923 +2 x8924 +2 x8925 -1 x8620 -1 x8621 -1 x8622 -1 x8623 -1 x8624 -1 x8625 >= 0 ;
+2 x8926 +2 x8927 +2 x8928 -1 x8623 -1 x8624 -1 x8625 -1 x8626 -1 x8627 -1 x8628 >= 0 ;
+2 x8929 +2 x8930 +2 x8931 -1 x8626 -1 x8627 -1 x8628 -1 x8629 -1 x8630 -1 x8631 >= 0 ;
+2 x8932 +2 x8933 +2 x8934 -1 x8629 -1 x8630 -1 x8631 -1 x8632 -1 x8633 -1 x8634 >= 0 ;
+2 x8935 +2 x8936 +2 x8937 -1 x8632 -1 x8633 -1 x8634 -1 x8635 -1 x8636 -1 x8637 >= 0 ;
+2 x8938 +2 x8939 +2 x8940 -1 x8635 -1 x8636 -1 x8637 -1 x8638 -1 x8639 -1 x8640 >= 0 ;
+2 x8941 +2 x8942 +2 x8943 -1 x8638 -1 x8639 -1 x8640 -1 x8641 -1 x8642 -1 x8643 >= 0 ;
+2 x8944 +2 x8945 +2 x8946 -1 x8641 -1 x8642 -1 x8643 -1 x8644 -1 x8645 -1 x8646 >= 0 ;
+2 x8947 +2 x8948 +2 x8949 -1 x8644 -1 x8645 -1 x8646 -1 x8647 -1 x8648 -1 x8649 >= 0 ;
+2 x8950 +2 x8951 +2 x8952 -1 x8647 -1 x8648 -1 x8649 -1 x8650 -1 x8651 -1 x8652 >= 0 ;
+2 x8953 +2 x8954 +2 x8955 -1 x8650 -1 x8651 -1 x8652 -1 x8653 -1 x8654 -1 x8655 >= 0 ;
+2 x8956 +2 x8957 +2 x8958 -1 x8653 -1 x8654 -1 x8655 -1 x8656 -1 x8657 -1 x8658 >= 0 ;
+2 x8959 +2 x8960 +2 x8961 -1 x8656 -1 x8657 -1 x8658 -1 x8659 -1 x8660 -1 x8661 >= 0 ;
+2 x8962 +2 x8963 +2 x8964 -1 x8659 -1 x8660 -1 x8661 -1 x8662 -1 x8663 -1 x8664 >= 0 ;
+2 x8965 +2 x8966 +2 x8967 -1 x8662 -1 x8663 -1 x8664 -1 x8665 -1 x8666 -1 x8667 >= 0 ;
+2 x8968 +2 x8969 +2 x8970 -1 x8665 -1 x8666 -1 x8667 -1 x8668 -1 x8669 -1 x8670 >= 0 ;
+2 x8971 +2 x8972 +2 x8973 -1 x8668 -1 x8669 -1 x8670 -1 x8671 -1 x8672 -1 x8673 >= 0 ;
+2 x8974 +2 x8975 +2 x8976 -1 x8671 -1 x8672 -1 x8673 -1 x8674 -1 x8675 -1 x8676 >= 0 ;
+2 x8977 +2 x8978 +2 x8979 -1 x8674 -1 x8675 -1 x8676 -1 x8677 -1 x8678 -1 x8679 >= 0 ;
+2 x8980 +2 x8981 +2 x8982 -1 x8677 -1 x8678 -1 x8679 -1 x8680 -1 x8681 -1 x8682 >= 0 ;
+2 x8983 +2 x8984 +2 x8985 -1 x8680 -1 x8681 -1 x8682 -1 x8683 -1 x8684 -1 x8685 >= 0 ;
+2 x8986 +2 x8987 +2 x8988 -1 x8683 -1 x8684 -1 x8685 -1 x8686 -1 x8687 -1 x8688 >= 0 ;
+2 x8989 +2 x8990 +2 x8991 -1 x8686 -1 x8687 -1 x8688 -1 x8689 -1 x8690 -1 x8691 >= 0 ;
+2 x8992 +2 x8993 +2 x8994 -1 x8689 -1 x8690 -1 x8691 -1 x8692 -1 x8693 -1 x8694 >= 0 ;
+2 x8995 +2 x8996 +2 x8997 -1 x8692 -1 x8693 -1 x8694 -1 x8695 -1 x8696 -1 x8697 >= 0 ;
+2 x8998 +2 x8999 +2 x9000 -1 x8695 -1 x8696 -1 x8697 -1 x8698 -1 x8699 -1 x8700 >= 0 ;
+2 x9001 +2 x9002 +2 x9003 -1 x8698 -1 x8699 -1 x8700 -1 x8701 -1 x8702 -1 x8703 >= 0 ;
+2 x9004 +2 x9005 +2 x9006 -1 x8701 -1 x8702 -1 x8703 -1 x8704 -1 x8705 -1 x8706 >= 0 ;
+2 x9007 +2 x9008 +2 x9009 -1 x8704 -1 x8705 -1 x8706 -1 x8707 -1 x8708 -1 x8709 >= 0 ;
+2 x9010 +2 x9011 +2 x9012 -1 x8707 -1 x8708 -1 x8709 -1 x8710 -1 x8711 -1 x8712 >= 0 ;
+2 x9013 +2 x9014 +2 x9015 -1 x8710 -1 x8711 -1 x8712 -1 x8713 -1 x8714 -1 x8715 >= 0 ;
+2 x9016 +2 x9017 +2 x9018 -1 x8713 -1 x8714 -1 x8715 -1 x8716 -1 x8717 -1 x8718 >= 0 ;
+2 x9019 +2 x9020 +2 x9021 -1 x8716 -1 x8717 -1 x8718 -1 x8719 -1 x8720 -1 x8721 >= 0 ;
+2 x9022 +2 x9023 +2 x9024 -1 x8719 -1 x8720 -1 x8721 -1 x8722 -1 x8723 -1 x8724 >= 0 ;
+2 x9025 +2 x9026 +2 x9027 -1 x8722 -1 x8723 -1 x8724 -1 x8725 -1 x8726 -1 x8727 >= 0 ;
+2 x9028 +2 x9029 +2 x9030 -1 x8725 -1 x8726 -1 x8727 -1 x8728 -1 x8729 -1 x8730 >= 0 ;
+2 x9031 +2 x9032 +2 x9033 -1 x8728 -1 x8729 -1 x8730 -1 x8731 -1 x8732 -1 x8733 >= 0 ;
+2 x9034 +2 x9035 +2 x9036 -1 x8731 -1 x8732 -1 x8733 -1 x8734 -1 x8735 -1 x8736 >= 0 ;
+2 x9037 +2 x9038 +2 x9039 -1 x8734 -1 x8735 -1 x8736 -1 x8737 -1 x8738 -1 x8739 >= 0 ;
+2 x9040 +2 x9041 +2 x9042 -1 x8737 -1 x8738 -1 x8739 -1 x8740 -1 x8741 -1 x8742 >= 0 ;
+2 x9043 +2 x9044 +2 x9045 -1 x8740 -1 x8741 -1 x8742 -1 x8743 -1 x8744 -1 x8745 >= 0 ;
+2 x9046 +2 x9047 +2 x9048 -1 x8743 -1 x8744 -1 x8745 -1 x8746 -1 x8747 -1 x8748 >= 0 ;
+2 x9049 +2 x9050 +2 x9051 -1 x8746 -1 x8747 -1 x8748 -1 x8749 -1 x8750 -1 x8751 >= 0 ;
+2 x9052 +2 x9053 +2 x9054 -1 x8749 -1 x8750 -1 x8751 -1 x8752 -1 x8753 -1 x8754 >= 0 ;
+2 x9055 +2 x9056 +2 x9057 -1 x8752 -1 x8753 -1 x8754 -1 x8755 -1 x8756 -1 x8757 >= 0 ;
+2 x9058 +2 x9059 +2 x9060 -1 x8755 -1 x8756 -1 x8757 -1 x8758 -1 x8759 -1 x8760 >= 0 ;
+2 x9061 +2 x9062 +2 x9063 -1 x8758 -1 x8759 -1 x8760 -1 x8761 -1 x8762 -1 x8763 >= 0 ;
+2 x9064 +2 x9065 +2 x9066 -1 x8761 -1 x8762 -1 x8763 -1 x8764 -1 x8765 -1 x8766 >= 0 ;
+2 x9067 +2 x9068 +2 x9069 -1 x8764 -1 x8765 -1 x8766 -1 x8767 -1 x8768 -1 x8769 >= 0 ;
+2 x9070 +2 x9071 +2 x9072 -1 x8767 -1 x8768 -1 x8769 -1 x8770 -1 x8771 -1 x8772 >= 0 ;
+2 x9073 +2 x9074 +2 x9075 -1 x8770 -1 x8771 -1 x8772 -1 x8773 -1 x8774 -1 x8775 >= 0 ;
+2 x9076 +2 x9077 +2 x9078 -1 x8773 -1 x8774 -1 x8775 -1 x8776 -1 x8777 -1 x8778 >= 0 ;
+2 x9079 +2 x9080 +2 x9081 -1 x8776 -1 x8777 -1 x8778 -1 x8779 -1 x8780 -1 x8781 >= 0 ;
+2 x9082 +2 x9083 +2 x9084 -1 x8779 -1 x8780 -1 x8781 -1 x8782 -1 x8783 -1 x8784 >= 0 ;
+2 x9085 +2 x9086 +2 x9087 -1 x8782 -1 x8783 -1 x8784 -1 x8785 -1 x8786 -1 x8787 >= 0 ;
+2 x9088 +2 x9089 +2 x9090 -1 x8785 -1 x8786 -1 x8787 -1 x8788 -1 x8789 -1 x8790 >= 0 ;
+2 x9091 +2 x9092 +2 x9093 -1 x8788 -1 x8789 -1 x8790 -1 x8791 -1 x8792 -1 x8793 >= 0 ;
+2 x9094 +2 x9095 +2 x9096 -1 x8791 -1 x8792 -1 x8793 -1 x8794 -1 x8795 -1 x8796 >= 0 ;
+2 x9097 +2 x9098 +2 x9099 -1 x8794 -1 x8795 -1 x8796 -1 x8797 -1 x8798 -1 x8799 >= 0 ;
+2 x9100 +2 x9101 +2 x9102 -1 x8797 -1 x8798 -1 x8799 -1 x8800 -1 x8801 -1 x8802 >= 0 ;
+2 x9103 +2 x9104 +2 x9105 -1 x8800 -1 x8801 -1 x8802 -1 x8803 -1 x8804 -1 x8805 >= 0 ;
+2 x9106 +2 x9107 +2 x9108 -1 x8803 -1 x8804 -1 x8805 -1 x8806 -1 x8807 -1 x8808 >= 0 ;
+2 x9109 +2 x9110 +2 x9111 -1 x8806 -1 x8807 -1 x8808 -1 x8809 -1 x8810 -1 x8811 >= 0 ;
+2 x9112 +2 x9113 +2 x9114 -1 x8809 -1 x8810 -1 x8811 -1 x8812 -1 x8813 -1 x8814 >= 0 ;
+2 x9115 +2 x9116 +2 x9117 -1 x8812 -1 x8813 -1 x8814 -1 x8815 -1 x8816 -1 x8817 >= 0 ;
+2 x9118 +2 x9119 +2 x9120 -1 x8815 -1 x8816 -1 x8817 -1 x8818 -1 x8819 -1 x8820 >= 0 ;
+2 x9121 +2 x9122 +2 x9123 -1 x8818 -1 x8819 -1 x8820 -1 x8821 -1 x8822 -1 x8823 >= 0 ;
+2 x9124 +2 x9125 +2 x9126 -1 x8821 -1 x8822 -1 x8823 -1 x8824 -1 x8825 -1 x8826 >= 0 ;
+2 x9127 +2 x9128 +2 x9129 -1 x8824 -1 x8825 -1 x8826 -1 x8827 -1 x8828 -1 x8829 >= 0 ;
+2 x9130 +2 x9131 +2 x9132 -1 x8827 -1 x8828 -1 x8829 -1 x8830 -1 x8831 -1 x8832 >= 0 ;
+2 x9133 +2 x9134 +2 x9135 -1 x8830 -1 x8831 -1 x8832 -1 x8833 -1 x8834 -1 x8835 >= 0 ;
+2 x9136 +2 x9137 +2 x9138 -1 x8833 -1 x8834 -1 x8835 -1 x8836 -1 x8837 -1 x8838 >= 0 ;
+2 x9139 +2 x9140 +2 x9141 -1 x8836 -1 x8837 -1 x8838 -1 x8839 -1 x8840 -1 x8841 >= 0 ;
+2 x9142 +2 x9143 +2 x9144 -1 x8839 -1 x8840 -1 x8841 -1 x8842 -1 x8843 -1 x8844 >= 0 ;
+2 x9145 +2 x9146 +2 x9147 -1 x8842 -1 x8843 -1 x8844 -1 x8845 -1 x8846 -1 x8847 >= 0 ;
+2 x9148 +2 x9149 +2 x9150 -1 x8845 -1 x8846 -1 x8847 -1 x8848 -1 x8849 -1 x8850 >= 0 ;
+2 x9151 +2 x9152 +2 x9153 -1 x8848 -1 x8849 -1 x8850 -1 x8851 -1 x8852 -1 x8853 >= 0 ;
+2 x9154 +2 x9155 +2 x9156 -1 x8854 -1 x8855 -1 x8856 -1 x8857 -1 x8858 -1 x8859 >= 0 ;
+2 x9157 +2 x9158 +2 x9159 -1 x8857 -1 x8858 -1 x8859 -1 x8860 -1 x8861 -1 x8862 >= 0 ;
+2 x9160 +2 x9161 +2 x9162 -1 x8860 -1 x8861 -1 x8862 -1 x8863 -1 x8864 -1 x8865 >= 0 ;
+2 x9163 +2 x9164 +2 x9165 -1 x8863 -1 x8864 -1 x8865 -1 x8866 -1 x8867 -1 x8868 >= 0 ;
+2 x9166 +2 x9167 +2 x9168 -1 x8866 -1 x8867 -1 x8868 -1 x8869 -1 x8870 -1 x8871 >= 0 ;
+2 x9169 +2 x9170 +2 x9171 -1 x8869 -1 x8870 -1 x8871 -1 x8872 -1 x8873 -1 x8874 >= 0 ;
+2 x9172 +2 x9173 +2 x9174 -1 x8872 -1 x8873 -1 x8874 -1 x8875 -1 x8876 -1 x8877 >= 0 ;
+2 x9175 +2 x9176 +2 x9177 -1 x8875 -1 x8876 -1 x8877 -1 x8878 -1 x8879 -1 x8880 >= 0 ;
+2 x9178 +2 x9179 +2 x9180 -1 x8878 -1 x8879 -1 x8880 -1 x8881 -1 x8882 -1 x8883 >= 0 ;
+2 x9181 +2 x9182 +2 x9183 -1 x8881 -1 x8882 -1 x8883 -1 x8884 -1 x8885 -1 x8886 >= 0 ;
+2 x9184 +2 x9185 +2 x9186 -1 x8884 -1 x8885 -1 x8886 -1 x8887 -1 x8888 -1 x8889 >= 0 ;
+2 x9187 +2 x9188 +2 x9189 -1 x8887 -1 x8888 -1 x8889 -1 x8890 -1 x8891 -1 x8892 >= 0 ;
+2 x9190 +2 x9191 +2 x9192 -1 x8890 -1 x8891 -1 x8892 -1 x8893 -1 x8894 -1 x8895 >= 0 ;
+2 x9193 +2 x9194 +2 x9195 -1 x8893 -1 x8894 -1 x8895 -1 x8896 -1 x8897 -1 x8898 >= 0 ;
+2 x9196 +2 x9197 +2 x9198 -1 x8896 -1 x8897 -1 x8898 -1 x8899 -1 x8900 -1 x8901 >= 0 ;
+2 x9199 +2 x9200 +2 x9201 -1 x8899 -1 x8900 -1 x8901 -1 x8902 -1 x8903 -1 x8904 >= 0 ;
+2 x9202 +2 x9203 +2 x9204 -1 x8902 -1 x8903 -1 x8904 -1 x8905 -1 x8906 -1 x8907 >= 0 ;
+2 x9205 +2 x9206 +2 x9207 -1 x8905 -1 x8906 -1 x8907 -1 x8908 -1 x8909 -1 x8910 >= 0 ;
+2 x9208 +2 x9209 +2 x9210 -1 x8908 -1 x8909 -1 x8910 -1 x8911 -1 x8912 -1 x8913 >= 0 ;
+2 x9211 +2 x9212 +2 x9213 -1 x8911 -1 x8912 -1 x8913 -1 x8914 -1 x8915 -1 x8916 >= 0 ;
+2 x9214 +2 x9215 +2 x9216 -1 x8914 -1 x8915 -1 x8916 -1 x8917 -1 x8918 -1 x8919 >= 0 ;
+2 x9217 +2 x9218 +2 x9219 -1 x8917 -1 x8918 -1 x8919 -1 x8920 -1 x8921 -1 x8922 >= 0 ;
+2 x9220 +2 x9221 +2 x9222 -1 x8920 -1 x8921 -1 x8922 -1 x8923 -1 x8924 -1 x8925 >= 0 ;
+2 x9223 +2 x9224 +2 x9225 -1 x8923 -1 x8924 -1 x8925 -1 x8926 -1 x8927 -1 x8928 >= 0 ;
+2 x9226 +2 x9227 +2 x9228 -1 x8926 -1 x8927 -1 x8928 -1 x8929 -1 x8930 -1 x8931 >= 0 ;
+2 x9229 +2 x9230 +2 x9231 -1 x8929 -1 x8930 -1 x8931 -1 x8932 -1 x8933 -1 x8934 >= 0 ;
+2 x9232 +2 x9233 +2 x9234 -1 x8932 -1 x8933 -1 x8934 -1 x8935 -1 x8936 -1 x8937 >= 0 ;
+2 x9235 +2 x9236 +2 x9237 -1 x8935 -1 x8936 -1 x8937 -1 x8938 -1 x8939 -1 x8940 >= 0 ;
+2 x9238 +2 x9239 +2 x9240 -1 x8938 -1 x8939 -1 x8940 -1 x8941 -1 x8942 -1 x8943 >= 0 ;
+2 x9241 +2 x9242 +2 x9243 -1 x8941 -1 x8942 -1 x8943 -1 x8944 -1 x8945 -1 x8946 >= 0 ;
+2 x9244 +2 x9245 +2 x9246 -1 x8944 -1 x8945 -1 x8946 -1 x8947 -1 x8948 -1 x8949 >= 0 ;
+2 x9247 +2 x9248 +2 x9249 -1 x8947 -1 x8948 -1 x8949 -1 x8950 -1 x8951 -1 x8952 >= 0 ;
+2 x9250 +2 x9251 +2 x9252 -1 x8950 -1 x8951 -1 x8952 -1 x8953 -1 x8954 -1 x8955 >= 0 ;
+2 x9253 +2 x9254 +2 x9255 -1 x8953 -1 x8954 -1 x8955 -1 x8956 -1 x8957 -1 x8958 >= 0 ;
+2 x9256 +2 x9257 +2 x9258 -1 x8956 -1 x8957 -1 x8958 -1 x8959 -1 x8960 -1 x8961 >= 0 ;
+2 x9259 +2 x9260 +2 x9261 -1 x8959 -1 x8960 -1 x8961 -1 x8962 -1 x8963 -1 x8964 >= 0 ;
+2 x9262 +2 x9263 +2 x9264 -1 x8962 -1 x8963 -1 x8964 -1 x8965 -1 x8966 -1 x8967 >= 0 ;
+2 x9265 +2 x9266 +2 x9267 -1 x8965 -1 x8966 -1 x8967 -1 x8968 -1 x8969 -1 x8970 >= 0 ;
+2 x9268 +2 x9269 +2 x9270 -1 x8968 -1 x8969 -1 x8970 -1 x8971 -1 x8972 -1 x8973 >= 0 ;
+2 x9271 +2 x9272 +2 x9273 -1 x8971 -1 x8972 -1 x8973 -1 x8974 -1 x8975 -1 x8976 >= 0 ;
+2 x9274 +2 x9275 +2 x9276 -1 x8974 -1 x8975 -1 x8976 -1 x8977 -1 x8978 -1 x8979 >= 0 ;
+2 x9277 +2 x9278 +2 x9279 -1 x8977 -1 x8978 -1 x8979 -1 x8980 -1 x8981 -1 x8982 >= 0 ;
+2 x9280 +2 x9281 +2 x9282 -1 x8980 -1 x8981 -1 x8982 -1 x8983 -1 x8984 -1 x8985 >= 0 ;
+2 x9283 +2 x9284 +2 x9285 -1 x8983 -1 x8984 -1 x8985 -1 x8986 -1 x8987 -1 x8988 >= 0 ;
+2 x9286 +2 x9287 +2 x9288 -1 x8986 -1 x8987 -1 x8988 -1 x8989 -1 x8990 -1 x8991 >= 0 ;
+2 x9289 +2 x9290 +2 x9291 -1 x8989 -1 x8990 -1 x8991 -1 x8992 -1 x8993 -1 x8994 >= 0 ;
+2 x9292 +2 x9293 +2 x9294 -1 x8992 -1 x8993 -1 x8994 -1 x8995 -1 x8996 -1 x8997 >= 0 ;
+2 x9295 +2 x9296 +2 x9297 -1 x8995 -1 x8996 -1 x8997 -1 x8998 -1 x8999 -1 x9000 >= 0 ;
+2 x9298 +2 x9299 +2 x9300 -1 x8998 -1 x8999 -1 x9000 -1 x9001 -1 x9002 -1 x9003 >= 0 ;
+2 x9301 +2 x9302 +2 x9303 -1 x9001 -1 x9002 -1 x9003 -1 x9004 -1 x9005 -1 x9006 >= 0 ;
+2 x9304 +2 x9305 +2 x9306 -1 x9004 -1 x9005 -1 x9006 -1 x9007 -1 x9008 -1 x9009 >= 0 ;
+2 x9307 +2 x9308 +2 x9309 -1 x9007 -1 x9008 -1 x9009 -1 x9010 -1 x9011 -1 x9012 >= 0 ;
+2 x9310 +2 x9311 +2 x9312 -1 x9010 -1 x9011 -1 x9012 -1 x9013 -1 x9014 -1 x9015 >= 0 ;
+2 x9313 +2 x9314 +2 x9315 -1 x9013 -1 x9014 -1 x9015 -1 x9016 -1 x9017 -1 x9018 >= 0 ;
+2 x9316 +2 x9317 +2 x9318 -1 x9016 -1 x9017 -1 x9018 -1 x9019 -1 x9020 -1 x9021 >= 0 ;
+2 x9319 +2 x9320 +2 x9321 -1 x9019 -1 x9020 -1 x9021 -1 x9022 -1 x9023 -1 x9024 >= 0 ;
+2 x9322 +2 x9323 +2 x9324 -1 x9022 -1 x9023 -1 x9024 -1 x9025 -1 x9026 -1 x9027 >= 0 ;
+2 x9325 +2 x9326 +2 x9327 -1 x9025 -1 x9026 -1 x9027 -1 x9028 -1 x9029 -1 x9030 >= 0 ;
+2 x9328 +2 x9329 +2 x9330 -1 x9028 -1 x9029 -1 x9030 -1 x9031 -1 x9032 -1 x9033 >= 0 ;
+2 x9331 +2 x9332 +2 x9333 -1 x9031 -1 x9032 -1 x9033 -1 x9034 -1 x9035 -1 x9036 >= 0 ;
+2 x9334 +2 x9335 +2 x9336 -1 x9034 -1 x9035 -1 x9036 -1 x9037 -1 x9038 -1 x9039 >= 0 ;
+2 x9337 +2 x9338 +2 x9339 -1 x9037 -1 x9038 -1 x9039 -1 x9040 -1 x9041 -1 x9042 >= 0 ;
+2 x9340 +2 x9341 +2 x9342 -1 x9040 -1 x9041 -1 x9042 -1 x9043 -1 x9044 -1 x9045 >= 0 ;
+2 x9343 +2 x9344 +2 x9345 -1 x9043 -1 x9044 -1 x9045 -1 x9046 -1 x9047 -1 x9048 >= 0 ;
+2 x9346 +2 x9347 +2 x9348 -1 x9046 -1 x9047 -1 x9048 -1 x9049 -1 x9050 -1 x9051 >= 0 ;
+2 x9349 +2 x9350 +2 x9351 -1 x9049 -1 x9050 -1 x9051 -1 x9052 -1 x9053 -1 x9054 >= 0 ;
+2 x9352 +2 x9353 +2 x9354 -1 x9052 -1 x9053 -1 x9054 -1 x9055 -1 x9056 -1 x9057 >= 0 ;
+2 x9355 +2 x9356 +2 x9357 -1 x9055 -1 x9056 -1 x9057 -1 x9058 -1 x9059 -1 x9060 >= 0 ;
+2 x9358 +2 x9359 +2 x9360 -1 x9058 -1 x9059 -1 x9060 -1 x9061 -1 x9062 -1 x9063 >= 0 ;
+2 x9361 +2 x9362 +2 x9363 -1 x9061 -1 x9062 -1 x9063 -1 x9064 -1 x9065 -1 x9066 >= 0 ;
+2 x9364 +2 x9365 +2 x9366 -1 x9064 -1 x9065 -1 x9066 -1 x9067 -1 x9068 -1 x9069 >= 0 ;
+2 x9367 +2 x9368 +2 x9369 -1 x9067 -1 x9068 -1 x9069 -1 x9070 -1 x9071 -1 x9072 >= 0 ;
+2 x9370 +2 x9371 +2 x9372 -1 x9070 -1 x9071 -1 x9072 -1 x9073 -1 x9074 -1 x9075 >= 0 ;
+2 x9373 +2 x9374 +2 x9375 -1 x9073 -1 x9074 -1 x9075 -1 x9076 -1 x9077 -1 x9078 >= 0 ;
+2 x9376 +2 x9377 +2 x9378 -1 x9076 -1 x9077 -1 x9078 -1 x9079 -1 x9080 -1 x9081 >= 0 ;
+2 x9379 +2 x9380 +2 x9381 -1 x9079 -1 x9080 -1 x9081 -1 x9082 -1 x9083 -1 x9084 >= 0 ;
+2 x9382 +2 x9383 +2 x9384 -1 x9082 -1 x9083 -1 x9084 -1 x9085 -1 x9086 -1 x9087 >= 0 ;
+2 x9385 +2 x9386 +2 x9387 -1 x9085 -1 x9086 -1 x9087 -1 x9088 -1 x9089 -1 x9090 >= 0 ;
+2 x9388 +2 x9389 +2 x9390 -1 x9088 -1 x9089 -1 x9090 -1 x9091 -1 x9092 -1 x9093 >= 0 ;
+2 x9391 +2 x9392 +2 x9393 -1 x9091 -1 x9092 -1 x9093 -1 x9094 -1 x9095 -1 x9096 >= 0 ;
+2 x9394 +2 x9395 +2 x9396 -1 x9094 -1 x9095 -1 x9096 -1 x9097 -1 x9098 -1 x9099 >= 0 ;
+2 x9397 +2 x9398 +2 x9399 -1 x9097 -1 x9098 -1 x9099 -1 x9100 -1 x9101 -1 x9102 >= 0 ;
+2 x9400 +2 x9401 +2 x9402 -1 x9100 -1 x9101 -1 x9102 -1 x9103 -1 x9104 -1 x9105 >= 0 ;
+2 x9403 +2 x9404 +2 x9405 -1 x9103 -1 x9104 -1 x9105 -1 x9106 -1 x9107 -1 x9108 >= 0 ;
+2 x9406 +2 x9407 +2 x9408 -1 x9106 -1 x9107 -1 x9108 -1 x9109 -1 x9110 -1 x9111 >= 0 ;
+2 x9409 +2 x9410 +2 x9411 -1 x9109 -1 x9110 -1 x9111 -1 x9112 -1 x9113 -1 x9114 >= 0 ;
+2 x9412 +2 x9413 +2 x9414 -1 x9112 -1 x9113 -1 x9114 -1 x9115 -1 x9116 -1 x9117 >= 0 ;
+2 x9415 +2 x9416 +2 x9417 -1 x9115 -1 x9116 -1 x9117 -1 x9118 -1 x9119 -1 x9120 >= 0 ;
+2 x9418 +2 x9419 +2 x9420 -1 x9118 -1 x9119 -1 x9120 -1 x9121 -1 x9122 -1 x9123 >= 0 ;
+2 x9421 +2 x9422 +2 x9423 -1 x9121 -1 x9122 -1 x9123 -1 x9124 -1 x9125 -1 x9126 >= 0 ;
+2 x9424 +2 x9425 +2 x9426 -1 x9124 -1 x9125 -1 x9126 -1 x9127 -1 x9128 -1 x9129 >= 0 ;
+2 x9427 +2 x9428 +2 x9429 -1 x9127 -1 x9128 -1 x9129 -1 x9130 -1 x9131 -1 x9132 >= 0 ;
+2 x9430 +2 x9431 +2 x9432 -1 x9130 -1 x9131 -1 x9132 -1 x9133 -1 x9134 -1 x9135 >= 0 ;
+2 x9433 +2 x9434 +2 x9435 -1 x9133 -1 x9134 -1 x9135 -1 x9136 -1 x9137 -1 x9138 >= 0 ;
+2 x9436 +2 x9437 +2 x9438 -1 x9136 -1 x9137 -1 x9138 -1 x9139 -1 x9140 -1 x9141 >= 0 ;
+2 x9439 +2 x9440 +2 x9441 -1 x9139 -1 x9140 -1 x9141 -1 x9142 -1 x9143 -1 x9144 >= 0 ;
+2 x9442 +2 x9443 +2 x9444 -1 x9142 -1 x9143 -1 x9144 -1 x9145 -1 x9146 -1 x9147 >= 0 ;
+2 x9445 +2 x9446 +2 x9447 -1 x9145 -1 x9146 -1 x9147 -1 x9148 -1 x9149 -1 x9150 >= 0 ;
+2 x9448 +2 x9449 +2 x9450 -1 x9148 -1 x9149 -1 x9150 -1 x9151 -1 x9152 -1 x9153 >= 0 ;
+2 x9451 +2 x9452 +2 x9453 -1 x9154 -1 x9155 -1 x9156 -1 x9157 -1 x9158 -1 x9159 >= 0 ;
+2 x9454 +2 x9455 +2 x9456 -1 x9157 -1 x9158 -1 x9159 -1 x9160 -1 x9161 -1 x9162 >= 0 ;
+2 x9457 +2 x9458 +2 x9459 -1 x9160 -1 x9161 -1 x9162 -1 x9163 -1 x9164 -1 x9165 >= 0 ;
+2 x9460 +2 x9461 +2 x9462 -1 x9163 -1 x9164 -1 x9165 -1 x9166 -1 x9167 -1 x9168 >= 0 ;
+2 x9463 +2 x9464 +2 x9465 -1 x9166 -1 x9167 -1 x9168 -1 x9169 -1 x9170 -1 x9171 >= 0 ;
+2 x9466 +2 x9467 +2 x9468 -1 x9169 -1 x9170 -1 x9171 -1 x9172 -1 x9173 -1 x9174 >= 0 ;
+2 x9469 +2 x9470 +2 x9471 -1 x9172 -1 x9173 -1 x9174 -1 x9175 -1 x9176 -1 x9177 >= 0 ;
+2 x9472 +2 x9473 +2 x9474 -1 x9175 -1 x9176 -1 x9177 -1 x9178 -1 x9179 -1 x9180 >= 0 ;
+2 x9475 +2 x9476 +2 x9477 -1 x9178 -1 x9179 -1 x9180 -1 x9181 -1 x9182 -1 x9183 >= 0 ;
+2 x9478 +2 x9479 +2 x9480 -1 x9181 -1 x9182 -1 x9183 -1 x9184 -1 x9185 -1 x9186 >= 0 ;
+2 x9481 +2 x9482 +2 x9483 -1 x9184 -1 x9185 -1 x9186 -1 x9187 -1 x9188 -1 x9189 >= 0 ;
+2 x9484 +2 x9485 +2 x9486 -1 x9187 -1 x9188 -1 x9189 -1 x9190 -1 x9191 -1 x9192 >= 0 ;
+2 x9487 +2 x9488 +2 x9489 -1 x9190 -1 x9191 -1 x9192 -1 x9193 -1 x9194 -1 x9195 >= 0 ;
+2 x9490 +2 x9491 +2 x9492 -1 x9193 -1 x9194 -1 x9195 -1 x9196 -1 x9197 -1 x9198 >= 0 ;
+2 x9493 +2 x9494 +2 x9495 -1 x9196 -1 x9197 -1 x9198 -1 x9199 -1 x9200 -1 x9201 >= 0 ;
+2 x9496 +2 x9497 +2 x9498 -1 x9199 -1 x9200 -1 x9201 -1 x9202 -1 x9203 -1 x9204 >= 0 ;
+2 x9499 +2 x9500 +2 x9501 -1 x9202 -1 x9203 -1 x9204 -1 x9205 -1 x9206 -1 x9207 >= 0 ;
+2 x9502 +2 x9503 +2 x9504 -1 x9205 -1 x9206 -1 x9207 -1 x9208 -1 x9209 -1 x9210 >= 0 ;
+2 x9505 +2 x9506 +2 x9507 -1 x9208 -1 x9209 -1 x9210 -1 x9211 -1 x9212 -1 x9213 >= 0 ;
+2 x9508 +2 x9509 +2 x9510 -1 x9211 -1 x9212 -1 x9213 -1 x9214 -1 x9215 -1 x9216 >= 0 ;
+2 x9511 +2 x9512 +2 x9513 -1 x9214 -1 x9215 -1 x9216 -1 x9217 -1 x9218 -1 x9219 >= 0 ;
+2 x9514 +2 x9515 +2 x9516 -1 x9217 -1 x9218 -1 x9219 -1 x9220 -1 x9221 -1 x9222 >= 0 ;
+2 x9517 +2 x9518 +2 x9519 -1 x9220 -1 x9221 -1 x9222 -1 x9223 -1 x9224 -1 x9225 >= 0 ;
+2 x9520 +2 x9521 +2 x9522 -1 x9223 -1 x9224 -1 x9225 -1 x9226 -1 x9227 -1 x9228 >= 0 ;
+2 x9523 +2 x9524 +2 x9525 -1 x9226 -1 x9227 -1 x9228 -1 x9229 -1 x9230 -1 x9231 >= 0 ;
+2 x9526 +2 x9527 +2 x9528 -1 x9229 -1 x9230 -1 x9231 -1 x9232 -1 x9233 -1 x9234 >= 0 ;
+2 x9529 +2 x9530 +2 x9531 -1 x9232 -1 x9233 -1 x9234 -1 x9235 -1 x9236 -1 x9237 >= 0 ;
+2 x9532 +2 x9533 +2 x9534 -1 x9235 -1 x9236 -1 x9237 -1 x9238 -1 x9239 -1 x9240 >= 0 ;
+2 x9535 +2 x9536 +2 x9537 -1 x9238 -1 x9239 -1 x9240 -1 x9241 -1 x9242 -1 x9243 >= 0 ;
+2 x9538 +2 x9539 +2 x9540 -1 x9241 -1 x9242 -1 x9243 -1 x9244 -1 x9245 -1 x9246 >= 0 ;
+2 x9541 +2 x9542 +2 x9543 -1 x9244 -1 x9245 -1 x9246 -1 x9247 -1 x9248 -1 x9249 >= 0 ;
+2 x9544 +2 x9545 +2 x9546 -1 x9247 -1 x9248 -1 x9249 -1 x9250 -1 x9251 -1 x9252 >= 0 ;
+2 x9547 +2 x9548 +2 x9549 -1 x9250 -1 x9251 -1 x9252 -1 x9253 -1 x9254 -1 x9255 >= 0 ;
+2 x9550 +2 x9551 +2 x9552 -1 x9253 -1 x9254 -1 x9255 -1 x9256 -1 x9257 -1 x9258 >= 0 ;
+2 x9553 +2 x9554 +2 x9555 -1 x9256 -1 x9257 -1 x9258 -1 x9259 -1 x9260 -1 x9261 >= 0 ;
+2 x9556 +2 x9557 +2 x9558 -1 x9259 -1 x9260 -1 x9261 -1 x9262 -1 x9263 -1 x9264 >= 0 ;
+2 x9559 +2 x9560 +2 x9561 -1 x9262 -1 x9263 -1 x9264 -1 x9265 -1 x9266 -1 x9267 >= 0 ;
+2 x9562 +2 x9563 +2 x9564 -1 x9265 -1 x9266 -1 x9267 -1 x9268 -1 x9269 -1 x9270 >= 0 ;
+2 x9565 +2 x9566 +2 x9567 -1 x9268 -1 x9269 -1 x9270 -1 x9271 -1 x9272 -1 x9273 >= 0 ;
+2 x9568 +2 x9569 +2 x9570 -1 x9271 -1 x9272 -1 x9273 -1 x9274 -1 x9275 -1 x9276 >= 0 ;
+2 x9571 +2 x9572 +2 x9573 -1 x9274 -1 x9275 -1 x9276 -1 x9277 -1 x9278 -1 x9279 >= 0 ;
+2 x9574 +2 x9575 +2 x9576 -1 x9277 -1 x9278 -1 x9279 -1 x9280 -1 x9281 -1 x9282 >= 0 ;
+2 x9577 +2 x9578 +2 x9579 -1 x9280 -1 x9281 -1 x9282 -1 x9283 -1 x9284 -1 x9285 >= 0 ;
+2 x9580 +2 x9581 +2 x9582 -1 x9283 -1 x9284 -1 x9285 -1 x9286 -1 x9287 -1 x9288 >= 0 ;
+2 x9583 +2 x9584 +2 x9585 -1 x9286 -1 x9287 -1 x9288 -1 x9289 -1 x9290 -1 x9291 >= 0 ;
+2 x9586 +2 x9587 +2 x9588 -1 x9289 -1 x9290 -1 x9291 -1 x9292 -1 x9293 -1 x9294 >= 0 ;
+2 x9589 +2 x9590 +2 x9591 -1 x9292 -1 x9293 -1 x9294 -1 x9295 -1 x9296 -1 x9297 >= 0 ;
+2 x9592 +2 x9593 +2 x9594 -1 x9295 -1 x9296 -1 x9297 -1 x9298 -1 x9299 -1 x9300 >= 0 ;
+2 x9595 +2 x9596 +2 x9597 -1 x9298 -1 x9299 -1 x9300 -1 x9301 -1 x9302 -1 x9303 >= 0 ;
+2 x9598 +2 x9599 +2 x9600 -1 x9301 -1 x9302 -1 x9303 -1 x9304 -1 x9305 -1 x9306 >= 0 ;
+2 x9601 +2 x9602 +2 x9603 -1 x9304 -1 x9305 -1 x9306 -1 x9307 -1 x9308 -1 x9309 >= 0 ;
+2 x9604 +2 x9605 +2 x9606 -1 x9307 -1 x9308 -1 x9309 -1 x9310 -1 x9311 -1 x9312 >= 0 ;
+2 x9607 +2 x9608 +2 x9609 -1 x9310 -1 x9311 -1 x9312 -1 x9313 -1 x9314 -1 x9315 >= 0 ;
+2 x9610 +2 x9611 +2 x9612 -1 x9313 -1 x9314 -1 x9315 -1 x9316 -1 x9317 -1 x9318 >= 0 ;
+2 x9613 +2 x9614 +2 x9615 -1 x9316 -1 x9317 -1 x9318 -1 x9319 -1 x9320 -1 x9321 >= 0 ;
+2 x9616 +2 x9617 +2 x9618 -1 x9319 -1 x9320 -1 x9321 -1 x9322 -1 x9323 -1 x9324 >= 0 ;
+2 x9619 +2 x9620 +2 x9621 -1 x9322 -1 x9323 -1 x9324 -1 x9325 -1 x9326 -1 x9327 >= 0 ;
+2 x9622 +2 x9623 +2 x9624 -1 x9325 -1 x9326 -1 x9327 -1 x9328 -1 x9329 -1 x9330 >= 0 ;
+2 x9625 +2 x9626 +2 x9627 -1 x9328 -1 x9329 -1 x9330 -1 x9331 -1 x9332 -1 x9333 >= 0 ;
+2 x9628 +2 x9629 +2 x9630 -1 x9331 -1 x9332 -1 x9333 -1 x9334 -1 x9335 -1 x9336 >= 0 ;
+2 x9631 +2 x9632 +2 x9633 -1 x9334 -1 x9335 -1 x9336 -1 x9337 -1 x9338 -1 x9339 >= 0 ;
+2 x9634 +2 x9635 +2 x9636 -1 x9337 -1 x9338 -1 x9339 -1 x9340 -1 x9341 -1 x9342 >= 0 ;
+2 x9637 +2 x9638 +2 x9639 -1 x9340 -1 x9341 -1 x9342 -1 x9343 -1 x9344 -1 x9345 >= 0 ;
+2 x9640 +2 x9641 +2 x9642 -1 x9343 -1 x9344 -1 x9345 -1 x9346 -1 x9347 -1 x9348 >= 0 ;
+2 x9643 +2 x9644 +2 x9645 -1 x9346 -1 x9347 -1 x9348 -1 x9349 -1 x9350 -1 x9351 >= 0 ;
+2 x9646 +2 x9647 +2 x9648 -1 x9349 -1 x9350 -1 x9351 -1 x9352 -1 x9353 -1 x9354 >= 0 ;
+2 x9649 +2 x9650 +2 x9651 -1 x9352 -1 x9353 -1 x9354 -1 x9355 -1 x9356 -1 x9357 >= 0 ;
+2 x9652 +2 x9653 +2 x9654 -1 x9355 -1 x9356 -1 x9357 -1 x9358 -1 x9359 -1 x9360 >= 0 ;
+2 x9655 +2 x9656 +2 x9657 -1 x9358 -1 x9359 -1 x9360 -1 x9361 -1 x9362 -1 x9363 >= 0 ;
+2 x9658 +2 x9659 +2 x9660 -1 x9361 -1 x9362 -1 x9363 -1 x9364 -1 x9365 -1 x9366 >= 0 ;
+2 x9661 +2 x9662 +2 x9663 -1 x9364 -1 x9365 -1 x9366 -1 x9367 -1 x9368 -1 x9369 >= 0 ;
+2 x9664 +2 x9665 +2 x9666 -1 x9367 -1 x9368 -1 x9369 -1 x9370 -1 x9371 -1 x9372 >= 0 ;
+2 x9667 +2 x9668 +2 x9669 -1 x9370 -1 x9371 -1 x9372 -1 x9373 -1 x9374 -1 x9375 >= 0 ;
+2 x9670 +2 x9671 +2 x9672 -1 x9373 -1 x9374 -1 x9375 -1 x9376 -1 x9377 -1 x9378 >= 0 ;
+2 x9673 +2 x9674 +2 x9675 -1 x9376 -1 x9377 -1 x9378 -1 x9379 -1 x9380 -1 x9381 >= 0 ;
+2 x9676 +2 x9677 +2 x9678 -1 x9379 -1 x9380 -1 x9381 -1 x9382 -1 x9383 -1 x9384 >= 0 ;
+2 x9679 +2 x9680 +2 x9681 -1 x9382 -1 x9383 -1 x9384 -1 x9385 -1 x9386 -1 x9387 >= 0 ;
+2 x9682 +2 x9683 +2 x9684 -1 x9385 -1 x9386 -1 x9387 -1 x9388 -1 x9389 -1 x9390 >= 0 ;
+2 x9685 +2 x9686 +2 x9687 -1 x9388 -1 x9389 -1 x9390 -1 x9391 -1 x9392 -1 x9393 >= 0 ;
+2 x9688 +2 x9689 +2 x9690 -1 x9391 -1 x9392 -1 x9393 -1 x9394 -1 x9395 -1 x9396 >= 0 ;
+2 x9691 +2 x9692 +2 x9693 -1 x9394 -1 x9395 -1 x9396 -1 x9397 -1 x9398 -1 x9399 >= 0 ;
+2 x9694 +2 x9695 +2 x9696 -1 x9397 -1 x9398 -1 x9399 -1 x9400 -1 x9401 -1 x9402 >= 0 ;
+2 x9697 +2 x9698 +2 x9699 -1 x9400 -1 x9401 -1 x9402 -1 x9403 -1 x9404 -1 x9405 >= 0 ;
+2 x9700 +2 x9701 +2 x9702 -1 x9403 -1 x9404 -1 x9405 -1 x9406 -1 x9407 -1 x9408 >= 0 ;
+2 x9703 +2 x9704 +2 x9705 -1 x9406 -1 x9407 -1 x9408 -1 x9409 -1 x9410 -1 x9411 >= 0 ;
+2 x9706 +2 x9707 +2 x9708 -1 x9409 -1 x9410 -1 x9411 -1 x9412 -1 x9413 -1 x9414 >= 0 ;
+2 x9709 +2 x9710 +2 x9711 -1 x9412 -1 x9413 -1 x9414 -1 x9415 -1 x9416 -1 x9417 >= 0 ;
+2 x9712 +2 x9713 +2 x9714 -1 x9415 -1 x9416 -1 x9417 -1 x9418 -1 x9419 -1 x9420 >= 0 ;
+2 x9715 +2 x9716 +2 x9717 -1 x9418 -1 x9419 -1 x9420 -1 x9421 -1 x9422 -1 x9423 >= 0 ;
+2 x9718 +2 x9719 +2 x9720 -1 x9421 -1 x9422 -1 x9423 -1 x9424 -1 x9425 -1 x9426 >= 0 ;
+2 x9721 +2 x9722 +2 x9723 -1 x9424 -1 x9425 -1 x9426 -1 x9427 -1 x9428 -1 x9429 >= 0 ;
+2 x9724 +2 x9725 +2 x9726 -1 x9427 -1 x9428 -1 x9429 -1 x9430 -1 x9431 -1 x9432 >= 0 ;
+2 x9727 +2 x9728 +2 x9729 -1 x9430 -1 x9431 -1 x9432 -1 x9433 -1 x9434 -1 x9435 >= 0 ;
+2 x9730 +2 x9731 +2 x9732 -1 x9433 -1 x9434 -1 x9435 -1 x9436 -1 x9437 -1 x9438 >= 0 ;
+2 x9733 +2 x9734 +2 x9735 -1 x9436 -1 x9437 -1 x9438 -1 x9439 -1 x9440 -1 x9441 >= 0 ;
+2 x9736 +2 x9737 +2 x9738 -1 x9439 -1 x9440 -1 x9441 -1 x9442 -1 x9443 -1 x9444 >= 0 ;
+2 x9739 +2 x9740 +2 x9741 -1 x9442 -1 x9443 -1 x9444 -1 x9445 -1 x9446 -1 x9447 >= 0 ;
+2 x9742 +2 x9743 +2 x9744 -1 x9445 -1 x9446 -1 x9447 -1 x9448 -1 x9449 -1 x9450 >= 0 ;
+2 x9745 +2 x9746 +2 x9747 -1 x9451 -1 x9452 -1 x9453 -1 x9454 -1 x9455 -1 x9456 >= 0 ;
+2 x9748 +2 x9749 +2 x9750 -1 x9454 -1 x9455 -1 x9456 -1 x9457 -1 x9458 -1 x9459 >= 0 ;
+2 x9751 +2 x9752 +2 x9753 -1 x9457 -1 x9458 -1 x9459 -1 x9460 -1 x9461 -1 x9462 >= 0 ;
+2 x9754 +2 x9755 +2 x9756 -1 x9460 -1 x9461 -1 x9462 -1 x9463 -1 x9464 -1 x9465 >= 0 ;
+2 x9757 +2 x9758 +2 x9759 -1 x9463 -1 x9464 -1 x9465 -1 x9466 -1 x9467 -1 x9468 >= 0 ;
+2 x9760 +2 x9761 +2 x9762 -1 x9466 -1 x9467 -1 x9468 -1 x9469 -1 x9470 -1 x9471 >= 0 ;
+2 x9763 +2 x9764 +2 x9765 -1 x9469 -1 x9470 -1 x9471 -1 x9472 -1 x9473 -1 x9474 >= 0 ;
+2 x9766 +2 x9767 +2 x9768 -1 x9472 -1 x9473 -1 x9474 -1 x9475 -1 x9476 -1 x9477 >= 0 ;
+2 x9769 +2 x9770 +2 x9771 -1 x9475 -1 x9476 -1 x9477 -1 x9478 -1 x9479 -1 x9480 >= 0 ;
+2 x9772 +2 x9773 +2 x9774 -1 x9478 -1 x9479 -1 x9480 -1 x9481 -1 x9482 -1 x9483 >= 0 ;
+2 x9775 +2 x9776 +2 x9777 -1 x9481 -1 x9482 -1 x9483 -1 x9484 -1 x9485 -1 x9486 >= 0 ;
+2 x9778 +2 x9779 +2 x9780 -1 x9484 -1 x9485 -1 x9486 -1 x9487 -1 x9488 -1 x9489 >= 0 ;
+2 x9781 +2 x9782 +2 x9783 -1 x9487 -1 x9488 -1 x9489 -1 x9490 -1 x9491 -1 x9492 >= 0 ;
+2 x9784 +2 x9785 +2 x9786 -1 x9490 -1 x9491 -1 x9492 -1 x9493 -1 x9494 -1 x9495 >= 0 ;
+2 x9787 +2 x9788 +2 x9789 -1 x9493 -1 x9494 -1 x9495 -1 x9496 -1 x9497 -1 x9498 >= 0 ;
+2 x9790 +2 x9791 +2 x9792 -1 x9496 -1 x9497 -1 x9498 -1 x9499 -1 x9500 -1 x9501 >= 0 ;
+2 x9793 +2 x9794 +2 x9795 -1 x9499 -1 x9500 -1 x9501 -1 x9502 -1 x9503 -1 x9504 >= 0 ;
+2 x9796 +2 x9797 +2 x9798 -1 x9502 -1 x9503 -1 x9504 -1 x9505 -1 x9506 -1 x9507 >= 0 ;
+2 x9799 +2 x9800 +2 x9801 -1 x9505 -1 x9506 -1 x9507 -1 x9508 -1 x9509 -1 x9510 >= 0 ;
+2 x9802 +2 x9803 +2 x9804 -1 x9508 -1 x9509 -1 x9510 -1 x9511 -1 x9512 -1 x9513 >= 0 ;
+2 x9805 +2 x9806 +2 x9807 -1 x9511 -1 x9512 -1 x9513 -1 x9514 -1 x9515 -1 x9516 >= 0 ;
+2 x9808 +2 x9809 +2 x9810 -1 x9514 -1 x9515 -1 x9516 -1 x9517 -1 x9518 -1 x9519 >= 0 ;
+2 x9811 +2 x9812 +2 x9813 -1 x9517 -1 x9518 -1 x9519 -1 x9520 -1 x9521 -1 x9522 >= 0 ;
+2 x9814 +2 x9815 +2 x9816 -1 x9520 -1 x9521 -1 x9522 -1 x9523 -1 x9524 -1 x9525 >= 0 ;
+2 x9817 +2 x9818 +2 x9819 -1 x9523 -1 x9524 -1 x9525 -1 x9526 -1 x9527 -1 x9528 >= 0 ;
+2 x9820 +2 x9821 +2 x9822 -1 x9526 -1 x9527 -1 x9528 -1 x9529 -1 x9530 -1 x9531 >= 0 ;
+2 x9823 +2 x9824 +2 x9825 -1 x9529 -1 x9530 -1 x9531 -1 x9532 -1 x9533 -1 x9534 >= 0 ;
+2 x9826 +2 x9827 +2 x9828 -1 x9532 -1 x9533 -1 x9534 -1 x9535 -1 x9536 -1 x9537 >= 0 ;
+2 x9829 +2 x9830 +2 x9831 -1 x9535 -1 x9536 -1 x9537 -1 x9538 -1 x9539 -1 x9540 >= 0 ;
+2 x9832 +2 x9833 +2 x9834 -1 x9538 -1 x9539 -1 x9540 -1 x9541 -1 x9542 -1 x9543 >= 0 ;
+2 x9835 +2 x9836 +2 x9837 -1 x9541 -1 x9542 -1 x9543 -1 x9544 -1 x9545 -1 x9546 >= 0 ;
+2 x9838 +2 x9839 +2 x9840 -1 x9544 -1 x9545 -1 x9546 -1 x9547 -1 x9548 -1 x9549 >= 0 ;
+2 x9841 +2 x9842 +2 x9843 -1 x9547 -1 x9548 -1 x9549 -1 x9550 -1 x9551 -1 x9552 >= 0 ;
+2 x9844 +2 x9845 +2 x9846 -1 x9550 -1 x9551 -1 x9552 -1 x9553 -1 x9554 -1 x9555 >= 0 ;
+2 x9847 +2 x9848 +2 x9849 -1 x9553 -1 x9554 -1 x9555 -1 x9556 -1 x9557 -1 x9558 >= 0 ;
+2 x9850 +2 x9851 +2 x9852 -1 x9556 -1 x9557 -1 x9558 -1 x9559 -1 x9560 -1 x9561 >= 0 ;
+2 x9853 +2 x9854 +2 x9855 -1 x9559 -1 x9560 -1 x9561 -1 x9562 -1 x9563 -1 x9564 >= 0 ;
+2 x9856 +2 x9857 +2 x9858 -1 x9562 -1 x9563 -1 x9564 -1 x9565 -1 x9566 -1 x9567 >= 0 ;
+2 x9859 +2 x9860 +2 x9861 -1 x9565 -1 x9566 -1 x9567 -1 x9568 -1 x9569 -1 x9570 >= 0 ;
+2 x9862 +2 x9863 +2 x9864 -1 x9568 -1 x9569 -1 x9570 -1 x9571 -1 x9572 -1 x9573 >= 0 ;
+2 x9865 +2 x9866 +2 x9867 -1 x9571 -1 x9572 -1 x9573 -1 x9574 -1 x9575 -1 x9576 >= 0 ;
+2 x9868 +2 x9869 +2 x9870 -1 x9574 -1 x9575 -1 x9576 -1 x9577 -1 x9578 -1 x9579 >= 0 ;
+2 x9871 +2 x9872 +2 x9873 -1 x9577 -1 x9578 -1 x9579 -1 x9580 -1 x9581 -1 x9582 >= 0 ;
+2 x9874 +2 x9875 +2 x9876 -1 x9580 -1 x9581 -1 x9582 -1 x9583 -1 x9584 -1 x9585 >= 0 ;
+2 x9877 +2 x9878 +2 x9879 -1 x9583 -1 x9584 -1 x9585 -1 x9586 -1 x9587 -1 x9588 >= 0 ;
+2 x9880 +2 x9881 +2 x9882 -1 x9586 -1 x9587 -1 x9588 -1 x9589 -1 x9590 -1 x9591 >= 0 ;
+2 x9883 +2 x9884 +2 x9885 -1 x9589 -1 x9590 -1 x9591 -1 x9592 -1 x9593 -1 x9594 >= 0 ;
+2 x9886 +2 x9887 +2 x9888 -1 x9592 -1 x9593 -1 x9594 -1 x9595 -1 x9596 -1 x9597 >= 0 ;
+2 x9889 +2 x9890 +2 x9891 -1 x9595 -1 x9596 -1 x9597 -1 x9598 -1 x9599 -1 x9600 >= 0 ;
+2 x9892 +2 x9893 +2 x9894 -1 x9598 -1 x9599 -1 x9600 -1 x9601 -1 x9602 -1 x9603 >= 0 ;
+2 x9895 +2 x9896 +2 x9897 -1 x9601 -1 x9602 -1 x9603 -1 x9604 -1 x9605 -1 x9606 >= 0 ;
+2 x9898 +2 x9899 +2 x9900 -1 x9604 -1 x9605 -1 x9606 -1 x9607 -1 x9608 -1 x9609 >= 0 ;
+2 x9901 +2 x9902 +2 x9903 -1 x9607 -1 x9608 -1 x9609 -1 x9610 -1 x9611 -1 x9612 >= 0 ;
+2 x9904 +2 x9905 +2 x9906 -1 x9610 -1 x9611 -1 x9612 -1 x9613 -1 x9614 -1 x9615 >= 0 ;
+2 x9907 +2 x9908 +2 x9909 -1 x9613 -1 x9614 -1 x9615 -1 x9616 -1 x9617 -1 x9618 >= 0 ;
+2 x9910 +2 x9911 +2 x9912 -1 x9616 -1 x9617 -1 x9618 -1 x9619 -1 x9620 -1 x9621 >= 0 ;
+2 x9913 +2 x9914 +2 x9915 -1 x9619 -1 x9620 -1 x9621 -1 x9622 -1 x9623 -1 x9624 >= 0 ;
+2 x9916 +2 x9917 +2 x9918 -1 x9622 -1 x9623 -1 x9624 -1 x9625 -1 x9626 -1 x9627 >= 0 ;
+2 x9919 +2 x9920 +2 x9921 -1 x9625 -1 x9626 -1 x9627 -1 x9628 -1 x9629 -1 x9630 >= 0 ;
+2 x9922 +2 x9923 +2 x9924 -1 x9628 -1 x9629 -1 x9630 -1 x9631 -1 x9632 -1 x9633 >= 0 ;
+2 x9925 +2 x9926 +2 x9927 -1 x9631 -1 x9632 -1 x9633 -1 x9634 -1 x9635 -1 x9636 >= 0 ;
+2 x9928 +2 x9929 +2 x9930 -1 x9634 -1 x9635 -1 x9636 -1 x9637 -1 x9638 -1 x9639 >= 0 ;
+2 x9931 +2 x9932 +2 x9933 -1 x9637 -1 x9638 -1 x9639 -1 x9640 -1 x9641 -1 x9642 >= 0 ;
+2 x9934 +2 x9935 +2 x9936 -1 x9640 -1 x9641 -1 x9642 -1 x9643 -1 x9644 -1 x9645 >= 0 ;
+2 x9937 +2 x9938 +2 x9939 -1 x9643 -1 x9644 -1 x9645 -1 x9646 -1 x9647 -1 x9648 >= 0 ;
+2 x9940 +2 x9941 +2 x9942 -1 x9646 -1 x9647 -1 x9648 -1 x9649 -1 x9650 -1 x9651 >= 0 ;
+2 x9943 +2 x9944 +2 x9945 -1 x9649 -1 x9650 -1 x9651 -1 x9652 -1 x9653 -1 x9654 >= 0 ;
+2 x9946 +2 x9947 +2 x9948 -1 x9652 -1 x9653 -1 x9654 -1 x9655 -1 x9656 -1 x9657 >= 0 ;
+2 x9949 +2 x9950 +2 x9951 -1 x9655 -1 x9656 -1 x9657 -1 x9658 -1 x9659 -1 x9660 >= 0 ;
+2 x9952 +2 x9953 +2 x9954 -1 x9658 -1 x9659 -1 x9660 -1 x9661 -1 x9662 -1 x9663 >= 0 ;
+2 x9955 +2 x9956 +2 x9957 -1 x9661 -1 x9662 -1 x9663 -1 x9664 -1 x9665 -1 x9666 >= 0 ;
+2 x9958 +2 x9959 +2 x9960 -1 x9664 -1 x9665 -1 x9666 -1 x9667 -1 x9668 -1 x9669 >= 0 ;
+2 x9961 +2 x9962 +2 x9963 -1 x9667 -1 x9668 -1 x9669 -1 x9670 -1 x9671 -1 x9672 >= 0 ;
+2 x9964 +2 x9965 +2 x9966 -1 x9670 -1 x9671 -1 x9672 -1 x9673 -1 x9674 -1 x9675 >= 0 ;
+2 x9967 +2 x9968 +2 x9969 -1 x9673 -1 x9674 -1 x9675 -1 x9676 -1 x9677 -1 x9678 >= 0 ;
+2 x9970 +2 x9971 +2 x9972 -1 x9676 -1 x9677 -1 x9678 -1 x9679 -1 x9680 -1 x9681 >= 0 ;
+2 x9973 +2 x9974 +2 x9975 -1 x9679 -1 x9680 -1 x9681 -1 x9682 -1 x9683 -1 x9684 >= 0 ;
+2 x9976 +2 x9977 +2 x9978 -1 x9682 -1 x9683 -1 x9684 -1 x9685 -1 x9686 -1 x9687 >= 0 ;
+2 x9979 +2 x9980 +2 x9981 -1 x9685 -1 x9686 -1 x9687 -1 x9688 -1 x9689 -1 x9690 >= 0 ;
+2 x9982 +2 x9983 +2 x9984 -1 x9688 -1 x9689 -1 x9690 -1 x9691 -1 x9692 -1 x9693 >= 0 ;
+2 x9985 +2 x9986 +2 x9987 -1 x9691 -1 x9692 -1 x9693 -1 x9694 -1 x9695 -1 x9696 >= 0 ;
+2 x9988 +2 x9989 +2 x9990 -1 x9694 -1 x9695 -1 x9696 -1 x9697 -1 x9698 -1 x9699 >= 0 ;
+2 x9991 +2 x9992 +2 x9993 -1 x9697 -1 x9698 -1 x9699 -1 x9700 -1 x9701 -1 x9702 >= 0 ;
+2 x9994 +2 x9995 +2 x9996 -1 x9700 -1 x9701 -1 x9702 -1 x9703 -1 x9704 -1 x9705 >= 0 ;
+2 x9997 +2 x9998 +2 x9999 -1 x9703 -1 x9704 -1 x9705 -1 x9706 -1 x9707 -1 x9708 >= 0 ;
+2 x10000 +2 x10001 +2 x10002 -1 x9706 -1 x9707 -1 x9708 -1 x9709 -1 x9710 -1 x9711 >= 0 ;
+2 x10003 +2 x10004 +2 x10005 -1 x9709 -1 x9710 -1 x9711 -1 x9712 -1 x9713 -1 x9714 >= 0 ;
+2 x10006 +2 x10007 +2 x10008 -1 x9712 -1 x9713 -1 x9714 -1 x9715 -1 x9716 -1 x9717 >= 0 ;
+2 x10009 +2 x10010 +2 x10011 -1 x9715 -1 x9716 -1 x9717 -1 x9718 -1 x9719 -1 x9720 >= 0 ;
+2 x10012 +2 x10013 +2 x10014 -1 x9718 -1 x9719 -1 x9720 -1 x9721 -1 x9722 -1 x9723 >= 0 ;
+2 x10015 +2 x10016 +2 x10017 -1 x9721 -1 x9722 -1 x9723 -1 x9724 -1 x9725 -1 x9726 >= 0 ;
+2 x10018 +2 x10019 +2 x10020 -1 x9724 -1 x9725 -1 x9726 -1 x9727 -1 x9728 -1 x9729 >= 0 ;
+2 x10021 +2 x10022 +2 x10023 -1 x9727 -1 x9728 -1 x9729 -1 x9730 -1 x9731 -1 x9732 >= 0 ;
+2 x10024 +2 x10025 +2 x10026 -1 x9730 -1 x9731 -1 x9732 -1 x9733 -1 x9734 -1 x9735 >= 0 ;
+2 x10027 +2 x10028 +2 x10029 -1 x9733 -1 x9734 -1 x9735 -1 x9736 -1 x9737 -1 x9738 >= 0 ;
+2 x10030 +2 x10031 +2 x10032 -1 x9736 -1 x9737 -1 x9738 -1 x9739 -1 x9740 -1 x9741 >= 0 ;
+2 x10033 +2 x10034 +2 x10035 -1 x9739 -1 x9740 -1 x9741 -1 x9742 -1 x9743 -1 x9744 >= 0 ;
+2 x10036 +2 x10037 +2 x10038 -1 x9745 -1 x9746 -1 x9747 -1 x9748 -1 x9749 -1 x9750 >= 0 ;
+2 x10039 +2 x10040 +2 x10041 -1 x9748 -1 x9749 -1 x9750 -1 x9751 -1 x9752 -1 x9753 >= 0 ;
+2 x10042 +2 x10043 +2 x10044 -1 x9751 -1 x9752 -1 x9753 -1 x9754 -1 x9755 -1 x9756 >= 0 ;
+2 x10045 +2 x10046 +2 x10047 -1 x9754 -1 x9755 -1 x9756 -1 x9757 -1 x9758 -1 x9759 >= 0 ;
+2 x10048 +2 x10049 +2 x10050 -1 x9757 -1 x9758 -1 x9759 -1 x9760 -1 x9761 -1 x9762 >= 0 ;
+2 x10051 +2 x10052 +2 x10053 -1 x9760 -1 x9761 -1 x9762 -1 x9763 -1 x9764 -1 x9765 >= 0 ;
+2 x10054 +2 x10055 +2 x10056 -1 x9763 -1 x9764 -1 x9765 -1 x9766 -1 x9767 -1 x9768 >= 0 ;
+2 x10057 +2 x10058 +2 x10059 -1 x9766 -1 x9767 -1 x9768 -1 x9769 -1 x9770 -1 x9771 >= 0 ;
+2 x10060 +2 x10061 +2 x10062 -1 x9769 -1 x9770 -1 x9771 -1 x9772 -1 x9773 -1 x9774 >= 0 ;
+2 x10063 +2 x10064 +2 x10065 -1 x9772 -1 x9773 -1 x9774 -1 x9775 -1 x9776 -1 x9777 >= 0 ;
+2 x10066 +2 x10067 +2 x10068 -1 x9775 -1 x9776 -1 x9777 -1 x9778 -1 x9779 -1 x9780 >= 0 ;
+2 x10069 +2 x10070 +2 x10071 -1 x9778 -1 x9779 -1 x9780 -1 x9781 -1 x9782 -1 x9783 >= 0 ;
+2 x10072 +2 x10073 +2 x10074 -1 x9781 -1 x9782 -1 x9783 -1 x9784 -1 x9785 -1 x9786 >= 0 ;
+2 x10075 +2 x10076 +2 x10077 -1 x9784 -1 x9785 -1 x9786 -1 x9787 -1 x9788 -1 x9789 >= 0 ;
+2 x10078 +2 x10079 +2 x10080 -1 x9787 -1 x9788 -1 x9789 -1 x9790 -1 x9791 -1 x9792 >= 0 ;
+2 x10081 +2 x10082 +2 x10083 -1 x9790 -1 x9791 -1 x9792 -1 x9793 -1 x9794 -1 x9795 >= 0 ;
+2 x10084 +2 x10085 +2 x10086 -1 x9793 -1 x9794 -1 x9795 -1 x9796 -1 x9797 -1 x9798 >= 0 ;
+2 x10087 +2 x10088 +2 x10089 -1 x9796 -1 x9797 -1 x9798 -1 x9799 -1 x9800 -1 x9801 >= 0 ;
+2 x10090 +2 x10091 +2 x10092 -1 x9799 -1 x9800 -1 x9801 -1 x9802 -1 x9803 -1 x9804 >= 0 ;
+2 x10093 +2 x10094 +2 x10095 -1 x9802 -1 x9803 -1 x9804 -1 x9805 -1 x9806 -1 x9807 >= 0 ;
+2 x10096 +2 x10097 +2 x10098 -1 x9805 -1 x9806 -1 x9807 -1 x9808 -1 x9809 -1 x9810 >= 0 ;
+2 x10099 +2 x10100 +2 x10101 -1 x9808 -1 x9809 -1 x9810 -1 x9811 -1 x9812 -1 x9813 >= 0 ;
+2 x10102 +2 x10103 +2 x10104 -1 x9811 -1 x9812 -1 x9813 -1 x9814 -1 x9815 -1 x9816 >= 0 ;
+2 x10105 +2 x10106 +2 x10107 -1 x9814 -1 x9815 -1 x9816 -1 x9817 -1 x9818 -1 x9819 >= 0 ;
+2 x10108 +2 x10109 +2 x10110 -1 x9817 -1 x9818 -1 x9819 -1 x9820 -1 x9821 -1 x9822 >= 0 ;
+2 x10111 +2 x10112 +2 x10113 -1 x9820 -1 x9821 -1 x9822 -1 x9823 -1 x9824 -1 x9825 >= 0 ;
+2 x10114 +2 x10115 +2 x10116 -1 x9823 -1 x9824 -1 x9825 -1 x9826 -1 x9827 -1 x9828 >= 0 ;
+2 x10117 +2 x10118 +2 x10119 -1 x9826 -1 x9827 -1 x9828 -1 x9829 -1 x9830 -1 x9831 >= 0 ;
+2 x10120 +2 x10121 +2 x10122 -1 x9829 -1 x9830 -1 x9831 -1 x9832 -1 x9833 -1 x9834 >= 0 ;
+2 x10123 +2 x10124 +2 x10125 -1 x9832 -1 x9833 -1 x9834 -1 x9835 -1 x9836 -1 x9837 >= 0 ;
+2 x10126 +2 x10127 +2 x10128 -1 x9835 -1 x9836 -1 x9837 -1 x9838 -1 x9839 -1 x9840 >= 0 ;
+2 x10129 +2 x10130 +2 x10131 -1 x9838 -1 x9839 -1 x9840 -1 x9841 -1 x9842 -1 x9843 >= 0 ;
+2 x10132 +2 x10133 +2 x10134 -1 x9841 -1 x9842 -1 x9843 -1 x9844 -1 x9845 -1 x9846 >= 0 ;
+2 x10135 +2 x10136 +2 x10137 -1 x9844 -1 x9845 -1 x9846 -1 x9847 -1 x9848 -1 x9849 >= 0 ;
+2 x10138 +2 x10139 +2 x10140 -1 x9847 -1 x9848 -1 x9849 -1 x9850 -1 x9851 -1 x9852 >= 0 ;
+2 x10141 +2 x10142 +2 x10143 -1 x9850 -1 x9851 -1 x9852 -1 x9853 -1 x9854 -1 x9855 >= 0 ;
+2 x10144 +2 x10145 +2 x10146 -1 x9853 -1 x9854 -1 x9855 -1 x9856 -1 x9857 -1 x9858 >= 0 ;
+2 x10147 +2 x10148 +2 x10149 -1 x9856 -1 x9857 -1 x9858 -1 x9859 -1 x9860 -1 x9861 >= 0 ;
+2 x10150 +2 x10151 +2 x10152 -1 x9859 -1 x9860 -1 x9861 -1 x9862 -1 x9863 -1 x9864 >= 0 ;
+2 x10153 +2 x10154 +2 x10155 -1 x9862 -1 x9863 -1 x9864 -1 x9865 -1 x9866 -1 x9867 >= 0 ;
+2 x10156 +2 x10157 +2 x10158 -1 x9865 -1 x9866 -1 x9867 -1 x9868 -1 x9869 -1 x9870 >= 0 ;
+2 x10159 +2 x10160 +2 x10161 -1 x9868 -1 x9869 -1 x9870 -1 x9871 -1 x9872 -1 x9873 >= 0 ;
+2 x10162 +2 x10163 +2 x10164 -1 x9871 -1 x9872 -1 x9873 -1 x9874 -1 x9875 -1 x9876 >= 0 ;
+2 x10165 +2 x10166 +2 x10167 -1 x9874 -1 x9875 -1 x9876 -1 x9877 -1 x9878 -1 x9879 >= 0 ;
+2 x10168 +2 x10169 +2 x10170 -1 x9877 -1 x9878 -1 x9879 -1 x9880 -1 x9881 -1 x9882 >= 0 ;
+2 x10171 +2 x10172 +2 x10173 -1 x9880 -1 x9881 -1 x9882 -1 x9883 -1 x9884 -1 x9885 >= 0 ;
+2 x10174 +2 x10175 +2 x10176 -1 x9883 -1 x9884 -1 x9885 -1 x9886 -1 x9887 -1 x9888 >= 0 ;
+2 x10177 +2 x10178 +2 x10179 -1 x9886 -1 x9887 -1 x9888 -1 x9889 -1 x9890 -1 x9891 >= 0 ;
+2 x10180 +2 x10181 +2 x10182 -1 x9889 -1 x9890 -1 x9891 -1 x9892 -1 x9893 -1 x9894 >= 0 ;
+2 x10183 +2 x10184 +2 x10185 -1 x9892 -1 x9893 -1 x9894 -1 x9895 -1 x9896 -1 x9897 >= 0 ;
+2 x10186 +2 x10187 +2 x10188 -1 x9895 -1 x9896 -1 x9897 -1 x9898 -1 x9899 -1 x9900 >= 0 ;
+2 x10189 +2 x10190 +2 x10191 -1 x9898 -1 x9899 -1 x9900 -1 x9901 -1 x9902 -1 x9903 >= 0 ;
+2 x10192 +2 x10193 +2 x10194 -1 x9901 -1 x9902 -1 x9903 -1 x9904 -1 x9905 -1 x9906 >= 0 ;
+2 x10195 +2 x10196 +2 x10197 -1 x9904 -1 x9905 -1 x9906 -1 x9907 -1 x9908 -1 x9909 >= 0 ;
+2 x10198 +2 x10199 +2 x10200 -1 x9907 -1 x9908 -1 x9909 -1 x9910 -1 x9911 -1 x9912 >= 0 ;
+2 x10201 +2 x10202 +2 x10203 -1 x9910 -1 x9911 -1 x9912 -1 x9913 -1 x9914 -1 x9915 >= 0 ;
+2 x10204 +2 x10205 +2 x10206 -1 x9913 -1 x9914 -1 x9915 -1 x9916 -1 x9917 -1 x9918 >= 0 ;
+2 x10207 +2 x10208 +2 x10209 -1 x9916 -1 x9917 -1 x9918 -1 x9919 -1 x9920 -1 x9921 >= 0 ;
+2 x10210 +2 x10211 +2 x10212 -1 x9919 -1 x9920 -1 x9921 -1 x9922 -1 x9923 -1 x9924 >= 0 ;
+2 x10213 +2 x10214 +2 x10215 -1 x9922 -1 x9923 -1 x9924 -1 x9925 -1 x9926 -1 x9927 >= 0 ;
+2 x10216 +2 x10217 +2 x10218 -1 x9925 -1 x9926 -1 x9927 -1 x9928 -1 x9929 -1 x9930 >= 0 ;
+2 x10219 +2 x10220 +2 x10221 -1 x9928 -1 x9929 -1 x9930 -1 x9931 -1 x9932 -1 x9933 >= 0 ;
+2 x10222 +2 x10223 +2 x10224 -1 x9931 -1 x9932 -1 x9933 -1 x9934 -1 x9935 -1 x9936 >= 0 ;
+2 x10225 +2 x10226 +2 x10227 -1 x9934 -1 x9935 -1 x9936 -1 x9937 -1 x9938 -1 x9939 >= 0 ;
+2 x10228 +2 x10229 +2 x10230 -1 x9937 -1 x9938 -1 x9939 -1 x9940 -1 x9941 -1 x9942 >= 0 ;
+2 x10231 +2 x10232 +2 x10233 -1 x9940 -1 x9941 -1 x9942 -1 x9943 -1 x9944 -1 x9945 >= 0 ;
+2 x10234 +2 x10235 +2 x10236 -1 x9943 -1 x9944 -1 x9945 -1 x9946 -1 x9947 -1 x9948 >= 0 ;
+2 x10237 +2 x10238 +2 x10239 -1 x9946 -1 x9947 -1 x9948 -1 x9949 -1 x9950 -1 x9951 >= 0 ;
+2 x10240 +2 x10241 +2 x10242 -1 x9949 -1 x9950 -1 x9951 -1 x9952 -1 x9953 -1 x9954 >= 0 ;
+2 x10243 +2 x10244 +2 x10245 -1 x9952 -1 x9953 -1 x9954 -1 x9955 -1 x9956 -1 x9957 >= 0 ;
+2 x10246 +2 x10247 +2 x10248 -1 x9955 -1 x9956 -1 x9957 -1 x9958 -1 x9959 -1 x9960 >= 0 ;
+2 x10249 +2 x10250 +2 x10251 -1 x9958 -1 x9959 -1 x9960 -1 x9961 -1 x9962 -1 x9963 >= 0 ;
+2 x10252 +2 x10253 +2 x10254 -1 x9961 -1 x9962 -1 x9963 -1 x9964 -1 x9965 -1 x9966 >= 0 ;
+2 x10255 +2 x10256 +2 x10257 -1 x9964 -1 x9965 -1 x9966 -1 x9967 -1 x9968 -1 x9969 >= 0 ;
+2 x10258 +2 x10259 +2 x10260 -1 x9967 -1 x9968 -1 x9969 -1 x9970 -1 x9971 -1 x9972 >= 0 ;
+2 x10261 +2 x10262 +2 x10263 -1 x9970 -1 x9971 -1 x9972 -1 x9973 -1 x9974 -1 x9975 >= 0 ;
+2 x10264 +2 x10265 +2 x10266 -1 x9973 -1 x9974 -1 x9975 -1 x9976 -1 x9977 -1 x9978 >= 0 ;
+2 x10267 +2 x10268 +2 x10269 -1 x9976 -1 x9977 -1 x9978 -1 x9979 -1 x9980 -1 x9981 >= 0 ;
+2 x10270 +2 x10271 +2 x10272 -1 x9979 -1 x9980 -1 x9981 -1 x9982 -1 x9983 -1 x9984 >= 0 ;
+2 x10273 +2 x10274 +2 x10275 -1 x9982 -1 x9983 -1 x9984 -1 x9985 -1 x9986 -1 x9987 >= 0 ;
+2 x10276 +2 x10277 +2 x10278 -1 x9985 -1 x9986 -1 x9987 -1 x9988 -1 x9989 -1 x9990 >= 0 ;
+2 x10279 +2 x10280 +2 x10281 -1 x9988 -1 x9989 -1 x9990 -1 x9991 -1 x9992 -1 x9993 >= 0 ;
+2 x10282 +2 x10283 +2 x10284 -1 x9991 -1 x9992 -1 x9993 -1 x9994 -1 x9995 -1 x9996 >= 0 ;
+2 x10285 +2 x10286 +2 x10287 -1 x9994 -1 x9995 -1 x9996 -1 x9997 -1 x9998 -1 x9999 >= 0 ;
+2 x10288 +2 x10289 +2 x10290 -1 x9997 -1 x9998 -1 x9999 -1 x10000 -1 x10001 -1 x10002 >= 0 ;
+2 x10291 +2 x10292 +2 x10293 -1 x10000 -1 x10001 -1 x10002 -1 x10003 -1 x10004 -1 x10005 >= 0 ;
+2 x10294 +2 x10295 +2 x10296 -1 x10003 -1 x10004 -1 x10005 -1 x10006 -1 x10007 -1 x10008 >= 0 ;
+2 x10297 +2 x10298 +2 x10299 -1 x10006 -1 x10007 -1 x10008 -1 x10009 -1 x10010 -1 x10011 >= 0 ;
+2 x10300 +2 x10301 +2 x10302 -1 x10009 -1 x10010 -1 x10011 -1 x10012 -1 x10013 -1 x10014 >= 0 ;
+2 x10303 +2 x10304 +2 x10305 -1 x10012 -1 x10013 -1 x10014 -1 x10015 -1 x10016 -1 x10017 >= 0 ;
+2 x10306 +2 x10307 +2 x10308 -1 x10015 -1 x10016 -1 x10017 -1 x10018 -1 x10019 -1 x10020 >= 0 ;
+2 x10309 +2 x10310 +2 x10311 -1 x10018 -1 x10019 -1 x10020 -1 x10021 -1 x10022 -1 x10023 >= 0 ;
+2 x10312 +2 x10313 +2 x10314 -1 x10021 -1 x10022 -1 x10023 -1 x10024 -1 x10025 -1 x10026 >= 0 ;
+2 x10315 +2 x10316 +2 x10317 -1 x10024 -1 x10025 -1 x10026 -1 x10027 -1 x10028 -1 x10029 >= 0 ;
+2 x10318 +2 x10319 +2 x10320 -1 x10027 -1 x10028 -1 x10029 -1 x10030 -1 x10031 -1 x10032 >= 0 ;
+2 x10321 +2 x10322 +2 x10323 -1 x10030 -1 x10031 -1 x10032 -1 x10033 -1 x10034 -1 x10035 >= 0 ;
+2 x10324 +2 x10325 +2 x10326 -1 x10036 -1 x10037 -1 x10038 -1 x10039 -1 x10040 -1 x10041 >= 0 ;
+2 x10327 +2 x10328 +2 x10329 -1 x10039 -1 x10040 -1 x10041 -1 x10042 -1 x10043 -1 x10044 >= 0 ;
+2 x10330 +2 x10331 +2 x10332 -1 x10042 -1 x10043 -1 x10044 -1 x10045 -1 x10046 -1 x10047 >= 0 ;
+2 x10333 +2 x10334 +2 x10335 -1 x10045 -1 x10046 -1 x10047 -1 x10048 -1 x10049 -1 x10050 >= 0 ;
+2 x10336 +2 x10337 +2 x10338 -1 x10048 -1 x10049 -1 x10050 -1 x10051 -1 x10052 -1 x10053 >= 0 ;
+2 x10339 +2 x10340 +2 x10341 -1 x10051 -1 x10052 -1 x10053 -1 x10054 -1 x10055 -1 x10056 >= 0 ;
+2 x10342 +2 x10343 +2 x10344 -1 x10054 -1 x10055 -1 x10056 -1 x10057 -1 x10058 -1 x10059 >= 0 ;
+2 x10345 +2 x10346 +2 x10347 -1 x10057 -1 x10058 -1 x10059 -1 x10060 -1 x10061 -1 x10062 >= 0 ;
+2 x10348 +2 x10349 +2 x10350 -1 x10060 -1 x10061 -1 x10062 -1 x10063 -1 x10064 -1 x10065 >= 0 ;
+2 x10351 +2 x10352 +2 x10353 -1 x10063 -1 x10064 -1 x10065 -1 x10066 -1 x10067 -1 x10068 >= 0 ;
+2 x10354 +2 x10355 +2 x10356 -1 x10066 -1 x10067 -1 x10068 -1 x10069 -1 x10070 -1 x10071 >= 0 ;
+2 x10357 +2 x10358 +2 x10359 -1 x10069 -1 x10070 -1 x10071 -1 x10072 -1 x10073 -1 x10074 >= 0 ;
+2 x10360 +2 x10361 +2 x10362 -1 x10072 -1 x10073 -1 x10074 -1 x10075 -1 x10076 -1 x10077 >= 0 ;
+2 x10363 +2 x10364 +2 x10365 -1 x10075 -1 x10076 -1 x10077 -1 x10078 -1 x10079 -1 x10080 >= 0 ;
+2 x10366 +2 x10367 +2 x10368 -1 x10078 -1 x10079 -1 x10080 -1 x10081 -1 x10082 -1 x10083 >= 0 ;
+2 x10369 +2 x10370 +2 x10371 -1 x10081 -1 x10082 -1 x10083 -1 x10084 -1 x10085 -1 x10086 >= 0 ;
+2 x10372 +2 x10373 +2 x10374 -1 x10084 -1 x10085 -1 x10086 -1 x10087 -1 x10088 -1 x10089 >= 0 ;
+2 x10375 +2 x10376 +2 x10377 -1 x10087 -1 x10088 -1 x10089 -1 x10090 -1 x10091 -1 x10092 >= 0 ;
+2 x10378 +2 x10379 +2 x10380 -1 x10090 -1 x10091 -1 x10092 -1 x10093 -1 x10094 -1 x10095 >= 0 ;
+2 x10381 +2 x10382 +2 x10383 -1 x10093 -1 x10094 -1 x10095 -1 x10096 -1 x10097 -1 x10098 >= 0 ;
+2 x10384 +2 x10385 +2 x10386 -1 x10096 -1 x10097 -1 x10098 -1 x10099 -1 x10100 -1 x10101 >= 0 ;
+2 x10387 +2 x10388 +2 x10389 -1 x10099 -1 x10100 -1 x10101 -1 x10102 -1 x10103 -1 x10104 >= 0 ;
+2 x10390 +2 x10391 +2 x10392 -1 x10102 -1 x10103 -1 x10104 -1 x10105 -1 x10106 -1 x10107 >= 0 ;
+2 x10393 +2 x10394 +2 x10395 -1 x10105 -1 x10106 -1 x10107 -1 x10108 -1 x10109 -1 x10110 >= 0 ;
+2 x10396 +2 x10397 +2 x10398 -1 x10108 -1 x10109 -1 x10110 -1 x10111 -1 x10112 -1 x10113 >= 0 ;
+2 x10399 +2 x10400 +2 x10401 -1 x10111 -1 x10112 -1 x10113 -1 x10114 -1 x10115 -1 x10116 >= 0 ;
+2 x10402 +2 x10403 +2 x10404 -1 x10114 -1 x10115 -1 x10116 -1 x10117 -1 x10118 -1 x10119 >= 0 ;
+2 x10405 +2 x10406 +2 x10407 -1 x10117 -1 x10118 -1 x10119 -1 x10120 -1 x10121 -1 x10122 >= 0 ;
+2 x10408 +2 x10409 +2 x10410 -1 x10120 -1 x10121 -1 x10122 -1 x10123 -1 x10124 -1 x10125 >= 0 ;
+2 x10411 +2 x10412 +2 x10413 -1 x10123 -1 x10124 -1 x10125 -1 x10126 -1 x10127 -1 x10128 >= 0 ;
+2 x10414 +2 x10415 +2 x10416 -1 x10126 -1 x10127 -1 x10128 -1 x10129 -1 x10130 -1 x10131 >= 0 ;
+2 x10417 +2 x10418 +2 x10419 -1 x10129 -1 x10130 -1 x10131 -1 x10132 -1 x10133 -1 x10134 >= 0 ;
+2 x10420 +2 x10421 +2 x10422 -1 x10132 -1 x10133 -1 x10134 -1 x10135 -1 x10136 -1 x10137 >= 0 ;
+2 x10423 +2 x10424 +2 x10425 -1 x10135 -1 x10136 -1 x10137 -1 x10138 -1 x10139 -1 x10140 >= 0 ;
+2 x10426 +2 x10427 +2 x10428 -1 x10138 -1 x10139 -1 x10140 -1 x10141 -1 x10142 -1 x10143 >= 0 ;
+2 x10429 +2 x10430 +2 x10431 -1 x10141 -1 x10142 -1 x10143 -1 x10144 -1 x10145 -1 x10146 >= 0 ;
+2 x10432 +2 x10433 +2 x10434 -1 x10144 -1 x10145 -1 x10146 -1 x10147 -1 x10148 -1 x10149 >= 0 ;
+2 x10435 +2 x10436 +2 x10437 -1 x10147 -1 x10148 -1 x10149 -1 x10150 -1 x10151 -1 x10152 >= 0 ;
+2 x10438 +2 x10439 +2 x10440 -1 x10150 -1 x10151 -1 x10152 -1 x10153 -1 x10154 -1 x10155 >= 0 ;
+2 x10441 +2 x10442 +2 x10443 -1 x10153 -1 x10154 -1 x10155 -1 x10156 -1 x10157 -1 x10158 >= 0 ;
+2 x10444 +2 x10445 +2 x10446 -1 x10156 -1 x10157 -1 x10158 -1 x10159 -1 x10160 -1 x10161 >= 0 ;
+2 x10447 +2 x10448 +2 x10449 -1 x10159 -1 x10160 -1 x10161 -1 x10162 -1 x10163 -1 x10164 >= 0 ;
+2 x10450 +2 x10451 +2 x10452 -1 x10162 -1 x10163 -1 x10164 -1 x10165 -1 x10166 -1 x10167 >= 0 ;
+2 x10453 +2 x10454 +2 x10455 -1 x10165 -1 x10166 -1 x10167 -1 x10168 -1 x10169 -1 x10170 >= 0 ;
+2 x10456 +2 x10457 +2 x10458 -1 x10168 -1 x10169 -1 x10170 -1 x10171 -1 x10172 -1 x10173 >= 0 ;
+2 x10459 +2 x10460 +2 x10461 -1 x10171 -1 x10172 -1 x10173 -1 x10174 -1 x10175 -1 x10176 >= 0 ;
+2 x10462 +2 x10463 +2 x10464 -1 x10174 -1 x10175 -1 x10176 -1 x10177 -1 x10178 -1 x10179 >= 0 ;
+2 x10465 +2 x10466 +2 x10467 -1 x10177 -1 x10178 -1 x10179 -1 x10180 -1 x10181 -1 x10182 >= 0 ;
+2 x10468 +2 x10469 +2 x10470 -1 x10180 -1 x10181 -1 x10182 -1 x10183 -1 x10184 -1 x10185 >= 0 ;
+2 x10471 +2 x10472 +2 x10473 -1 x10183 -1 x10184 -1 x10185 -1 x10186 -1 x10187 -1 x10188 >= 0 ;
+2 x10474 +2 x10475 +2 x10476 -1 x10186 -1 x10187 -1 x10188 -1 x10189 -1 x10190 -1 x10191 >= 0 ;
+2 x10477 +2 x10478 +2 x10479 -1 x10189 -1 x10190 -1 x10191 -1 x10192 -1 x10193 -1 x10194 >= 0 ;
+2 x10480 +2 x10481 +2 x10482 -1 x10192 -1 x10193 -1 x10194 -1 x10195 -1 x10196 -1 x10197 >= 0 ;
+2 x10483 +2 x10484 +2 x10485 -1 x10195 -1 x10196 -1 x10197 -1 x10198 -1 x10199 -1 x10200 >= 0 ;
+2 x10486 +2 x10487 +2 x10488 -1 x10198 -1 x10199 -1 x10200 -1 x10201 -1 x10202 -1 x10203 >= 0 ;
+2 x10489 +2 x10490 +2 x10491 -1 x10201 -1 x10202 -1 x10203 -1 x10204 -1 x10205 -1 x10206 >= 0 ;
+2 x10492 +2 x10493 +2 x10494 -1 x10204 -1 x10205 -1 x10206 -1 x10207 -1 x10208 -1 x10209 >= 0 ;
+2 x10495 +2 x10496 +2 x10497 -1 x10207 -1 x10208 -1 x10209 -1 x10210 -1 x10211 -1 x10212 >= 0 ;
+2 x10498 +2 x10499 +2 x10500 -1 x10210 -1 x10211 -1 x10212 -1 x10213 -1 x10214 -1 x10215 >= 0 ;
+2 x10501 +2 x10502 +2 x10503 -1 x10213 -1 x10214 -1 x10215 -1 x10216 -1 x10217 -1 x10218 >= 0 ;
+2 x10504 +2 x10505 +2 x10506 -1 x10216 -1 x10217 -1 x10218 -1 x10219 -1 x10220 -1 x10221 >= 0 ;
+2 x10507 +2 x10508 +2 x10509 -1 x10219 -1 x10220 -1 x10221 -1 x10222 -1 x10223 -1 x10224 >= 0 ;
+2 x10510 +2 x10511 +2 x10512 -1 x10222 -1 x10223 -1 x10224 -1 x10225 -1 x10226 -1 x10227 >= 0 ;
+2 x10513 +2 x10514 +2 x10515 -1 x10225 -1 x10226 -1 x10227 -1 x10228 -1 x10229 -1 x10230 >= 0 ;
+2 x10516 +2 x10517 +2 x10518 -1 x10228 -1 x10229 -1 x10230 -1 x10231 -1 x10232 -1 x10233 >= 0 ;
+2 x10519 +2 x10520 +2 x10521 -1 x10231 -1 x10232 -1 x10233 -1 x10234 -1 x10235 -1 x10236 >= 0 ;
+2 x10522 +2 x10523 +2 x10524 -1 x10234 -1 x10235 -1 x10236 -1 x10237 -1 x10238 -1 x10239 >= 0 ;
+2 x10525 +2 x10526 +2 x10527 -1 x10237 -1 x10238 -1 x10239 -1 x10240 -1 x10241 -1 x10242 >= 0 ;
+2 x10528 +2 x10529 +2 x10530 -1 x10240 -1 x10241 -1 x10242 -1 x10243 -1 x10244 -1 x10245 >= 0 ;
+2 x10531 +2 x10532 +2 x10533 -1 x10243 -1 x10244 -1 x10245 -1 x10246 -1 x10247 -1 x10248 >= 0 ;
+2 x10534 +2 x10535 +2 x10536 -1 x10246 -1 x10247 -1 x10248 -1 x10249 -1 x10250 -1 x10251 >= 0 ;
+2 x10537 +2 x10538 +2 x10539 -1 x10249 -1 x10250 -1 x10251 -1 x10252 -1 x10253 -1 x10254 >= 0 ;
+2 x10540 +2 x10541 +2 x10542 -1 x10252 -1 x10253 -1 x10254 -1 x10255 -1 x10256 -1 x10257 >= 0 ;
+2 x10543 +2 x10544 +2 x10545 -1 x10255 -1 x10256 -1 x10257 -1 x10258 -1 x10259 -1 x10260 >= 0 ;
+2 x10546 +2 x10547 +2 x10548 -1 x10258 -1 x10259 -1 x10260 -1 x10261 -1 x10262 -1 x10263 >= 0 ;
+2 x10549 +2 x10550 +2 x10551 -1 x10261 -1 x10262 -1 x10263 -1 x10264 -1 x10265 -1 x10266 >= 0 ;
+2 x10552 +2 x10553 +2 x10554 -1 x10264 -1 x10265 -1 x10266 -1 x10267 -1 x10268 -1 x10269 >= 0 ;
+2 x10555 +2 x10556 +2 x10557 -1 x10267 -1 x10268 -1 x10269 -1 x10270 -1 x10271 -1 x10272 >= 0 ;
+2 x10558 +2 x10559 +2 x10560 -1 x10270 -1 x10271 -1 x10272 -1 x10273 -1 x10274 -1 x10275 >= 0 ;
+2 x10561 +2 x10562 +2 x10563 -1 x10273 -1 x10274 -1 x10275 -1 x10276 -1 x10277 -1 x10278 >= 0 ;
+2 x10564 +2 x10565 +2 x10566 -1 x10276 -1 x10277 -1 x10278 -1 x10279 -1 x10280 -1 x10281 >= 0 ;
+2 x10567 +2 x10568 +2 x10569 -1 x10279 -1 x10280 -1 x10281 -1 x10282 -1 x10283 -1 x10284 >= 0 ;
+2 x10570 +2 x10571 +2 x10572 -1 x10282 -1 x10283 -1 x10284 -1 x10285 -1 x10286 -1 x10287 >= 0 ;
+2 x10573 +2 x10574 +2 x10575 -1 x10285 -1 x10286 -1 x10287 -1 x10288 -1 x10289 -1 x10290 >= 0 ;
+2 x10576 +2 x10577 +2 x10578 -1 x10288 -1 x10289 -1 x10290 -1 x10291 -1 x10292 -1 x10293 >= 0 ;
+2 x10579 +2 x10580 +2 x10581 -1 x10291 -1 x10292 -1 x10293 -1 x10294 -1 x10295 -1 x10296 >= 0 ;
+2 x10582 +2 x10583 +2 x10584 -1 x10294 -1 x10295 -1 x10296 -1 x10297 -1 x10298 -1 x10299 >= 0 ;
+2 x10585 +2 x10586 +2 x10587 -1 x10297 -1 x10298 -1 x10299 -1 x10300 -1 x10301 -1 x10302 >= 0 ;
+2 x10588 +2 x10589 +2 x10590 -1 x10300 -1 x10301 -1 x10302 -1 x10303 -1 x10304 -1 x10305 >= 0 ;
+2 x10591 +2 x10592 +2 x10593 -1 x10303 -1 x10304 -1 x10305 -1 x10306 -1 x10307 -1 x10308 >= 0 ;
+2 x10594 +2 x10595 +2 x10596 -1 x10306 -1 x10307 -1 x10308 -1 x10309 -1 x10310 -1 x10311 >= 0 ;
+2 x10597 +2 x10598 +2 x10599 -1 x10309 -1 x10310 -1 x10311 -1 x10312 -1 x10313 -1 x10314 >= 0 ;
+2 x10600 +2 x10601 +2 x10602 -1 x10312 -1 x10313 -1 x10314 -1 x10315 -1 x10316 -1 x10317 >= 0 ;
+2 x10603 +2 x10604 +2 x10605 -1 x10315 -1 x10316 -1 x10317 -1 x10318 -1 x10319 -1 x10320 >= 0 ;
+2 x10606 +2 x10607 +2 x10608 -1 x10318 -1 x10319 -1 x10320 -1 x10321 -1 x10322 -1 x10323 >= 0 ;
+2 x10609 +2 x10610 +2 x10611 -1 x10324 -1 x10325 -1 x10326 -1 x10327 -1 x10328 -1 x10329 >= 0 ;
+2 x10612 +2 x10613 +2 x10614 -1 x10327 -1 x10328 -1 x10329 -1 x10330 -1 x10331 -1 x10332 >= 0 ;
+2 x10615 +2 x10616 +2 x10617 -1 x10330 -1 x10331 -1 x10332 -1 x10333 -1 x10334 -1 x10335 >= 0 ;
+2 x10618 +2 x10619 +2 x10620 -1 x10333 -1 x10334 -1 x10335 -1 x10336 -1 x10337 -1 x10338 >= 0 ;
+2 x10621 +2 x10622 +2 x10623 -1 x10336 -1 x10337 -1 x10338 -1 x10339 -1 x10340 -1 x10341 >= 0 ;
+2 x10624 +2 x10625 +2 x10626 -1 x10339 -1 x10340 -1 x10341 -1 x10342 -1 x10343 -1 x10344 >= 0 ;
+2 x10627 +2 x10628 +2 x10629 -1 x10342 -1 x10343 -1 x10344 -1 x10345 -1 x10346 -1 x10347 >= 0 ;
+2 x10630 +2 x10631 +2 x10632 -1 x10345 -1 x10346 -1 x10347 -1 x10348 -1 x10349 -1 x10350 >= 0 ;
+2 x10633 +2 x10634 +2 x10635 -1 x10348 -1 x10349 -1 x10350 -1 x10351 -1 x10352 -1 x10353 >= 0 ;
+2 x10636 +2 x10637 +2 x10638 -1 x10351 -1 x10352 -1 x10353 -1 x10354 -1 x10355 -1 x10356 >= 0 ;
+2 x10639 +2 x10640 +2 x10641 -1 x10354 -1 x10355 -1 x10356 -1 x10357 -1 x10358 -1 x10359 >= 0 ;
+2 x10642 +2 x10643 +2 x10644 -1 x10357 -1 x10358 -1 x10359 -1 x10360 -1 x10361 -1 x10362 >= 0 ;
+2 x10645 +2 x10646 +2 x10647 -1 x10360 -1 x10361 -1 x10362 -1 x10363 -1 x10364 -1 x10365 >= 0 ;
+2 x10648 +2 x10649 +2 x10650 -1 x10363 -1 x10364 -1 x10365 -1 x10366 -1 x10367 -1 x10368 >= 0 ;
+2 x10651 +2 x10652 +2 x10653 -1 x10366 -1 x10367 -1 x10368 -1 x10369 -1 x10370 -1 x10371 >= 0 ;
+2 x10654 +2 x10655 +2 x10656 -1 x10369 -1 x10370 -1 x10371 -1 x10372 -1 x10373 -1 x10374 >= 0 ;
+2 x10657 +2 x10658 +2 x10659 -1 x10372 -1 x10373 -1 x10374 -1 x10375 -1 x10376 -1 x10377 >= 0 ;
+2 x10660 +2 x10661 +2 x10662 -1 x10375 -1 x10376 -1 x10377 -1 x10378 -1 x10379 -1 x10380 >= 0 ;
+2 x10663 +2 x10664 +2 x10665 -1 x10378 -1 x10379 -1 x10380 -1 x10381 -1 x10382 -1 x10383 >= 0 ;
+2 x10666 +2 x10667 +2 x10668 -1 x10381 -1 x10382 -1 x10383 -1 x10384 -1 x10385 -1 x10386 >= 0 ;
+2 x10669 +2 x10670 +2 x10671 -1 x10384 -1 x10385 -1 x10386 -1 x10387 -1 x10388 -1 x10389 >= 0 ;
+2 x10672 +2 x10673 +2 x10674 -1 x10387 -1 x10388 -1 x10389 -1 x10390 -1 x10391 -1 x10392 >= 0 ;
+2 x10675 +2 x10676 +2 x10677 -1 x10390 -1 x10391 -1 x10392 -1 x10393 -1 x10394 -1 x10395 >= 0 ;
+2 x10678 +2 x10679 +2 x10680 -1 x10393 -1 x10394 -1 x10395 -1 x10396 -1 x10397 -1 x10398 >= 0 ;
+2 x10681 +2 x10682 +2 x10683 -1 x10396 -1 x10397 -1 x10398 -1 x10399 -1 x10400 -1 x10401 >= 0 ;
+2 x10684 +2 x10685 +2 x10686 -1 x10399 -1 x10400 -1 x10401 -1 x10402 -1 x10403 -1 x10404 >= 0 ;
+2 x10687 +2 x10688 +2 x10689 -1 x10402 -1 x10403 -1 x10404 -1 x10405 -1 x10406 -1 x10407 >= 0 ;
+2 x10690 +2 x10691 +2 x10692 -1 x10405 -1 x10406 -1 x10407 -1 x10408 -1 x10409 -1 x10410 >= 0 ;
+2 x10693 +2 x10694 +2 x10695 -1 x10408 -1 x10409 -1 x10410 -1 x10411 -1 x10412 -1 x10413 >= 0 ;
+2 x10696 +2 x10697 +2 x10698 -1 x10411 -1 x10412 -1 x10413 -1 x10414 -1 x10415 -1 x10416 >= 0 ;
+2 x10699 +2 x10700 +2 x10701 -1 x10414 -1 x10415 -1 x10416 -1 x10417 -1 x10418 -1 x10419 >= 0 ;
+2 x10702 +2 x10703 +2 x10704 -1 x10417 -1 x10418 -1 x10419 -1 x10420 -1 x10421 -1 x10422 >= 0 ;
+2 x10705 +2 x10706 +2 x10707 -1 x10420 -1 x10421 -1 x10422 -1 x10423 -1 x10424 -1 x10425 >= 0 ;
+2 x10708 +2 x10709 +2 x10710 -1 x10423 -1 x10424 -1 x10425 -1 x10426 -1 x10427 -1 x10428 >= 0 ;
+2 x10711 +2 x10712 +2 x10713 -1 x10426 -1 x10427 -1 x10428 -1 x10429 -1 x10430 -1 x10431 >= 0 ;
+2 x10714 +2 x10715 +2 x10716 -1 x10429 -1 x10430 -1 x10431 -1 x10432 -1 x10433 -1 x10434 >= 0 ;
+2 x10717 +2 x10718 +2 x10719 -1 x10432 -1 x10433 -1 x10434 -1 x10435 -1 x10436 -1 x10437 >= 0 ;
+2 x10720 +2 x10721 +2 x10722 -1 x10435 -1 x10436 -1 x10437 -1 x10438 -1 x10439 -1 x10440 >= 0 ;
+2 x10723 +2 x10724 +2 x10725 -1 x10438 -1 x10439 -1 x10440 -1 x10441 -1 x10442 -1 x10443 >= 0 ;
+2 x10726 +2 x10727 +2 x10728 -1 x10441 -1 x10442 -1 x10443 -1 x10444 -1 x10445 -1 x10446 >= 0 ;
+2 x10729 +2 x10730 +2 x10731 -1 x10444 -1 x10445 -1 x10446 -1 x10447 -1 x10448 -1 x10449 >= 0 ;
+2 x10732 +2 x10733 +2 x10734 -1 x10447 -1 x10448 -1 x10449 -1 x10450 -1 x10451 -1 x10452 >= 0 ;
+2 x10735 +2 x10736 +2 x10737 -1 x10450 -1 x10451 -1 x10452 -1 x10453 -1 x10454 -1 x10455 >= 0 ;
+2 x10738 +2 x10739 +2 x10740 -1 x10453 -1 x10454 -1 x10455 -1 x10456 -1 x10457 -1 x10458 >= 0 ;
+2 x10741 +2 x10742 +2 x10743 -1 x10456 -1 x10457 -1 x10458 -1 x10459 -1 x10460 -1 x10461 >= 0 ;
+2 x10744 +2 x10745 +2 x10746 -1 x10459 -1 x10460 -1 x10461 -1 x10462 -1 x10463 -1 x10464 >= 0 ;
+2 x10747 +2 x10748 +2 x10749 -1 x10462 -1 x10463 -1 x10464 -1 x10465 -1 x10466 -1 x10467 >= 0 ;
+2 x10750 +2 x10751 +2 x10752 -1 x10465 -1 x10466 -1 x10467 -1 x10468 -1 x10469 -1 x10470 >= 0 ;
+2 x10753 +2 x10754 +2 x10755 -1 x10468 -1 x10469 -1 x10470 -1 x10471 -1 x10472 -1 x10473 >= 0 ;
+2 x10756 +2 x10757 +2 x10758 -1 x10471 -1 x10472 -1 x10473 -1 x10474 -1 x10475 -1 x10476 >= 0 ;
+2 x10759 +2 x10760 +2 x10761 -1 x10474 -1 x10475 -1 x10476 -1 x10477 -1 x10478 -1 x10479 >= 0 ;
+2 x10762 +2 x10763 +2 x10764 -1 x10477 -1 x10478 -1 x10479 -1 x10480 -1 x10481 -1 x10482 >= 0 ;
+2 x10765 +2 x10766 +2 x10767 -1 x10480 -1 x10481 -1 x10482 -1 x10483 -1 x10484 -1 x10485 >= 0 ;
+2 x10768 +2 x10769 +2 x10770 -1 x10483 -1 x10484 -1 x10485 -1 x10486 -1 x10487 -1 x10488 >= 0 ;
+2 x10771 +2 x10772 +2 x10773 -1 x10486 -1 x10487 -1 x10488 -1 x10489 -1 x10490 -1 x10491 >= 0 ;
+2 x10774 +2 x10775 +2 x10776 -1 x10489 -1 x10490 -1 x10491 -1 x10492 -1 x10493 -1 x10494 >= 0 ;
+2 x10777 +2 x10778 +2 x10779 -1 x10492 -1 x10493 -1 x10494 -1 x10495 -1 x10496 -1 x10497 >= 0 ;
+2 x10780 +2 x10781 +2 x10782 -1 x10495 -1 x10496 -1 x10497 -1 x10498 -1 x10499 -1 x10500 >= 0 ;
+2 x10783 +2 x10784 +2 x10785 -1 x10498 -1 x10499 -1 x10500 -1 x10501 -1 x10502 -1 x10503 >= 0 ;
+2 x10786 +2 x10787 +2 x10788 -1 x10501 -1 x10502 -1 x10503 -1 x10504 -1 x10505 -1 x10506 >= 0 ;
+2 x10789 +2 x10790 +2 x10791 -1 x10504 -1 x10505 -1 x10506 -1 x10507 -1 x10508 -1 x10509 >= 0 ;
+2 x10792 +2 x10793 +2 x10794 -1 x10507 -1 x10508 -1 x10509 -1 x10510 -1 x10511 -1 x10512 >= 0 ;
+2 x10795 +2 x10796 +2 x10797 -1 x10510 -1 x10511 -1 x10512 -1 x10513 -1 x10514 -1 x10515 >= 0 ;
+2 x10798 +2 x10799 +2 x10800 -1 x10513 -1 x10514 -1 x10515 -1 x10516 -1 x10517 -1 x10518 >= 0 ;
+2 x10801 +2 x10802 +2 x10803 -1 x10516 -1 x10517 -1 x10518 -1 x10519 -1 x10520 -1 x10521 >= 0 ;
+2 x10804 +2 x10805 +2 x10806 -1 x10519 -1 x10520 -1 x10521 -1 x10522 -1 x10523 -1 x10524 >= 0 ;
+2 x10807 +2 x10808 +2 x10809 -1 x10522 -1 x10523 -1 x10524 -1 x10525 -1 x10526 -1 x10527 >= 0 ;
+2 x10810 +2 x10811 +2 x10812 -1 x10525 -1 x10526 -1 x10527 -1 x10528 -1 x10529 -1 x10530 >= 0 ;
+2 x10813 +2 x10814 +2 x10815 -1 x10528 -1 x10529 -1 x10530 -1 x10531 -1 x10532 -1 x10533 >= 0 ;
+2 x10816 +2 x10817 +2 x10818 -1 x10531 -1 x10532 -1 x10533 -1 x10534 -1 x10535 -1 x10536 >= 0 ;
+2 x10819 +2 x10820 +2 x10821 -1 x10534 -1 x10535 -1 x10536 -1 x10537 -1 x10538 -1 x10539 >= 0 ;
+2 x10822 +2 x10823 +2 x10824 -1 x10537 -1 x10538 -1 x10539 -1 x10540 -1 x10541 -1 x10542 >= 0 ;
+2 x10825 +2 x10826 +2 x10827 -1 x10540 -1 x10541 -1 x10542 -1 x10543 -1 x10544 -1 x10545 >= 0 ;
+2 x10828 +2 x10829 +2 x10830 -1 x10543 -1 x10544 -1 x10545 -1 x10546 -1 x10547 -1 x10548 >= 0 ;
+2 x10831 +2 x10832 +2 x10833 -1 x10546 -1 x10547 -1 x10548 -1 x10549 -1 x10550 -1 x10551 >= 0 ;
+2 x10834 +2 x10835 +2 x10836 -1 x10549 -1 x10550 -1 x10551 -1 x10552 -1 x10553 -1 x10554 >= 0 ;
+2 x10837 +2 x10838 +2 x10839 -1 x10552 -1 x10553 -1 x10554 -1 x10555 -1 x10556 -1 x10557 >= 0 ;
+2 x10840 +2 x10841 +2 x10842 -1 x10555 -1 x10556 -1 x10557 -1 x10558 -1 x10559 -1 x10560 >= 0 ;
+2 x10843 +2 x10844 +2 x10845 -1 x10558 -1 x10559 -1 x10560 -1 x10561 -1 x10562 -1 x10563 >= 0 ;
+2 x10846 +2 x10847 +2 x10848 -1 x10561 -1 x10562 -1 x10563 -1 x10564 -1 x10565 -1 x10566 >= 0 ;
+2 x10849 +2 x10850 +2 x10851 -1 x10564 -1 x10565 -1 x10566 -1 x10567 -1 x10568 -1 x10569 >= 0 ;
+2 x10852 +2 x10853 +2 x10854 -1 x10567 -1 x10568 -1 x10569 -1 x10570 -1 x10571 -1 x10572 >= 0 ;
+2 x10855 +2 x10856 +2 x10857 -1 x10570 -1 x10571 -1 x10572 -1 x10573 -1 x10574 -1 x10575 >= 0 ;
+2 x10858 +2 x10859 +2 x10860 -1 x10573 -1 x10574 -1 x10575 -1 x10576 -1 x10577 -1 x10578 >= 0 ;
+2 x10861 +2 x10862 +2 x10863 -1 x10576 -1 x10577 -1 x10578 -1 x10579 -1 x10580 -1 x10581 >= 0 ;
+2 x10864 +2 x10865 +2 x10866 -1 x10579 -1 x10580 -1 x10581 -1 x10582 -1 x10583 -1 x10584 >= 0 ;
+2 x10867 +2 x10868 +2 x10869 -1 x10582 -1 x10583 -1 x10584 -1 x10585 -1 x10586 -1 x10587 >= 0 ;
+2 x10870 +2 x10871 +2 x10872 -1 x10585 -1 x10586 -1 x10587 -1 x10588 -1 x10589 -1 x10590 >= 0 ;
+2 x10873 +2 x10874 +2 x10875 -1 x10588 -1 x10589 -1 x10590 -1 x10591 -1 x10592 -1 x10593 >= 0 ;
+2 x10876 +2 x10877 +2 x10878 -1 x10591 -1 x10592 -1 x10593 -1 x10594 -1 x10595 -1 x10596 >= 0 ;
+2 x10879 +2 x10880 +2 x10881 -1 x10594 -1 x10595 -1 x10596 -1 x10597 -1 x10598 -1 x10599 >= 0 ;
+2 x10882 +2 x10883 +2 x10884 -1 x10597 -1 x10598 -1 x10599 -1 x10600 -1 x10601 -1 x10602 >= 0 ;
+2 x10885 +2 x10886 +2 x10887 -1 x10600 -1 x10601 -1 x10602 -1 x10603 -1 x10604 -1 x10605 >= 0 ;
+2 x10888 +2 x10889 +2 x10890 -1 x10603 -1 x10604 -1 x10605 -1 x10606 -1 x10607 -1 x10608 >= 0 ;
+2 x10891 +2 x10892 +2 x10893 -1 x10609 -1 x10610 -1 x10611 -1 x10612 -1 x10613 -1 x10614 >= 0 ;
+2 x10894 +2 x10895 +2 x10896 -1 x10612 -1 x10613 -1 x10614 -1 x10615 -1 x10616 -1 x10617 >= 0 ;
+2 x10897 +2 x10898 +2 x10899 -1 x10615 -1 x10616 -1 x10617 -1 x10618 -1 x10619 -1 x10620 >= 0 ;
+2 x10900 +2 x10901 +2 x10902 -1 x10618 -1 x10619 -1 x10620 -1 x10621 -1 x10622 -1 x10623 >= 0 ;
+2 x10903 +2 x10904 +2 x10905 -1 x10621 -1 x10622 -1 x10623 -1 x10624 -1 x10625 -1 x10626 >= 0 ;
+2 x10906 +2 x10907 +2 x10908 -1 x10624 -1 x10625 -1 x10626 -1 x10627 -1 x10628 -1 x10629 >= 0 ;
+2 x10909 +2 x10910 +2 x10911 -1 x10627 -1 x10628 -1 x10629 -1 x10630 -1 x10631 -1 x10632 >= 0 ;
+2 x10912 +2 x10913 +2 x10914 -1 x10630 -1 x10631 -1 x10632 -1 x10633 -1 x10634 -1 x10635 >= 0 ;
+2 x10915 +2 x10916 +2 x10917 -1 x10633 -1 x10634 -1 x10635 -1 x10636 -1 x10637 -1 x10638 >= 0 ;
+2 x10918 +2 x10919 +2 x10920 -1 x10636 -1 x10637 -1 x10638 -1 x10639 -1 x10640 -1 x10641 >= 0 ;
+2 x10921 +2 x10922 +2 x10923 -1 x10639 -1 x10640 -1 x10641 -1 x10642 -1 x10643 -1 x10644 >= 0 ;
+2 x10924 +2 x10925 +2 x10926 -1 x10642 -1 x10643 -1 x10644 -1 x10645 -1 x10646 -1 x10647 >= 0 ;
+2 x10927 +2 x10928 +2 x10929 -1 x10645 -1 x10646 -1 x10647 -1 x10648 -1 x10649 -1 x10650 >= 0 ;
+2 x10930 +2 x10931 +2 x10932 -1 x10648 -1 x10649 -1 x10650 -1 x10651 -1 x10652 -1 x10653 >= 0 ;
+2 x10933 +2 x10934 +2 x10935 -1 x10651 -1 x10652 -1 x10653 -1 x10654 -1 x10655 -1 x10656 >= 0 ;
+2 x10936 +2 x10937 +2 x10938 -1 x10654 -1 x10655 -1 x10656 -1 x10657 -1 x10658 -1 x10659 >= 0 ;
+2 x10939 +2 x10940 +2 x10941 -1 x10657 -1 x10658 -1 x10659 -1 x10660 -1 x10661 -1 x10662 >= 0 ;
+2 x10942 +2 x10943 +2 x10944 -1 x10660 -1 x10661 -1 x10662 -1 x10663 -1 x10664 -1 x10665 >= 0 ;
+2 x10945 +2 x10946 +2 x10947 -1 x10663 -1 x10664 -1 x10665 -1 x10666 -1 x10667 -1 x10668 >= 0 ;
+2 x10948 +2 x10949 +2 x10950 -1 x10666 -1 x10667 -1 x10668 -1 x10669 -1 x10670 -1 x10671 >= 0 ;
+2 x10951 +2 x10952 +2 x10953 -1 x10669 -1 x10670 -1 x10671 -1 x10672 -1 x10673 -1 x10674 >= 0 ;
+2 x10954 +2 x10955 +2 x10956 -1 x10672 -1 x10673 -1 x10674 -1 x10675 -1 x10676 -1 x10677 >= 0 ;
+2 x10957 +2 x10958 +2 x10959 -1 x10675 -1 x10676 -1 x10677 -1 x10678 -1 x10679 -1 x10680 >= 0 ;
+2 x10960 +2 x10961 +2 x10962 -1 x10678 -1 x10679 -1 x10680 -1 x10681 -1 x10682 -1 x10683 >= 0 ;
+2 x10963 +2 x10964 +2 x10965 -1 x10681 -1 x10682 -1 x10683 -1 x10684 -1 x10685 -1 x10686 >= 0 ;
+2 x10966 +2 x10967 +2 x10968 -1 x10684 -1 x10685 -1 x10686 -1 x10687 -1 x10688 -1 x10689 >= 0 ;
+2 x10969 +2 x10970 +2 x10971 -1 x10687 -1 x10688 -1 x10689 -1 x10690 -1 x10691 -1 x10692 >= 0 ;
+2 x10972 +2 x10973 +2 x10974 -1 x10690 -1 x10691 -1 x10692 -1 x10693 -1 x10694 -1 x10695 >= 0 ;
+2 x10975 +2 x10976 +2 x10977 -1 x10693 -1 x10694 -1 x10695 -1 x10696 -1 x10697 -1 x10698 >= 0 ;
+2 x10978 +2 x10979 +2 x10980 -1 x10696 -1 x10697 -1 x10698 -1 x10699 -1 x10700 -1 x10701 >= 0 ;
+2 x10981 +2 x10982 +2 x10983 -1 x10699 -1 x10700 -1 x10701 -1 x10702 -1 x10703 -1 x10704 >= 0 ;
+2 x10984 +2 x10985 +2 x10986 -1 x10702 -1 x10703 -1 x10704 -1 x10705 -1 x10706 -1 x10707 >= 0 ;
+2 x10987 +2 x10988 +2 x10989 -1 x10705 -1 x10706 -1 x10707 -1 x10708 -1 x10709 -1 x10710 >= 0 ;
+2 x10990 +2 x10991 +2 x10992 -1 x10708 -1 x10709 -1 x10710 -1 x10711 -1 x10712 -1 x10713 >= 0 ;
+2 x10993 +2 x10994 +2 x10995 -1 x10711 -1 x10712 -1 x10713 -1 x10714 -1 x10715 -1 x10716 >= 0 ;
+2 x10996 +2 x10997 +2 x10998 -1 x10714 -1 x10715 -1 x10716 -1 x10717 -1 x10718 -1 x10719 >= 0 ;
+2 x10999 +2 x11000 +2 x11001 -1 x10717 -1 x10718 -1 x10719 -1 x10720 -1 x10721 -1 x10722 >= 0 ;
+2 x11002 +2 x11003 +2 x11004 -1 x10720 -1 x10721 -1 x10722 -1 x10723 -1 x10724 -1 x10725 >= 0 ;
+2 x11005 +2 x11006 +2 x11007 -1 x10723 -1 x10724 -1 x10725 -1 x10726 -1 x10727 -1 x10728 >= 0 ;
+2 x11008 +2 x11009 +2 x11010 -1 x10726 -1 x10727 -1 x10728 -1 x10729 -1 x10730 -1 x10731 >= 0 ;
+2 x11011 +2 x11012 +2 x11013 -1 x10729 -1 x10730 -1 x10731 -1 x10732 -1 x10733 -1 x10734 >= 0 ;
+2 x11014 +2 x11015 +2 x11016 -1 x10732 -1 x10733 -1 x10734 -1 x10735 -1 x10736 -1 x10737 >= 0 ;
+2 x11017 +2 x11018 +2 x11019 -1 x10735 -1 x10736 -1 x10737 -1 x10738 -1 x10739 -1 x10740 >= 0 ;
+2 x11020 +2 x11021 +2 x11022 -1 x10738 -1 x10739 -1 x10740 -1 x10741 -1 x10742 -1 x10743 >= 0 ;
+2 x11023 +2 x11024 +2 x11025 -1 x10741 -1 x10742 -1 x10743 -1 x10744 -1 x10745 -1 x10746 >= 0 ;
+2 x11026 +2 x11027 +2 x11028 -1 x10744 -1 x10745 -1 x10746 -1 x10747 -1 x10748 -1 x10749 >= 0 ;
+2 x11029 +2 x11030 +2 x11031 -1 x10747 -1 x10748 -1 x10749 -1 x10750 -1 x10751 -1 x10752 >= 0 ;
+2 x11032 +2 x11033 +2 x11034 -1 x10750 -1 x10751 -1 x10752 -1 x10753 -1 x10754 -1 x10755 >= 0 ;
+2 x11035 +2 x11036 +2 x11037 -1 x10753 -1 x10754 -1 x10755 -1 x10756 -1 x10757 -1 x10758 >= 0 ;
+2 x11038 +2 x11039 +2 x11040 -1 x10756 -1 x10757 -1 x10758 -1 x10759 -1 x10760 -1 x10761 >= 0 ;
+2 x11041 +2 x11042 +2 x11043 -1 x10759 -1 x10760 -1 x10761 -1 x10762 -1 x10763 -1 x10764 >= 0 ;
+2 x11044 +2 x11045 +2 x11046 -1 x10762 -1 x10763 -1 x10764 -1 x10765 -1 x10766 -1 x10767 >= 0 ;
+2 x11047 +2 x11048 +2 x11049 -1 x10765 -1 x10766 -1 x10767 -1 x10768 -1 x10769 -1 x10770 >= 0 ;
+2 x11050 +2 x11051 +2 x11052 -1 x10768 -1 x10769 -1 x10770 -1 x10771 -1 x10772 -1 x10773 >= 0 ;
+2 x11053 +2 x11054 +2 x11055 -1 x10771 -1 x10772 -1 x10773 -1 x10774 -1 x10775 -1 x10776 >= 0 ;
+2 x11056 +2 x11057 +2 x11058 -1 x10774 -1 x10775 -1 x10776 -1 x10777 -1 x10778 -1 x10779 >= 0 ;
+2 x11059 +2 x11060 +2 x11061 -1 x10777 -1 x10778 -1 x10779 -1 x10780 -1 x10781 -1 x10782 >= 0 ;
+2 x11062 +2 x11063 +2 x11064 -1 x10780 -1 x10781 -1 x10782 -1 x10783 -1 x10784 -1 x10785 >= 0 ;
+2 x11065 +2 x11066 +2 x11067 -1 x10783 -1 x10784 -1 x10785 -1 x10786 -1 x10787 -1 x10788 >= 0 ;
+2 x11068 +2 x11069 +2 x11070 -1 x10786 -1 x10787 -1 x10788 -1 x10789 -1 x10790 -1 x10791 >= 0 ;
+2 x11071 +2 x11072 +2 x11073 -1 x10789 -1 x10790 -1 x10791 -1 x10792 -1 x10793 -1 x10794 >= 0 ;
+2 x11074 +2 x11075 +2 x11076 -1 x10792 -1 x10793 -1 x10794 -1 x10795 -1 x10796 -1 x10797 >= 0 ;
+2 x11077 +2 x11078 +2 x11079 -1 x10795 -1 x10796 -1 x10797 -1 x10798 -1 x10799 -1 x10800 >= 0 ;
+2 x11080 +2 x11081 +2 x11082 -1 x10798 -1 x10799 -1 x10800 -1 x10801 -1 x10802 -1 x10803 >= 0 ;
+2 x11083 +2 x11084 +2 x11085 -1 x10801 -1 x10802 -1 x10803 -1 x10804 -1 x10805 -1 x10806 >= 0 ;
+2 x11086 +2 x11087 +2 x11088 -1 x10804 -1 x10805 -1 x10806 -1 x10807 -1 x10808 -1 x10809 >= 0 ;
+2 x11089 +2 x11090 +2 x11091 -1 x10807 -1 x10808 -1 x10809 -1 x10810 -1 x10811 -1 x10812 >= 0 ;
+2 x11092 +2 x11093 +2 x11094 -1 x10810 -1 x10811 -1 x10812 -1 x10813 -1 x10814 -1 x10815 >= 0 ;
+2 x11095 +2 x11096 +2 x11097 -1 x10813 -1 x10814 -1 x10815 -1 x10816 -1 x10817 -1 x10818 >= 0 ;
+2 x11098 +2 x11099 +2 x11100 -1 x10816 -1 x10817 -1 x10818 -1 x10819 -1 x10820 -1 x10821 >= 0 ;
+2 x11101 +2 x11102 +2 x11103 -1 x10819 -1 x10820 -1 x10821 -1 x10822 -1 x10823 -1 x10824 >= 0 ;
+2 x11104 +2 x11105 +2 x11106 -1 x10822 -1 x10823 -1 x10824 -1 x10825 -1 x10826 -1 x10827 >= 0 ;
+2 x11107 +2 x11108 +2 x11109 -1 x10825 -1 x10826 -1 x10827 -1 x10828 -1 x10829 -1 x10830 >= 0 ;
+2 x11110 +2 x11111 +2 x11112 -1 x10828 -1 x10829 -1 x10830 -1 x10831 -1 x10832 -1 x10833 >= 0 ;
+2 x11113 +2 x11114 +2 x11115 -1 x10831 -1 x10832 -1 x10833 -1 x10834 -1 x10835 -1 x10836 >= 0 ;
+2 x11116 +2 x11117 +2 x11118 -1 x10834 -1 x10835 -1 x10836 -1 x10837 -1 x10838 -1 x10839 >= 0 ;
+2 x11119 +2 x11120 +2 x11121 -1 x10837 -1 x10838 -1 x10839 -1 x10840 -1 x10841 -1 x10842 >= 0 ;
+2 x11122 +2 x11123 +2 x11124 -1 x10840 -1 x10841 -1 x10842 -1 x10843 -1 x10844 -1 x10845 >= 0 ;
+2 x11125 +2 x11126 +2 x11127 -1 x10843 -1 x10844 -1 x10845 -1 x10846 -1 x10847 -1 x10848 >= 0 ;
+2 x11128 +2 x11129 +2 x11130 -1 x10846 -1 x10847 -1 x10848 -1 x10849 -1 x10850 -1 x10851 >= 0 ;
+2 x11131 +2 x11132 +2 x11133 -1 x10849 -1 x10850 -1 x10851 -1 x10852 -1 x10853 -1 x10854 >= 0 ;
+2 x11134 +2 x11135 +2 x11136 -1 x10852 -1 x10853 -1 x10854 -1 x10855 -1 x10856 -1 x10857 >= 0 ;
+2 x11137 +2 x11138 +2 x11139 -1 x10855 -1 x10856 -1 x10857 -1 x10858 -1 x10859 -1 x10860 >= 0 ;
+2 x11140 +2 x11141 +2 x11142 -1 x10858 -1 x10859 -1 x10860 -1 x10861 -1 x10862 -1 x10863 >= 0 ;
+2 x11143 +2 x11144 +2 x11145 -1 x10861 -1 x10862 -1 x10863 -1 x10864 -1 x10865 -1 x10866 >= 0 ;
+2 x11146 +2 x11147 +2 x11148 -1 x10864 -1 x10865 -1 x10866 -1 x10867 -1 x10868 -1 x10869 >= 0 ;
+2 x11149 +2 x11150 +2 x11151 -1 x10867 -1 x10868 -1 x10869 -1 x10870 -1 x10871 -1 x10872 >= 0 ;
+2 x11152 +2 x11153 +2 x11154 -1 x10870 -1 x10871 -1 x10872 -1 x10873 -1 x10874 -1 x10875 >= 0 ;
+2 x11155 +2 x11156 +2 x11157 -1 x10873 -1 x10874 -1 x10875 -1 x10876 -1 x10877 -1 x10878 >= 0 ;
+2 x11158 +2 x11159 +2 x11160 -1 x10876 -1 x10877 -1 x10878 -1 x10879 -1 x10880 -1 x10881 >= 0 ;
+2 x11161 +2 x11162 +2 x11163 -1 x10879 -1 x10880 -1 x10881 -1 x10882 -1 x10883 -1 x10884 >= 0 ;
+2 x11164 +2 x11165 +2 x11166 -1 x10882 -1 x10883 -1 x10884 -1 x10885 -1 x10886 -1 x10887 >= 0 ;
+2 x11167 +2 x11168 +2 x11169 -1 x10885 -1 x10886 -1 x10887 -1 x10888 -1 x10889 -1 x10890 >= 0 ;
+2 x11170 +2 x11171 +2 x11172 -1 x10891 -1 x10892 -1 x10893 -1 x10894 -1 x10895 -1 x10896 >= 0 ;
+2 x11173 +2 x11174 +2 x11175 -1 x10894 -1 x10895 -1 x10896 -1 x10897 -1 x10898 -1 x10899 >= 0 ;
+2 x11176 +2 x11177 +2 x11178 -1 x10897 -1 x10898 -1 x10899 -1 x10900 -1 x10901 -1 x10902 >= 0 ;
+2 x11179 +2 x11180 +2 x11181 -1 x10900 -1 x10901 -1 x10902 -1 x10903 -1 x10904 -1 x10905 >= 0 ;
+2 x11182 +2 x11183 +2 x11184 -1 x10903 -1 x10904 -1 x10905 -1 x10906 -1 x10907 -1 x10908 >= 0 ;
+2 x11185 +2 x11186 +2 x11187 -1 x10906 -1 x10907 -1 x10908 -1 x10909 -1 x10910 -1 x10911 >= 0 ;
+2 x11188 +2 x11189 +2 x11190 -1 x10909 -1 x10910 -1 x10911 -1 x10912 -1 x10913 -1 x10914 >= 0 ;
+2 x11191 +2 x11192 +2 x11193 -1 x10912 -1 x10913 -1 x10914 -1 x10915 -1 x10916 -1 x10917 >= 0 ;
+2 x11194 +2 x11195 +2 x11196 -1 x10915 -1 x10916 -1 x10917 -1 x10918 -1 x10919 -1 x10920 >= 0 ;
+2 x11197 +2 x11198 +2 x11199 -1 x10918 -1 x10919 -1 x10920 -1 x10921 -1 x10922 -1 x10923 >= 0 ;
+2 x11200 +2 x11201 +2 x11202 -1 x10921 -1 x10922 -1 x10923 -1 x10924 -1 x10925 -1 x10926 >= 0 ;
+2 x11203 +2 x11204 +2 x11205 -1 x10924 -1 x10925 -1 x10926 -1 x10927 -1 x10928 -1 x10929 >= 0 ;
+2 x11206 +2 x11207 +2 x11208 -1 x10927 -1 x10928 -1 x10929 -1 x10930 -1 x10931 -1 x10932 >= 0 ;
+2 x11209 +2 x11210 +2 x11211 -1 x10930 -1 x10931 -1 x10932 -1 x10933 -1 x10934 -1 x10935 >= 0 ;
+2 x11212 +2 x11213 +2 x11214 -1 x10933 -1 x10934 -1 x10935 -1 x10936 -1 x10937 -1 x10938 >= 0 ;
+2 x11215 +2 x11216 +2 x11217 -1 x10936 -1 x10937 -1 x10938 -1 x10939 -1 x10940 -1 x10941 >= 0 ;
+2 x11218 +2 x11219 +2 x11220 -1 x10939 -1 x10940 -1 x10941 -1 x10942 -1 x10943 -1 x10944 >= 0 ;
+2 x11221 +2 x11222 +2 x11223 -1 x10942 -1 x10943 -1 x10944 -1 x10945 -1 x10946 -1 x10947 >= 0 ;
+2 x11224 +2 x11225 +2 x11226 -1 x10945 -1 x10946 -1 x10947 -1 x10948 -1 x10949 -1 x10950 >= 0 ;
+2 x11227 +2 x11228 +2 x11229 -1 x10948 -1 x10949 -1 x10950 -1 x10951 -1 x10952 -1 x10953 >= 0 ;
+2 x11230 +2 x11231 +2 x11232 -1 x10951 -1 x10952 -1 x10953 -1 x10954 -1 x10955 -1 x10956 >= 0 ;
+2 x11233 +2 x11234 +2 x11235 -1 x10954 -1 x10955 -1 x10956 -1 x10957 -1 x10958 -1 x10959 >= 0 ;
+2 x11236 +2 x11237 +2 x11238 -1 x10957 -1 x10958 -1 x10959 -1 x10960 -1 x10961 -1 x10962 >= 0 ;
+2 x11239 +2 x11240 +2 x11241 -1 x10960 -1 x10961 -1 x10962 -1 x10963 -1 x10964 -1 x10965 >= 0 ;
+2 x11242 +2 x11243 +2 x11244 -1 x10963 -1 x10964 -1 x10965 -1 x10966 -1 x10967 -1 x10968 >= 0 ;
+2 x11245 +2 x11246 +2 x11247 -1 x10966 -1 x10967 -1 x10968 -1 x10969 -1 x10970 -1 x10971 >= 0 ;
+2 x11248 +2 x11249 +2 x11250 -1 x10969 -1 x10970 -1 x10971 -1 x10972 -1 x10973 -1 x10974 >= 0 ;
+2 x11251 +2 x11252 +2 x11253 -1 x10972 -1 x10973 -1 x10974 -1 x10975 -1 x10976 -1 x10977 >= 0 ;
+2 x11254 +2 x11255 +2 x11256 -1 x10975 -1 x10976 -1 x10977 -1 x10978 -1 x10979 -1 x10980 >= 0 ;
+2 x11257 +2 x11258 +2 x11259 -1 x10978 -1 x10979 -1 x10980 -1 x10981 -1 x10982 -1 x10983 >= 0 ;
+2 x11260 +2 x11261 +2 x11262 -1 x10981 -1 x10982 -1 x10983 -1 x10984 -1 x10985 -1 x10986 >= 0 ;
+2 x11263 +2 x11264 +2 x11265 -1 x10984 -1 x10985 -1 x10986 -1 x10987 -1 x10988 -1 x10989 >= 0 ;
+2 x11266 +2 x11267 +2 x11268 -1 x10987 -1 x10988 -1 x10989 -1 x10990 -1 x10991 -1 x10992 >= 0 ;
+2 x11269 +2 x11270 +2 x11271 -1 x10990 -1 x10991 -1 x10992 -1 x10993 -1 x10994 -1 x10995 >= 0 ;
+2 x11272 +2 x11273 +2 x11274 -1 x10993 -1 x10994 -1 x10995 -1 x10996 -1 x10997 -1 x10998 >= 0 ;
+2 x11275 +2 x11276 +2 x11277 -1 x10996 -1 x10997 -1 x10998 -1 x10999 -1 x11000 -1 x11001 >= 0 ;
+2 x11278 +2 x11279 +2 x11280 -1 x10999 -1 x11000 -1 x11001 -1 x11002 -1 x11003 -1 x11004 >= 0 ;
+2 x11281 +2 x11282 +2 x11283 -1 x11002 -1 x11003 -1 x11004 -1 x11005 -1 x11006 -1 x11007 >= 0 ;
+2 x11284 +2 x11285 +2 x11286 -1 x11005 -1 x11006 -1 x11007 -1 x11008 -1 x11009 -1 x11010 >= 0 ;
+2 x11287 +2 x11288 +2 x11289 -1 x11008 -1 x11009 -1 x11010 -1 x11011 -1 x11012 -1 x11013 >= 0 ;
+2 x11290 +2 x11291 +2 x11292 -1 x11011 -1 x11012 -1 x11013 -1 x11014 -1 x11015 -1 x11016 >= 0 ;
+2 x11293 +2 x11294 +2 x11295 -1 x11014 -1 x11015 -1 x11016 -1 x11017 -1 x11018 -1 x11019 >= 0 ;
+2 x11296 +2 x11297 +2 x11298 -1 x11017 -1 x11018 -1 x11019 -1 x11020 -1 x11021 -1 x11022 >= 0 ;
+2 x11299 +2 x11300 +2 x11301 -1 x11020 -1 x11021 -1 x11022 -1 x11023 -1 x11024 -1 x11025 >= 0 ;
+2 x11302 +2 x11303 +2 x11304 -1 x11023 -1 x11024 -1 x11025 -1 x11026 -1 x11027 -1 x11028 >= 0 ;
+2 x11305 +2 x11306 +2 x11307 -1 x11026 -1 x11027 -1 x11028 -1 x11029 -1 x11030 -1 x11031 >= 0 ;
+2 x11308 +2 x11309 +2 x11310 -1 x11029 -1 x11030 -1 x11031 -1 x11032 -1 x11033 -1 x11034 >= 0 ;
+2 x11311 +2 x11312 +2 x11313 -1 x11032 -1 x11033 -1 x11034 -1 x11035 -1 x11036 -1 x11037 >= 0 ;
+2 x11314 +2 x11315 +2 x11316 -1 x11035 -1 x11036 -1 x11037 -1 x11038 -1 x11039 -1 x11040 >= 0 ;
+2 x11317 +2 x11318 +2 x11319 -1 x11038 -1 x11039 -1 x11040 -1 x11041 -1 x11042 -1 x11043 >= 0 ;
+2 x11320 +2 x11321 +2 x11322 -1 x11041 -1 x11042 -1 x11043 -1 x11044 -1 x11045 -1 x11046 >= 0 ;
+2 x11323 +2 x11324 +2 x11325 -1 x11044 -1 x11045 -1 x11046 -1 x11047 -1 x11048 -1 x11049 >= 0 ;
+2 x11326 +2 x11327 +2 x11328 -1 x11047 -1 x11048 -1 x11049 -1 x11050 -1 x11051 -1 x11052 >= 0 ;
+2 x11329 +2 x11330 +2 x11331 -1 x11050 -1 x11051 -1 x11052 -1 x11053 -1 x11054 -1 x11055 >= 0 ;
+2 x11332 +2 x11333 +2 x11334 -1 x11053 -1 x11054 -1 x11055 -1 x11056 -1 x11057 -1 x11058 >= 0 ;
+2 x11335 +2 x11336 +2 x11337 -1 x11056 -1 x11057 -1 x11058 -1 x11059 -1 x11060 -1 x11061 >= 0 ;
+2 x11338 +2 x11339 +2 x11340 -1 x11059 -1 x11060 -1 x11061 -1 x11062 -1 x11063 -1 x11064 >= 0 ;
+2 x11341 +2 x11342 +2 x11343 -1 x11062 -1 x11063 -1 x11064 -1 x11065 -1 x11066 -1 x11067 >= 0 ;
+2 x11344 +2 x11345 +2 x11346 -1 x11065 -1 x11066 -1 x11067 -1 x11068 -1 x11069 -1 x11070 >= 0 ;
+2 x11347 +2 x11348 +2 x11349 -1 x11068 -1 x11069 -1 x11070 -1 x11071 -1 x11072 -1 x11073 >= 0 ;
+2 x11350 +2 x11351 +2 x11352 -1 x11071 -1 x11072 -1 x11073 -1 x11074 -1 x11075 -1 x11076 >= 0 ;
+2 x11353 +2 x11354 +2 x11355 -1 x11074 -1 x11075 -1 x11076 -1 x11077 -1 x11078 -1 x11079 >= 0 ;
+2 x11356 +2 x11357 +2 x11358 -1 x11077 -1 x11078 -1 x11079 -1 x11080 -1 x11081 -1 x11082 >= 0 ;
+2 x11359 +2 x11360 +2 x11361 -1 x11080 -1 x11081 -1 x11082 -1 x11083 -1 x11084 -1 x11085 >= 0 ;
+2 x11362 +2 x11363 +2 x11364 -1 x11083 -1 x11084 -1 x11085 -1 x11086 -1 x11087 -1 x11088 >= 0 ;
+2 x11365 +2 x11366 +2 x11367 -1 x11086 -1 x11087 -1 x11088 -1 x11089 -1 x11090 -1 x11091 >= 0 ;
+2 x11368 +2 x11369 +2 x11370 -1 x11089 -1 x11090 -1 x11091 -1 x11092 -1 x11093 -1 x11094 >= 0 ;
+2 x11371 +2 x11372 +2 x11373 -1 x11092 -1 x11093 -1 x11094 -1 x11095 -1 x11096 -1 x11097 >= 0 ;
+2 x11374 +2 x11375 +2 x11376 -1 x11095 -1 x11096 -1 x11097 -1 x11098 -1 x11099 -1 x11100 >= 0 ;
+2 x11377 +2 x11378 +2 x11379 -1 x11098 -1 x11099 -1 x11100 -1 x11101 -1 x11102 -1 x11103 >= 0 ;
+2 x11380 +2 x11381 +2 x11382 -1 x11101 -1 x11102 -1 x11103 -1 x11104 -1 x11105 -1 x11106 >= 0 ;
+2 x11383 +2 x11384 +2 x11385 -1 x11104 -1 x11105 -1 x11106 -1 x11107 -1 x11108 -1 x11109 >= 0 ;
+2 x11386 +2 x11387 +2 x11388 -1 x11107 -1 x11108 -1 x11109 -1 x11110 -1 x11111 -1 x11112 >= 0 ;
+2 x11389 +2 x11390 +2 x11391 -1 x11110 -1 x11111 -1 x11112 -1 x11113 -1 x11114 -1 x11115 >= 0 ;
+2 x11392 +2 x11393 +2 x11394 -1 x11113 -1 x11114 -1 x11115 -1 x11116 -1 x11117 -1 x11118 >= 0 ;
+2 x11395 +2 x11396 +2 x11397 -1 x11116 -1 x11117 -1 x11118 -1 x11119 -1 x11120 -1 x11121 >= 0 ;
+2 x11398 +2 x11399 +2 x11400 -1 x11119 -1 x11120 -1 x11121 -1 x11122 -1 x11123 -1 x11124 >= 0 ;
+2 x11401 +2 x11402 +2 x11403 -1 x11122 -1 x11123 -1 x11124 -1 x11125 -1 x11126 -1 x11127 >= 0 ;
+2 x11404 +2 x11405 +2 x11406 -1 x11125 -1 x11126 -1 x11127 -1 x11128 -1 x11129 -1 x11130 >= 0 ;
+2 x11407 +2 x11408 +2 x11409 -1 x11128 -1 x11129 -1 x11130 -1 x11131 -1 x11132 -1 x11133 >= 0 ;
+2 x11410 +2 x11411 +2 x11412 -1 x11131 -1 x11132 -1 x11133 -1 x11134 -1 x11135 -1 x11136 >= 0 ;
+2 x11413 +2 x11414 +2 x11415 -1 x11134 -1 x11135 -1 x11136 -1 x11137 -1 x11138 -1 x11139 >= 0 ;
+2 x11416 +2 x11417 +2 x11418 -1 x11137 -1 x11138 -1 x11139 -1 x11140 -1 x11141 -1 x11142 >= 0 ;
+2 x11419 +2 x11420 +2 x11421 -1 x11140 -1 x11141 -1 x11142 -1 x11143 -1 x11144 -1 x11145 >= 0 ;
+2 x11422 +2 x11423 +2 x11424 -1 x11143 -1 x11144 -1 x11145 -1 x11146 -1 x11147 -1 x11148 >= 0 ;
+2 x11425 +2 x11426 +2 x11427 -1 x11146 -1 x11147 -1 x11148 -1 x11149 -1 x11150 -1 x11151 >= 0 ;
+2 x11428 +2 x11429 +2 x11430 -1 x11149 -1 x11150 -1 x11151 -1 x11152 -1 x11153 -1 x11154 >= 0 ;
+2 x11431 +2 x11432 +2 x11433 -1 x11152 -1 x11153 -1 x11154 -1 x11155 -1 x11156 -1 x11157 >= 0 ;
+2 x11434 +2 x11435 +2 x11436 -1 x11155 -1 x11156 -1 x11157 -1 x11158 -1 x11159 -1 x11160 >= 0 ;
+2 x11437 +2 x11438 +2 x11439 -1 x11158 -1 x11159 -1 x11160 -1 x11161 -1 x11162 -1 x11163 >= 0 ;
+2 x11440 +2 x11441 +2 x11442 -1 x11161 -1 x11162 -1 x11163 -1 x11164 -1 x11165 -1 x11166 >= 0 ;
+2 x11443 +2 x11444 +2 x11445 -1 x11164 -1 x11165 -1 x11166 -1 x11167 -1 x11168 -1 x11169 >= 0 ;
+2 x11446 +2 x11447 +2 x11448 -1 x11170 -1 x11171 -1 x11172 -1 x11173 -1 x11174 -1 x11175 >= 0 ;
+2 x11449 +2 x11450 +2 x11451 -1 x11173 -1 x11174 -1 x11175 -1 x11176 -1 x11177 -1 x11178 >= 0 ;
+2 x11452 +2 x11453 +2 x11454 -1 x11176 -1 x11177 -1 x11178 -1 x11179 -1 x11180 -1 x11181 >= 0 ;
+2 x11455 +2 x11456 +2 x11457 -1 x11179 -1 x11180 -1 x11181 -1 x11182 -1 x11183 -1 x11184 >= 0 ;
+2 x11458 +2 x11459 +2 x11460 -1 x11182 -1 x11183 -1 x11184 -1 x11185 -1 x11186 -1 x11187 >= 0 ;
+2 x11461 +2 x11462 +2 x11463 -1 x11185 -1 x11186 -1 x11187 -1 x11188 -1 x11189 -1 x11190 >= 0 ;
+2 x11464 +2 x11465 +2 x11466 -1 x11188 -1 x11189 -1 x11190 -1 x11191 -1 x11192 -1 x11193 >= 0 ;
+2 x11467 +2 x11468 +2 x11469 -1 x11191 -1 x11192 -1 x11193 -1 x11194 -1 x11195 -1 x11196 >= 0 ;
+2 x11470 +2 x11471 +2 x11472 -1 x11194 -1 x11195 -1 x11196 -1 x11197 -1 x11198 -1 x11199 >= 0 ;
+2 x11473 +2 x11474 +2 x11475 -1 x11197 -1 x11198 -1 x11199 -1 x11200 -1 x11201 -1 x11202 >= 0 ;
+2 x11476 +2 x11477 +2 x11478 -1 x11200 -1 x11201 -1 x11202 -1 x11203 -1 x11204 -1 x11205 >= 0 ;
+2 x11479 +2 x11480 +2 x11481 -1 x11203 -1 x11204 -1 x11205 -1 x11206 -1 x11207 -1 x11208 >= 0 ;
+2 x11482 +2 x11483 +2 x11484 -1 x11206 -1 x11207 -1 x11208 -1 x11209 -1 x11210 -1 x11211 >= 0 ;
+2 x11485 +2 x11486 +2 x11487 -1 x11209 -1 x11210 -1 x11211 -1 x11212 -1 x11213 -1 x11214 >= 0 ;
+2 x11488 +2 x11489 +2 x11490 -1 x11212 -1 x11213 -1 x11214 -1 x11215 -1 x11216 -1 x11217 >= 0 ;
+2 x11491 +2 x11492 +2 x11493 -1 x11215 -1 x11216 -1 x11217 -1 x11218 -1 x11219 -1 x11220 >= 0 ;
+2 x11494 +2 x11495 +2 x11496 -1 x11218 -1 x11219 -1 x11220 -1 x11221 -1 x11222 -1 x11223 >= 0 ;
+2 x11497 +2 x11498 +2 x11499 -1 x11221 -1 x11222 -1 x11223 -1 x11224 -1 x11225 -1 x11226 >= 0 ;
+2 x11500 +2 x11501 +2 x11502 -1 x11224 -1 x11225 -1 x11226 -1 x11227 -1 x11228 -1 x11229 >= 0 ;
+2 x11503 +2 x11504 +2 x11505 -1 x11227 -1 x11228 -1 x11229 -1 x11230 -1 x11231 -1 x11232 >= 0 ;
+2 x11506 +2 x11507 +2 x11508 -1 x11230 -1 x11231 -1 x11232 -1 x11233 -1 x11234 -1 x11235 >= 0 ;
+2 x11509 +2 x11510 +2 x11511 -1 x11233 -1 x11234 -1 x11235 -1 x11236 -1 x11237 -1 x11238 >= 0 ;
+2 x11512 +2 x11513 +2 x11514 -1 x11236 -1 x11237 -1 x11238 -1 x11239 -1 x11240 -1 x11241 >= 0 ;
+2 x11515 +2 x11516 +2 x11517 -1 x11239 -1 x11240 -1 x11241 -1 x11242 -1 x11243 -1 x11244 >= 0 ;
+2 x11518 +2 x11519 +2 x11520 -1 x11242 -1 x11243 -1 x11244 -1 x11245 -1 x11246 -1 x11247 >= 0 ;
+2 x11521 +2 x11522 +2 x11523 -1 x11245 -1 x11246 -1 x11247 -1 x11248 -1 x11249 -1 x11250 >= 0 ;
+2 x11524 +2 x11525 +2 x11526 -1 x11248 -1 x11249 -1 x11250 -1 x11251 -1 x11252 -1 x11253 >= 0 ;
+2 x11527 +2 x11528 +2 x11529 -1 x11251 -1 x11252 -1 x11253 -1 x11254 -1 x11255 -1 x11256 >= 0 ;
+2 x11530 +2 x11531 +2 x11532 -1 x11254 -1 x11255 -1 x11256 -1 x11257 -1 x11258 -1 x11259 >= 0 ;
+2 x11533 +2 x11534 +2 x11535 -1 x11257 -1 x11258 -1 x11259 -1 x11260 -1 x11261 -1 x11262 >= 0 ;
+2 x11536 +2 x11537 +2 x11538 -1 x11260 -1 x11261 -1 x11262 -1 x11263 -1 x11264 -1 x11265 >= 0 ;
+2 x11539 +2 x11540 +2 x11541 -1 x11263 -1 x11264 -1 x11265 -1 x11266 -1 x11267 -1 x11268 >= 0 ;
+2 x11542 +2 x11543 +2 x11544 -1 x11266 -1 x11267 -1 x11268 -1 x11269 -1 x11270 -1 x11271 >= 0 ;
+2 x11545 +2 x11546 +2 x11547 -1 x11269 -1 x11270 -1 x11271 -1 x11272 -1 x11273 -1 x11274 >= 0 ;
+2 x11548 +2 x11549 +2 x11550 -1 x11272 -1 x11273 -1 x11274 -1 x11275 -1 x11276 -1 x11277 >= 0 ;
+2 x11551 +2 x11552 +2 x11553 -1 x11275 -1 x11276 -1 x11277 -1 x11278 -1 x11279 -1 x11280 >= 0 ;
+2 x11554 +2 x11555 +2 x11556 -1 x11278 -1 x11279 -1 x11280 -1 x11281 -1 x11282 -1 x11283 >= 0 ;
+2 x11557 +2 x11558 +2 x11559 -1 x11281 -1 x11282 -1 x11283 -1 x11284 -1 x11285 -1 x11286 >= 0 ;
+2 x11560 +2 x11561 +2 x11562 -1 x11284 -1 x11285 -1 x11286 -1 x11287 -1 x11288 -1 x11289 >= 0 ;
+2 x11563 +2 x11564 +2 x11565 -1 x11287 -1 x11288 -1 x11289 -1 x11290 -1 x11291 -1 x11292 >= 0 ;
+2 x11566 +2 x11567 +2 x11568 -1 x11290 -1 x11291 -1 x11292 -1 x11293 -1 x11294 -1 x11295 >= 0 ;
+2 x11569 +2 x11570 +2 x11571 -1 x11293 -1 x11294 -1 x11295 -1 x11296 -1 x11297 -1 x11298 >= 0 ;
+2 x11572 +2 x11573 +2 x11574 -1 x11296 -1 x11297 -1 x11298 -1 x11299 -1 x11300 -1 x11301 >= 0 ;
+2 x11575 +2 x11576 +2 x11577 -1 x11299 -1 x11300 -1 x11301 -1 x11302 -1 x11303 -1 x11304 >= 0 ;
+2 x11578 +2 x11579 +2 x11580 -1 x11302 -1 x11303 -1 x11304 -1 x11305 -1 x11306 -1 x11307 >= 0 ;
+2 x11581 +2 x11582 +2 x11583 -1 x11305 -1 x11306 -1 x11307 -1 x11308 -1 x11309 -1 x11310 >= 0 ;
+2 x11584 +2 x11585 +2 x11586 -1 x11308 -1 x11309 -1 x11310 -1 x11311 -1 x11312 -1 x11313 >= 0 ;
+2 x11587 +2 x11588 +2 x11589 -1 x11311 -1 x11312 -1 x11313 -1 x11314 -1 x11315 -1 x11316 >= 0 ;
+2 x11590 +2 x11591 +2 x11592 -1 x11314 -1 x11315 -1 x11316 -1 x11317 -1 x11318 -1 x11319 >= 0 ;
+2 x11593 +2 x11594 +2 x11595 -1 x11317 -1 x11318 -1 x11319 -1 x11320 -1 x11321 -1 x11322 >= 0 ;
+2 x11596 +2 x11597 +2 x11598 -1 x11320 -1 x11321 -1 x11322 -1 x11323 -1 x11324 -1 x11325 >= 0 ;
+2 x11599 +2 x11600 +2 x11601 -1 x11323 -1 x11324 -1 x11325 -1 x11326 -1 x11327 -1 x11328 >= 0 ;
+2 x11602 +2 x11603 +2 x11604 -1 x11326 -1 x11327 -1 x11328 -1 x11329 -1 x11330 -1 x11331 >= 0 ;
+2 x11605 +2 x11606 +2 x11607 -1 x11329 -1 x11330 -1 x11331 -1 x11332 -1 x11333 -1 x11334 >= 0 ;
+2 x11608 +2 x11609 +2 x11610 -1 x11332 -1 x11333 -1 x11334 -1 x11335 -1 x11336 -1 x11337 >= 0 ;
+2 x11611 +2 x11612 +2 x11613 -1 x11335 -1 x11336 -1 x11337 -1 x11338 -1 x11339 -1 x11340 >= 0 ;
+2 x11614 +2 x11615 +2 x11616 -1 x11338 -1 x11339 -1 x11340 -1 x11341 -1 x11342 -1 x11343 >= 0 ;
+2 x11617 +2 x11618 +2 x11619 -1 x11341 -1 x11342 -1 x11343 -1 x11344 -1 x11345 -1 x11346 >= 0 ;
+2 x11620 +2 x11621 +2 x11622 -1 x11344 -1 x11345 -1 x11346 -1 x11347 -1 x11348 -1 x11349 >= 0 ;
+2 x11623 +2 x11624 +2 x11625 -1 x11347 -1 x11348 -1 x11349 -1 x11350 -1 x11351 -1 x11352 >= 0 ;
+2 x11626 +2 x11627 +2 x11628 -1 x11350 -1 x11351 -1 x11352 -1 x11353 -1 x11354 -1 x11355 >= 0 ;
+2 x11629 +2 x11630 +2 x11631 -1 x11353 -1 x11354 -1 x11355 -1 x11356 -1 x11357 -1 x11358 >= 0 ;
+2 x11632 +2 x11633 +2 x11634 -1 x11356 -1 x11357 -1 x11358 -1 x11359 -1 x11360 -1 x11361 >= 0 ;
+2 x11635 +2 x11636 +2 x11637 -1 x11359 -1 x11360 -1 x11361 -1 x11362 -1 x11363 -1 x11364 >= 0 ;
+2 x11638 +2 x11639 +2 x11640 -1 x11362 -1 x11363 -1 x11364 -1 x11365 -1 x11366 -1 x11367 >= 0 ;
+2 x11641 +2 x11642 +2 x11643 -1 x11365 -1 x11366 -1 x11367 -1 x11368 -1 x11369 -1 x11370 >= 0 ;
+2 x11644 +2 x11645 +2 x11646 -1 x11368 -1 x11369 -1 x11370 -1 x11371 -1 x11372 -1 x11373 >= 0 ;
+2 x11647 +2 x11648 +2 x11649 -1 x11371 -1 x11372 -1 x11373 -1 x11374 -1 x11375 -1 x11376 >= 0 ;
+2 x11650 +2 x11651 +2 x11652 -1 x11374 -1 x11375 -1 x11376 -1 x11377 -1 x11378 -1 x11379 >= 0 ;
+2 x11653 +2 x11654 +2 x11655 -1 x11377 -1 x11378 -1 x11379 -1 x11380 -1 x11381 -1 x11382 >= 0 ;
+2 x11656 +2 x11657 +2 x11658 -1 x11380 -1 x11381 -1 x11382 -1 x11383 -1 x11384 -1 x11385 >= 0 ;
+2 x11659 +2 x11660 +2 x11661 -1 x11383 -1 x11384 -1 x11385 -1 x11386 -1 x11387 -1 x11388 >= 0 ;
+2 x11662 +2 x11663 +2 x11664 -1 x11386 -1 x11387 -1 x11388 -1 x11389 -1 x11390 -1 x11391 >= 0 ;
+2 x11665 +2 x11666 +2 x11667 -1 x11389 -1 x11390 -1 x11391 -1 x11392 -1 x11393 -1 x11394 >= 0 ;
+2 x11668 +2 x11669 +2 x11670 -1 x11392 -1 x11393 -1 x11394 -1 x11395 -1 x11396 -1 x11397 >= 0 ;
+2 x11671 +2 x11672 +2 x11673 -1 x11395 -1 x11396 -1 x11397 -1 x11398 -1 x11399 -1 x11400 >= 0 ;
+2 x11674 +2 x11675 +2 x11676 -1 x11398 -1 x11399 -1 x11400 -1 x11401 -1 x11402 -1 x11403 >= 0 ;
+2 x11677 +2 x11678 +2 x11679 -1 x11401 -1 x11402 -1 x11403 -1 x11404 -1 x11405 -1 x11406 >= 0 ;
+2 x11680 +2 x11681 +2 x11682 -1 x11404 -1 x11405 -1 x11406 -1 x11407 -1 x11408 -1 x11409 >= 0 ;
+2 x11683 +2 x11684 +2 x11685 -1 x11407 -1 x11408 -1 x11409 -1 x11410 -1 x11411 -1 x11412 >= 0 ;
+2 x11686 +2 x11687 +2 x11688 -1 x11410 -1 x11411 -1 x11412 -1 x11413 -1 x11414 -1 x11415 >= 0 ;
+2 x11689 +2 x11690 +2 x11691 -1 x11413 -1 x11414 -1 x11415 -1 x11416 -1 x11417 -1 x11418 >= 0 ;
+2 x11692 +2 x11693 +2 x11694 -1 x11416 -1 x11417 -1 x11418 -1 x11419 -1 x11420 -1 x11421 >= 0 ;
+2 x11695 +2 x11696 +2 x11697 -1 x11419 -1 x11420 -1 x11421 -1 x11422 -1 x11423 -1 x11424 >= 0 ;
+2 x11698 +2 x11699 +2 x11700 -1 x11422 -1 x11423 -1 x11424 -1 x11425 -1 x11426 -1 x11427 >= 0 ;
+2 x11701 +2 x11702 +2 x11703 -1 x11425 -1 x11426 -1 x11427 -1 x11428 -1 x11429 -1 x11430 >= 0 ;
+2 x11704 +2 x11705 +2 x11706 -1 x11428 -1 x11429 -1 x11430 -1 x11431 -1 x11432 -1 x11433 >= 0 ;
+2 x11707 +2 x11708 +2 x11709 -1 x11431 -1 x11432 -1 x11433 -1 x11434 -1 x11435 -1 x11436 >= 0 ;
+2 x11710 +2 x11711 +2 x11712 -1 x11434 -1 x11435 -1 x11436 -1 x11437 -1 x11438 -1 x11439 >= 0 ;
+2 x11713 +2 x11714 +2 x11715 -1 x11437 -1 x11438 -1 x11439 -1 x11440 -1 x11441 -1 x11442 >= 0 ;
+2 x11716 +2 x11717 +2 x11718 -1 x11440 -1 x11441 -1 x11442 -1 x11443 -1 x11444 -1 x11445 >= 0 ;
+2 x11719 +2 x11720 +2 x11721 -1 x11446 -1 x11447 -1 x11448 -1 x11449 -1 x11450 -1 x11451 >= 0 ;
+2 x11722 +2 x11723 +2 x11724 -1 x11449 -1 x11450 -1 x11451 -1 x11452 -1 x11453 -1 x11454 >= 0 ;
+2 x11725 +2 x11726 +2 x11727 -1 x11452 -1 x11453 -1 x11454 -1 x11455 -1 x11456 -1 x11457 >= 0 ;
+2 x11728 +2 x11729 +2 x11730 -1 x11455 -1 x11456 -1 x11457 -1 x11458 -1 x11459 -1 x11460 >= 0 ;
+2 x11731 +2 x11732 +2 x11733 -1 x11458 -1 x11459 -1 x11460 -1 x11461 -1 x11462 -1 x11463 >= 0 ;
+2 x11734 +2 x11735 +2 x11736 -1 x11461 -1 x11462 -1 x11463 -1 x11464 -1 x11465 -1 x11466 >= 0 ;
+2 x11737 +2 x11738 +2 x11739 -1 x11464 -1 x11465 -1 x11466 -1 x11467 -1 x11468 -1 x11469 >= 0 ;
+2 x11740 +2 x11741 +2 x11742 -1 x11467 -1 x11468 -1 x11469 -1 x11470 -1 x11471 -1 x11472 >= 0 ;
+2 x11743 +2 x11744 +2 x11745 -1 x11470 -1 x11471 -1 x11472 -1 x11473 -1 x11474 -1 x11475 >= 0 ;
+2 x11746 +2 x11747 +2 x11748 -1 x11473 -1 x11474 -1 x11475 -1 x11476 -1 x11477 -1 x11478 >= 0 ;
+2 x11749 +2 x11750 +2 x11751 -1 x11476 -1 x11477 -1 x11478 -1 x11479 -1 x11480 -1 x11481 >= 0 ;
+2 x11752 +2 x11753 +2 x11754 -1 x11479 -1 x11480 -1 x11481 -1 x11482 -1 x11483 -1 x11484 >= 0 ;
+2 x11755 +2 x11756 +2 x11757 -1 x11482 -1 x11483 -1 x11484 -1 x11485 -1 x11486 -1 x11487 >= 0 ;
+2 x11758 +2 x11759 +2 x11760 -1 x11485 -1 x11486 -1 x11487 -1 x11488 -1 x11489 -1 x11490 >= 0 ;
+2 x11761 +2 x11762 +2 x11763 -1 x11488 -1 x11489 -1 x11490 -1 x11491 -1 x11492 -1 x11493 >= 0 ;
+2 x11764 +2 x11765 +2 x11766 -1 x11491 -1 x11492 -1 x11493 -1 x11494 -1 x11495 -1 x11496 >= 0 ;
+2 x11767 +2 x11768 +2 x11769 -1 x11494 -1 x11495 -1 x11496 -1 x11497 -1 x11498 -1 x11499 >= 0 ;
+2 x11770 +2 x11771 +2 x11772 -1 x11497 -1 x11498 -1 x11499 -1 x11500 -1 x11501 -1 x11502 >= 0 ;
+2 x11773 +2 x11774 +2 x11775 -1 x11500 -1 x11501 -1 x11502 -1 x11503 -1 x11504 -1 x11505 >= 0 ;
+2 x11776 +2 x11777 +2 x11778 -1 x11503 -1 x11504 -1 x11505 -1 x11506 -1 x11507 -1 x11508 >= 0 ;
+2 x11779 +2 x11780 +2 x11781 -1 x11506 -1 x11507 -1 x11508 -1 x11509 -1 x11510 -1 x11511 >= 0 ;
+2 x11782 +2 x11783 +2 x11784 -1 x11509 -1 x11510 -1 x11511 -1 x11512 -1 x11513 -1 x11514 >= 0 ;
+2 x11785 +2 x11786 +2 x11787 -1 x11512 -1 x11513 -1 x11514 -1 x11515 -1 x11516 -1 x11517 >= 0 ;
+2 x11788 +2 x11789 +2 x11790 -1 x11515 -1 x11516 -1 x11517 -1 x11518 -1 x11519 -1 x11520 >= 0 ;
+2 x11791 +2 x11792 +2 x11793 -1 x11518 -1 x11519 -1 x11520 -1 x11521 -1 x11522 -1 x11523 >= 0 ;
+2 x11794 +2 x11795 +2 x11796 -1 x11521 -1 x11522 -1 x11523 -1 x11524 -1 x11525 -1 x11526 >= 0 ;
+2 x11797 +2 x11798 +2 x11799 -1 x11524 -1 x11525 -1 x11526 -1 x11527 -1 x11528 -1 x11529 >= 0 ;
+2 x11800 +2 x11801 +2 x11802 -1 x11527 -1 x11528 -1 x11529 -1 x11530 -1 x11531 -1 x11532 >= 0 ;
+2 x11803 +2 x11804 +2 x11805 -1 x11530 -1 x11531 -1 x11532 -1 x11533 -1 x11534 -1 x11535 >= 0 ;
+2 x11806 +2 x11807 +2 x11808 -1 x11533 -1 x11534 -1 x11535 -1 x11536 -1 x11537 -1 x11538 >= 0 ;
+2 x11809 +2 x11810 +2 x11811 -1 x11536 -1 x11537 -1 x11538 -1 x11539 -1 x11540 -1 x11541 >= 0 ;
+2 x11812 +2 x11813 +2 x11814 -1 x11539 -1 x11540 -1 x11541 -1 x11542 -1 x11543 -1 x11544 >= 0 ;
+2 x11815 +2 x11816 +2 x11817 -1 x11542 -1 x11543 -1 x11544 -1 x11545 -1 x11546 -1 x11547 >= 0 ;
+2 x11818 +2 x11819 +2 x11820 -1 x11545 -1 x11546 -1 x11547 -1 x11548 -1 x11549 -1 x11550 >= 0 ;
+2 x11821 +2 x11822 +2 x11823 -1 x11548 -1 x11549 -1 x11550 -1 x11551 -1 x11552 -1 x11553 >= 0 ;
+2 x11824 +2 x11825 +2 x11826 -1 x11551 -1 x11552 -1 x11553 -1 x11554 -1 x11555 -1 x11556 >= 0 ;
+2 x11827 +2 x11828 +2 x11829 -1 x11554 -1 x11555 -1 x11556 -1 x11557 -1 x11558 -1 x11559 >= 0 ;
+2 x11830 +2 x11831 +2 x11832 -1 x11557 -1 x11558 -1 x11559 -1 x11560 -1 x11561 -1 x11562 >= 0 ;
+2 x11833 +2 x11834 +2 x11835 -1 x11560 -1 x11561 -1 x11562 -1 x11563 -1 x11564 -1 x11565 >= 0 ;
+2 x11836 +2 x11837 +2 x11838 -1 x11563 -1 x11564 -1 x11565 -1 x11566 -1 x11567 -1 x11568 >= 0 ;
+2 x11839 +2 x11840 +2 x11841 -1 x11566 -1 x11567 -1 x11568 -1 x11569 -1 x11570 -1 x11571 >= 0 ;
+2 x11842 +2 x11843 +2 x11844 -1 x11569 -1 x11570 -1 x11571 -1 x11572 -1 x11573 -1 x11574 >= 0 ;
+2 x11845 +2 x11846 +2 x11847 -1 x11572 -1 x11573 -1 x11574 -1 x11575 -1 x11576 -1 x11577 >= 0 ;
+2 x11848 +2 x11849 +2 x11850 -1 x11575 -1 x11576 -1 x11577 -1 x11578 -1 x11579 -1 x11580 >= 0 ;
+2 x11851 +2 x11852 +2 x11853 -1 x11578 -1 x11579 -1 x11580 -1 x11581 -1 x11582 -1 x11583 >= 0 ;
+2 x11854 +2 x11855 +2 x11856 -1 x11581 -1 x11582 -1 x11583 -1 x11584 -1 x11585 -1 x11586 >= 0 ;
+2 x11857 +2 x11858 +2 x11859 -1 x11584 -1 x11585 -1 x11586 -1 x11587 -1 x11588 -1 x11589 >= 0 ;
+2 x11860 +2 x11861 +2 x11862 -1 x11587 -1 x11588 -1 x11589 -1 x11590 -1 x11591 -1 x11592 >= 0 ;
+2 x11863 +2 x11864 +2 x11865 -1 x11590 -1 x11591 -1 x11592 -1 x11593 -1 x11594 -1 x11595 >= 0 ;
+2 x11866 +2 x11867 +2 x11868 -1 x11593 -1 x11594 -1 x11595 -1 x11596 -1 x11597 -1 x11598 >= 0 ;
+2 x11869 +2 x11870 +2 x11871 -1 x11596 -1 x11597 -1 x11598 -1 x11599 -1 x11600 -1 x11601 >= 0 ;
+2 x11872 +2 x11873 +2 x11874 -1 x11599 -1 x11600 -1 x11601 -1 x11602 -1 x11603 -1 x11604 >= 0 ;
+2 x11875 +2 x11876 +2 x11877 -1 x11602 -1 x11603 -1 x11604 -1 x11605 -1 x11606 -1 x11607 >= 0 ;
+2 x11878 +2 x11879 +2 x11880 -1 x11605 -1 x11606 -1 x11607 -1 x11608 -1 x11609 -1 x11610 >= 0 ;
+2 x11881 +2 x11882 +2 x11883 -1 x11608 -1 x11609 -1 x11610 -1 x11611 -1 x11612 -1 x11613 >= 0 ;
+2 x11884 +2 x11885 +2 x11886 -1 x11611 -1 x11612 -1 x11613 -1 x11614 -1 x11615 -1 x11616 >= 0 ;
+2 x11887 +2 x11888 +2 x11889 -1 x11614 -1 x11615 -1 x11616 -1 x11617 -1 x11618 -1 x11619 >= 0 ;
+2 x11890 +2 x11891 +2 x11892 -1 x11617 -1 x11618 -1 x11619 -1 x11620 -1 x11621 -1 x11622 >= 0 ;
+2 x11893 +2 x11894 +2 x11895 -1 x11620 -1 x11621 -1 x11622 -1 x11623 -1 x11624 -1 x11625 >= 0 ;
+2 x11896 +2 x11897 +2 x11898 -1 x11623 -1 x11624 -1 x11625 -1 x11626 -1 x11627 -1 x11628 >= 0 ;
+2 x11899 +2 x11900 +2 x11901 -1 x11626 -1 x11627 -1 x11628 -1 x11629 -1 x11630 -1 x11631 >= 0 ;
+2 x11902 +2 x11903 +2 x11904 -1 x11629 -1 x11630 -1 x11631 -1 x11632 -1 x11633 -1 x11634 >= 0 ;
+2 x11905 +2 x11906 +2 x11907 -1 x11632 -1 x11633 -1 x11634 -1 x11635 -1 x11636 -1 x11637 >= 0 ;
+2 x11908 +2 x11909 +2 x11910 -1 x11635 -1 x11636 -1 x11637 -1 x11638 -1 x11639 -1 x11640 >= 0 ;
+2 x11911 +2 x11912 +2 x11913 -1 x11638 -1 x11639 -1 x11640 -1 x11641 -1 x11642 -1 x11643 >= 0 ;
+2 x11914 +2 x11915 +2 x11916 -1 x11641 -1 x11642 -1 x11643 -1 x11644 -1 x11645 -1 x11646 >= 0 ;
+2 x11917 +2 x11918 +2 x11919 -1 x11644 -1 x11645 -1 x11646 -1 x11647 -1 x11648 -1 x11649 >= 0 ;
+2 x11920 +2 x11921 +2 x11922 -1 x11647 -1 x11648 -1 x11649 -1 x11650 -1 x11651 -1 x11652 >= 0 ;
+2 x11923 +2 x11924 +2 x11925 -1 x11650 -1 x11651 -1 x11652 -1 x11653 -1 x11654 -1 x11655 >= 0 ;
+2 x11926 +2 x11927 +2 x11928 -1 x11653 -1 x11654 -1 x11655 -1 x11656 -1 x11657 -1 x11658 >= 0 ;
+2 x11929 +2 x11930 +2 x11931 -1 x11656 -1 x11657 -1 x11658 -1 x11659 -1 x11660 -1 x11661 >= 0 ;
+2 x11932 +2 x11933 +2 x11934 -1 x11659 -1 x11660 -1 x11661 -1 x11662 -1 x11663 -1 x11664 >= 0 ;
+2 x11935 +2 x11936 +2 x11937 -1 x11662 -1 x11663 -1 x11664 -1 x11665 -1 x11666 -1 x11667 >= 0 ;
+2 x11938 +2 x11939 +2 x11940 -1 x11665 -1 x11666 -1 x11667 -1 x11668 -1 x11669 -1 x11670 >= 0 ;
+2 x11941 +2 x11942 +2 x11943 -1 x11668 -1 x11669 -1 x11670 -1 x11671 -1 x11672 -1 x11673 >= 0 ;
+2 x11944 +2 x11945 +2 x11946 -1 x11671 -1 x11672 -1 x11673 -1 x11674 -1 x11675 -1 x11676 >= 0 ;
+2 x11947 +2 x11948 +2 x11949 -1 x11674 -1 x11675 -1 x11676 -1 x11677 -1 x11678 -1 x11679 >= 0 ;
+2 x11950 +2 x11951 +2 x11952 -1 x11677 -1 x11678 -1 x11679 -1 x11680 -1 x11681 -1 x11682 >= 0 ;
+2 x11953 +2 x11954 +2 x11955 -1 x11680 -1 x11681 -1 x11682 -1 x11683 -1 x11684 -1 x11685 >= 0 ;
+2 x11956 +2 x11957 +2 x11958 -1 x11683 -1 x11684 -1 x11685 -1 x11686 -1 x11687 -1 x11688 >= 0 ;
+2 x11959 +2 x11960 +2 x11961 -1 x11686 -1 x11687 -1 x11688 -1 x11689 -1 x11690 -1 x11691 >= 0 ;
+2 x11962 +2 x11963 +2 x11964 -1 x11689 -1 x11690 -1 x11691 -1 x11692 -1 x11693 -1 x11694 >= 0 ;
+2 x11965 +2 x11966 +2 x11967 -1 x11692 -1 x11693 -1 x11694 -1 x11695 -1 x11696 -1 x11697 >= 0 ;
+2 x11968 +2 x11969 +2 x11970 -1 x11695 -1 x11696 -1 x11697 -1 x11698 -1 x11699 -1 x11700 >= 0 ;
+2 x11971 +2 x11972 +2 x11973 -1 x11698 -1 x11699 -1 x11700 -1 x11701 -1 x11702 -1 x11703 >= 0 ;
+2 x11974 +2 x11975 +2 x11976 -1 x11701 -1 x11702 -1 x11703 -1 x11704 -1 x11705 -1 x11706 >= 0 ;
+2 x11977 +2 x11978 +2 x11979 -1 x11704 -1 x11705 -1 x11706 -1 x11707 -1 x11708 -1 x11709 >= 0 ;
+2 x11980 +2 x11981 +2 x11982 -1 x11707 -1 x11708 -1 x11709 -1 x11710 -1 x11711 -1 x11712 >= 0 ;
+2 x11983 +2 x11984 +2 x11985 -1 x11710 -1 x11711 -1 x11712 -1 x11713 -1 x11714 -1 x11715 >= 0 ;
+2 x11986 +2 x11987 +2 x11988 -1 x11713 -1 x11714 -1 x11715 -1 x11716 -1 x11717 -1 x11718 >= 0 ;
+2 x11989 +2 x11990 +2 x11991 -1 x11719 -1 x11720 -1 x11721 -1 x11722 -1 x11723 -1 x11724 >= 0 ;
+2 x11992 +2 x11993 +2 x11994 -1 x11722 -1 x11723 -1 x11724 -1 x11725 -1 x11726 -1 x11727 >= 0 ;
+2 x11995 +2 x11996 +2 x11997 -1 x11725 -1 x11726 -1 x11727 -1 x11728 -1 x11729 -1 x11730 >= 0 ;
+2 x11998 +2 x11999 +2 x12000 -1 x11728 -1 x11729 -1 x11730 -1 x11731 -1 x11732 -1 x11733 >= 0 ;
+2 x12001 +2 x12002 +2 x12003 -1 x11731 -1 x11732 -1 x11733 -1 x11734 -1 x11735 -1 x11736 >= 0 ;
+2 x12004 +2 x12005 +2 x12006 -1 x11734 -1 x11735 -1 x11736 -1 x11737 -1 x11738 -1 x11739 >= 0 ;
+2 x12007 +2 x12008 +2 x12009 -1 x11737 -1 x11738 -1 x11739 -1 x11740 -1 x11741 -1 x11742 >= 0 ;
+2 x12010 +2 x12011 +2 x12012 -1 x11740 -1 x11741 -1 x11742 -1 x11743 -1 x11744 -1 x11745 >= 0 ;
+2 x12013 +2 x12014 +2 x12015 -1 x11743 -1 x11744 -1 x11745 -1 x11746 -1 x11747 -1 x11748 >= 0 ;
+2 x12016 +2 x12017 +2 x12018 -1 x11746 -1 x11747 -1 x11748 -1 x11749 -1 x11750 -1 x11751 >= 0 ;
+2 x12019 +2 x12020 +2 x12021 -1 x11749 -1 x11750 -1 x11751 -1 x11752 -1 x11753 -1 x11754 >= 0 ;
+2 x12022 +2 x12023 +2 x12024 -1 x11752 -1 x11753 -1 x11754 -1 x11755 -1 x11756 -1 x11757 >= 0 ;
+2 x12025 +2 x12026 +2 x12027 -1 x11755 -1 x11756 -1 x11757 -1 x11758 -1 x11759 -1 x11760 >= 0 ;
+2 x12028 +2 x12029 +2 x12030 -1 x11758 -1 x11759 -1 x11760 -1 x11761 -1 x11762 -1 x11763 >= 0 ;
+2 x12031 +2 x12032 +2 x12033 -1 x11761 -1 x11762 -1 x11763 -1 x11764 -1 x11765 -1 x11766 >= 0 ;
+2 x12034 +2 x12035 +2 x12036 -1 x11764 -1 x11765 -1 x11766 -1 x11767 -1 x11768 -1 x11769 >= 0 ;
+2 x12037 +2 x12038 +2 x12039 -1 x11767 -1 x11768 -1 x11769 -1 x11770 -1 x11771 -1 x11772 >= 0 ;
+2 x12040 +2 x12041 +2 x12042 -1 x11770 -1 x11771 -1 x11772 -1 x11773 -1 x11774 -1 x11775 >= 0 ;
+2 x12043 +2 x12044 +2 x12045 -1 x11773 -1 x11774 -1 x11775 -1 x11776 -1 x11777 -1 x11778 >= 0 ;
+2 x12046 +2 x12047 +2 x12048 -1 x11776 -1 x11777 -1 x11778 -1 x11779 -1 x11780 -1 x11781 >= 0 ;
+2 x12049 +2 x12050 +2 x12051 -1 x11779 -1 x11780 -1 x11781 -1 x11782 -1 x11783 -1 x11784 >= 0 ;
+2 x12052 +2 x12053 +2 x12054 -1 x11782 -1 x11783 -1 x11784 -1 x11785 -1 x11786 -1 x11787 >= 0 ;
+2 x12055 +2 x12056 +2 x12057 -1 x11785 -1 x11786 -1 x11787 -1 x11788 -1 x11789 -1 x11790 >= 0 ;
+2 x12058 +2 x12059 +2 x12060 -1 x11788 -1 x11789 -1 x11790 -1 x11791 -1 x11792 -1 x11793 >= 0 ;
+2 x12061 +2 x12062 +2 x12063 -1 x11791 -1 x11792 -1 x11793 -1 x11794 -1 x11795 -1 x11796 >= 0 ;
+2 x12064 +2 x12065 +2 x12066 -1 x11794 -1 x11795 -1 x11796 -1 x11797 -1 x11798 -1 x11799 >= 0 ;
+2 x12067 +2 x12068 +2 x12069 -1 x11797 -1 x11798 -1 x11799 -1 x11800 -1 x11801 -1 x11802 >= 0 ;
+2 x12070 +2 x12071 +2 x12072 -1 x11800 -1 x11801 -1 x11802 -1 x11803 -1 x11804 -1 x11805 >= 0 ;
+2 x12073 +2 x12074 +2 x12075 -1 x11803 -1 x11804 -1 x11805 -1 x11806 -1 x11807 -1 x11808 >= 0 ;
+2 x12076 +2 x12077 +2 x12078 -1 x11806 -1 x11807 -1 x11808 -1 x11809 -1 x11810 -1 x11811 >= 0 ;
+2 x12079 +2 x12080 +2 x12081 -1 x11809 -1 x11810 -1 x11811 -1 x11812 -1 x11813 -1 x11814 >= 0 ;
+2 x12082 +2 x12083 +2 x12084 -1 x11812 -1 x11813 -1 x11814 -1 x11815 -1 x11816 -1 x11817 >= 0 ;
+2 x12085 +2 x12086 +2 x12087 -1 x11815 -1 x11816 -1 x11817 -1 x11818 -1 x11819 -1 x11820 >= 0 ;
+2 x12088 +2 x12089 +2 x12090 -1 x11818 -1 x11819 -1 x11820 -1 x11821 -1 x11822 -1 x11823 >= 0 ;
+2 x12091 +2 x12092 +2 x12093 -1 x11821 -1 x11822 -1 x11823 -1 x11824 -1 x11825 -1 x11826 >= 0 ;
+2 x12094 +2 x12095 +2 x12096 -1 x11824 -1 x11825 -1 x11826 -1 x11827 -1 x11828 -1 x11829 >= 0 ;
+2 x12097 +2 x12098 +2 x12099 -1 x11827 -1 x11828 -1 x11829 -1 x11830 -1 x11831 -1 x11832 >= 0 ;
+2 x12100 +2 x12101 +2 x12102 -1 x11830 -1 x11831 -1 x11832 -1 x11833 -1 x11834 -1 x11835 >= 0 ;
+2 x12103 +2 x12104 +2 x12105 -1 x11833 -1 x11834 -1 x11835 -1 x11836 -1 x11837 -1 x11838 >= 0 ;
+2 x12106 +2 x12107 +2 x12108 -1 x11836 -1 x11837 -1 x11838 -1 x11839 -1 x11840 -1 x11841 >= 0 ;
+2 x12109 +2 x12110 +2 x12111 -1 x11839 -1 x11840 -1 x11841 -1 x11842 -1 x11843 -1 x11844 >= 0 ;
+2 x12112 +2 x12113 +2 x12114 -1 x11842 -1 x11843 -1 x11844 -1 x11845 -1 x11846 -1 x11847 >= 0 ;
+2 x12115 +2 x12116 +2 x12117 -1 x11845 -1 x11846 -1 x11847 -1 x11848 -1 x11849 -1 x11850 >= 0 ;
+2 x12118 +2 x12119 +2 x12120 -1 x11848 -1 x11849 -1 x11850 -1 x11851 -1 x11852 -1 x11853 >= 0 ;
+2 x12121 +2 x12122 +2 x12123 -1 x11851 -1 x11852 -1 x11853 -1 x11854 -1 x11855 -1 x11856 >= 0 ;
+2 x12124 +2 x12125 +2 x12126 -1 x11854 -1 x11855 -1 x11856 -1 x11857 -1 x11858 -1 x11859 >= 0 ;
+2 x12127 +2 x12128 +2 x12129 -1 x11857 -1 x11858 -1 x11859 -1 x11860 -1 x11861 -1 x11862 >= 0 ;
+2 x12130 +2 x12131 +2 x12132 -1 x11860 -1 x11861 -1 x11862 -1 x11863 -1 x11864 -1 x11865 >= 0 ;
+2 x12133 +2 x12134 +2 x12135 -1 x11863 -1 x11864 -1 x11865 -1 x11866 -1 x11867 -1 x11868 >= 0 ;
+2 x12136 +2 x12137 +2 x12138 -1 x11866 -1 x11867 -1 x11868 -1 x11869 -1 x11870 -1 x11871 >= 0 ;
+2 x12139 +2 x12140 +2 x12141 -1 x11869 -1 x11870 -1 x11871 -1 x11872 -1 x11873 -1 x11874 >= 0 ;
+2 x12142 +2 x12143 +2 x12144 -1 x11872 -1 x11873 -1 x11874 -1 x11875 -1 x11876 -1 x11877 >= 0 ;
+2 x12145 +2 x12146 +2 x12147 -1 x11875 -1 x11876 -1 x11877 -1 x11878 -1 x11879 -1 x11880 >= 0 ;
+2 x12148 +2 x12149 +2 x12150 -1 x11878 -1 x11879 -1 x11880 -1 x11881 -1 x11882 -1 x11883 >= 0 ;
+2 x12151 +2 x12152 +2 x12153 -1 x11881 -1 x11882 -1 x11883 -1 x11884 -1 x11885 -1 x11886 >= 0 ;
+2 x12154 +2 x12155 +2 x12156 -1 x11884 -1 x11885 -1 x11886 -1 x11887 -1 x11888 -1 x11889 >= 0 ;
+2 x12157 +2 x12158 +2 x12159 -1 x11887 -1 x11888 -1 x11889 -1 x11890 -1 x11891 -1 x11892 >= 0 ;
+2 x12160 +2 x12161 +2 x12162 -1 x11890 -1 x11891 -1 x11892 -1 x11893 -1 x11894 -1 x11895 >= 0 ;
+2 x12163 +2 x12164 +2 x12165 -1 x11893 -1 x11894 -1 x11895 -1 x11896 -1 x11897 -1 x11898 >= 0 ;
+2 x12166 +2 x12167 +2 x12168 -1 x11896 -1 x11897 -1 x11898 -1 x11899 -1 x11900 -1 x11901 >= 0 ;
+2 x12169 +2 x12170 +2 x12171 -1 x11899 -1 x11900 -1 x11901 -1 x11902 -1 x11903 -1 x11904 >= 0 ;
+2 x12172 +2 x12173 +2 x12174 -1 x11902 -1 x11903 -1 x11904 -1 x11905 -1 x11906 -1 x11907 >= 0 ;
+2 x12175 +2 x12176 +2 x12177 -1 x11905 -1 x11906 -1 x11907 -1 x11908 -1 x11909 -1 x11910 >= 0 ;
+2 x12178 +2 x12179 +2 x12180 -1 x11908 -1 x11909 -1 x11910 -1 x11911 -1 x11912 -1 x11913 >= 0 ;
+2 x12181 +2 x12182 +2 x12183 -1 x11911 -1 x11912 -1 x11913 -1 x11914 -1 x11915 -1 x11916 >= 0 ;
+2 x12184 +2 x12185 +2 x12186 -1 x11914 -1 x11915 -1 x11916 -1 x11917 -1 x11918 -1 x11919 >= 0 ;
+2 x12187 +2 x12188 +2 x12189 -1 x11917 -1 x11918 -1 x11919 -1 x11920 -1 x11921 -1 x11922 >= 0 ;
+2 x12190 +2 x12191 +2 x12192 -1 x11920 -1 x11921 -1 x11922 -1 x11923 -1 x11924 -1 x11925 >= 0 ;
+2 x12193 +2 x12194 +2 x12195 -1 x11923 -1 x11924 -1 x11925 -1 x11926 -1 x11927 -1 x11928 >= 0 ;
+2 x12196 +2 x12197 +2 x12198 -1 x11926 -1 x11927 -1 x11928 -1 x11929 -1 x11930 -1 x11931 >= 0 ;
+2 x12199 +2 x12200 +2 x12201 -1 x11929 -1 x11930 -1 x11931 -1 x11932 -1 x11933 -1 x11934 >= 0 ;
+2 x12202 +2 x12203 +2 x12204 -1 x11932 -1 x11933 -1 x11934 -1 x11935 -1 x11936 -1 x11937 >= 0 ;
+2 x12205 +2 x12206 +2 x12207 -1 x11935 -1 x11936 -1 x11937 -1 x11938 -1 x11939 -1 x11940 >= 0 ;
+2 x12208 +2 x12209 +2 x12210 -1 x11938 -1 x11939 -1 x11940 -1 x11941 -1 x11942 -1 x11943 >= 0 ;
+2 x12211 +2 x12212 +2 x12213 -1 x11941 -1 x11942 -1 x11943 -1 x11944 -1 x11945 -1 x11946 >= 0 ;
+2 x12214 +2 x12215 +2 x12216 -1 x11944 -1 x11945 -1 x11946 -1 x11947 -1 x11948 -1 x11949 >= 0 ;
+2 x12217 +2 x12218 +2 x12219 -1 x11947 -1 x11948 -1 x11949 -1 x11950 -1 x11951 -1 x11952 >= 0 ;
+2 x12220 +2 x12221 +2 x12222 -1 x11950 -1 x11951 -1 x11952 -1 x11953 -1 x11954 -1 x11955 >= 0 ;
+2 x12223 +2 x12224 +2 x12225 -1 x11953 -1 x11954 -1 x11955 -1 x11956 -1 x11957 -1 x11958 >= 0 ;
+2 x12226 +2 x12227 +2 x12228 -1 x11956 -1 x11957 -1 x11958 -1 x11959 -1 x11960 -1 x11961 >= 0 ;
+2 x12229 +2 x12230 +2 x12231 -1 x11959 -1 x11960 -1 x11961 -1 x11962 -1 x11963 -1 x11964 >= 0 ;
+2 x12232 +2 x12233 +2 x12234 -1 x11962 -1 x11963 -1 x11964 -1 x11965 -1 x11966 -1 x11967 >= 0 ;
+2 x12235 +2 x12236 +2 x12237 -1 x11965 -1 x11966 -1 x11967 -1 x11968 -1 x11969 -1 x11970 >= 0 ;
+2 x12238 +2 x12239 +2 x12240 -1 x11968 -1 x11969 -1 x11970 -1 x11971 -1 x11972 -1 x11973 >= 0 ;
+2 x12241 +2 x12242 +2 x12243 -1 x11971 -1 x11972 -1 x11973 -1 x11974 -1 x11975 -1 x11976 >= 0 ;
+2 x12244 +2 x12245 +2 x12246 -1 x11974 -1 x11975 -1 x11976 -1 x11977 -1 x11978 -1 x11979 >= 0 ;
+2 x12247 +2 x12248 +2 x12249 -1 x11977 -1 x11978 -1 x11979 -1 x11980 -1 x11981 -1 x11982 >= 0 ;
+2 x12250 +2 x12251 +2 x12252 -1 x11980 -1 x11981 -1 x11982 -1 x11983 -1 x11984 -1 x11985 >= 0 ;
+2 x12253 +2 x12254 +2 x12255 -1 x11983 -1 x11984 -1 x11985 -1 x11986 -1 x11987 -1 x11988 >= 0 ;
+2 x12256 +2 x12257 +2 x12258 -1 x11989 -1 x11990 -1 x11991 -1 x11992 -1 x11993 -1 x11994 >= 0 ;
+2 x12259 +2 x12260 +2 x12261 -1 x11992 -1 x11993 -1 x11994 -1 x11995 -1 x11996 -1 x11997 >= 0 ;
+2 x12262 +2 x12263 +2 x12264 -1 x11995 -1 x11996 -1 x11997 -1 x11998 -1 x11999 -1 x12000 >= 0 ;
+2 x12265 +2 x12266 +2 x12267 -1 x11998 -1 x11999 -1 x12000 -1 x12001 -1 x12002 -1 x12003 >= 0 ;
+2 x12268 +2 x12269 +2 x12270 -1 x12001 -1 x12002 -1 x12003 -1 x12004 -1 x12005 -1 x12006 >= 0 ;
+2 x12271 +2 x12272 +2 x12273 -1 x12004 -1 x12005 -1 x12006 -1 x12007 -1 x12008 -1 x12009 >= 0 ;
+2 x12274 +2 x12275 +2 x12276 -1 x12007 -1 x12008 -1 x12009 -1 x12010 -1 x12011 -1 x12012 >= 0 ;
+2 x12277 +2 x12278 +2 x12279 -1 x12010 -1 x12011 -1 x12012 -1 x12013 -1 x12014 -1 x12015 >= 0 ;
+2 x12280 +2 x12281 +2 x12282 -1 x12013 -1 x12014 -1 x12015 -1 x12016 -1 x12017 -1 x12018 >= 0 ;
+2 x12283 +2 x12284 +2 x12285 -1 x12016 -1 x12017 -1 x12018 -1 x12019 -1 x12020 -1 x12021 >= 0 ;
+2 x12286 +2 x12287 +2 x12288 -1 x12019 -1 x12020 -1 x12021 -1 x12022 -1 x12023 -1 x12024 >= 0 ;
+2 x12289 +2 x12290 +2 x12291 -1 x12022 -1 x12023 -1 x12024 -1 x12025 -1 x12026 -1 x12027 >= 0 ;
+2 x12292 +2 x12293 +2 x12294 -1 x12025 -1 x12026 -1 x12027 -1 x12028 -1 x12029 -1 x12030 >= 0 ;
+2 x12295 +2 x12296 +2 x12297 -1 x12028 -1 x12029 -1 x12030 -1 x12031 -1 x12032 -1 x12033 >= 0 ;
+2 x12298 +2 x12299 +2 x12300 -1 x12031 -1 x12032 -1 x12033 -1 x12034 -1 x12035 -1 x12036 >= 0 ;
+2 x12301 +2 x12302 +2 x12303 -1 x12034 -1 x12035 -1 x12036 -1 x12037 -1 x12038 -1 x12039 >= 0 ;
+2 x12304 +2 x12305 +2 x12306 -1 x12037 -1 x12038 -1 x12039 -1 x12040 -1 x12041 -1 x12042 >= 0 ;
+2 x12307 +2 x12308 +2 x12309 -1 x12040 -1 x12041 -1 x12042 -1 x12043 -1 x12044 -1 x12045 >= 0 ;
+2 x12310 +2 x12311 +2 x12312 -1 x12043 -1 x12044 -1 x12045 -1 x12046 -1 x12047 -1 x12048 >= 0 ;
+2 x12313 +2 x12314 +2 x12315 -1 x12046 -1 x12047 -1 x12048 -1 x12049 -1 x12050 -1 x12051 >= 0 ;
+2 x12316 +2 x12317 +2 x12318 -1 x12049 -1 x12050 -1 x12051 -1 x12052 -1 x12053 -1 x12054 >= 0 ;
+2 x12319 +2 x12320 +2 x12321 -1 x12052 -1 x12053 -1 x12054 -1 x12055 -1 x12056 -1 x12057 >= 0 ;
+2 x12322 +2 x12323 +2 x12324 -1 x12055 -1 x12056 -1 x12057 -1 x12058 -1 x12059 -1 x12060 >= 0 ;
+2 x12325 +2 x12326 +2 x12327 -1 x12058 -1 x12059 -1 x12060 -1 x12061 -1 x12062 -1 x12063 >= 0 ;
+2 x12328 +2 x12329 +2 x12330 -1 x12061 -1 x12062 -1 x12063 -1 x12064 -1 x12065 -1 x12066 >= 0 ;
+2 x12331 +2 x12332 +2 x12333 -1 x12064 -1 x12065 -1 x12066 -1 x12067 -1 x12068 -1 x12069 >= 0 ;
+2 x12334 +2 x12335 +2 x12336 -1 x12067 -1 x12068 -1 x12069 -1 x12070 -1 x12071 -1 x12072 >= 0 ;
+2 x12337 +2 x12338 +2 x12339 -1 x12070 -1 x12071 -1 x12072 -1 x12073 -1 x12074 -1 x12075 >= 0 ;
+2 x12340 +2 x12341 +2 x12342 -1 x12073 -1 x12074 -1 x12075 -1 x12076 -1 x12077 -1 x12078 >= 0 ;
+2 x12343 +2 x12344 +2 x12345 -1 x12076 -1 x12077 -1 x12078 -1 x12079 -1 x12080 -1 x12081 >= 0 ;
+2 x12346 +2 x12347 +2 x12348 -1 x12079 -1 x12080 -1 x12081 -1 x12082 -1 x12083 -1 x12084 >= 0 ;
+2 x12349 +2 x12350 +2 x12351 -1 x12082 -1 x12083 -1 x12084 -1 x12085 -1 x12086 -1 x12087 >= 0 ;
+2 x12352 +2 x12353 +2 x12354 -1 x12085 -1 x12086 -1 x12087 -1 x12088 -1 x12089 -1 x12090 >= 0 ;
+2 x12355 +2 x12356 +2 x12357 -1 x12088 -1 x12089 -1 x12090 -1 x12091 -1 x12092 -1 x12093 >= 0 ;
+2 x12358 +2 x12359 +2 x12360 -1 x12091 -1 x12092 -1 x12093 -1 x12094 -1 x12095 -1 x12096 >= 0 ;
+2 x12361 +2 x12362 +2 x12363 -1 x12094 -1 x12095 -1 x12096 -1 x12097 -1 x12098 -1 x12099 >= 0 ;
+2 x12364 +2 x12365 +2 x12366 -1 x12097 -1 x12098 -1 x12099 -1 x12100 -1 x12101 -1 x12102 >= 0 ;
+2 x12367 +2 x12368 +2 x12369 -1 x12100 -1 x12101 -1 x12102 -1 x12103 -1 x12104 -1 x12105 >= 0 ;
+2 x12370 +2 x12371 +2 x12372 -1 x12103 -1 x12104 -1 x12105 -1 x12106 -1 x12107 -1 x12108 >= 0 ;
+2 x12373 +2 x12374 +2 x12375 -1 x12106 -1 x12107 -1 x12108 -1 x12109 -1 x12110 -1 x12111 >= 0 ;
+2 x12376 +2 x12377 +2 x12378 -1 x12109 -1 x12110 -1 x12111 -1 x12112 -1 x12113 -1 x12114 >= 0 ;
+2 x12379 +2 x12380 +2 x12381 -1 x12112 -1 x12113 -1 x12114 -1 x12115 -1 x12116 -1 x12117 >= 0 ;
+2 x12382 +2 x12383 +2 x12384 -1 x12115 -1 x12116 -1 x12117 -1 x12118 -1 x12119 -1 x12120 >= 0 ;
+2 x12385 +2 x12386 +2 x12387 -1 x12118 -1 x12119 -1 x12120 -1 x12121 -1 x12122 -1 x12123 >= 0 ;
+2 x12388 +2 x12389 +2 x12390 -1 x12121 -1 x12122 -1 x12123 -1 x12124 -1 x12125 -1 x12126 >= 0 ;
+2 x12391 +2 x12392 +2 x12393 -1 x12124 -1 x12125 -1 x12126 -1 x12127 -1 x12128 -1 x12129 >= 0 ;
+2 x12394 +2 x12395 +2 x12396 -1 x12127 -1 x12128 -1 x12129 -1 x12130 -1 x12131 -1 x12132 >= 0 ;
+2 x12397 +2 x12398 +2 x12399 -1 x12130 -1 x12131 -1 x12132 -1 x12133 -1 x12134 -1 x12135 >= 0 ;
+2 x12400 +2 x12401 +2 x12402 -1 x12133 -1 x12134 -1 x12135 -1 x12136 -1 x12137 -1 x12138 >= 0 ;
+2 x12403 +2 x12404 +2 x12405 -1 x12136 -1 x12137 -1 x12138 -1 x12139 -1 x12140 -1 x12141 >= 0 ;
+2 x12406 +2 x12407 +2 x12408 -1 x12139 -1 x12140 -1 x12141 -1 x12142 -1 x12143 -1 x12144 >= 0 ;
+2 x12409 +2 x12410 +2 x12411 -1 x12142 -1 x12143 -1 x12144 -1 x12145 -1 x12146 -1 x12147 >= 0 ;
+2 x12412 +2 x12413 +2 x12414 -1 x12145 -1 x12146 -1 x12147 -1 x12148 -1 x12149 -1 x12150 >= 0 ;
+2 x12415 +2 x12416 +2 x12417 -1 x12148 -1 x12149 -1 x12150 -1 x12151 -1 x12152 -1 x12153 >= 0 ;
+2 x12418 +2 x12419 +2 x12420 -1 x12151 -1 x12152 -1 x12153 -1 x12154 -1 x12155 -1 x12156 >= 0 ;
+2 x12421 +2 x12422 +2 x12423 -1 x12154 -1 x12155 -1 x12156 -1 x12157 -1 x12158 -1 x12159 >= 0 ;
+2 x12424 +2 x12425 +2 x12426 -1 x12157 -1 x12158 -1 x12159 -1 x12160 -1 x12161 -1 x12162 >= 0 ;
+2 x12427 +2 x12428 +2 x12429 -1 x12160 -1 x12161 -1 x12162 -1 x12163 -1 x12164 -1 x12165 >= 0 ;
+2 x12430 +2 x12431 +2 x12432 -1 x12163 -1 x12164 -1 x12165 -1 x12166 -1 x12167 -1 x12168 >= 0 ;
+2 x12433 +2 x12434 +2 x12435 -1 x12166 -1 x12167 -1 x12168 -1 x12169 -1 x12170 -1 x12171 >= 0 ;
+2 x12436 +2 x12437 +2 x12438 -1 x12169 -1 x12170 -1 x12171 -1 x12172 -1 x12173 -1 x12174 >= 0 ;
+2 x12439 +2 x12440 +2 x12441 -1 x12172 -1 x12173 -1 x12174 -1 x12175 -1 x12176 -1 x12177 >= 0 ;
+2 x12442 +2 x12443 +2 x12444 -1 x12175 -1 x12176 -1 x12177 -1 x12178 -1 x12179 -1 x12180 >= 0 ;
+2 x12445 +2 x12446 +2 x12447 -1 x12178 -1 x12179 -1 x12180 -1 x12181 -1 x12182 -1 x12183 >= 0 ;
+2 x12448 +2 x12449 +2 x12450 -1 x12181 -1 x12182 -1 x12183 -1 x12184 -1 x12185 -1 x12186 >= 0 ;
+2 x12451 +2 x12452 +2 x12453 -1 x12184 -1 x12185 -1 x12186 -1 x12187 -1 x12188 -1 x12189 >= 0 ;
+2 x12454 +2 x12455 +2 x12456 -1 x12187 -1 x12188 -1 x12189 -1 x12190 -1 x12191 -1 x12192 >= 0 ;
+2 x12457 +2 x12458 +2 x12459 -1 x12190 -1 x12191 -1 x12192 -1 x12193 -1 x12194 -1 x12195 >= 0 ;
+2 x12460 +2 x12461 +2 x12462 -1 x12193 -1 x12194 -1 x12195 -1 x12196 -1 x12197 -1 x12198 >= 0 ;
+2 x12463 +2 x12464 +2 x12465 -1 x12196 -1 x12197 -1 x12198 -1 x12199 -1 x12200 -1 x12201 >= 0 ;
+2 x12466 +2 x12467 +2 x12468 -1 x12199 -1 x12200 -1 x12201 -1 x12202 -1 x12203 -1 x12204 >= 0 ;
+2 x12469 +2 x12470 +2 x12471 -1 x12202 -1 x12203 -1 x12204 -1 x12205 -1 x12206 -1 x12207 >= 0 ;
+2 x12472 +2 x12473 +2 x12474 -1 x12205 -1 x12206 -1 x12207 -1 x12208 -1 x12209 -1 x12210 >= 0 ;
+2 x12475 +2 x12476 +2 x12477 -1 x12208 -1 x12209 -1 x12210 -1 x12211 -1 x12212 -1 x12213 >= 0 ;
+2 x12478 +2 x12479 +2 x12480 -1 x12211 -1 x12212 -1 x12213 -1 x12214 -1 x12215 -1 x12216 >= 0 ;
+2 x12481 +2 x12482 +2 x12483 -1 x12214 -1 x12215 -1 x12216 -1 x12217 -1 x12218 -1 x12219 >= 0 ;
+2 x12484 +2 x12485 +2 x12486 -1 x12217 -1 x12218 -1 x12219 -1 x12220 -1 x12221 -1 x12222 >= 0 ;
+2 x12487 +2 x12488 +2 x12489 -1 x12220 -1 x12221 -1 x12222 -1 x12223 -1 x12224 -1 x12225 >= 0 ;
+2 x12490 +2 x12491 +2 x12492 -1 x12223 -1 x12224 -1 x12225 -1 x12226 -1 x12227 -1 x12228 >= 0 ;
+2 x12493 +2 x12494 +2 x12495 -1 x12226 -1 x12227 -1 x12228 -1 x12229 -1 x12230 -1 x12231 >= 0 ;
+2 x12496 +2 x12497 +2 x12498 -1 x12229 -1 x12230 -1 x12231 -1 x12232 -1 x12233 -1 x12234 >= 0 ;
+2 x12499 +2 x12500 +2 x12501 -1 x12232 -1 x12233 -1 x12234 -1 x12235 -1 x12236 -1 x12237 >= 0 ;
+2 x12502 +2 x12503 +2 x12504 -1 x12235 -1 x12236 -1 x12237 -1 x12238 -1 x12239 -1 x12240 >= 0 ;
+2 x12505 +2 x12506 +2 x12507 -1 x12238 -1 x12239 -1 x12240 -1 x12241 -1 x12242 -1 x12243 >= 0 ;
+2 x12508 +2 x12509 +2 x12510 -1 x12241 -1 x12242 -1 x12243 -1 x12244 -1 x12245 -1 x12246 >= 0 ;
+2 x12511 +2 x12512 +2 x12513 -1 x12244 -1 x12245 -1 x12246 -1 x12247 -1 x12248 -1 x12249 >= 0 ;
+2 x12514 +2 x12515 +2 x12516 -1 x12247 -1 x12248 -1 x12249 -1 x12250 -1 x12251 -1 x12252 >= 0 ;
+2 x12517 +2 x12518 +2 x12519 -1 x12250 -1 x12251 -1 x12252 -1 x12253 -1 x12254 -1 x12255 >= 0 ;
+2 x12520 +2 x12521 +2 x12522 -1 x12256 -1 x12257 -1 x12258 -1 x12259 -1 x12260 -1 x12261 >= 0 ;
+2 x12523 +2 x12524 +2 x12525 -1 x12259 -1 x12260 -1 x12261 -1 x12262 -1 x12263 -1 x12264 >= 0 ;
+2 x12526 +2 x12527 +2 x12528 -1 x12262 -1 x12263 -1 x12264 -1 x12265 -1 x12266 -1 x12267 >= 0 ;
+2 x12529 +2 x12530 +2 x12531 -1 x12265 -1 x12266 -1 x12267 -1 x12268 -1 x12269 -1 x12270 >= 0 ;
+2 x12532 +2 x12533 +2 x12534 -1 x12268 -1 x12269 -1 x12270 -1 x12271 -1 x12272 -1 x12273 >= 0 ;
+2 x12535 +2 x12536 +2 x12537 -1 x12271 -1 x12272 -1 x12273 -1 x12274 -1 x12275 -1 x12276 >= 0 ;
+2 x12538 +2 x12539 +2 x12540 -1 x12274 -1 x12275 -1 x12276 -1 x12277 -1 x12278 -1 x12279 >= 0 ;
+2 x12541 +2 x12542 +2 x12543 -1 x12277 -1 x12278 -1 x12279 -1 x12280 -1 x12281 -1 x12282 >= 0 ;
+2 x12544 +2 x12545 +2 x12546 -1 x12280 -1 x12281 -1 x12282 -1 x12283 -1 x12284 -1 x12285 >= 0 ;
+2 x12547 +2 x12548 +2 x12549 -1 x12283 -1 x12284 -1 x12285 -1 x12286 -1 x12287 -1 x12288 >= 0 ;
+2 x12550 +2 x12551 +2 x12552 -1 x12286 -1 x12287 -1 x12288 -1 x12289 -1 x12290 -1 x12291 >= 0 ;
+2 x12553 +2 x12554 +2 x12555 -1 x12289 -1 x12290 -1 x12291 -1 x12292 -1 x12293 -1 x12294 >= 0 ;
+2 x12556 +2 x12557 +2 x12558 -1 x12292 -1 x12293 -1 x12294 -1 x12295 -1 x12296 -1 x12297 >= 0 ;
+2 x12559 +2 x12560 +2 x12561 -1 x12295 -1 x12296 -1 x12297 -1 x12298 -1 x12299 -1 x12300 >= 0 ;
+2 x12562 +2 x12563 +2 x12564 -1 x12298 -1 x12299 -1 x12300 -1 x12301 -1 x12302 -1 x12303 >= 0 ;
+2 x12565 +2 x12566 +2 x12567 -1 x12301 -1 x12302 -1 x12303 -1 x12304 -1 x12305 -1 x12306 >= 0 ;
+2 x12568 +2 x12569 +2 x12570 -1 x12304 -1 x12305 -1 x12306 -1 x12307 -1 x12308 -1 x12309 >= 0 ;
+2 x12571 +2 x12572 +2 x12573 -1 x12307 -1 x12308 -1 x12309 -1 x12310 -1 x12311 -1 x12312 >= 0 ;
+2 x12574 +2 x12575 +2 x12576 -1 x12310 -1 x12311 -1 x12312 -1 x12313 -1 x12314 -1 x12315 >= 0 ;
+2 x12577 +2 x12578 +2 x12579 -1 x12313 -1 x12314 -1 x12315 -1 x12316 -1 x12317 -1 x12318 >= 0 ;
+2 x12580 +2 x12581 +2 x12582 -1 x12316 -1 x12317 -1 x12318 -1 x12319 -1 x12320 -1 x12321 >= 0 ;
+2 x12583 +2 x12584 +2 x12585 -1 x12319 -1 x12320 -1 x12321 -1 x12322 -1 x12323 -1 x12324 >= 0 ;
+2 x12586 +2 x12587 +2 x12588 -1 x12322 -1 x12323 -1 x12324 -1 x12325 -1 x12326 -1 x12327 >= 0 ;
+2 x12589 +2 x12590 +2 x12591 -1 x12325 -1 x12326 -1 x12327 -1 x12328 -1 x12329 -1 x12330 >= 0 ;
+2 x12592 +2 x12593 +2 x12594 -1 x12328 -1 x12329 -1 x12330 -1 x12331 -1 x12332 -1 x12333 >= 0 ;
+2 x12595 +2 x12596 +2 x12597 -1 x12331 -1 x12332 -1 x12333 -1 x12334 -1 x12335 -1 x12336 >= 0 ;
+2 x12598 +2 x12599 +2 x12600 -1 x12334 -1 x12335 -1 x12336 -1 x12337 -1 x12338 -1 x12339 >= 0 ;
+2 x12601 +2 x12602 +2 x12603 -1 x12337 -1 x12338 -1 x12339 -1 x12340 -1 x12341 -1 x12342 >= 0 ;
+2 x12604 +2 x12605 +2 x12606 -1 x12340 -1 x12341 -1 x12342 -1 x12343 -1 x12344 -1 x12345 >= 0 ;
+2 x12607 +2 x12608 +2 x12609 -1 x12343 -1 x12344 -1 x12345 -1 x12346 -1 x12347 -1 x12348 >= 0 ;
+2 x12610 +2 x12611 +2 x12612 -1 x12346 -1 x12347 -1 x12348 -1 x12349 -1 x12350 -1 x12351 >= 0 ;
+2 x12613 +2 x12614 +2 x12615 -1 x12349 -1 x12350 -1 x12351 -1 x12352 -1 x12353 -1 x12354 >= 0 ;
+2 x12616 +2 x12617 +2 x12618 -1 x12352 -1 x12353 -1 x12354 -1 x12355 -1 x12356 -1 x12357 >= 0 ;
+2 x12619 +2 x12620 +2 x12621 -1 x12355 -1 x12356 -1 x12357 -1 x12358 -1 x12359 -1 x12360 >= 0 ;
+2 x12622 +2 x12623 +2 x12624 -1 x12358 -1 x12359 -1 x12360 -1 x12361 -1 x12362 -1 x12363 >= 0 ;
+2 x12625 +2 x12626 +2 x12627 -1 x12361 -1 x12362 -1 x12363 -1 x12364 -1 x12365 -1 x12366 >= 0 ;
+2 x12628 +2 x12629 +2 x12630 -1 x12364 -1 x12365 -1 x12366 -1 x12367 -1 x12368 -1 x12369 >= 0 ;
+2 x12631 +2 x12632 +2 x12633 -1 x12367 -1 x12368 -1 x12369 -1 x12370 -1 x12371 -1 x12372 >= 0 ;
+2 x12634 +2 x12635 +2 x12636 -1 x12370 -1 x12371 -1 x12372 -1 x12373 -1 x12374 -1 x12375 >= 0 ;
+2 x12637 +2 x12638 +2 x12639 -1 x12373 -1 x12374 -1 x12375 -1 x12376 -1 x12377 -1 x12378 >= 0 ;
+2 x12640 +2 x12641 +2 x12642 -1 x12376 -1 x12377 -1 x12378 -1 x12379 -1 x12380 -1 x12381 >= 0 ;
+2 x12643 +2 x12644 +2 x12645 -1 x12379 -1 x12380 -1 x12381 -1 x12382 -1 x12383 -1 x12384 >= 0 ;
+2 x12646 +2 x12647 +2 x12648 -1 x12382 -1 x12383 -1 x12384 -1 x12385 -1 x12386 -1 x12387 >= 0 ;
+2 x12649 +2 x12650 +2 x12651 -1 x12385 -1 x12386 -1 x12387 -1 x12388 -1 x12389 -1 x12390 >= 0 ;
+2 x12652 +2 x12653 +2 x12654 -1 x12388 -1 x12389 -1 x12390 -1 x12391 -1 x12392 -1 x12393 >= 0 ;
+2 x12655 +2 x12656 +2 x12657 -1 x12391 -1 x12392 -1 x12393 -1 x12394 -1 x12395 -1 x12396 >= 0 ;
+2 x12658 +2 x12659 +2 x12660 -1 x12394 -1 x12395 -1 x12396 -1 x12397 -1 x12398 -1 x12399 >= 0 ;
+2 x12661 +2 x12662 +2 x12663 -1 x12397 -1 x12398 -1 x12399 -1 x12400 -1 x12401 -1 x12402 >= 0 ;
+2 x12664 +2 x12665 +2 x12666 -1 x12400 -1 x12401 -1 x12402 -1 x12403 -1 x12404 -1 x12405 >= 0 ;
+2 x12667 +2 x12668 +2 x12669 -1 x12403 -1 x12404 -1 x12405 -1 x12406 -1 x12407 -1 x12408 >= 0 ;
+2 x12670 +2 x12671 +2 x12672 -1 x12406 -1 x12407 -1 x12408 -1 x12409 -1 x12410 -1 x12411 >= 0 ;
+2 x12673 +2 x12674 +2 x12675 -1 x12409 -1 x12410 -1 x12411 -1 x12412 -1 x12413 -1 x12414 >= 0 ;
+2 x12676 +2 x12677 +2 x12678 -1 x12412 -1 x12413 -1 x12414 -1 x12415 -1 x12416 -1 x12417 >= 0 ;
+2 x12679 +2 x12680 +2 x12681 -1 x12415 -1 x12416 -1 x12417 -1 x12418 -1 x12419 -1 x12420 >= 0 ;
+2 x12682 +2 x12683 +2 x12684 -1 x12418 -1 x12419 -1 x12420 -1 x12421 -1 x12422 -1 x12423 >= 0 ;
+2 x12685 +2 x12686 +2 x12687 -1 x12421 -1 x12422 -1 x12423 -1 x12424 -1 x12425 -1 x12426 >= 0 ;
+2 x12688 +2 x12689 +2 x12690 -1 x12424 -1 x12425 -1 x12426 -1 x12427 -1 x12428 -1 x12429 >= 0 ;
+2 x12691 +2 x12692 +2 x12693 -1 x12427 -1 x12428 -1 x12429 -1 x12430 -1 x12431 -1 x12432 >= 0 ;
+2 x12694 +2 x12695 +2 x12696 -1 x12430 -1 x12431 -1 x12432 -1 x12433 -1 x12434 -1 x12435 >= 0 ;
+2 x12697 +2 x12698 +2 x12699 -1 x12433 -1 x12434 -1 x12435 -1 x12436 -1 x12437 -1 x12438 >= 0 ;
+2 x12700 +2 x12701 +2 x12702 -1 x12436 -1 x12437 -1 x12438 -1 x12439 -1 x12440 -1 x12441 >= 0 ;
+2 x12703 +2 x12704 +2 x12705 -1 x12439 -1 x12440 -1 x12441 -1 x12442 -1 x12443 -1 x12444 >= 0 ;
+2 x12706 +2 x12707 +2 x12708 -1 x12442 -1 x12443 -1 x12444 -1 x12445 -1 x12446 -1 x12447 >= 0 ;
+2 x12709 +2 x12710 +2 x12711 -1 x12445 -1 x12446 -1 x12447 -1 x12448 -1 x12449 -1 x12450 >= 0 ;
+2 x12712 +2 x12713 +2 x12714 -1 x12448 -1 x12449 -1 x12450 -1 x12451 -1 x12452 -1 x12453 >= 0 ;
+2 x12715 +2 x12716 +2 x12717 -1 x12451 -1 x12452 -1 x12453 -1 x12454 -1 x12455 -1 x12456 >= 0 ;
+2 x12718 +2 x12719 +2 x12720 -1 x12454 -1 x12455 -1 x12456 -1 x12457 -1 x12458 -1 x12459 >= 0 ;
+2 x12721 +2 x12722 +2 x12723 -1 x12457 -1 x12458 -1 x12459 -1 x12460 -1 x12461 -1 x12462 >= 0 ;
+2 x12724 +2 x12725 +2 x12726 -1 x12460 -1 x12461 -1 x12462 -1 x12463 -1 x12464 -1 x12465 >= 0 ;
+2 x12727 +2 x12728 +2 x12729 -1 x12463 -1 x12464 -1 x12465 -1 x12466 -1 x12467 -1 x12468 >= 0 ;
+2 x12730 +2 x12731 +2 x12732 -1 x12466 -1 x12467 -1 x12468 -1 x12469 -1 x12470 -1 x12471 >= 0 ;
+2 x12733 +2 x12734 +2 x12735 -1 x12469 -1 x12470 -1 x12471 -1 x12472 -1 x12473 -1 x12474 >= 0 ;
+2 x12736 +2 x12737 +2 x12738 -1 x12472 -1 x12473 -1 x12474 -1 x12475 -1 x12476 -1 x12477 >= 0 ;
+2 x12739 +2 x12740 +2 x12741 -1 x12475 -1 x12476 -1 x12477 -1 x12478 -1 x12479 -1 x12480 >= 0 ;
+2 x12742 +2 x12743 +2 x12744 -1 x12478 -1 x12479 -1 x12480 -1 x12481 -1 x12482 -1 x12483 >= 0 ;
+2 x12745 +2 x12746 +2 x12747 -1 x12481 -1 x12482 -1 x12483 -1 x12484 -1 x12485 -1 x12486 >= 0 ;
+2 x12748 +2 x12749 +2 x12750 -1 x12484 -1 x12485 -1 x12486 -1 x12487 -1 x12488 -1 x12489 >= 0 ;
+2 x12751 +2 x12752 +2 x12753 -1 x12487 -1 x12488 -1 x12489 -1 x12490 -1 x12491 -1 x12492 >= 0 ;
+2 x12754 +2 x12755 +2 x12756 -1 x12490 -1 x12491 -1 x12492 -1 x12493 -1 x12494 -1 x12495 >= 0 ;
+2 x12757 +2 x12758 +2 x12759 -1 x12493 -1 x12494 -1 x12495 -1 x12496 -1 x12497 -1 x12498 >= 0 ;
+2 x12760 +2 x12761 +2 x12762 -1 x12496 -1 x12497 -1 x12498 -1 x12499 -1 x12500 -1 x12501 >= 0 ;
+2 x12763 +2 x12764 +2 x12765 -1 x12499 -1 x12500 -1 x12501 -1 x12502 -1 x12503 -1 x12504 >= 0 ;
+2 x12766 +2 x12767 +2 x12768 -1 x12502 -1 x12503 -1 x12504 -1 x12505 -1 x12506 -1 x12507 >= 0 ;
+2 x12769 +2 x12770 +2 x12771 -1 x12505 -1 x12506 -1 x12507 -1 x12508 -1 x12509 -1 x12510 >= 0 ;
+2 x12772 +2 x12773 +2 x12774 -1 x12508 -1 x12509 -1 x12510 -1 x12511 -1 x12512 -1 x12513 >= 0 ;
+2 x12775 +2 x12776 +2 x12777 -1 x12511 -1 x12512 -1 x12513 -1 x12514 -1 x12515 -1 x12516 >= 0 ;
+2 x12778 +2 x12779 +2 x12780 -1 x12514 -1 x12515 -1 x12516 -1 x12517 -1 x12518 -1 x12519 >= 0 ;
+2 x12781 +2 x12782 +2 x12783 -1 x12520 -1 x12521 -1 x12522 -1 x12523 -1 x12524 -1 x12525 >= 0 ;
+2 x12784 +2 x12785 +2 x12786 -1 x12523 -1 x12524 -1 x12525 -1 x12526 -1 x12527 -1 x12528 >= 0 ;
+2 x12787 +2 x12788 +2 x12789 -1 x12526 -1 x12527 -1 x12528 -1 x12529 -1 x12530 -1 x12531 >= 0 ;
+2 x12790 +2 x12791 +2 x12792 -1 x12529 -1 x12530 -1 x12531 -1 x12532 -1 x12533 -1 x12534 >= 0 ;
+2 x12793 +2 x12794 +2 x12795 -1 x12532 -1 x12533 -1 x12534 -1 x12535 -1 x12536 -1 x12537 >= 0 ;
+2 x12796 +2 x12797 +2 x12798 -1 x12535 -1 x12536 -1 x12537 -1 x12538 -1 x12539 -1 x12540 >= 0 ;
+2 x12799 +2 x12800 +2 x12801 -1 x12538 -1 x12539 -1 x12540 -1 x12541 -1 x12542 -1 x12543 >= 0 ;
+2 x12802 +2 x12803 +2 x12804 -1 x12541 -1 x12542 -1 x12543 -1 x12544 -1 x12545 -1 x12546 >= 0 ;
+2 x12805 +2 x12806 +2 x12807 -1 x12544 -1 x12545 -1 x12546 -1 x12547 -1 x12548 -1 x12549 >= 0 ;
+2 x12808 +2 x12809 +2 x12810 -1 x12547 -1 x12548 -1 x12549 -1 x12550 -1 x12551 -1 x12552 >= 0 ;
+2 x12811 +2 x12812 +2 x12813 -1 x12550 -1 x12551 -1 x12552 -1 x12553 -1 x12554 -1 x12555 >= 0 ;
+2 x12814 +2 x12815 +2 x12816 -1 x12553 -1 x12554 -1 x12555 -1 x12556 -1 x12557 -1 x12558 >= 0 ;
+2 x12817 +2 x12818 +2 x12819 -1 x12556 -1 x12557 -1 x12558 -1 x12559 -1 x12560 -1 x12561 >= 0 ;
+2 x12820 +2 x12821 +2 x12822 -1 x12559 -1 x12560 -1 x12561 -1 x12562 -1 x12563 -1 x12564 >= 0 ;
+2 x12823 +2 x12824 +2 x12825 -1 x12562 -1 x12563 -1 x12564 -1 x12565 -1 x12566 -1 x12567 >= 0 ;
+2 x12826 +2 x12827 +2 x12828 -1 x12565 -1 x12566 -1 x12567 -1 x12568 -1 x12569 -1 x12570 >= 0 ;
+2 x12829 +2 x12830 +2 x12831 -1 x12568 -1 x12569 -1 x12570 -1 x12571 -1 x12572 -1 x12573 >= 0 ;
+2 x12832 +2 x12833 +2 x12834 -1 x12571 -1 x12572 -1 x12573 -1 x12574 -1 x12575 -1 x12576 >= 0 ;
+2 x12835 +2 x12836 +2 x12837 -1 x12574 -1 x12575 -1 x12576 -1 x12577 -1 x12578 -1 x12579 >= 0 ;
+2 x12838 +2 x12839 +2 x12840 -1 x12577 -1 x12578 -1 x12579 -1 x12580 -1 x12581 -1 x12582 >= 0 ;
+2 x12841 +2 x12842 +2 x12843 -1 x12580 -1 x12581 -1 x12582 -1 x12583 -1 x12584 -1 x12585 >= 0 ;
+2 x12844 +2 x12845 +2 x12846 -1 x12583 -1 x12584 -1 x12585 -1 x12586 -1 x12587 -1 x12588 >= 0 ;
+2 x12847 +2 x12848 +2 x12849 -1 x12586 -1 x12587 -1 x12588 -1 x12589 -1 x12590 -1 x12591 >= 0 ;
+2 x12850 +2 x12851 +2 x12852 -1 x12589 -1 x12590 -1 x12591 -1 x12592 -1 x12593 -1 x12594 >= 0 ;
+2 x12853 +2 x12854 +2 x12855 -1 x12592 -1 x12593 -1 x12594 -1 x12595 -1 x12596 -1 x12597 >= 0 ;
+2 x12856 +2 x12857 +2 x12858 -1 x12595 -1 x12596 -1 x12597 -1 x12598 -1 x12599 -1 x12600 >= 0 ;
+2 x12859 +2 x12860 +2 x12861 -1 x12598 -1 x12599 -1 x12600 -1 x12601 -1 x12602 -1 x12603 >= 0 ;
+2 x12862 +2 x12863 +2 x12864 -1 x12601 -1 x12602 -1 x12603 -1 x12604 -1 x12605 -1 x12606 >= 0 ;
+2 x12865 +2 x12866 +2 x12867 -1 x12604 -1 x12605 -1 x12606 -1 x12607 -1 x12608 -1 x12609 >= 0 ;
+2 x12868 +2 x12869 +2 x12870 -1 x12607 -1 x12608 -1 x12609 -1 x12610 -1 x12611 -1 x12612 >= 0 ;
+2 x12871 +2 x12872 +2 x12873 -1 x12610 -1 x12611 -1 x12612 -1 x12613 -1 x12614 -1 x12615 >= 0 ;
+2 x12874 +2 x12875 +2 x12876 -1 x12613 -1 x12614 -1 x12615 -1 x12616 -1 x12617 -1 x12618 >= 0 ;
+2 x12877 +2 x12878 +2 x12879 -1 x12616 -1 x12617 -1 x12618 -1 x12619 -1 x12620 -1 x12621 >= 0 ;
+2 x12880 +2 x12881 +2 x12882 -1 x12619 -1 x12620 -1 x12621 -1 x12622 -1 x12623 -1 x12624 >= 0 ;
+2 x12883 +2 x12884 +2 x12885 -1 x12622 -1 x12623 -1 x12624 -1 x12625 -1 x12626 -1 x12627 >= 0 ;
+2 x12886 +2 x12887 +2 x12888 -1 x12625 -1 x12626 -1 x12627 -1 x12628 -1 x12629 -1 x12630 >= 0 ;
+2 x12889 +2 x12890 +2 x12891 -1 x12628 -1 x12629 -1 x12630 -1 x12631 -1 x12632 -1 x12633 >= 0 ;
+2 x12892 +2 x12893 +2 x12894 -1 x12631 -1 x12632 -1 x12633 -1 x12634 -1 x12635 -1 x12636 >= 0 ;
+2 x12895 +2 x12896 +2 x12897 -1 x12634 -1 x12635 -1 x12636 -1 x12637 -1 x12638 -1 x12639 >= 0 ;
+2 x12898 +2 x12899 +2 x12900 -1 x12637 -1 x12638 -1 x12639 -1 x12640 -1 x12641 -1 x12642 >= 0 ;
+2 x12901 +2 x12902 +2 x12903 -1 x12640 -1 x12641 -1 x12642 -1 x12643 -1 x12644 -1 x12645 >= 0 ;
+2 x12904 +2 x12905 +2 x12906 -1 x12643 -1 x12644 -1 x12645 -1 x12646 -1 x12647 -1 x12648 >= 0 ;
+2 x12907 +2 x12908 +2 x12909 -1 x12646 -1 x12647 -1 x12648 -1 x12649 -1 x12650 -1 x12651 >= 0 ;
+2 x12910 +2 x12911 +2 x12912 -1 x12649 -1 x12650 -1 x12651 -1 x12652 -1 x12653 -1 x12654 >= 0 ;
+2 x12913 +2 x12914 +2 x12915 -1 x12652 -1 x12653 -1 x12654 -1 x12655 -1 x12656 -1 x12657 >= 0 ;
+2 x12916 +2 x12917 +2 x12918 -1 x12655 -1 x12656 -1 x12657 -1 x12658 -1 x12659 -1 x12660 >= 0 ;
+2 x12919 +2 x12920 +2 x12921 -1 x12658 -1 x12659 -1 x12660 -1 x12661 -1 x12662 -1 x12663 >= 0 ;
+2 x12922 +2 x12923 +2 x12924 -1 x12661 -1 x12662 -1 x12663 -1 x12664 -1 x12665 -1 x12666 >= 0 ;
+2 x12925 +2 x12926 +2 x12927 -1 x12664 -1 x12665 -1 x12666 -1 x12667 -1 x12668 -1 x12669 >= 0 ;
+2 x12928 +2 x12929 +2 x12930 -1 x12667 -1 x12668 -1 x12669 -1 x12670 -1 x12671 -1 x12672 >= 0 ;
+2 x12931 +2 x12932 +2 x12933 -1 x12670 -1 x12671 -1 x12672 -1 x12673 -1 x12674 -1 x12675 >= 0 ;
+2 x12934 +2 x12935 +2 x12936 -1 x12673 -1 x12674 -1 x12675 -1 x12676 -1 x12677 -1 x12678 >= 0 ;
+2 x12937 +2 x12938 +2 x12939 -1 x12676 -1 x12677 -1 x12678 -1 x12679 -1 x12680 -1 x12681 >= 0 ;
+2 x12940 +2 x12941 +2 x12942 -1 x12679 -1 x12680 -1 x12681 -1 x12682 -1 x12683 -1 x12684 >= 0 ;
+2 x12943 +2 x12944 +2 x12945 -1 x12682 -1 x12683 -1 x12684 -1 x12685 -1 x12686 -1 x12687 >= 0 ;
+2 x12946 +2 x12947 +2 x12948 -1 x12685 -1 x12686 -1 x12687 -1 x12688 -1 x12689 -1 x12690 >= 0 ;
+2 x12949 +2 x12950 +2 x12951 -1 x12688 -1 x12689 -1 x12690 -1 x12691 -1 x12692 -1 x12693 >= 0 ;
+2 x12952 +2 x12953 +2 x12954 -1 x12691 -1 x12692 -1 x12693 -1 x12694 -1 x12695 -1 x12696 >= 0 ;
+2 x12955 +2 x12956 +2 x12957 -1 x12694 -1 x12695 -1 x12696 -1 x12697 -1 x12698 -1 x12699 >= 0 ;
+2 x12958 +2 x12959 +2 x12960 -1 x12697 -1 x12698 -1 x12699 -1 x12700 -1 x12701 -1 x12702 >= 0 ;
+2 x12961 +2 x12962 +2 x12963 -1 x12700 -1 x12701 -1 x12702 -1 x12703 -1 x12704 -1 x12705 >= 0 ;
+2 x12964 +2 x12965 +2 x12966 -1 x12703 -1 x12704 -1 x12705 -1 x12706 -1 x12707 -1 x12708 >= 0 ;
+2 x12967 +2 x12968 +2 x12969 -1 x12706 -1 x12707 -1 x12708 -1 x12709 -1 x12710 -1 x12711 >= 0 ;
+2 x12970 +2 x12971 +2 x12972 -1 x12709 -1 x12710 -1 x12711 -1 x12712 -1 x12713 -1 x12714 >= 0 ;
+2 x12973 +2 x12974 +2 x12975 -1 x12712 -1 x12713 -1 x12714 -1 x12715 -1 x12716 -1 x12717 >= 0 ;
+2 x12976 +2 x12977 +2 x12978 -1 x12715 -1 x12716 -1 x12717 -1 x12718 -1 x12719 -1 x12720 >= 0 ;
+2 x12979 +2 x12980 +2 x12981 -1 x12718 -1 x12719 -1 x12720 -1 x12721 -1 x12722 -1 x12723 >= 0 ;
+2 x12982 +2 x12983 +2 x12984 -1 x12721 -1 x12722 -1 x12723 -1 x12724 -1 x12725 -1 x12726 >= 0 ;
+2 x12985 +2 x12986 +2 x12987 -1 x12724 -1 x12725 -1 x12726 -1 x12727 -1 x12728 -1 x12729 >= 0 ;
+2 x12988 +2 x12989 +2 x12990 -1 x12727 -1 x12728 -1 x12729 -1 x12730 -1 x12731 -1 x12732 >= 0 ;
+2 x12991 +2 x12992 +2 x12993 -1 x12730 -1 x12731 -1 x12732 -1 x12733 -1 x12734 -1 x12735 >= 0 ;
+2 x12994 +2 x12995 +2 x12996 -1 x12733 -1 x12734 -1 x12735 -1 x12736 -1 x12737 -1 x12738 >= 0 ;
+2 x12997 +2 x12998 +2 x12999 -1 x12736 -1 x12737 -1 x12738 -1 x12739 -1 x12740 -1 x12741 >= 0 ;
+2 x13000 +2 x13001 +2 x13002 -1 x12739 -1 x12740 -1 x12741 -1 x12742 -1 x12743 -1 x12744 >= 0 ;
+2 x13003 +2 x13004 +2 x13005 -1 x12742 -1 x12743 -1 x12744 -1 x12745 -1 x12746 -1 x12747 >= 0 ;
+2 x13006 +2 x13007 +2 x13008 -1 x12745 -1 x12746 -1 x12747 -1 x12748 -1 x12749 -1 x12750 >= 0 ;
+2 x13009 +2 x13010 +2 x13011 -1 x12748 -1 x12749 -1 x12750 -1 x12751 -1 x12752 -1 x12753 >= 0 ;
+2 x13012 +2 x13013 +2 x13014 -1 x12751 -1 x12752 -1 x12753 -1 x12754 -1 x12755 -1 x12756 >= 0 ;
+2 x13015 +2 x13016 +2 x13017 -1 x12754 -1 x12755 -1 x12756 -1 x12757 -1 x12758 -1 x12759 >= 0 ;
+2 x13018 +2 x13019 +2 x13020 -1 x12757 -1 x12758 -1 x12759 -1 x12760 -1 x12761 -1 x12762 >= 0 ;
+2 x13021 +2 x13022 +2 x13023 -1 x12760 -1 x12761 -1 x12762 -1 x12763 -1 x12764 -1 x12765 >= 0 ;
+2 x13024 +2 x13025 +2 x13026 -1 x12763 -1 x12764 -1 x12765 -1 x12766 -1 x12767 -1 x12768 >= 0 ;
+2 x13027 +2 x13028 +2 x13029 -1 x12766 -1 x12767 -1 x12768 -1 x12769 -1 x12770 -1 x12771 >= 0 ;
+2 x13030 +2 x13031 +2 x13032 -1 x12769 -1 x12770 -1 x12771 -1 x12772 -1 x12773 -1 x12774 >= 0 ;
+2 x13033 +2 x13034 +2 x13035 -1 x12772 -1 x12773 -1 x12774 -1 x12775 -1 x12776 -1 x12777 >= 0 ;
+2 x13036 +2 x13037 +2 x13038 -1 x12775 -1 x12776 -1 x12777 -1 x12778 -1 x12779 -1 x12780 >= 0 ;
+2 x13039 +2 x13040 +2 x13041 -1 x12781 -1 x12782 -1 x12783 -1 x12784 -1 x12785 -1 x12786 >= 0 ;
+2 x13042 +2 x13043 +2 x13044 -1 x12784 -1 x12785 -1 x12786 -1 x12787 -1 x12788 -1 x12789 >= 0 ;
+2 x13045 +2 x13046 +2 x13047 -1 x12787 -1 x12788 -1 x12789 -1 x12790 -1 x12791 -1 x12792 >= 0 ;
+2 x13048 +2 x13049 +2 x13050 -1 x12790 -1 x12791 -1 x12792 -1 x12793 -1 x12794 -1 x12795 >= 0 ;
+2 x13051 +2 x13052 +2 x13053 -1 x12793 -1 x12794 -1 x12795 -1 x12796 -1 x12797 -1 x12798 >= 0 ;
+2 x13054 +2 x13055 +2 x13056 -1 x12796 -1 x12797 -1 x12798 -1 x12799 -1 x12800 -1 x12801 >= 0 ;
+2 x13057 +2 x13058 +2 x13059 -1 x12799 -1 x12800 -1 x12801 -1 x12802 -1 x12803 -1 x12804 >= 0 ;
+2 x13060 +2 x13061 +2 x13062 -1 x12802 -1 x12803 -1 x12804 -1 x12805 -1 x12806 -1 x12807 >= 0 ;
+2 x13063 +2 x13064 +2 x13065 -1 x12805 -1 x12806 -1 x12807 -1 x12808 -1 x12809 -1 x12810 >= 0 ;
+2 x13066 +2 x13067 +2 x13068 -1 x12808 -1 x12809 -1 x12810 -1 x12811 -1 x12812 -1 x12813 >= 0 ;
+2 x13069 +2 x13070 +2 x13071 -1 x12811 -1 x12812 -1 x12813 -1 x12814 -1 x12815 -1 x12816 >= 0 ;
+2 x13072 +2 x13073 +2 x13074 -1 x12814 -1 x12815 -1 x12816 -1 x12817 -1 x12818 -1 x12819 >= 0 ;
+2 x13075 +2 x13076 +2 x13077 -1 x12817 -1 x12818 -1 x12819 -1 x12820 -1 x12821 -1 x12822 >= 0 ;
+2 x13078 +2 x13079 +2 x13080 -1 x12820 -1 x12821 -1 x12822 -1 x12823 -1 x12824 -1 x12825 >= 0 ;
+2 x13081 +2 x13082 +2 x13083 -1 x12823 -1 x12824 -1 x12825 -1 x12826 -1 x12827 -1 x12828 >= 0 ;
+2 x13084 +2 x13085 +2 x13086 -1 x12826 -1 x12827 -1 x12828 -1 x12829 -1 x12830 -1 x12831 >= 0 ;
+2 x13087 +2 x13088 +2 x13089 -1 x12829 -1 x12830 -1 x12831 -1 x12832 -1 x12833 -1 x12834 >= 0 ;
+2 x13090 +2 x13091 +2 x13092 -1 x12832 -1 x12833 -1 x12834 -1 x12835 -1 x12836 -1 x12837 >= 0 ;
+2 x13093 +2 x13094 +2 x13095 -1 x12835 -1 x12836 -1 x12837 -1 x12838 -1 x12839 -1 x12840 >= 0 ;
+2 x13096 +2 x13097 +2 x13098 -1 x12838 -1 x12839 -1 x12840 -1 x12841 -1 x12842 -1 x12843 >= 0 ;
+2 x13099 +2 x13100 +2 x13101 -1 x12841 -1 x12842 -1 x12843 -1 x12844 -1 x12845 -1 x12846 >= 0 ;
+2 x13102 +2 x13103 +2 x13104 -1 x12844 -1 x12845 -1 x12846 -1 x12847 -1 x12848 -1 x12849 >= 0 ;
+2 x13105 +2 x13106 +2 x13107 -1 x12847 -1 x12848 -1 x12849 -1 x12850 -1 x12851 -1 x12852 >= 0 ;
+2 x13108 +2 x13109 +2 x13110 -1 x12850 -1 x12851 -1 x12852 -1 x12853 -1 x12854 -1 x12855 >= 0 ;
+2 x13111 +2 x13112 +2 x13113 -1 x12853 -1 x12854 -1 x12855 -1 x12856 -1 x12857 -1 x12858 >= 0 ;
+2 x13114 +2 x13115 +2 x13116 -1 x12856 -1 x12857 -1 x12858 -1 x12859 -1 x12860 -1 x12861 >= 0 ;
+2 x13117 +2 x13118 +2 x13119 -1 x12859 -1 x12860 -1 x12861 -1 x12862 -1 x12863 -1 x12864 >= 0 ;
+2 x13120 +2 x13121 +2 x13122 -1 x12862 -1 x12863 -1 x12864 -1 x12865 -1 x12866 -1 x12867 >= 0 ;
+2 x13123 +2 x13124 +2 x13125 -1 x12865 -1 x12866 -1 x12867 -1 x12868 -1 x12869 -1 x12870 >= 0 ;
+2 x13126 +2 x13127 +2 x13128 -1 x12868 -1 x12869 -1 x12870 -1 x12871 -1 x12872 -1 x12873 >= 0 ;
+2 x13129 +2 x13130 +2 x13131 -1 x12871 -1 x12872 -1 x12873 -1 x12874 -1 x12875 -1 x12876 >= 0 ;
+2 x13132 +2 x13133 +2 x13134 -1 x12874 -1 x12875 -1 x12876 -1 x12877 -1 x12878 -1 x12879 >= 0 ;
+2 x13135 +2 x13136 +2 x13137 -1 x12877 -1 x12878 -1 x12879 -1 x12880 -1 x12881 -1 x12882 >= 0 ;
+2 x13138 +2 x13139 +2 x13140 -1 x12880 -1 x12881 -1 x12882 -1 x12883 -1 x12884 -1 x12885 >= 0 ;
+2 x13141 +2 x13142 +2 x13143 -1 x12883 -1 x12884 -1 x12885 -1 x12886 -1 x12887 -1 x12888 >= 0 ;
+2 x13144 +2 x13145 +2 x13146 -1 x12886 -1 x12887 -1 x12888 -1 x12889 -1 x12890 -1 x12891 >= 0 ;
+2 x13147 +2 x13148 +2 x13149 -1 x12889 -1 x12890 -1 x12891 -1 x12892 -1 x12893 -1 x12894 >= 0 ;
+2 x13150 +2 x13151 +2 x13152 -1 x12892 -1 x12893 -1 x12894 -1 x12895 -1 x12896 -1 x12897 >= 0 ;
+2 x13153 +2 x13154 +2 x13155 -1 x12895 -1 x12896 -1 x12897 -1 x12898 -1 x12899 -1 x12900 >= 0 ;
+2 x13156 +2 x13157 +2 x13158 -1 x12898 -1 x12899 -1 x12900 -1 x12901 -1 x12902 -1 x12903 >= 0 ;
+2 x13159 +2 x13160 +2 x13161 -1 x12901 -1 x12902 -1 x12903 -1 x12904 -1 x12905 -1 x12906 >= 0 ;
+2 x13162 +2 x13163 +2 x13164 -1 x12904 -1 x12905 -1 x12906 -1 x12907 -1 x12908 -1 x12909 >= 0 ;
+2 x13165 +2 x13166 +2 x13167 -1 x12907 -1 x12908 -1 x12909 -1 x12910 -1 x12911 -1 x12912 >= 0 ;
+2 x13168 +2 x13169 +2 x13170 -1 x12910 -1 x12911 -1 x12912 -1 x12913 -1 x12914 -1 x12915 >= 0 ;
+2 x13171 +2 x13172 +2 x13173 -1 x12913 -1 x12914 -1 x12915 -1 x12916 -1 x12917 -1 x12918 >= 0 ;
+2 x13174 +2 x13175 +2 x13176 -1 x12916 -1 x12917 -1 x12918 -1 x12919 -1 x12920 -1 x12921 >= 0 ;
+2 x13177 +2 x13178 +2 x13179 -1 x12919 -1 x12920 -1 x12921 -1 x12922 -1 x12923 -1 x12924 >= 0 ;
+2 x13180 +2 x13181 +2 x13182 -1 x12922 -1 x12923 -1 x12924 -1 x12925 -1 x12926 -1 x12927 >= 0 ;
+2 x13183 +2 x13184 +2 x13185 -1 x12925 -1 x12926 -1 x12927 -1 x12928 -1 x12929 -1 x12930 >= 0 ;
+2 x13186 +2 x13187 +2 x13188 -1 x12928 -1 x12929 -1 x12930 -1 x12931 -1 x12932 -1 x12933 >= 0 ;
+2 x13189 +2 x13190 +2 x13191 -1 x12931 -1 x12932 -1 x12933 -1 x12934 -1 x12935 -1 x12936 >= 0 ;
+2 x13192 +2 x13193 +2 x13194 -1 x12934 -1 x12935 -1 x12936 -1 x12937 -1 x12938 -1 x12939 >= 0 ;
+2 x13195 +2 x13196 +2 x13197 -1 x12937 -1 x12938 -1 x12939 -1 x12940 -1 x12941 -1 x12942 >= 0 ;
+2 x13198 +2 x13199 +2 x13200 -1 x12940 -1 x12941 -1 x12942 -1 x12943 -1 x12944 -1 x12945 >= 0 ;
+2 x13201 +2 x13202 +2 x13203 -1 x12943 -1 x12944 -1 x12945 -1 x12946 -1 x12947 -1 x12948 >= 0 ;
+2 x13204 +2 x13205 +2 x13206 -1 x12946 -1 x12947 -1 x12948 -1 x12949 -1 x12950 -1 x12951 >= 0 ;
+2 x13207 +2 x13208 +2 x13209 -1 x12949 -1 x12950 -1 x12951 -1 x12952 -1 x12953 -1 x12954 >= 0 ;
+2 x13210 +2 x13211 +2 x13212 -1 x12952 -1 x12953 -1 x12954 -1 x12955 -1 x12956 -1 x12957 >= 0 ;
+2 x13213 +2 x13214 +2 x13215 -1 x12955 -1 x12956 -1 x12957 -1 x12958 -1 x12959 -1 x12960 >= 0 ;
+2 x13216 +2 x13217 +2 x13218 -1 x12958 -1 x12959 -1 x12960 -1 x12961 -1 x12962 -1 x12963 >= 0 ;
+2 x13219 +2 x13220 +2 x13221 -1 x12961 -1 x12962 -1 x12963 -1 x12964 -1 x12965 -1 x12966 >= 0 ;
+2 x13222 +2 x13223 +2 x13224 -1 x12964 -1 x12965 -1 x12966 -1 x12967 -1 x12968 -1 x12969 >= 0 ;
+2 x13225 +2 x13226 +2 x13227 -1 x12967 -1 x12968 -1 x12969 -1 x12970 -1 x12971 -1 x12972 >= 0 ;
+2 x13228 +2 x13229 +2 x13230 -1 x12970 -1 x12971 -1 x12972 -1 x12973 -1 x12974 -1 x12975 >= 0 ;
+2 x13231 +2 x13232 +2 x13233 -1 x12973 -1 x12974 -1 x12975 -1 x12976 -1 x12977 -1 x12978 >= 0 ;
+2 x13234 +2 x13235 +2 x13236 -1 x12976 -1 x12977 -1 x12978 -1 x12979 -1 x12980 -1 x12981 >= 0 ;
+2 x13237 +2 x13238 +2 x13239 -1 x12979 -1 x12980 -1 x12981 -1 x12982 -1 x12983 -1 x12984 >= 0 ;
+2 x13240 +2 x13241 +2 x13242 -1 x12982 -1 x12983 -1 x12984 -1 x12985 -1 x12986 -1 x12987 >= 0 ;
+2 x13243 +2 x13244 +2 x13245 -1 x12985 -1 x12986 -1 x12987 -1 x12988 -1 x12989 -1 x12990 >= 0 ;
+2 x13246 +2 x13247 +2 x13248 -1 x12988 -1 x12989 -1 x12990 -1 x12991 -1 x12992 -1 x12993 >= 0 ;
+2 x13249 +2 x13250 +2 x13251 -1 x12991 -1 x12992 -1 x12993 -1 x12994 -1 x12995 -1 x12996 >= 0 ;
+2 x13252 +2 x13253 +2 x13254 -1 x12994 -1 x12995 -1 x12996 -1 x12997 -1 x12998 -1 x12999 >= 0 ;
+2 x13255 +2 x13256 +2 x13257 -1 x12997 -1 x12998 -1 x12999 -1 x13000 -1 x13001 -1 x13002 >= 0 ;
+2 x13258 +2 x13259 +2 x13260 -1 x13000 -1 x13001 -1 x13002 -1 x13003 -1 x13004 -1 x13005 >= 0 ;
+2 x13261 +2 x13262 +2 x13263 -1 x13003 -1 x13004 -1 x13005 -1 x13006 -1 x13007 -1 x13008 >= 0 ;
+2 x13264 +2 x13265 +2 x13266 -1 x13006 -1 x13007 -1 x13008 -1 x13009 -1 x13010 -1 x13011 >= 0 ;
+2 x13267 +2 x13268 +2 x13269 -1 x13009 -1 x13010 -1 x13011 -1 x13012 -1 x13013 -1 x13014 >= 0 ;
+2 x13270 +2 x13271 +2 x13272 -1 x13012 -1 x13013 -1 x13014 -1 x13015 -1 x13016 -1 x13017 >= 0 ;
+2 x13273 +2 x13274 +2 x13275 -1 x13015 -1 x13016 -1 x13017 -1 x13018 -1 x13019 -1 x13020 >= 0 ;
+2 x13276 +2 x13277 +2 x13278 -1 x13018 -1 x13019 -1 x13020 -1 x13021 -1 x13022 -1 x13023 >= 0 ;
+2 x13279 +2 x13280 +2 x13281 -1 x13021 -1 x13022 -1 x13023 -1 x13024 -1 x13025 -1 x13026 >= 0 ;
+2 x13282 +2 x13283 +2 x13284 -1 x13024 -1 x13025 -1 x13026 -1 x13027 -1 x13028 -1 x13029 >= 0 ;
+2 x13285 +2 x13286 +2 x13287 -1 x13027 -1 x13028 -1 x13029 -1 x13030 -1 x13031 -1 x13032 >= 0 ;
+2 x13288 +2 x13289 +2 x13290 -1 x13030 -1 x13031 -1 x13032 -1 x13033 -1 x13034 -1 x13035 >= 0 ;
+2 x13291 +2 x13292 +2 x13293 -1 x13033 -1 x13034 -1 x13035 -1 x13036 -1 x13037 -1 x13038 >= 0 ;
+2 x13294 +2 x13295 +2 x13296 -1 x13039 -1 x13040 -1 x13041 -1 x13042 -1 x13043 -1 x13044 >= 0 ;
+2 x13297 +2 x13298 +2 x13299 -1 x13042 -1 x13043 -1 x13044 -1 x13045 -1 x13046 -1 x13047 >= 0 ;
+2 x13300 +2 x13301 +2 x13302 -1 x13045 -1 x13046 -1 x13047 -1 x13048 -1 x13049 -1 x13050 >= 0 ;
+2 x13303 +2 x13304 +2 x13305 -1 x13048 -1 x13049 -1 x13050 -1 x13051 -1 x13052 -1 x13053 >= 0 ;
+2 x13306 +2 x13307 +2 x13308 -1 x13051 -1 x13052 -1 x13053 -1 x13054 -1 x13055 -1 x13056 >= 0 ;
+2 x13309 +2 x13310 +2 x13311 -1 x13054 -1 x13055 -1 x13056 -1 x13057 -1 x13058 -1 x13059 >= 0 ;
+2 x13312 +2 x13313 +2 x13314 -1 x13057 -1 x13058 -1 x13059 -1 x13060 -1 x13061 -1 x13062 >= 0 ;
+2 x13315 +2 x13316 +2 x13317 -1 x13060 -1 x13061 -1 x13062 -1 x13063 -1 x13064 -1 x13065 >= 0 ;
+2 x13318 +2 x13319 +2 x13320 -1 x13063 -1 x13064 -1 x13065 -1 x13066 -1 x13067 -1 x13068 >= 0 ;
+2 x13321 +2 x13322 +2 x13323 -1 x13066 -1 x13067 -1 x13068 -1 x13069 -1 x13070 -1 x13071 >= 0 ;
+2 x13324 +2 x13325 +2 x13326 -1 x13069 -1 x13070 -1 x13071 -1 x13072 -1 x13073 -1 x13074 >= 0 ;
+2 x13327 +2 x13328 +2 x13329 -1 x13072 -1 x13073 -1 x13074 -1 x13075 -1 x13076 -1 x13077 >= 0 ;
+2 x13330 +2 x13331 +2 x13332 -1 x13075 -1 x13076 -1 x13077 -1 x13078 -1 x13079 -1 x13080 >= 0 ;
+2 x13333 +2 x13334 +2 x13335 -1 x13078 -1 x13079 -1 x13080 -1 x13081 -1 x13082 -1 x13083 >= 0 ;
+2 x13336 +2 x13337 +2 x13338 -1 x13081 -1 x13082 -1 x13083 -1 x13084 -1 x13085 -1 x13086 >= 0 ;
+2 x13339 +2 x13340 +2 x13341 -1 x13084 -1 x13085 -1 x13086 -1 x13087 -1 x13088 -1 x13089 >= 0 ;
+2 x13342 +2 x13343 +2 x13344 -1 x13087 -1 x13088 -1 x13089 -1 x13090 -1 x13091 -1 x13092 >= 0 ;
+2 x13345 +2 x13346 +2 x13347 -1 x13090 -1 x13091 -1 x13092 -1 x13093 -1 x13094 -1 x13095 >= 0 ;
+2 x13348 +2 x13349 +2 x13350 -1 x13093 -1 x13094 -1 x13095 -1 x13096 -1 x13097 -1 x13098 >= 0 ;
+2 x13351 +2 x13352 +2 x13353 -1 x13096 -1 x13097 -1 x13098 -1 x13099 -1 x13100 -1 x13101 >= 0 ;
+2 x13354 +2 x13355 +2 x13356 -1 x13099 -1 x13100 -1 x13101 -1 x13102 -1 x13103 -1 x13104 >= 0 ;
+2 x13357 +2 x13358 +2 x13359 -1 x13102 -1 x13103 -1 x13104 -1 x13105 -1 x13106 -1 x13107 >= 0 ;
+2 x13360 +2 x13361 +2 x13362 -1 x13105 -1 x13106 -1 x13107 -1 x13108 -1 x13109 -1 x13110 >= 0 ;
+2 x13363 +2 x13364 +2 x13365 -1 x13108 -1 x13109 -1 x13110 -1 x13111 -1 x13112 -1 x13113 >= 0 ;
+2 x13366 +2 x13367 +2 x13368 -1 x13111 -1 x13112 -1 x13113 -1 x13114 -1 x13115 -1 x13116 >= 0 ;
+2 x13369 +2 x13370 +2 x13371 -1 x13114 -1 x13115 -1 x13116 -1 x13117 -1 x13118 -1 x13119 >= 0 ;
+2 x13372 +2 x13373 +2 x13374 -1 x13117 -1 x13118 -1 x13119 -1 x13120 -1 x13121 -1 x13122 >= 0 ;
+2 x13375 +2 x13376 +2 x13377 -1 x13120 -1 x13121 -1 x13122 -1 x13123 -1 x13124 -1 x13125 >= 0 ;
+2 x13378 +2 x13379 +2 x13380 -1 x13123 -1 x13124 -1 x13125 -1 x13126 -1 x13127 -1 x13128 >= 0 ;
+2 x13381 +2 x13382 +2 x13383 -1 x13126 -1 x13127 -1 x13128 -1 x13129 -1 x13130 -1 x13131 >= 0 ;
+2 x13384 +2 x13385 +2 x13386 -1 x13129 -1 x13130 -1 x13131 -1 x13132 -1 x13133 -1 x13134 >= 0 ;
+2 x13387 +2 x13388 +2 x13389 -1 x13132 -1 x13133 -1 x13134 -1 x13135 -1 x13136 -1 x13137 >= 0 ;
+2 x13390 +2 x13391 +2 x13392 -1 x13135 -1 x13136 -1 x13137 -1 x13138 -1 x13139 -1 x13140 >= 0 ;
+2 x13393 +2 x13394 +2 x13395 -1 x13138 -1 x13139 -1 x13140 -1 x13141 -1 x13142 -1 x13143 >= 0 ;
+2 x13396 +2 x13397 +2 x13398 -1 x13141 -1 x13142 -1 x13143 -1 x13144 -1 x13145 -1 x13146 >= 0 ;
+2 x13399 +2 x13400 +2 x13401 -1 x13144 -1 x13145 -1 x13146 -1 x13147 -1 x13148 -1 x13149 >= 0 ;
+2 x13402 +2 x13403 +2 x13404 -1 x13147 -1 x13148 -1 x13149 -1 x13150 -1 x13151 -1 x13152 >= 0 ;
+2 x13405 +2 x13406 +2 x13407 -1 x13150 -1 x13151 -1 x13152 -1 x13153 -1 x13154 -1 x13155 >= 0 ;
+2 x13408 +2 x13409 +2 x13410 -1 x13153 -1 x13154 -1 x13155 -1 x13156 -1 x13157 -1 x13158 >= 0 ;
+2 x13411 +2 x13412 +2 x13413 -1 x13156 -1 x13157 -1 x13158 -1 x13159 -1 x13160 -1 x13161 >= 0 ;
+2 x13414 +2 x13415 +2 x13416 -1 x13159 -1 x13160 -1 x13161 -1 x13162 -1 x13163 -1 x13164 >= 0 ;
+2 x13417 +2 x13418 +2 x13419 -1 x13162 -1 x13163 -1 x13164 -1 x13165 -1 x13166 -1 x13167 >= 0 ;
+2 x13420 +2 x13421 +2 x13422 -1 x13165 -1 x13166 -1 x13167 -1 x13168 -1 x13169 -1 x13170 >= 0 ;
+2 x13423 +2 x13424 +2 x13425 -1 x13168 -1 x13169 -1 x13170 -1 x13171 -1 x13172 -1 x13173 >= 0 ;
+2 x13426 +2 x13427 +2 x13428 -1 x13171 -1 x13172 -1 x13173 -1 x13174 -1 x13175 -1 x13176 >= 0 ;
+2 x13429 +2 x13430 +2 x13431 -1 x13174 -1 x13175 -1 x13176 -1 x13177 -1 x13178 -1 x13179 >= 0 ;
+2 x13432 +2 x13433 +2 x13434 -1 x13177 -1 x13178 -1 x13179 -1 x13180 -1 x13181 -1 x13182 >= 0 ;
+2 x13435 +2 x13436 +2 x13437 -1 x13180 -1 x13181 -1 x13182 -1 x13183 -1 x13184 -1 x13185 >= 0 ;
+2 x13438 +2 x13439 +2 x13440 -1 x13183 -1 x13184 -1 x13185 -1 x13186 -1 x13187 -1 x13188 >= 0 ;
+2 x13441 +2 x13442 +2 x13443 -1 x13186 -1 x13187 -1 x13188 -1 x13189 -1 x13190 -1 x13191 >= 0 ;
+2 x13444 +2 x13445 +2 x13446 -1 x13189 -1 x13190 -1 x13191 -1 x13192 -1 x13193 -1 x13194 >= 0 ;
+2 x13447 +2 x13448 +2 x13449 -1 x13192 -1 x13193 -1 x13194 -1 x13195 -1 x13196 -1 x13197 >= 0 ;
+2 x13450 +2 x13451 +2 x13452 -1 x13195 -1 x13196 -1 x13197 -1 x13198 -1 x13199 -1 x13200 >= 0 ;
+2 x13453 +2 x13454 +2 x13455 -1 x13198 -1 x13199 -1 x13200 -1 x13201 -1 x13202 -1 x13203 >= 0 ;
+2 x13456 +2 x13457 +2 x13458 -1 x13201 -1 x13202 -1 x13203 -1 x13204 -1 x13205 -1 x13206 >= 0 ;
+2 x13459 +2 x13460 +2 x13461 -1 x13204 -1 x13205 -1 x13206 -1 x13207 -1 x13208 -1 x13209 >= 0 ;
+2 x13462 +2 x13463 +2 x13464 -1 x13207 -1 x13208 -1 x13209 -1 x13210 -1 x13211 -1 x13212 >= 0 ;
+2 x13465 +2 x13466 +2 x13467 -1 x13210 -1 x13211 -1 x13212 -1 x13213 -1 x13214 -1 x13215 >= 0 ;
+2 x13468 +2 x13469 +2 x13470 -1 x13213 -1 x13214 -1 x13215 -1 x13216 -1 x13217 -1 x13218 >= 0 ;
+2 x13471 +2 x13472 +2 x13473 -1 x13216 -1 x13217 -1 x13218 -1 x13219 -1 x13220 -1 x13221 >= 0 ;
+2 x13474 +2 x13475 +2 x13476 -1 x13219 -1 x13220 -1 x13221 -1 x13222 -1 x13223 -1 x13224 >= 0 ;
+2 x13477 +2 x13478 +2 x13479 -1 x13222 -1 x13223 -1 x13224 -1 x13225 -1 x13226 -1 x13227 >= 0 ;
+2 x13480 +2 x13481 +2 x13482 -1 x13225 -1 x13226 -1 x13227 -1 x13228 -1 x13229 -1 x13230 >= 0 ;
+2 x13483 +2 x13484 +2 x13485 -1 x13228 -1 x13229 -1 x13230 -1 x13231 -1 x13232 -1 x13233 >= 0 ;
+2 x13486 +2 x13487 +2 x13488 -1 x13231 -1 x13232 -1 x13233 -1 x13234 -1 x13235 -1 x13236 >= 0 ;
+2 x13489 +2 x13490 +2 x13491 -1 x13234 -1 x13235 -1 x13236 -1 x13237 -1 x13238 -1 x13239 >= 0 ;
+2 x13492 +2 x13493 +2 x13494 -1 x13237 -1 x13238 -1 x13239 -1 x13240 -1 x13241 -1 x13242 >= 0 ;
+2 x13495 +2 x13496 +2 x13497 -1 x13240 -1 x13241 -1 x13242 -1 x13243 -1 x13244 -1 x13245 >= 0 ;
+2 x13498 +2 x13499 +2 x13500 -1 x13243 -1 x13244 -1 x13245 -1 x13246 -1 x13247 -1 x13248 >= 0 ;
+2 x13501 +2 x13502 +2 x13503 -1 x13246 -1 x13247 -1 x13248 -1 x13249 -1 x13250 -1 x13251 >= 0 ;
+2 x13504 +2 x13505 +2 x13506 -1 x13249 -1 x13250 -1 x13251 -1 x13252 -1 x13253 -1 x13254 >= 0 ;
+2 x13507 +2 x13508 +2 x13509 -1 x13252 -1 x13253 -1 x13254 -1 x13255 -1 x13256 -1 x13257 >= 0 ;
+2 x13510 +2 x13511 +2 x13512 -1 x13255 -1 x13256 -1 x13257 -1 x13258 -1 x13259 -1 x13260 >= 0 ;
+2 x13513 +2 x13514 +2 x13515 -1 x13258 -1 x13259 -1 x13260 -1 x13261 -1 x13262 -1 x13263 >= 0 ;
+2 x13516 +2 x13517 +2 x13518 -1 x13261 -1 x13262 -1 x13263 -1 x13264 -1 x13265 -1 x13266 >= 0 ;
+2 x13519 +2 x13520 +2 x13521 -1 x13264 -1 x13265 -1 x13266 -1 x13267 -1 x13268 -1 x13269 >= 0 ;
+2 x13522 +2 x13523 +2 x13524 -1 x13267 -1 x13268 -1 x13269 -1 x13270 -1 x13271 -1 x13272 >= 0 ;
+2 x13525 +2 x13526 +2 x13527 -1 x13270 -1 x13271 -1 x13272 -1 x13273 -1 x13274 -1 x13275 >= 0 ;
+2 x13528 +2 x13529 +2 x13530 -1 x13273 -1 x13274 -1 x13275 -1 x13276 -1 x13277 -1 x13278 >= 0 ;
+2 x13531 +2 x13532 +2 x13533 -1 x13276 -1 x13277 -1 x13278 -1 x13279 -1 x13280 -1 x13281 >= 0 ;
+2 x13534 +2 x13535 +2 x13536 -1 x13279 -1 x13280 -1 x13281 -1 x13282 -1 x13283 -1 x13284 >= 0 ;
+2 x13537 +2 x13538 +2 x13539 -1 x13282 -1 x13283 -1 x13284 -1 x13285 -1 x13286 -1 x13287 >= 0 ;
+2 x13540 +2 x13541 +2 x13542 -1 x13285 -1 x13286 -1 x13287 -1 x13288 -1 x13289 -1 x13290 >= 0 ;
+2 x13543 +2 x13544 +2 x13545 -1 x13288 -1 x13289 -1 x13290 -1 x13291 -1 x13292 -1 x13293 >= 0 ;
+2 x13546 +2 x13547 +2 x13548 -1 x13294 -1 x13295 -1 x13296 -1 x13297 -1 x13298 -1 x13299 >= 0 ;
+2 x13549 +2 x13550 +2 x13551 -1 x13297 -1 x13298 -1 x13299 -1 x13300 -1 x13301 -1 x13302 >= 0 ;
+2 x13552 +2 x13553 +2 x13554 -1 x13300 -1 x13301 -1 x13302 -1 x13303 -1 x13304 -1 x13305 >= 0 ;
+2 x13555 +2 x13556 +2 x13557 -1 x13303 -1 x13304 -1 x13305 -1 x13306 -1 x13307 -1 x13308 >= 0 ;
+2 x13558 +2 x13559 +2 x13560 -1 x13306 -1 x13307 -1 x13308 -1 x13309 -1 x13310 -1 x13311 >= 0 ;
+2 x13561 +2 x13562 +2 x13563 -1 x13309 -1 x13310 -1 x13311 -1 x13312 -1 x13313 -1 x13314 >= 0 ;
+2 x13564 +2 x13565 +2 x13566 -1 x13312 -1 x13313 -1 x13314 -1 x13315 -1 x13316 -1 x13317 >= 0 ;
+2 x13567 +2 x13568 +2 x13569 -1 x13315 -1 x13316 -1 x13317 -1 x13318 -1 x13319 -1 x13320 >= 0 ;
+2 x13570 +2 x13571 +2 x13572 -1 x13318 -1 x13319 -1 x13320 -1 x13321 -1 x13322 -1 x13323 >= 0 ;
+2 x13573 +2 x13574 +2 x13575 -1 x13321 -1 x13322 -1 x13323 -1 x13324 -1 x13325 -1 x13326 >= 0 ;
+2 x13576 +2 x13577 +2 x13578 -1 x13324 -1 x13325 -1 x13326 -1 x13327 -1 x13328 -1 x13329 >= 0 ;
+2 x13579 +2 x13580 +2 x13581 -1 x13327 -1 x13328 -1 x13329 -1 x13330 -1 x13331 -1 x13332 >= 0 ;
+2 x13582 +2 x13583 +2 x13584 -1 x13330 -1 x13331 -1 x13332 -1 x13333 -1 x13334 -1 x13335 >= 0 ;
+2 x13585 +2 x13586 +2 x13587 -1 x13333 -1 x13334 -1 x13335 -1 x13336 -1 x13337 -1 x13338 >= 0 ;
+2 x13588 +2 x13589 +2 x13590 -1 x13336 -1 x13337 -1 x13338 -1 x13339 -1 x13340 -1 x13341 >= 0 ;
+2 x13591 +2 x13592 +2 x13593 -1 x13339 -1 x13340 -1 x13341 -1 x13342 -1 x13343 -1 x13344 >= 0 ;
+2 x13594 +2 x13595 +2 x13596 -1 x13342 -1 x13343 -1 x13344 -1 x13345 -1 x13346 -1 x13347 >= 0 ;
+2 x13597 +2 x13598 +2 x13599 -1 x13345 -1 x13346 -1 x13347 -1 x13348 -1 x13349 -1 x13350 >= 0 ;
+2 x13600 +2 x13601 +2 x13602 -1 x13348 -1 x13349 -1 x13350 -1 x13351 -1 x13352 -1 x13353 >= 0 ;
+2 x13603 +2 x13604 +2 x13605 -1 x13351 -1 x13352 -1 x13353 -1 x13354 -1 x13355 -1 x13356 >= 0 ;
+2 x13606 +2 x13607 +2 x13608 -1 x13354 -1 x13355 -1 x13356 -1 x13357 -1 x13358 -1 x13359 >= 0 ;
+2 x13609 +2 x13610 +2 x13611 -1 x13357 -1 x13358 -1 x13359 -1 x13360 -1 x13361 -1 x13362 >= 0 ;
+2 x13612 +2 x13613 +2 x13614 -1 x13360 -1 x13361 -1 x13362 -1 x13363 -1 x13364 -1 x13365 >= 0 ;
+2 x13615 +2 x13616 +2 x13617 -1 x13363 -1 x13364 -1 x13365 -1 x13366 -1 x13367 -1 x13368 >= 0 ;
+2 x13618 +2 x13619 +2 x13620 -1 x13366 -1 x13367 -1 x13368 -1 x13369 -1 x13370 -1 x13371 >= 0 ;
+2 x13621 +2 x13622 +2 x13623 -1 x13369 -1 x13370 -1 x13371 -1 x13372 -1 x13373 -1 x13374 >= 0 ;
+2 x13624 +2 x13625 +2 x13626 -1 x13372 -1 x13373 -1 x13374 -1 x13375 -1 x13376 -1 x13377 >= 0 ;
+2 x13627 +2 x13628 +2 x13629 -1 x13375 -1 x13376 -1 x13377 -1 x13378 -1 x13379 -1 x13380 >= 0 ;
+2 x13630 +2 x13631 +2 x13632 -1 x13378 -1 x13379 -1 x13380 -1 x13381 -1 x13382 -1 x13383 >= 0 ;
+2 x13633 +2 x13634 +2 x13635 -1 x13381 -1 x13382 -1 x13383 -1 x13384 -1 x13385 -1 x13386 >= 0 ;
+2 x13636 +2 x13637 +2 x13638 -1 x13384 -1 x13385 -1 x13386 -1 x13387 -1 x13388 -1 x13389 >= 0 ;
+2 x13639 +2 x13640 +2 x13641 -1 x13387 -1 x13388 -1 x13389 -1 x13390 -1 x13391 -1 x13392 >= 0 ;
+2 x13642 +2 x13643 +2 x13644 -1 x13390 -1 x13391 -1 x13392 -1 x13393 -1 x13394 -1 x13395 >= 0 ;
+2 x13645 +2 x13646 +2 x13647 -1 x13393 -1 x13394 -1 x13395 -1 x13396 -1 x13397 -1 x13398 >= 0 ;
+2 x13648 +2 x13649 +2 x13650 -1 x13396 -1 x13397 -1 x13398 -1 x13399 -1 x13400 -1 x13401 >= 0 ;
+2 x13651 +2 x13652 +2 x13653 -1 x13399 -1 x13400 -1 x13401 -1 x13402 -1 x13403 -1 x13404 >= 0 ;
+2 x13654 +2 x13655 +2 x13656 -1 x13402 -1 x13403 -1 x13404 -1 x13405 -1 x13406 -1 x13407 >= 0 ;
+2 x13657 +2 x13658 +2 x13659 -1 x13405 -1 x13406 -1 x13407 -1 x13408 -1 x13409 -1 x13410 >= 0 ;
+2 x13660 +2 x13661 +2 x13662 -1 x13408 -1 x13409 -1 x13410 -1 x13411 -1 x13412 -1 x13413 >= 0 ;
+2 x13663 +2 x13664 +2 x13665 -1 x13411 -1 x13412 -1 x13413 -1 x13414 -1 x13415 -1 x13416 >= 0 ;
+2 x13666 +2 x13667 +2 x13668 -1 x13414 -1 x13415 -1 x13416 -1 x13417 -1 x13418 -1 x13419 >= 0 ;
+2 x13669 +2 x13670 +2 x13671 -1 x13417 -1 x13418 -1 x13419 -1 x13420 -1 x13421 -1 x13422 >= 0 ;
+2 x13672 +2 x13673 +2 x13674 -1 x13420 -1 x13421 -1 x13422 -1 x13423 -1 x13424 -1 x13425 >= 0 ;
+2 x13675 +2 x13676 +2 x13677 -1 x13423 -1 x13424 -1 x13425 -1 x13426 -1 x13427 -1 x13428 >= 0 ;
+2 x13678 +2 x13679 +2 x13680 -1 x13426 -1 x13427 -1 x13428 -1 x13429 -1 x13430 -1 x13431 >= 0 ;
+2 x13681 +2 x13682 +2 x13683 -1 x13429 -1 x13430 -1 x13431 -1 x13432 -1 x13433 -1 x13434 >= 0 ;
+2 x13684 +2 x13685 +2 x13686 -1 x13432 -1 x13433 -1 x13434 -1 x13435 -1 x13436 -1 x13437 >= 0 ;
+2 x13687 +2 x13688 +2 x13689 -1 x13435 -1 x13436 -1 x13437 -1 x13438 -1 x13439 -1 x13440 >= 0 ;
+2 x13690 +2 x13691 +2 x13692 -1 x13438 -1 x13439 -1 x13440 -1 x13441 -1 x13442 -1 x13443 >= 0 ;
+2 x13693 +2 x13694 +2 x13695 -1 x13441 -1 x13442 -1 x13443 -1 x13444 -1 x13445 -1 x13446 >= 0 ;
+2 x13696 +2 x13697 +2 x13698 -1 x13444 -1 x13445 -1 x13446 -1 x13447 -1 x13448 -1 x13449 >= 0 ;
+2 x13699 +2 x13700 +2 x13701 -1 x13447 -1 x13448 -1 x13449 -1 x13450 -1 x13451 -1 x13452 >= 0 ;
+2 x13702 +2 x13703 +2 x13704 -1 x13450 -1 x13451 -1 x13452 -1 x13453 -1 x13454 -1 x13455 >= 0 ;
+2 x13705 +2 x13706 +2 x13707 -1 x13453 -1 x13454 -1 x13455 -1 x13456 -1 x13457 -1 x13458 >= 0 ;
+2 x13708 +2 x13709 +2 x13710 -1 x13456 -1 x13457 -1 x13458 -1 x13459 -1 x13460 -1 x13461 >= 0 ;
+2 x13711 +2 x13712 +2 x13713 -1 x13459 -1 x13460 -1 x13461 -1 x13462 -1 x13463 -1 x13464 >= 0 ;
+2 x13714 +2 x13715 +2 x13716 -1 x13462 -1 x13463 -1 x13464 -1 x13465 -1 x13466 -1 x13467 >= 0 ;
+2 x13717 +2 x13718 +2 x13719 -1 x13465 -1 x13466 -1 x13467 -1 x13468 -1 x13469 -1 x13470 >= 0 ;
+2 x13720 +2 x13721 +2 x13722 -1 x13468 -1 x13469 -1 x13470 -1 x13471 -1 x13472 -1 x13473 >= 0 ;
+2 x13723 +2 x13724 +2 x13725 -1 x13471 -1 x13472 -1 x13473 -1 x13474 -1 x13475 -1 x13476 >= 0 ;
+2 x13726 +2 x13727 +2 x13728 -1 x13474 -1 x13475 -1 x13476 -1 x13477 -1 x13478 -1 x13479 >= 0 ;
+2 x13729 +2 x13730 +2 x13731 -1 x13477 -1 x13478 -1 x13479 -1 x13480 -1 x13481 -1 x13482 >= 0 ;
+2 x13732 +2 x13733 +2 x13734 -1 x13480 -1 x13481 -1 x13482 -1 x13483 -1 x13484 -1 x13485 >= 0 ;
+2 x13735 +2 x13736 +2 x13737 -1 x13483 -1 x13484 -1 x13485 -1 x13486 -1 x13487 -1 x13488 >= 0 ;
+2 x13738 +2 x13739 +2 x13740 -1 x13486 -1 x13487 -1 x13488 -1 x13489 -1 x13490 -1 x13491 >= 0 ;
+2 x13741 +2 x13742 +2 x13743 -1 x13489 -1 x13490 -1 x13491 -1 x13492 -1 x13493 -1 x13494 >= 0 ;
+2 x13744 +2 x13745 +2 x13746 -1 x13492 -1 x13493 -1 x13494 -1 x13495 -1 x13496 -1 x13497 >= 0 ;
+2 x13747 +2 x13748 +2 x13749 -1 x13495 -1 x13496 -1 x13497 -1 x13498 -1 x13499 -1 x13500 >= 0 ;
+2 x13750 +2 x13751 +2 x13752 -1 x13498 -1 x13499 -1 x13500 -1 x13501 -1 x13502 -1 x13503 >= 0 ;
+2 x13753 +2 x13754 +2 x13755 -1 x13501 -1 x13502 -1 x13503 -1 x13504 -1 x13505 -1 x13506 >= 0 ;
+2 x13756 +2 x13757 +2 x13758 -1 x13504 -1 x13505 -1 x13506 -1 x13507 -1 x13508 -1 x13509 >= 0 ;
+2 x13759 +2 x13760 +2 x13761 -1 x13507 -1 x13508 -1 x13509 -1 x13510 -1 x13511 -1 x13512 >= 0 ;
+2 x13762 +2 x13763 +2 x13764 -1 x13510 -1 x13511 -1 x13512 -1 x13513 -1 x13514 -1 x13515 >= 0 ;
+2 x13765 +2 x13766 +2 x13767 -1 x13513 -1 x13514 -1 x13515 -1 x13516 -1 x13517 -1 x13518 >= 0 ;
+2 x13768 +2 x13769 +2 x13770 -1 x13516 -1 x13517 -1 x13518 -1 x13519 -1 x13520 -1 x13521 >= 0 ;
+2 x13771 +2 x13772 +2 x13773 -1 x13519 -1 x13520 -1 x13521 -1 x13522 -1 x13523 -1 x13524 >= 0 ;
+2 x13774 +2 x13775 +2 x13776 -1 x13522 -1 x13523 -1 x13524 -1 x13525 -1 x13526 -1 x13527 >= 0 ;
+2 x13777 +2 x13778 +2 x13779 -1 x13525 -1 x13526 -1 x13527 -1 x13528 -1 x13529 -1 x13530 >= 0 ;
+2 x13780 +2 x13781 +2 x13782 -1 x13528 -1 x13529 -1 x13530 -1 x13531 -1 x13532 -1 x13533 >= 0 ;
+2 x13783 +2 x13784 +2 x13785 -1 x13531 -1 x13532 -1 x13533 -1 x13534 -1 x13535 -1 x13536 >= 0 ;
+2 x13786 +2 x13787 +2 x13788 -1 x13534 -1 x13535 -1 x13536 -1 x13537 -1 x13538 -1 x13539 >= 0 ;
+2 x13789 +2 x13790 +2 x13791 -1 x13537 -1 x13538 -1 x13539 -1 x13540 -1 x13541 -1 x13542 >= 0 ;
+2 x13792 +2 x13793 +2 x13794 -1 x13540 -1 x13541 -1 x13542 -1 x13543 -1 x13544 -1 x13545 >= 0 ;
+2 x13795 +2 x13796 +2 x13797 -1 x13546 -1 x13547 -1 x13548 -1 x13549 -1 x13550 -1 x13551 >= 0 ;
+2 x13798 +2 x13799 +2 x13800 -1 x13549 -1 x13550 -1 x13551 -1 x13552 -1 x13553 -1 x13554 >= 0 ;
+2 x13801 +2 x13802 +2 x13803 -1 x13552 -1 x13553 -1 x13554 -1 x13555 -1 x13556 -1 x13557 >= 0 ;
+2 x13804 +2 x13805 +2 x13806 -1 x13555 -1 x13556 -1 x13557 -1 x13558 -1 x13559 -1 x13560 >= 0 ;
+2 x13807 +2 x13808 +2 x13809 -1 x13558 -1 x13559 -1 x13560 -1 x13561 -1 x13562 -1 x13563 >= 0 ;
+2 x13810 +2 x13811 +2 x13812 -1 x13561 -1 x13562 -1 x13563 -1 x13564 -1 x13565 -1 x13566 >= 0 ;
+2 x13813 +2 x13814 +2 x13815 -1 x13564 -1 x13565 -1 x13566 -1 x13567 -1 x13568 -1 x13569 >= 0 ;
+2 x13816 +2 x13817 +2 x13818 -1 x13567 -1 x13568 -1 x13569 -1 x13570 -1 x13571 -1 x13572 >= 0 ;
+2 x13819 +2 x13820 +2 x13821 -1 x13570 -1 x13571 -1 x13572 -1 x13573 -1 x13574 -1 x13575 >= 0 ;
+2 x13822 +2 x13823 +2 x13824 -1 x13573 -1 x13574 -1 x13575 -1 x13576 -1 x13577 -1 x13578 >= 0 ;
+2 x13825 +2 x13826 +2 x13827 -1 x13576 -1 x13577 -1 x13578 -1 x13579 -1 x13580 -1 x13581 >= 0 ;
+2 x13828 +2 x13829 +2 x13830 -1 x13579 -1 x13580 -1 x13581 -1 x13582 -1 x13583 -1 x13584 >= 0 ;
+2 x13831 +2 x13832 +2 x13833 -1 x13582 -1 x13583 -1 x13584 -1 x13585 -1 x13586 -1 x13587 >= 0 ;
+2 x13834 +2 x13835 +2 x13836 -1 x13585 -1 x13586 -1 x13587 -1 x13588 -1 x13589 -1 x13590 >= 0 ;
+2 x13837 +2 x13838 +2 x13839 -1 x13588 -1 x13589 -1 x13590 -1 x13591 -1 x13592 -1 x13593 >= 0 ;
+2 x13840 +2 x13841 +2 x13842 -1 x13591 -1 x13592 -1 x13593 -1 x13594 -1 x13595 -1 x13596 >= 0 ;
+2 x13843 +2 x13844 +2 x13845 -1 x13594 -1 x13595 -1 x13596 -1 x13597 -1 x13598 -1 x13599 >= 0 ;
+2 x13846 +2 x13847 +2 x13848 -1 x13597 -1 x13598 -1 x13599 -1 x13600 -1 x13601 -1 x13602 >= 0 ;
+2 x13849 +2 x13850 +2 x13851 -1 x13600 -1 x13601 -1 x13602 -1 x13603 -1 x13604 -1 x13605 >= 0 ;
+2 x13852 +2 x13853 +2 x13854 -1 x13603 -1 x13604 -1 x13605 -1 x13606 -1 x13607 -1 x13608 >= 0 ;
+2 x13855 +2 x13856 +2 x13857 -1 x13606 -1 x13607 -1 x13608 -1 x13609 -1 x13610 -1 x13611 >= 0 ;
+2 x13858 +2 x13859 +2 x13860 -1 x13609 -1 x13610 -1 x13611 -1 x13612 -1 x13613 -1 x13614 >= 0 ;
+2 x13861 +2 x13862 +2 x13863 -1 x13612 -1 x13613 -1 x13614 -1 x13615 -1 x13616 -1 x13617 >= 0 ;
+2 x13864 +2 x13865 +2 x13866 -1 x13615 -1 x13616 -1 x13617 -1 x13618 -1 x13619 -1 x13620 >= 0 ;
+2 x13867 +2 x13868 +2 x13869 -1 x13618 -1 x13619 -1 x13620 -1 x13621 -1 x13622 -1 x13623 >= 0 ;
+2 x13870 +2 x13871 +2 x13872 -1 x13621 -1 x13622 -1 x13623 -1 x13624 -1 x13625 -1 x13626 >= 0 ;
+2 x13873 +2 x13874 +2 x13875 -1 x13624 -1 x13625 -1 x13626 -1 x13627 -1 x13628 -1 x13629 >= 0 ;
+2 x13876 +2 x13877 +2 x13878 -1 x13627 -1 x13628 -1 x13629 -1 x13630 -1 x13631 -1 x13632 >= 0 ;
+2 x13879 +2 x13880 +2 x13881 -1 x13630 -1 x13631 -1 x13632 -1 x13633 -1 x13634 -1 x13635 >= 0 ;
+2 x13882 +2 x13883 +2 x13884 -1 x13633 -1 x13634 -1 x13635 -1 x13636 -1 x13637 -1 x13638 >= 0 ;
+2 x13885 +2 x13886 +2 x13887 -1 x13636 -1 x13637 -1 x13638 -1 x13639 -1 x13640 -1 x13641 >= 0 ;
+2 x13888 +2 x13889 +2 x13890 -1 x13639 -1 x13640 -1 x13641 -1 x13642 -1 x13643 -1 x13644 >= 0 ;
+2 x13891 +2 x13892 +2 x13893 -1 x13642 -1 x13643 -1 x13644 -1 x13645 -1 x13646 -1 x13647 >= 0 ;
+2 x13894 +2 x13895 +2 x13896 -1 x13645 -1 x13646 -1 x13647 -1 x13648 -1 x13649 -1 x13650 >= 0 ;
+2 x13897 +2 x13898 +2 x13899 -1 x13648 -1 x13649 -1 x13650 -1 x13651 -1 x13652 -1 x13653 >= 0 ;
+2 x13900 +2 x13901 +2 x13902 -1 x13651 -1 x13652 -1 x13653 -1 x13654 -1 x13655 -1 x13656 >= 0 ;
+2 x13903 +2 x13904 +2 x13905 -1 x13654 -1 x13655 -1 x13656 -1 x13657 -1 x13658 -1 x13659 >= 0 ;
+2 x13906 +2 x13907 +2 x13908 -1 x13657 -1 x13658 -1 x13659 -1 x13660 -1 x13661 -1 x13662 >= 0 ;
+2 x13909 +2 x13910 +2 x13911 -1 x13660 -1 x13661 -1 x13662 -1 x13663 -1 x13664 -1 x13665 >= 0 ;
+2 x13912 +2 x13913 +2 x13914 -1 x13663 -1 x13664 -1 x13665 -1 x13666 -1 x13667 -1 x13668 >= 0 ;
+2 x13915 +2 x13916 +2 x13917 -1 x13666 -1 x13667 -1 x13668 -1 x13669 -1 x13670 -1 x13671 >= 0 ;
+2 x13918 +2 x13919 +2 x13920 -1 x13669 -1 x13670 -1 x13671 -1 x13672 -1 x13673 -1 x13674 >= 0 ;
+2 x13921 +2 x13922 +2 x13923 -1 x13672 -1 x13673 -1 x13674 -1 x13675 -1 x13676 -1 x13677 >= 0 ;
+2 x13924 +2 x13925 +2 x13926 -1 x13675 -1 x13676 -1 x13677 -1 x13678 -1 x13679 -1 x13680 >= 0 ;
+2 x13927 +2 x13928 +2 x13929 -1 x13678 -1 x13679 -1 x13680 -1 x13681 -1 x13682 -1 x13683 >= 0 ;
+2 x13930 +2 x13931 +2 x13932 -1 x13681 -1 x13682 -1 x13683 -1 x13684 -1 x13685 -1 x13686 >= 0 ;
+2 x13933 +2 x13934 +2 x13935 -1 x13684 -1 x13685 -1 x13686 -1 x13687 -1 x13688 -1 x13689 >= 0 ;
+2 x13936 +2 x13937 +2 x13938 -1 x13687 -1 x13688 -1 x13689 -1 x13690 -1 x13691 -1 x13692 >= 0 ;
+2 x13939 +2 x13940 +2 x13941 -1 x13690 -1 x13691 -1 x13692 -1 x13693 -1 x13694 -1 x13695 >= 0 ;
+2 x13942 +2 x13943 +2 x13944 -1 x13693 -1 x13694 -1 x13695 -1 x13696 -1 x13697 -1 x13698 >= 0 ;
+2 x13945 +2 x13946 +2 x13947 -1 x13696 -1 x13697 -1 x13698 -1 x13699 -1 x13700 -1 x13701 >= 0 ;
+2 x13948 +2 x13949 +2 x13950 -1 x13699 -1 x13700 -1 x13701 -1 x13702 -1 x13703 -1 x13704 >= 0 ;
+2 x13951 +2 x13952 +2 x13953 -1 x13702 -1 x13703 -1 x13704 -1 x13705 -1 x13706 -1 x13707 >= 0 ;
+2 x13954 +2 x13955 +2 x13956 -1 x13705 -1 x13706 -1 x13707 -1 x13708 -1 x13709 -1 x13710 >= 0 ;
+2 x13957 +2 x13958 +2 x13959 -1 x13708 -1 x13709 -1 x13710 -1 x13711 -1 x13712 -1 x13713 >= 0 ;
+2 x13960 +2 x13961 +2 x13962 -1 x13711 -1 x13712 -1 x13713 -1 x13714 -1 x13715 -1 x13716 >= 0 ;
+2 x13963 +2 x13964 +2 x13965 -1 x13714 -1 x13715 -1 x13716 -1 x13717 -1 x13718 -1 x13719 >= 0 ;
+2 x13966 +2 x13967 +2 x13968 -1 x13717 -1 x13718 -1 x13719 -1 x13720 -1 x13721 -1 x13722 >= 0 ;
+2 x13969 +2 x13970 +2 x13971 -1 x13720 -1 x13721 -1 x13722 -1 x13723 -1 x13724 -1 x13725 >= 0 ;
+2 x13972 +2 x13973 +2 x13974 -1 x13723 -1 x13724 -1 x13725 -1 x13726 -1 x13727 -1 x13728 >= 0 ;
+2 x13975 +2 x13976 +2 x13977 -1 x13726 -1 x13727 -1 x13728 -1 x13729 -1 x13730 -1 x13731 >= 0 ;
+2 x13978 +2 x13979 +2 x13980 -1 x13729 -1 x13730 -1 x13731 -1 x13732 -1 x13733 -1 x13734 >= 0 ;
+2 x13981 +2 x13982 +2 x13983 -1 x13732 -1 x13733 -1 x13734 -1 x13735 -1 x13736 -1 x13737 >= 0 ;
+2 x13984 +2 x13985 +2 x13986 -1 x13735 -1 x13736 -1 x13737 -1 x13738 -1 x13739 -1 x13740 >= 0 ;
+2 x13987 +2 x13988 +2 x13989 -1 x13738 -1 x13739 -1 x13740 -1 x13741 -1 x13742 -1 x13743 >= 0 ;
+2 x13990 +2 x13991 +2 x13992 -1 x13741 -1 x13742 -1 x13743 -1 x13744 -1 x13745 -1 x13746 >= 0 ;
+2 x13993 +2 x13994 +2 x13995 -1 x13744 -1 x13745 -1 x13746 -1 x13747 -1 x13748 -1 x13749 >= 0 ;
+2 x13996 +2 x13997 +2 x13998 -1 x13747 -1 x13748 -1 x13749 -1 x13750 -1 x13751 -1 x13752 >= 0 ;
+2 x13999 +2 x14000 +2 x14001 -1 x13750 -1 x13751 -1 x13752 -1 x13753 -1 x13754 -1 x13755 >= 0 ;
+2 x14002 +2 x14003 +2 x14004 -1 x13753 -1 x13754 -1 x13755 -1 x13756 -1 x13757 -1 x13758 >= 0 ;
+2 x14005 +2 x14006 +2 x14007 -1 x13756 -1 x13757 -1 x13758 -1 x13759 -1 x13760 -1 x13761 >= 0 ;
+2 x14008 +2 x14009 +2 x14010 -1 x13759 -1 x13760 -1 x13761 -1 x13762 -1 x13763 -1 x13764 >= 0 ;
+2 x14011 +2 x14012 +2 x14013 -1 x13762 -1 x13763 -1 x13764 -1 x13765 -1 x13766 -1 x13767 >= 0 ;
+2 x14014 +2 x14015 +2 x14016 -1 x13765 -1 x13766 -1 x13767 -1 x13768 -1 x13769 -1 x13770 >= 0 ;
+2 x14017 +2 x14018 +2 x14019 -1 x13768 -1 x13769 -1 x13770 -1 x13771 -1 x13772 -1 x13773 >= 0 ;
+2 x14020 +2 x14021 +2 x14022 -1 x13771 -1 x13772 -1 x13773 -1 x13774 -1 x13775 -1 x13776 >= 0 ;
+2 x14023 +2 x14024 +2 x14025 -1 x13774 -1 x13775 -1 x13776 -1 x13777 -1 x13778 -1 x13779 >= 0 ;
+2 x14026 +2 x14027 +2 x14028 -1 x13777 -1 x13778 -1 x13779 -1 x13780 -1 x13781 -1 x13782 >= 0 ;
+2 x14029 +2 x14030 +2 x14031 -1 x13780 -1 x13781 -1 x13782 -1 x13783 -1 x13784 -1 x13785 >= 0 ;
+2 x14032 +2 x14033 +2 x14034 -1 x13783 -1 x13784 -1 x13785 -1 x13786 -1 x13787 -1 x13788 >= 0 ;
+2 x14035 +2 x14036 +2 x14037 -1 x13786 -1 x13787 -1 x13788 -1 x13789 -1 x13790 -1 x13791 >= 0 ;
+2 x14038 +2 x14039 +2 x14040 -1 x13789 -1 x13790 -1 x13791 -1 x13792 -1 x13793 -1 x13794 >= 0 ;
+2 x14041 +2 x14042 +2 x14043 -1 x13795 -1 x13796 -1 x13797 -1 x13798 -1 x13799 -1 x13800 >= 0 ;
+2 x14044 +2 x14045 +2 x14046 -1 x13798 -1 x13799 -1 x13800 -1 x13801 -1 x13802 -1 x13803 >= 0 ;
+2 x14047 +2 x14048 +2 x14049 -1 x13801 -1 x13802 -1 x13803 -1 x13804 -1 x13805 -1 x13806 >= 0 ;
+2 x14050 +2 x14051 +2 x14052 -1 x13804 -1 x13805 -1 x13806 -1 x13807 -1 x13808 -1 x13809 >= 0 ;
+2 x14053 +2 x14054 +2 x14055 -1 x13807 -1 x13808 -1 x13809 -1 x13810 -1 x13811 -1 x13812 >= 0 ;
+2 x14056 +2 x14057 +2 x14058 -1 x13810 -1 x13811 -1 x13812 -1 x13813 -1 x13814 -1 x13815 >= 0 ;
+2 x14059 +2 x14060 +2 x14061 -1 x13813 -1 x13814 -1 x13815 -1 x13816 -1 x13817 -1 x13818 >= 0 ;
+2 x14062 +2 x14063 +2 x14064 -1 x13816 -1 x13817 -1 x13818 -1 x13819 -1 x13820 -1 x13821 >= 0 ;
+2 x14065 +2 x14066 +2 x14067 -1 x13819 -1 x13820 -1 x13821 -1 x13822 -1 x13823 -1 x13824 >= 0 ;
+2 x14068 +2 x14069 +2 x14070 -1 x13822 -1 x13823 -1 x13824 -1 x13825 -1 x13826 -1 x13827 >= 0 ;
+2 x14071 +2 x14072 +2 x14073 -1 x13825 -1 x13826 -1 x13827 -1 x13828 -1 x13829 -1 x13830 >= 0 ;
+2 x14074 +2 x14075 +2 x14076 -1 x13828 -1 x13829 -1 x13830 -1 x13831 -1 x13832 -1 x13833 >= 0 ;
+2 x14077 +2 x14078 +2 x14079 -1 x13831 -1 x13832 -1 x13833 -1 x13834 -1 x13835 -1 x13836 >= 0 ;
+2 x14080 +2 x14081 +2 x14082 -1 x13834 -1 x13835 -1 x13836 -1 x13837 -1 x13838 -1 x13839 >= 0 ;
+2 x14083 +2 x14084 +2 x14085 -1 x13837 -1 x13838 -1 x13839 -1 x13840 -1 x13841 -1 x13842 >= 0 ;
+2 x14086 +2 x14087 +2 x14088 -1 x13840 -1 x13841 -1 x13842 -1 x13843 -1 x13844 -1 x13845 >= 0 ;
+2 x14089 +2 x14090 +2 x14091 -1 x13843 -1 x13844 -1 x13845 -1 x13846 -1 x13847 -1 x13848 >= 0 ;
+2 x14092 +2 x14093 +2 x14094 -1 x13846 -1 x13847 -1 x13848 -1 x13849 -1 x13850 -1 x13851 >= 0 ;
+2 x14095 +2 x14096 +2 x14097 -1 x13849 -1 x13850 -1 x13851 -1 x13852 -1 x13853 -1 x13854 >= 0 ;
+2 x14098 +2 x14099 +2 x14100 -1 x13852 -1 x13853 -1 x13854 -1 x13855 -1 x13856 -1 x13857 >= 0 ;
+2 x14101 +2 x14102 +2 x14103 -1 x13855 -1 x13856 -1 x13857 -1 x13858 -1 x13859 -1 x13860 >= 0 ;
+2 x14104 +2 x14105 +2 x14106 -1 x13858 -1 x13859 -1 x13860 -1 x13861 -1 x13862 -1 x13863 >= 0 ;
+2 x14107 +2 x14108 +2 x14109 -1 x13861 -1 x13862 -1 x13863 -1 x13864 -1 x13865 -1 x13866 >= 0 ;
+2 x14110 +2 x14111 +2 x14112 -1 x13864 -1 x13865 -1 x13866 -1 x13867 -1 x13868 -1 x13869 >= 0 ;
+2 x14113 +2 x14114 +2 x14115 -1 x13867 -1 x13868 -1 x13869 -1 x13870 -1 x13871 -1 x13872 >= 0 ;
+2 x14116 +2 x14117 +2 x14118 -1 x13870 -1 x13871 -1 x13872 -1 x13873 -1 x13874 -1 x13875 >= 0 ;
+2 x14119 +2 x14120 +2 x14121 -1 x13873 -1 x13874 -1 x13875 -1 x13876 -1 x13877 -1 x13878 >= 0 ;
+2 x14122 +2 x14123 +2 x14124 -1 x13876 -1 x13877 -1 x13878 -1 x13879 -1 x13880 -1 x13881 >= 0 ;
+2 x14125 +2 x14126 +2 x14127 -1 x13879 -1 x13880 -1 x13881 -1 x13882 -1 x13883 -1 x13884 >= 0 ;
+2 x14128 +2 x14129 +2 x14130 -1 x13882 -1 x13883 -1 x13884 -1 x13885 -1 x13886 -1 x13887 >= 0 ;
+2 x14131 +2 x14132 +2 x14133 -1 x13885 -1 x13886 -1 x13887 -1 x13888 -1 x13889 -1 x13890 >= 0 ;
+2 x14134 +2 x14135 +2 x14136 -1 x13888 -1 x13889 -1 x13890 -1 x13891 -1 x13892 -1 x13893 >= 0 ;
+2 x14137 +2 x14138 +2 x14139 -1 x13891 -1 x13892 -1 x13893 -1 x13894 -1 x13895 -1 x13896 >= 0 ;
+2 x14140 +2 x14141 +2 x14142 -1 x13894 -1 x13895 -1 x13896 -1 x13897 -1 x13898 -1 x13899 >= 0 ;
+2 x14143 +2 x14144 +2 x14145 -1 x13897 -1 x13898 -1 x13899 -1 x13900 -1 x13901 -1 x13902 >= 0 ;
+2 x14146 +2 x14147 +2 x14148 -1 x13900 -1 x13901 -1 x13902 -1 x13903 -1 x13904 -1 x13905 >= 0 ;
+2 x14149 +2 x14150 +2 x14151 -1 x13903 -1 x13904 -1 x13905 -1 x13906 -1 x13907 -1 x13908 >= 0 ;
+2 x14152 +2 x14153 +2 x14154 -1 x13906 -1 x13907 -1 x13908 -1 x13909 -1 x13910 -1 x13911 >= 0 ;
+2 x14155 +2 x14156 +2 x14157 -1 x13909 -1 x13910 -1 x13911 -1 x13912 -1 x13913 -1 x13914 >= 0 ;
+2 x14158 +2 x14159 +2 x14160 -1 x13912 -1 x13913 -1 x13914 -1 x13915 -1 x13916 -1 x13917 >= 0 ;
+2 x14161 +2 x14162 +2 x14163 -1 x13915 -1 x13916 -1 x13917 -1 x13918 -1 x13919 -1 x13920 >= 0 ;
+2 x14164 +2 x14165 +2 x14166 -1 x13918 -1 x13919 -1 x13920 -1 x13921 -1 x13922 -1 x13923 >= 0 ;
+2 x14167 +2 x14168 +2 x14169 -1 x13921 -1 x13922 -1 x13923 -1 x13924 -1 x13925 -1 x13926 >= 0 ;
+2 x14170 +2 x14171 +2 x14172 -1 x13924 -1 x13925 -1 x13926 -1 x13927 -1 x13928 -1 x13929 >= 0 ;
+2 x14173 +2 x14174 +2 x14175 -1 x13927 -1 x13928 -1 x13929 -1 x13930 -1 x13931 -1 x13932 >= 0 ;
+2 x14176 +2 x14177 +2 x14178 -1 x13930 -1 x13931 -1 x13932 -1 x13933 -1 x13934 -1 x13935 >= 0 ;
+2 x14179 +2 x14180 +2 x14181 -1 x13933 -1 x13934 -1 x13935 -1 x13936 -1 x13937 -1 x13938 >= 0 ;
+2 x14182 +2 x14183 +2 x14184 -1 x13936 -1 x13937 -1 x13938 -1 x13939 -1 x13940 -1 x13941 >= 0 ;
+2 x14185 +2 x14186 +2 x14187 -1 x13939 -1 x13940 -1 x13941 -1 x13942 -1 x13943 -1 x13944 >= 0 ;
+2 x14188 +2 x14189 +2 x14190 -1 x13942 -1 x13943 -1 x13944 -1 x13945 -1 x13946 -1 x13947 >= 0 ;
+2 x14191 +2 x14192 +2 x14193 -1 x13945 -1 x13946 -1 x13947 -1 x13948 -1 x13949 -1 x13950 >= 0 ;
+2 x14194 +2 x14195 +2 x14196 -1 x13948 -1 x13949 -1 x13950 -1 x13951 -1 x13952 -1 x13953 >= 0 ;
+2 x14197 +2 x14198 +2 x14199 -1 x13951 -1 x13952 -1 x13953 -1 x13954 -1 x13955 -1 x13956 >= 0 ;
+2 x14200 +2 x14201 +2 x14202 -1 x13954 -1 x13955 -1 x13956 -1 x13957 -1 x13958 -1 x13959 >= 0 ;
+2 x14203 +2 x14204 +2 x14205 -1 x13957 -1 x13958 -1 x13959 -1 x13960 -1 x13961 -1 x13962 >= 0 ;
+2 x14206 +2 x14207 +2 x14208 -1 x13960 -1 x13961 -1 x13962 -1 x13963 -1 x13964 -1 x13965 >= 0 ;
+2 x14209 +2 x14210 +2 x14211 -1 x13963 -1 x13964 -1 x13965 -1 x13966 -1 x13967 -1 x13968 >= 0 ;
+2 x14212 +2 x14213 +2 x14214 -1 x13966 -1 x13967 -1 x13968 -1 x13969 -1 x13970 -1 x13971 >= 0 ;
+2 x14215 +2 x14216 +2 x14217 -1 x13969 -1 x13970 -1 x13971 -1 x13972 -1 x13973 -1 x13974 >= 0 ;
+2 x14218 +2 x14219 +2 x14220 -1 x13972 -1 x13973 -1 x13974 -1 x13975 -1 x13976 -1 x13977 >= 0 ;
+2 x14221 +2 x14222 +2 x14223 -1 x13975 -1 x13976 -1 x13977 -1 x13978 -1 x13979 -1 x13980 >= 0 ;
+2 x14224 +2 x14225 +2 x14226 -1 x13978 -1 x13979 -1 x13980 -1 x13981 -1 x13982 -1 x13983 >= 0 ;
+2 x14227 +2 x14228 +2 x14229 -1 x13981 -1 x13982 -1 x13983 -1 x13984 -1 x13985 -1 x13986 >= 0 ;
+2 x14230 +2 x14231 +2 x14232 -1 x13984 -1 x13985 -1 x13986 -1 x13987 -1 x13988 -1 x13989 >= 0 ;
+2 x14233 +2 x14234 +2 x14235 -1 x13987 -1 x13988 -1 x13989 -1 x13990 -1 x13991 -1 x13992 >= 0 ;
+2 x14236 +2 x14237 +2 x14238 -1 x13990 -1 x13991 -1 x13992 -1 x13993 -1 x13994 -1 x13995 >= 0 ;
+2 x14239 +2 x14240 +2 x14241 -1 x13993 -1 x13994 -1 x13995 -1 x13996 -1 x13997 -1 x13998 >= 0 ;
+2 x14242 +2 x14243 +2 x14244 -1 x13996 -1 x13997 -1 x13998 -1 x13999 -1 x14000 -1 x14001 >= 0 ;
+2 x14245 +2 x14246 +2 x14247 -1 x13999 -1 x14000 -1 x14001 -1 x14002 -1 x14003 -1 x14004 >= 0 ;
+2 x14248 +2 x14249 +2 x14250 -1 x14002 -1 x14003 -1 x14004 -1 x14005 -1 x14006 -1 x14007 >= 0 ;
+2 x14251 +2 x14252 +2 x14253 -1 x14005 -1 x14006 -1 x14007 -1 x14008 -1 x14009 -1 x14010 >= 0 ;
+2 x14254 +2 x14255 +2 x14256 -1 x14008 -1 x14009 -1 x14010 -1 x14011 -1 x14012 -1 x14013 >= 0 ;
+2 x14257 +2 x14258 +2 x14259 -1 x14011 -1 x14012 -1 x14013 -1 x14014 -1 x14015 -1 x14016 >= 0 ;
+2 x14260 +2 x14261 +2 x14262 -1 x14014 -1 x14015 -1 x14016 -1 x14017 -1 x14018 -1 x14019 >= 0 ;
+2 x14263 +2 x14264 +2 x14265 -1 x14017 -1 x14018 -1 x14019 -1 x14020 -1 x14021 -1 x14022 >= 0 ;
+2 x14266 +2 x14267 +2 x14268 -1 x14020 -1 x14021 -1 x14022 -1 x14023 -1 x14024 -1 x14025 >= 0 ;
+2 x14269 +2 x14270 +2 x14271 -1 x14023 -1 x14024 -1 x14025 -1 x14026 -1 x14027 -1 x14028 >= 0 ;
+2 x14272 +2 x14273 +2 x14274 -1 x14026 -1 x14027 -1 x14028 -1 x14029 -1 x14030 -1 x14031 >= 0 ;
+2 x14275 +2 x14276 +2 x14277 -1 x14029 -1 x14030 -1 x14031 -1 x14032 -1 x14033 -1 x14034 >= 0 ;
+2 x14278 +2 x14279 +2 x14280 -1 x14032 -1 x14033 -1 x14034 -1 x14035 -1 x14036 -1 x14037 >= 0 ;
+2 x14281 +2 x14282 +2 x14283 -1 x14035 -1 x14036 -1 x14037 -1 x14038 -1 x14039 -1 x14040 >= 0 ;
+2 x14284 +2 x14285 +2 x14286 -1 x14041 -1 x14042 -1 x14043 -1 x14044 -1 x14045 -1 x14046 >= 0 ;
+2 x14287 +2 x14288 +2 x14289 -1 x14044 -1 x14045 -1 x14046 -1 x14047 -1 x14048 -1 x14049 >= 0 ;
+2 x14290 +2 x14291 +2 x14292 -1 x14047 -1 x14048 -1 x14049 -1 x14050 -1 x14051 -1 x14052 >= 0 ;
+2 x14293 +2 x14294 +2 x14295 -1 x14050 -1 x14051 -1 x14052 -1 x14053 -1 x14054 -1 x14055 >= 0 ;
+2 x14296 +2 x14297 +2 x14298 -1 x14053 -1 x14054 -1 x14055 -1 x14056 -1 x14057 -1 x14058 >= 0 ;
+2 x14299 +2 x14300 +2 x14301 -1 x14056 -1 x14057 -1 x14058 -1 x14059 -1 x14060 -1 x14061 >= 0 ;
+2 x14302 +2 x14303 +2 x14304 -1 x14059 -1 x14060 -1 x14061 -1 x14062 -1 x14063 -1 x14064 >= 0 ;
+2 x14305 +2 x14306 +2 x14307 -1 x14062 -1 x14063 -1 x14064 -1 x14065 -1 x14066 -1 x14067 >= 0 ;
+2 x14308 +2 x14309 +2 x14310 -1 x14065 -1 x14066 -1 x14067 -1 x14068 -1 x14069 -1 x14070 >= 0 ;
+2 x14311 +2 x14312 +2 x14313 -1 x14068 -1 x14069 -1 x14070 -1 x14071 -1 x14072 -1 x14073 >= 0 ;
+2 x14314 +2 x14315 +2 x14316 -1 x14071 -1 x14072 -1 x14073 -1 x14074 -1 x14075 -1 x14076 >= 0 ;
+2 x14317 +2 x14318 +2 x14319 -1 x14074 -1 x14075 -1 x14076 -1 x14077 -1 x14078 -1 x14079 >= 0 ;
+2 x14320 +2 x14321 +2 x14322 -1 x14077 -1 x14078 -1 x14079 -1 x14080 -1 x14081 -1 x14082 >= 0 ;
+2 x14323 +2 x14324 +2 x14325 -1 x14080 -1 x14081 -1 x14082 -1 x14083 -1 x14084 -1 x14085 >= 0 ;
+2 x14326 +2 x14327 +2 x14328 -1 x14083 -1 x14084 -1 x14085 -1 x14086 -1 x14087 -1 x14088 >= 0 ;
+2 x14329 +2 x14330 +2 x14331 -1 x14086 -1 x14087 -1 x14088 -1 x14089 -1 x14090 -1 x14091 >= 0 ;
+2 x14332 +2 x14333 +2 x14334 -1 x14089 -1 x14090 -1 x14091 -1 x14092 -1 x14093 -1 x14094 >= 0 ;
+2 x14335 +2 x14336 +2 x14337 -1 x14092 -1 x14093 -1 x14094 -1 x14095 -1 x14096 -1 x14097 >= 0 ;
+2 x14338 +2 x14339 +2 x14340 -1 x14095 -1 x14096 -1 x14097 -1 x14098 -1 x14099 -1 x14100 >= 0 ;
+2 x14341 +2 x14342 +2 x14343 -1 x14098 -1 x14099 -1 x14100 -1 x14101 -1 x14102 -1 x14103 >= 0 ;
+2 x14344 +2 x14345 +2 x14346 -1 x14101 -1 x14102 -1 x14103 -1 x14104 -1 x14105 -1 x14106 >= 0 ;
+2 x14347 +2 x14348 +2 x14349 -1 x14104 -1 x14105 -1 x14106 -1 x14107 -1 x14108 -1 x14109 >= 0 ;
+2 x14350 +2 x14351 +2 x14352 -1 x14107 -1 x14108 -1 x14109 -1 x14110 -1 x14111 -1 x14112 >= 0 ;
+2 x14353 +2 x14354 +2 x14355 -1 x14110 -1 x14111 -1 x14112 -1 x14113 -1 x14114 -1 x14115 >= 0 ;
+2 x14356 +2 x14357 +2 x14358 -1 x14113 -1 x14114 -1 x14115 -1 x14116 -1 x14117 -1 x14118 >= 0 ;
+2 x14359 +2 x14360 +2 x14361 -1 x14116 -1 x14117 -1 x14118 -1 x14119 -1 x14120 -1 x14121 >= 0 ;
+2 x14362 +2 x14363 +2 x14364 -1 x14119 -1 x14120 -1 x14121 -1 x14122 -1 x14123 -1 x14124 >= 0 ;
+2 x14365 +2 x14366 +2 x14367 -1 x14122 -1 x14123 -1 x14124 -1 x14125 -1 x14126 -1 x14127 >= 0 ;
+2 x14368 +2 x14369 +2 x14370 -1 x14125 -1 x14126 -1 x14127 -1 x14128 -1 x14129 -1 x14130 >= 0 ;
+2 x14371 +2 x14372 +2 x14373 -1 x14128 -1 x14129 -1 x14130 -1 x14131 -1 x14132 -1 x14133 >= 0 ;
+2 x14374 +2 x14375 +2 x14376 -1 x14131 -1 x14132 -1 x14133 -1 x14134 -1 x14135 -1 x14136 >= 0 ;
+2 x14377 +2 x14378 +2 x14379 -1 x14134 -1 x14135 -1 x14136 -1 x14137 -1 x14138 -1 x14139 >= 0 ;
+2 x14380 +2 x14381 +2 x14382 -1 x14137 -1 x14138 -1 x14139 -1 x14140 -1 x14141 -1 x14142 >= 0 ;
+2 x14383 +2 x14384 +2 x14385 -1 x14140 -1 x14141 -1 x14142 -1 x14143 -1 x14144 -1 x14145 >= 0 ;
+2 x14386 +2 x14387 +2 x14388 -1 x14143 -1 x14144 -1 x14145 -1 x14146 -1 x14147 -1 x14148 >= 0 ;
+2 x14389 +2 x14390 +2 x14391 -1 x14146 -1 x14147 -1 x14148 -1 x14149 -1 x14150 -1 x14151 >= 0 ;
+2 x14392 +2 x14393 +2 x14394 -1 x14149 -1 x14150 -1 x14151 -1 x14152 -1 x14153 -1 x14154 >= 0 ;
+2 x14395 +2 x14396 +2 x14397 -1 x14152 -1 x14153 -1 x14154 -1 x14155 -1 x14156 -1 x14157 >= 0 ;
+2 x14398 +2 x14399 +2 x14400 -1 x14155 -1 x14156 -1 x14157 -1 x14158 -1 x14159 -1 x14160 >= 0 ;
+2 x14401 +2 x14402 +2 x14403 -1 x14158 -1 x14159 -1 x14160 -1 x14161 -1 x14162 -1 x14163 >= 0 ;
+2 x14404 +2 x14405 +2 x14406 -1 x14161 -1 x14162 -1 x14163 -1 x14164 -1 x14165 -1 x14166 >= 0 ;
+2 x14407 +2 x14408 +2 x14409 -1 x14164 -1 x14165 -1 x14166 -1 x14167 -1 x14168 -1 x14169 >= 0 ;
+2 x14410 +2 x14411 +2 x14412 -1 x14167 -1 x14168 -1 x14169 -1 x14170 -1 x14171 -1 x14172 >= 0 ;
+2 x14413 +2 x14414 +2 x14415 -1 x14170 -1 x14171 -1 x14172 -1 x14173 -1 x14174 -1 x14175 >= 0 ;
+2 x14416 +2 x14417 +2 x14418 -1 x14173 -1 x14174 -1 x14175 -1 x14176 -1 x14177 -1 x14178 >= 0 ;
+2 x14419 +2 x14420 +2 x14421 -1 x14176 -1 x14177 -1 x14178 -1 x14179 -1 x14180 -1 x14181 >= 0 ;
+2 x14422 +2 x14423 +2 x14424 -1 x14179 -1 x14180 -1 x14181 -1 x14182 -1 x14183 -1 x14184 >= 0 ;
+2 x14425 +2 x14426 +2 x14427 -1 x14182 -1 x14183 -1 x14184 -1 x14185 -1 x14186 -1 x14187 >= 0 ;
+2 x14428 +2 x14429 +2 x14430 -1 x14185 -1 x14186 -1 x14187 -1 x14188 -1 x14189 -1 x14190 >= 0 ;
+2 x14431 +2 x14432 +2 x14433 -1 x14188 -1 x14189 -1 x14190 -1 x14191 -1 x14192 -1 x14193 >= 0 ;
+2 x14434 +2 x14435 +2 x14436 -1 x14191 -1 x14192 -1 x14193 -1 x14194 -1 x14195 -1 x14196 >= 0 ;
+2 x14437 +2 x14438 +2 x14439 -1 x14194 -1 x14195 -1 x14196 -1 x14197 -1 x14198 -1 x14199 >= 0 ;
+2 x14440 +2 x14441 +2 x14442 -1 x14197 -1 x14198 -1 x14199 -1 x14200 -1 x14201 -1 x14202 >= 0 ;
+2 x14443 +2 x14444 +2 x14445 -1 x14200 -1 x14201 -1 x14202 -1 x14203 -1 x14204 -1 x14205 >= 0 ;
+2 x14446 +2 x14447 +2 x14448 -1 x14203 -1 x14204 -1 x14205 -1 x14206 -1 x14207 -1 x14208 >= 0 ;
+2 x14449 +2 x14450 +2 x14451 -1 x14206 -1 x14207 -1 x14208 -1 x14209 -1 x14210 -1 x14211 >= 0 ;
+2 x14452 +2 x14453 +2 x14454 -1 x14209 -1 x14210 -1 x14211 -1 x14212 -1 x14213 -1 x14214 >= 0 ;
+2 x14455 +2 x14456 +2 x14457 -1 x14212 -1 x14213 -1 x14214 -1 x14215 -1 x14216 -1 x14217 >= 0 ;
+2 x14458 +2 x14459 +2 x14460 -1 x14215 -1 x14216 -1 x14217 -1 x14218 -1 x14219 -1 x14220 >= 0 ;
+2 x14461 +2 x14462 +2 x14463 -1 x14218 -1 x14219 -1 x14220 -1 x14221 -1 x14222 -1 x14223 >= 0 ;
+2 x14464 +2 x14465 +2 x14466 -1 x14221 -1 x14222 -1 x14223 -1 x14224 -1 x14225 -1 x14226 >= 0 ;
+2 x14467 +2 x14468 +2 x14469 -1 x14224 -1 x14225 -1 x14226 -1 x14227 -1 x14228 -1 x14229 >= 0 ;
+2 x14470 +2 x14471 +2 x14472 -1 x14227 -1 x14228 -1 x14229 -1 x14230 -1 x14231 -1 x14232 >= 0 ;
+2 x14473 +2 x14474 +2 x14475 -1 x14230 -1 x14231 -1 x14232 -1 x14233 -1 x14234 -1 x14235 >= 0 ;
+2 x14476 +2 x14477 +2 x14478 -1 x14233 -1 x14234 -1 x14235 -1 x14236 -1 x14237 -1 x14238 >= 0 ;
+2 x14479 +2 x14480 +2 x14481 -1 x14236 -1 x14237 -1 x14238 -1 x14239 -1 x14240 -1 x14241 >= 0 ;
+2 x14482 +2 x14483 +2 x14484 -1 x14239 -1 x14240 -1 x14241 -1 x14242 -1 x14243 -1 x14244 >= 0 ;
+2 x14485 +2 x14486 +2 x14487 -1 x14242 -1 x14243 -1 x14244 -1 x14245 -1 x14246 -1 x14247 >= 0 ;
+2 x14488 +2 x14489 +2 x14490 -1 x14245 -1 x14246 -1 x14247 -1 x14248 -1 x14249 -1 x14250 >= 0 ;
+2 x14491 +2 x14492 +2 x14493 -1 x14248 -1 x14249 -1 x14250 -1 x14251 -1 x14252 -1 x14253 >= 0 ;
+2 x14494 +2 x14495 +2 x14496 -1 x14251 -1 x14252 -1 x14253 -1 x14254 -1 x14255 -1 x14256 >= 0 ;
+2 x14497 +2 x14498 +2 x14499 -1 x14254 -1 x14255 -1 x14256 -1 x14257 -1 x14258 -1 x14259 >= 0 ;
+2 x14500 +2 x14501 +2 x14502 -1 x14257 -1 x14258 -1 x14259 -1 x14260 -1 x14261 -1 x14262 >= 0 ;
+2 x14503 +2 x14504 +2 x14505 -1 x14260 -1 x14261 -1 x14262 -1 x14263 -1 x14264 -1 x14265 >= 0 ;
+2 x14506 +2 x14507 +2 x14508 -1 x14263 -1 x14264 -1 x14265 -1 x14266 -1 x14267 -1 x14268 >= 0 ;
+2 x14509 +2 x14510 +2 x14511 -1 x14266 -1 x14267 -1 x14268 -1 x14269 -1 x14270 -1 x14271 >= 0 ;
+2 x14512 +2 x14513 +2 x14514 -1 x14269 -1 x14270 -1 x14271 -1 x14272 -1 x14273 -1 x14274 >= 0 ;
+2 x14515 +2 x14516 +2 x14517 -1 x14272 -1 x14273 -1 x14274 -1 x14275 -1 x14276 -1 x14277 >= 0 ;
+2 x14518 +2 x14519 +2 x14520 -1 x14275 -1 x14276 -1 x14277 -1 x14278 -1 x14279 -1 x14280 >= 0 ;
+2 x14521 +2 x14522 +2 x14523 -1 x14278 -1 x14279 -1 x14280 -1 x14281 -1 x14282 -1 x14283 >= 0 ;
+2 x14524 +2 x14525 +2 x14526 -1 x14284 -1 x14285 -1 x14286 -1 x14287 -1 x14288 -1 x14289 >= 0 ;
+2 x14527 +2 x14528 +2 x14529 -1 x14287 -1 x14288 -1 x14289 -1 x14290 -1 x14291 -1 x14292 >= 0 ;
+2 x14530 +2 x14531 +2 x14532 -1 x14290 -1 x14291 -1 x14292 -1 x14293 -1 x14294 -1 x14295 >= 0 ;
+2 x14533 +2 x14534 +2 x14535 -1 x14293 -1 x14294 -1 x14295 -1 x14296 -1 x14297 -1 x14298 >= 0 ;
+2 x14536 +2 x14537 +2 x14538 -1 x14296 -1 x14297 -1 x14298 -1 x14299 -1 x14300 -1 x14301 >= 0 ;
+2 x14539 +2 x14540 +2 x14541 -1 x14299 -1 x14300 -1 x14301 -1 x14302 -1 x14303 -1 x14304 >= 0 ;
+2 x14542 +2 x14543 +2 x14544 -1 x14302 -1 x14303 -1 x14304 -1 x14305 -1 x14306 -1 x14307 >= 0 ;
+2 x14545 +2 x14546 +2 x14547 -1 x14305 -1 x14306 -1 x14307 -1 x14308 -1 x14309 -1 x14310 >= 0 ;
+2 x14548 +2 x14549 +2 x14550 -1 x14308 -1 x14309 -1 x14310 -1 x14311 -1 x14312 -1 x14313 >= 0 ;
+2 x14551 +2 x14552 +2 x14553 -1 x14311 -1 x14312 -1 x14313 -1 x14314 -1 x14315 -1 x14316 >= 0 ;
+2 x14554 +2 x14555 +2 x14556 -1 x14314 -1 x14315 -1 x14316 -1 x14317 -1 x14318 -1 x14319 >= 0 ;
+2 x14557 +2 x14558 +2 x14559 -1 x14317 -1 x14318 -1 x14319 -1 x14320 -1 x14321 -1 x14322 >= 0 ;
+2 x14560 +2 x14561 +2 x14562 -1 x14320 -1 x14321 -1 x14322 -1 x14323 -1 x14324 -1 x14325 >= 0 ;
+2 x14563 +2 x14564 +2 x14565 -1 x14323 -1 x14324 -1 x14325 -1 x14326 -1 x14327 -1 x14328 >= 0 ;
+2 x14566 +2 x14567 +2 x14568 -1 x14326 -1 x14327 -1 x14328 -1 x14329 -1 x14330 -1 x14331 >= 0 ;
+2 x14569 +2 x14570 +2 x14571 -1 x14329 -1 x14330 -1 x14331 -1 x14332 -1 x14333 -1 x14334 >= 0 ;
+2 x14572 +2 x14573 +2 x14574 -1 x14332 -1 x14333 -1 x14334 -1 x14335 -1 x14336 -1 x14337 >= 0 ;
+2 x14575 +2 x14576 +2 x14577 -1 x14335 -1 x14336 -1 x14337 -1 x14338 -1 x14339 -1 x14340 >= 0 ;
+2 x14578 +2 x14579 +2 x14580 -1 x14338 -1 x14339 -1 x14340 -1 x14341 -1 x14342 -1 x14343 >= 0 ;
+2 x14581 +2 x14582 +2 x14583 -1 x14341 -1 x14342 -1 x14343 -1 x14344 -1 x14345 -1 x14346 >= 0 ;
+2 x14584 +2 x14585 +2 x14586 -1 x14344 -1 x14345 -1 x14346 -1 x14347 -1 x14348 -1 x14349 >= 0 ;
+2 x14587 +2 x14588 +2 x14589 -1 x14347 -1 x14348 -1 x14349 -1 x14350 -1 x14351 -1 x14352 >= 0 ;
+2 x14590 +2 x14591 +2 x14592 -1 x14350 -1 x14351 -1 x14352 -1 x14353 -1 x14354 -1 x14355 >= 0 ;
+2 x14593 +2 x14594 +2 x14595 -1 x14353 -1 x14354 -1 x14355 -1 x14356 -1 x14357 -1 x14358 >= 0 ;
+2 x14596 +2 x14597 +2 x14598 -1 x14356 -1 x14357 -1 x14358 -1 x14359 -1 x14360 -1 x14361 >= 0 ;
+2 x14599 +2 x14600 +2 x14601 -1 x14359 -1 x14360 -1 x14361 -1 x14362 -1 x14363 -1 x14364 >= 0 ;
+2 x14602 +2 x14603 +2 x14604 -1 x14362 -1 x14363 -1 x14364 -1 x14365 -1 x14366 -1 x14367 >= 0 ;
+2 x14605 +2 x14606 +2 x14607 -1 x14365 -1 x14366 -1 x14367 -1 x14368 -1 x14369 -1 x14370 >= 0 ;
+2 x14608 +2 x14609 +2 x14610 -1 x14368 -1 x14369 -1 x14370 -1 x14371 -1 x14372 -1 x14373 >= 0 ;
+2 x14611 +2 x14612 +2 x14613 -1 x14371 -1 x14372 -1 x14373 -1 x14374 -1 x14375 -1 x14376 >= 0 ;
+2 x14614 +2 x14615 +2 x14616 -1 x14374 -1 x14375 -1 x14376 -1 x14377 -1 x14378 -1 x14379 >= 0 ;
+2 x14617 +2 x14618 +2 x14619 -1 x14377 -1 x14378 -1 x14379 -1 x14380 -1 x14381 -1 x14382 >= 0 ;
+2 x14620 +2 x14621 +2 x14622 -1 x14380 -1 x14381 -1 x14382 -1 x14383 -1 x14384 -1 x14385 >= 0 ;
+2 x14623 +2 x14624 +2 x14625 -1 x14383 -1 x14384 -1 x14385 -1 x14386 -1 x14387 -1 x14388 >= 0 ;
+2 x14626 +2 x14627 +2 x14628 -1 x14386 -1 x14387 -1 x14388 -1 x14389 -1 x14390 -1 x14391 >= 0 ;
+2 x14629 +2 x14630 +2 x14631 -1 x14389 -1 x14390 -1 x14391 -1 x14392 -1 x14393 -1 x14394 >= 0 ;
+2 x14632 +2 x14633 +2 x14634 -1 x14392 -1 x14393 -1 x14394 -1 x14395 -1 x14396 -1 x14397 >= 0 ;
+2 x14635 +2 x14636 +2 x14637 -1 x14395 -1 x14396 -1 x14397 -1 x14398 -1 x14399 -1 x14400 >= 0 ;
+2 x14638 +2 x14639 +2 x14640 -1 x14398 -1 x14399 -1 x14400 -1 x14401 -1 x14402 -1 x14403 >= 0 ;
+2 x14641 +2 x14642 +2 x14643 -1 x14401 -1 x14402 -1 x14403 -1 x14404 -1 x14405 -1 x14406 >= 0 ;
+2 x14644 +2 x14645 +2 x14646 -1 x14404 -1 x14405 -1 x14406 -1 x14407 -1 x14408 -1 x14409 >= 0 ;
+2 x14647 +2 x14648 +2 x14649 -1 x14407 -1 x14408 -1 x14409 -1 x14410 -1 x14411 -1 x14412 >= 0 ;
+2 x14650 +2 x14651 +2 x14652 -1 x14410 -1 x14411 -1 x14412 -1 x14413 -1 x14414 -1 x14415 >= 0 ;
+2 x14653 +2 x14654 +2 x14655 -1 x14413 -1 x14414 -1 x14415 -1 x14416 -1 x14417 -1 x14418 >= 0 ;
+2 x14656 +2 x14657 +2 x14658 -1 x14416 -1 x14417 -1 x14418 -1 x14419 -1 x14420 -1 x14421 >= 0 ;
+2 x14659 +2 x14660 +2 x14661 -1 x14419 -1 x14420 -1 x14421 -1 x14422 -1 x14423 -1 x14424 >= 0 ;
+2 x14662 +2 x14663 +2 x14664 -1 x14422 -1 x14423 -1 x14424 -1 x14425 -1 x14426 -1 x14427 >= 0 ;
+2 x14665 +2 x14666 +2 x14667 -1 x14425 -1 x14426 -1 x14427 -1 x14428 -1 x14429 -1 x14430 >= 0 ;
+2 x14668 +2 x14669 +2 x14670 -1 x14428 -1 x14429 -1 x14430 -1 x14431 -1 x14432 -1 x14433 >= 0 ;
+2 x14671 +2 x14672 +2 x14673 -1 x14431 -1 x14432 -1 x14433 -1 x14434 -1 x14435 -1 x14436 >= 0 ;
+2 x14674 +2 x14675 +2 x14676 -1 x14434 -1 x14435 -1 x14436 -1 x14437 -1 x14438 -1 x14439 >= 0 ;
+2 x14677 +2 x14678 +2 x14679 -1 x14437 -1 x14438 -1 x14439 -1 x14440 -1 x14441 -1 x14442 >= 0 ;
+2 x14680 +2 x14681 +2 x14682 -1 x14440 -1 x14441 -1 x14442 -1 x14443 -1 x14444 -1 x14445 >= 0 ;
+2 x14683 +2 x14684 +2 x14685 -1 x14443 -1 x14444 -1 x14445 -1 x14446 -1 x14447 -1 x14448 >= 0 ;
+2 x14686 +2 x14687 +2 x14688 -1 x14446 -1 x14447 -1 x14448 -1 x14449 -1 x14450 -1 x14451 >= 0 ;
+2 x14689 +2 x14690 +2 x14691 -1 x14449 -1 x14450 -1 x14451 -1 x14452 -1 x14453 -1 x14454 >= 0 ;
+2 x14692 +2 x14693 +2 x14694 -1 x14452 -1 x14453 -1 x14454 -1 x14455 -1 x14456 -1 x14457 >= 0 ;
+2 x14695 +2 x14696 +2 x14697 -1 x14455 -1 x14456 -1 x14457 -1 x14458 -1 x14459 -1 x14460 >= 0 ;
+2 x14698 +2 x14699 +2 x14700 -1 x14458 -1 x14459 -1 x14460 -1 x14461 -1 x14462 -1 x14463 >= 0 ;
+2 x14701 +2 x14702 +2 x14703 -1 x14461 -1 x14462 -1 x14463 -1 x14464 -1 x14465 -1 x14466 >= 0 ;
+2 x14704 +2 x14705 +2 x14706 -1 x14464 -1 x14465 -1 x14466 -1 x14467 -1 x14468 -1 x14469 >= 0 ;
+2 x14707 +2 x14708 +2 x14709 -1 x14467 -1 x14468 -1 x14469 -1 x14470 -1 x14471 -1 x14472 >= 0 ;
+2 x14710 +2 x14711 +2 x14712 -1 x14470 -1 x14471 -1 x14472 -1 x14473 -1 x14474 -1 x14475 >= 0 ;
+2 x14713 +2 x14714 +2 x14715 -1 x14473 -1 x14474 -1 x14475 -1 x14476 -1 x14477 -1 x14478 >= 0 ;
+2 x14716 +2 x14717 +2 x14718 -1 x14476 -1 x14477 -1 x14478 -1 x14479 -1 x14480 -1 x14481 >= 0 ;
+2 x14719 +2 x14720 +2 x14721 -1 x14479 -1 x14480 -1 x14481 -1 x14482 -1 x14483 -1 x14484 >= 0 ;
+2 x14722 +2 x14723 +2 x14724 -1 x14482 -1 x14483 -1 x14484 -1 x14485 -1 x14486 -1 x14487 >= 0 ;
+2 x14725 +2 x14726 +2 x14727 -1 x14485 -1 x14486 -1 x14487 -1 x14488 -1 x14489 -1 x14490 >= 0 ;
+2 x14728 +2 x14729 +2 x14730 -1 x14488 -1 x14489 -1 x14490 -1 x14491 -1 x14492 -1 x14493 >= 0 ;
+2 x14731 +2 x14732 +2 x14733 -1 x14491 -1 x14492 -1 x14493 -1 x14494 -1 x14495 -1 x14496 >= 0 ;
+2 x14734 +2 x14735 +2 x14736 -1 x14494 -1 x14495 -1 x14496 -1 x14497 -1 x14498 -1 x14499 >= 0 ;
+2 x14737 +2 x14738 +2 x14739 -1 x14497 -1 x14498 -1 x14499 -1 x14500 -1 x14501 -1 x14502 >= 0 ;
+2 x14740 +2 x14741 +2 x14742 -1 x14500 -1 x14501 -1 x14502 -1 x14503 -1 x14504 -1 x14505 >= 0 ;
+2 x14743 +2 x14744 +2 x14745 -1 x14503 -1 x14504 -1 x14505 -1 x14506 -1 x14507 -1 x14508 >= 0 ;
+2 x14746 +2 x14747 +2 x14748 -1 x14506 -1 x14507 -1 x14508 -1 x14509 -1 x14510 -1 x14511 >= 0 ;
+2 x14749 +2 x14750 +2 x14751 -1 x14509 -1 x14510 -1 x14511 -1 x14512 -1 x14513 -1 x14514 >= 0 ;
+2 x14752 +2 x14753 +2 x14754 -1 x14512 -1 x14513 -1 x14514 -1 x14515 -1 x14516 -1 x14517 >= 0 ;
+2 x14755 +2 x14756 +2 x14757 -1 x14515 -1 x14516 -1 x14517 -1 x14518 -1 x14519 -1 x14520 >= 0 ;
+2 x14758 +2 x14759 +2 x14760 -1 x14518 -1 x14519 -1 x14520 -1 x14521 -1 x14522 -1 x14523 >= 0 ;
+2 x14761 +2 x14762 +2 x14763 -1 x14524 -1 x14525 -1 x14526 -1 x14527 -1 x14528 -1 x14529 >= 0 ;
+2 x14764 +2 x14765 +2 x14766 -1 x14527 -1 x14528 -1 x14529 -1 x14530 -1 x14531 -1 x14532 >= 0 ;
+2 x14767 +2 x14768 +2 x14769 -1 x14530 -1 x14531 -1 x14532 -1 x14533 -1 x14534 -1 x14535 >= 0 ;
+2 x14770 +2 x14771 +2 x14772 -1 x14533 -1 x14534 -1 x14535 -1 x14536 -1 x14537 -1 x14538 >= 0 ;
+2 x14773 +2 x14774 +2 x14775 -1 x14536 -1 x14537 -1 x14538 -1 x14539 -1 x14540 -1 x14541 >= 0 ;
+2 x14776 +2 x14777 +2 x14778 -1 x14539 -1 x14540 -1 x14541 -1 x14542 -1 x14543 -1 x14544 >= 0 ;
+2 x14779 +2 x14780 +2 x14781 -1 x14542 -1 x14543 -1 x14544 -1 x14545 -1 x14546 -1 x14547 >= 0 ;
+2 x14782 +2 x14783 +2 x14784 -1 x14545 -1 x14546 -1 x14547 -1 x14548 -1 x14549 -1 x14550 >= 0 ;
+2 x14785 +2 x14786 +2 x14787 -1 x14548 -1 x14549 -1 x14550 -1 x14551 -1 x14552 -1 x14553 >= 0 ;
+2 x14788 +2 x14789 +2 x14790 -1 x14551 -1 x14552 -1 x14553 -1 x14554 -1 x14555 -1 x14556 >= 0 ;
+2 x14791 +2 x14792 +2 x14793 -1 x14554 -1 x14555 -1 x14556 -1 x14557 -1 x14558 -1 x14559 >= 0 ;
+2 x14794 +2 x14795 +2 x14796 -1 x14557 -1 x14558 -1 x14559 -1 x14560 -1 x14561 -1 x14562 >= 0 ;
+2 x14797 +2 x14798 +2 x14799 -1 x14560 -1 x14561 -1 x14562 -1 x14563 -1 x14564 -1 x14565 >= 0 ;
+2 x14800 +2 x14801 +2 x14802 -1 x14563 -1 x14564 -1 x14565 -1 x14566 -1 x14567 -1 x14568 >= 0 ;
+2 x14803 +2 x14804 +2 x14805 -1 x14566 -1 x14567 -1 x14568 -1 x14569 -1 x14570 -1 x14571 >= 0 ;
+2 x14806 +2 x14807 +2 x14808 -1 x14569 -1 x14570 -1 x14571 -1 x14572 -1 x14573 -1 x14574 >= 0 ;
+2 x14809 +2 x14810 +2 x14811 -1 x14572 -1 x14573 -1 x14574 -1 x14575 -1 x14576 -1 x14577 >= 0 ;
+2 x14812 +2 x14813 +2 x14814 -1 x14575 -1 x14576 -1 x14577 -1 x14578 -1 x14579 -1 x14580 >= 0 ;
+2 x14815 +2 x14816 +2 x14817 -1 x14578 -1 x14579 -1 x14580 -1 x14581 -1 x14582 -1 x14583 >= 0 ;
+2 x14818 +2 x14819 +2 x14820 -1 x14581 -1 x14582 -1 x14583 -1 x14584 -1 x14585 -1 x14586 >= 0 ;
+2 x14821 +2 x14822 +2 x14823 -1 x14584 -1 x14585 -1 x14586 -1 x14587 -1 x14588 -1 x14589 >= 0 ;
+2 x14824 +2 x14825 +2 x14826 -1 x14587 -1 x14588 -1 x14589 -1 x14590 -1 x14591 -1 x14592 >= 0 ;
+2 x14827 +2 x14828 +2 x14829 -1 x14590 -1 x14591 -1 x14592 -1 x14593 -1 x14594 -1 x14595 >= 0 ;
+2 x14830 +2 x14831 +2 x14832 -1 x14593 -1 x14594 -1 x14595 -1 x14596 -1 x14597 -1 x14598 >= 0 ;
+2 x14833 +2 x14834 +2 x14835 -1 x14596 -1 x14597 -1 x14598 -1 x14599 -1 x14600 -1 x14601 >= 0 ;
+2 x14836 +2 x14837 +2 x14838 -1 x14599 -1 x14600 -1 x14601 -1 x14602 -1 x14603 -1 x14604 >= 0 ;
+2 x14839 +2 x14840 +2 x14841 -1 x14602 -1 x14603 -1 x14604 -1 x14605 -1 x14606 -1 x14607 >= 0 ;
+2 x14842 +2 x14843 +2 x14844 -1 x14605 -1 x14606 -1 x14607 -1 x14608 -1 x14609 -1 x14610 >= 0 ;
+2 x14845 +2 x14846 +2 x14847 -1 x14608 -1 x14609 -1 x14610 -1 x14611 -1 x14612 -1 x14613 >= 0 ;
+2 x14848 +2 x14849 +2 x14850 -1 x14611 -1 x14612 -1 x14613 -1 x14614 -1 x14615 -1 x14616 >= 0 ;
+2 x14851 +2 x14852 +2 x14853 -1 x14614 -1 x14615 -1 x14616 -1 x14617 -1 x14618 -1 x14619 >= 0 ;
+2 x14854 +2 x14855 +2 x14856 -1 x14617 -1 x14618 -1 x14619 -1 x14620 -1 x14621 -1 x14622 >= 0 ;
+2 x14857 +2 x14858 +2 x14859 -1 x14620 -1 x14621 -1 x14622 -1 x14623 -1 x14624 -1 x14625 >= 0 ;
+2 x14860 +2 x14861 +2 x14862 -1 x14623 -1 x14624 -1 x14625 -1 x14626 -1 x14627 -1 x14628 >= 0 ;
+2 x14863 +2 x14864 +2 x14865 -1 x14626 -1 x14627 -1 x14628 -1 x14629 -1 x14630 -1 x14631 >= 0 ;
+2 x14866 +2 x14867 +2 x14868 -1 x14629 -1 x14630 -1 x14631 -1 x14632 -1 x14633 -1 x14634 >= 0 ;
+2 x14869 +2 x14870 +2 x14871 -1 x14632 -1 x14633 -1 x14634 -1 x14635 -1 x14636 -1 x14637 >= 0 ;
+2 x14872 +2 x14873 +2 x14874 -1 x14635 -1 x14636 -1 x14637 -1 x14638 -1 x14639 -1 x14640 >= 0 ;
+2 x14875 +2 x14876 +2 x14877 -1 x14638 -1 x14639 -1 x14640 -1 x14641 -1 x14642 -1 x14643 >= 0 ;
+2 x14878 +2 x14879 +2 x14880 -1 x14641 -1 x14642 -1 x14643 -1 x14644 -1 x14645 -1 x14646 >= 0 ;
+2 x14881 +2 x14882 +2 x14883 -1 x14644 -1 x14645 -1 x14646 -1 x14647 -1 x14648 -1 x14649 >= 0 ;
+2 x14884 +2 x14885 +2 x14886 -1 x14647 -1 x14648 -1 x14649 -1 x14650 -1 x14651 -1 x14652 >= 0 ;
+2 x14887 +2 x14888 +2 x14889 -1 x14650 -1 x14651 -1 x14652 -1 x14653 -1 x14654 -1 x14655 >= 0 ;
+2 x14890 +2 x14891 +2 x14892 -1 x14653 -1 x14654 -1 x14655 -1 x14656 -1 x14657 -1 x14658 >= 0 ;
+2 x14893 +2 x14894 +2 x14895 -1 x14656 -1 x14657 -1 x14658 -1 x14659 -1 x14660 -1 x14661 >= 0 ;
+2 x14896 +2 x14897 +2 x14898 -1 x14659 -1 x14660 -1 x14661 -1 x14662 -1 x14663 -1 x14664 >= 0 ;
+2 x14899 +2 x14900 +2 x14901 -1 x14662 -1 x14663 -1 x14664 -1 x14665 -1 x14666 -1 x14667 >= 0 ;
+2 x14902 +2 x14903 +2 x14904 -1 x14665 -1 x14666 -1 x14667 -1 x14668 -1 x14669 -1 x14670 >= 0 ;
+2 x14905 +2 x14906 +2 x14907 -1 x14668 -1 x14669 -1 x14670 -1 x14671 -1 x14672 -1 x14673 >= 0 ;
+2 x14908 +2 x14909 +2 x14910 -1 x14671 -1 x14672 -1 x14673 -1 x14674 -1 x14675 -1 x14676 >= 0 ;
+2 x14911 +2 x14912 +2 x14913 -1 x14674 -1 x14675 -1 x14676 -1 x14677 -1 x14678 -1 x14679 >= 0 ;
+2 x14914 +2 x14915 +2 x14916 -1 x14677 -1 x14678 -1 x14679 -1 x14680 -1 x14681 -1 x14682 >= 0 ;
+2 x14917 +2 x14918 +2 x14919 -1 x14680 -1 x14681 -1 x14682 -1 x14683 -1 x14684 -1 x14685 >= 0 ;
+2 x14920 +2 x14921 +2 x14922 -1 x14683 -1 x14684 -1 x14685 -1 x14686 -1 x14687 -1 x14688 >= 0 ;
+2 x14923 +2 x14924 +2 x14925 -1 x14686 -1 x14687 -1 x14688 -1 x14689 -1 x14690 -1 x14691 >= 0 ;
+2 x14926 +2 x14927 +2 x14928 -1 x14689 -1 x14690 -1 x14691 -1 x14692 -1 x14693 -1 x14694 >= 0 ;
+2 x14929 +2 x14930 +2 x14931 -1 x14692 -1 x14693 -1 x14694 -1 x14695 -1 x14696 -1 x14697 >= 0 ;
+2 x14932 +2 x14933 +2 x14934 -1 x14695 -1 x14696 -1 x14697 -1 x14698 -1 x14699 -1 x14700 >= 0 ;
+2 x14935 +2 x14936 +2 x14937 -1 x14698 -1 x14699 -1 x14700 -1 x14701 -1 x14702 -1 x14703 >= 0 ;
+2 x14938 +2 x14939 +2 x14940 -1 x14701 -1 x14702 -1 x14703 -1 x14704 -1 x14705 -1 x14706 >= 0 ;
+2 x14941 +2 x14942 +2 x14943 -1 x14704 -1 x14705 -1 x14706 -1 x14707 -1 x14708 -1 x14709 >= 0 ;
+2 x14944 +2 x14945 +2 x14946 -1 x14707 -1 x14708 -1 x14709 -1 x14710 -1 x14711 -1 x14712 >= 0 ;
+2 x14947 +2 x14948 +2 x14949 -1 x14710 -1 x14711 -1 x14712 -1 x14713 -1 x14714 -1 x14715 >= 0 ;
+2 x14950 +2 x14951 +2 x14952 -1 x14713 -1 x14714 -1 x14715 -1 x14716 -1 x14717 -1 x14718 >= 0 ;
+2 x14953 +2 x14954 +2 x14955 -1 x14716 -1 x14717 -1 x14718 -1 x14719 -1 x14720 -1 x14721 >= 0 ;
+2 x14956 +2 x14957 +2 x14958 -1 x14719 -1 x14720 -1 x14721 -1 x14722 -1 x14723 -1 x14724 >= 0 ;
+2 x14959 +2 x14960 +2 x14961 -1 x14722 -1 x14723 -1 x14724 -1 x14725 -1 x14726 -1 x14727 >= 0 ;
+2 x14962 +2 x14963 +2 x14964 -1 x14725 -1 x14726 -1 x14727 -1 x14728 -1 x14729 -1 x14730 >= 0 ;
+2 x14965 +2 x14966 +2 x14967 -1 x14728 -1 x14729 -1 x14730 -1 x14731 -1 x14732 -1 x14733 >= 0 ;
+2 x14968 +2 x14969 +2 x14970 -1 x14731 -1 x14732 -1 x14733 -1 x14734 -1 x14735 -1 x14736 >= 0 ;
+2 x14971 +2 x14972 +2 x14973 -1 x14734 -1 x14735 -1 x14736 -1 x14737 -1 x14738 -1 x14739 >= 0 ;
+2 x14974 +2 x14975 +2 x14976 -1 x14737 -1 x14738 -1 x14739 -1 x14740 -1 x14741 -1 x14742 >= 0 ;
+2 x14977 +2 x14978 +2 x14979 -1 x14740 -1 x14741 -1 x14742 -1 x14743 -1 x14744 -1 x14745 >= 0 ;
+2 x14980 +2 x14981 +2 x14982 -1 x14743 -1 x14744 -1 x14745 -1 x14746 -1 x14747 -1 x14748 >= 0 ;
+2 x14983 +2 x14984 +2 x14985 -1 x14746 -1 x14747 -1 x14748 -1 x14749 -1 x14750 -1 x14751 >= 0 ;
+2 x14986 +2 x14987 +2 x14988 -1 x14749 -1 x14750 -1 x14751 -1 x14752 -1 x14753 -1 x14754 >= 0 ;
+2 x14989 +2 x14990 +2 x14991 -1 x14752 -1 x14753 -1 x14754 -1 x14755 -1 x14756 -1 x14757 >= 0 ;
+2 x14992 +2 x14993 +2 x14994 -1 x14755 -1 x14756 -1 x14757 -1 x14758 -1 x14759 -1 x14760 >= 0 ;
+2 x14995 +2 x14996 +2 x14997 -1 x14761 -1 x14762 -1 x14763 -1 x14764 -1 x14765 -1 x14766 >= 0 ;
+2 x14998 +2 x14999 +2 x15000 -1 x14764 -1 x14765 -1 x14766 -1 x14767 -1 x14768 -1 x14769 >= 0 ;
+2 x15001 +2 x15002 +2 x15003 -1 x14767 -1 x14768 -1 x14769 -1 x14770 -1 x14771 -1 x14772 >= 0 ;
+2 x15004 +2 x15005 +2 x15006 -1 x14770 -1 x14771 -1 x14772 -1 x14773 -1 x14774 -1 x14775 >= 0 ;
+2 x15007 +2 x15008 +2 x15009 -1 x14773 -1 x14774 -1 x14775 -1 x14776 -1 x14777 -1 x14778 >= 0 ;
+2 x15010 +2 x15011 +2 x15012 -1 x14776 -1 x14777 -1 x14778 -1 x14779 -1 x14780 -1 x14781 >= 0 ;
+2 x15013 +2 x15014 +2 x15015 -1 x14779 -1 x14780 -1 x14781 -1 x14782 -1 x14783 -1 x14784 >= 0 ;
+2 x15016 +2 x15017 +2 x15018 -1 x14782 -1 x14783 -1 x14784 -1 x14785 -1 x14786 -1 x14787 >= 0 ;
+2 x15019 +2 x15020 +2 x15021 -1 x14785 -1 x14786 -1 x14787 -1 x14788 -1 x14789 -1 x14790 >= 0 ;
+2 x15022 +2 x15023 +2 x15024 -1 x14788 -1 x14789 -1 x14790 -1 x14791 -1 x14792 -1 x14793 >= 0 ;
+2 x15025 +2 x15026 +2 x15027 -1 x14791 -1 x14792 -1 x14793 -1 x14794 -1 x14795 -1 x14796 >= 0 ;
+2 x15028 +2 x15029 +2 x15030 -1 x14794 -1 x14795 -1 x14796 -1 x14797 -1 x14798 -1 x14799 >= 0 ;
+2 x15031 +2 x15032 +2 x15033 -1 x14797 -1 x14798 -1 x14799 -1 x14800 -1 x14801 -1 x14802 >= 0 ;
+2 x15034 +2 x15035 +2 x15036 -1 x14800 -1 x14801 -1 x14802 -1 x14803 -1 x14804 -1 x14805 >= 0 ;
+2 x15037 +2 x15038 +2 x15039 -1 x14803 -1 x14804 -1 x14805 -1 x14806 -1 x14807 -1 x14808 >= 0 ;
+2 x15040 +2 x15041 +2 x15042 -1 x14806 -1 x14807 -1 x14808 -1 x14809 -1 x14810 -1 x14811 >= 0 ;
+2 x15043 +2 x15044 +2 x15045 -1 x14809 -1 x14810 -1 x14811 -1 x14812 -1 x14813 -1 x14814 >= 0 ;
+2 x15046 +2 x15047 +2 x15048 -1 x14812 -1 x14813 -1 x14814 -1 x14815 -1 x14816 -1 x14817 >= 0 ;
+2 x15049 +2 x15050 +2 x15051 -1 x14815 -1 x14816 -1 x14817 -1 x14818 -1 x14819 -1 x14820 >= 0 ;
+2 x15052 +2 x15053 +2 x15054 -1 x14818 -1 x14819 -1 x14820 -1 x14821 -1 x14822 -1 x14823 >= 0 ;
+2 x15055 +2 x15056 +2 x15057 -1 x14821 -1 x14822 -1 x14823 -1 x14824 -1 x14825 -1 x14826 >= 0 ;
+2 x15058 +2 x15059 +2 x15060 -1 x14824 -1 x14825 -1 x14826 -1 x14827 -1 x14828 -1 x14829 >= 0 ;
+2 x15061 +2 x15062 +2 x15063 -1 x14827 -1 x14828 -1 x14829 -1 x14830 -1 x14831 -1 x14832 >= 0 ;
+2 x15064 +2 x15065 +2 x15066 -1 x14830 -1 x14831 -1 x14832 -1 x14833 -1 x14834 -1 x14835 >= 0 ;
+2 x15067 +2 x15068 +2 x15069 -1 x14833 -1 x14834 -1 x14835 -1 x14836 -1 x14837 -1 x14838 >= 0 ;
+2 x15070 +2 x15071 +2 x15072 -1 x14836 -1 x14837 -1 x14838 -1 x14839 -1 x14840 -1 x14841 >= 0 ;
+2 x15073 +2 x15074 +2 x15075 -1 x14839 -1 x14840 -1 x14841 -1 x14842 -1 x14843 -1 x14844 >= 0 ;
+2 x15076 +2 x15077 +2 x15078 -1 x14842 -1 x14843 -1 x14844 -1 x14845 -1 x14846 -1 x14847 >= 0 ;
+2 x15079 +2 x15080 +2 x15081 -1 x14845 -1 x14846 -1 x14847 -1 x14848 -1 x14849 -1 x14850 >= 0 ;
+2 x15082 +2 x15083 +2 x15084 -1 x14848 -1 x14849 -1 x14850 -1 x14851 -1 x14852 -1 x14853 >= 0 ;
+2 x15085 +2 x15086 +2 x15087 -1 x14851 -1 x14852 -1 x14853 -1 x14854 -1 x14855 -1 x14856 >= 0 ;
+2 x15088 +2 x15089 +2 x15090 -1 x14854 -1 x14855 -1 x14856 -1 x14857 -1 x14858 -1 x14859 >= 0 ;
+2 x15091 +2 x15092 +2 x15093 -1 x14857 -1 x14858 -1 x14859 -1 x14860 -1 x14861 -1 x14862 >= 0 ;
+2 x15094 +2 x15095 +2 x15096 -1 x14860 -1 x14861 -1 x14862 -1 x14863 -1 x14864 -1 x14865 >= 0 ;
+2 x15097 +2 x15098 +2 x15099 -1 x14863 -1 x14864 -1 x14865 -1 x14866 -1 x14867 -1 x14868 >= 0 ;
+2 x15100 +2 x15101 +2 x15102 -1 x14866 -1 x14867 -1 x14868 -1 x14869 -1 x14870 -1 x14871 >= 0 ;
+2 x15103 +2 x15104 +2 x15105 -1 x14869 -1 x14870 -1 x14871 -1 x14872 -1 x14873 -1 x14874 >= 0 ;
+2 x15106 +2 x15107 +2 x15108 -1 x14872 -1 x14873 -1 x14874 -1 x14875 -1 x14876 -1 x14877 >= 0 ;
+2 x15109 +2 x15110 +2 x15111 -1 x14875 -1 x14876 -1 x14877 -1 x14878 -1 x14879 -1 x14880 >= 0 ;
+2 x15112 +2 x15113 +2 x15114 -1 x14878 -1 x14879 -1 x14880 -1 x14881 -1 x14882 -1 x14883 >= 0 ;
+2 x15115 +2 x15116 +2 x15117 -1 x14881 -1 x14882 -1 x14883 -1 x14884 -1 x14885 -1 x14886 >= 0 ;
+2 x15118 +2 x15119 +2 x15120 -1 x14884 -1 x14885 -1 x14886 -1 x14887 -1 x14888 -1 x14889 >= 0 ;
+2 x15121 +2 x15122 +2 x15123 -1 x14887 -1 x14888 -1 x14889 -1 x14890 -1 x14891 -1 x14892 >= 0 ;
+2 x15124 +2 x15125 +2 x15126 -1 x14890 -1 x14891 -1 x14892 -1 x14893 -1 x14894 -1 x14895 >= 0 ;
+2 x15127 +2 x15128 +2 x15129 -1 x14893 -1 x14894 -1 x14895 -1 x14896 -1 x14897 -1 x14898 >= 0 ;
+2 x15130 +2 x15131 +2 x15132 -1 x14896 -1 x14897 -1 x14898 -1 x14899 -1 x14900 -1 x14901 >= 0 ;
+2 x15133 +2 x15134 +2 x15135 -1 x14899 -1 x14900 -1 x14901 -1 x14902 -1 x14903 -1 x14904 >= 0 ;
+2 x15136 +2 x15137 +2 x15138 -1 x14902 -1 x14903 -1 x14904 -1 x14905 -1 x14906 -1 x14907 >= 0 ;
+2 x15139 +2 x15140 +2 x15141 -1 x14905 -1 x14906 -1 x14907 -1 x14908 -1 x14909 -1 x14910 >= 0 ;
+2 x15142 +2 x15143 +2 x15144 -1 x14908 -1 x14909 -1 x14910 -1 x14911 -1 x14912 -1 x14913 >= 0 ;
+2 x15145 +2 x15146 +2 x15147 -1 x14911 -1 x14912 -1 x14913 -1 x14914 -1 x14915 -1 x14916 >= 0 ;
+2 x15148 +2 x15149 +2 x15150 -1 x14914 -1 x14915 -1 x14916 -1 x14917 -1 x14918 -1 x14919 >= 0 ;
+2 x15151 +2 x15152 +2 x15153 -1 x14917 -1 x14918 -1 x14919 -1 x14920 -1 x14921 -1 x14922 >= 0 ;
+2 x15154 +2 x15155 +2 x15156 -1 x14920 -1 x14921 -1 x14922 -1 x14923 -1 x14924 -1 x14925 >= 0 ;
+2 x15157 +2 x15158 +2 x15159 -1 x14923 -1 x14924 -1 x14925 -1 x14926 -1 x14927 -1 x14928 >= 0 ;
+2 x15160 +2 x15161 +2 x15162 -1 x14926 -1 x14927 -1 x14928 -1 x14929 -1 x14930 -1 x14931 >= 0 ;
+2 x15163 +2 x15164 +2 x15165 -1 x14929 -1 x14930 -1 x14931 -1 x14932 -1 x14933 -1 x14934 >= 0 ;
+2 x15166 +2 x15167 +2 x15168 -1 x14932 -1 x14933 -1 x14934 -1 x14935 -1 x14936 -1 x14937 >= 0 ;
+2 x15169 +2 x15170 +2 x15171 -1 x14935 -1 x14936 -1 x14937 -1 x14938 -1 x14939 -1 x14940 >= 0 ;
+2 x15172 +2 x15173 +2 x15174 -1 x14938 -1 x14939 -1 x14940 -1 x14941 -1 x14942 -1 x14943 >= 0 ;
+2 x15175 +2 x15176 +2 x15177 -1 x14941 -1 x14942 -1 x14943 -1 x14944 -1 x14945 -1 x14946 >= 0 ;
+2 x15178 +2 x15179 +2 x15180 -1 x14944 -1 x14945 -1 x14946 -1 x14947 -1 x14948 -1 x14949 >= 0 ;
+2 x15181 +2 x15182 +2 x15183 -1 x14947 -1 x14948 -1 x14949 -1 x14950 -1 x14951 -1 x14952 >= 0 ;
+2 x15184 +2 x15185 +2 x15186 -1 x14950 -1 x14951 -1 x14952 -1 x14953 -1 x14954 -1 x14955 >= 0 ;
+2 x15187 +2 x15188 +2 x15189 -1 x14953 -1 x14954 -1 x14955 -1 x14956 -1 x14957 -1 x14958 >= 0 ;
+2 x15190 +2 x15191 +2 x15192 -1 x14956 -1 x14957 -1 x14958 -1 x14959 -1 x14960 -1 x14961 >= 0 ;
+2 x15193 +2 x15194 +2 x15195 -1 x14959 -1 x14960 -1 x14961 -1 x14962 -1 x14963 -1 x14964 >= 0 ;
+2 x15196 +2 x15197 +2 x15198 -1 x14962 -1 x14963 -1 x14964 -1 x14965 -1 x14966 -1 x14967 >= 0 ;
+2 x15199 +2 x15200 +2 x15201 -1 x14965 -1 x14966 -1 x14967 -1 x14968 -1 x14969 -1 x14970 >= 0 ;
+2 x15202 +2 x15203 +2 x15204 -1 x14968 -1 x14969 -1 x14970 -1 x14971 -1 x14972 -1 x14973 >= 0 ;
+2 x15205 +2 x15206 +2 x15207 -1 x14971 -1 x14972 -1 x14973 -1 x14974 -1 x14975 -1 x14976 >= 0 ;
+2 x15208 +2 x15209 +2 x15210 -1 x14974 -1 x14975 -1 x14976 -1 x14977 -1 x14978 -1 x14979 >= 0 ;
+2 x15211 +2 x15212 +2 x15213 -1 x14977 -1 x14978 -1 x14979 -1 x14980 -1 x14981 -1 x14982 >= 0 ;
+2 x15214 +2 x15215 +2 x15216 -1 x14980 -1 x14981 -1 x14982 -1 x14983 -1 x14984 -1 x14985 >= 0 ;
+2 x15217 +2 x15218 +2 x15219 -1 x14983 -1 x14984 -1 x14985 -1 x14986 -1 x14987 -1 x14988 >= 0 ;
+2 x15220 +2 x15221 +2 x15222 -1 x14986 -1 x14987 -1 x14988 -1 x14989 -1 x14990 -1 x14991 >= 0 ;
+2 x15223 +2 x15224 +2 x15225 -1 x14989 -1 x14990 -1 x14991 -1 x14992 -1 x14993 -1 x14994 >= 0 ;
+2 x15226 +2 x15227 +2 x15228 -1 x14995 -1 x14996 -1 x14997 -1 x14998 -1 x14999 -1 x15000 >= 0 ;
+2 x15229 +2 x15230 +2 x15231 -1 x14998 -1 x14999 -1 x15000 -1 x15001 -1 x15002 -1 x15003 >= 0 ;
+2 x15232 +2 x15233 +2 x15234 -1 x15001 -1 x15002 -1 x15003 -1 x15004 -1 x15005 -1 x15006 >= 0 ;
+2 x15235 +2 x15236 +2 x15237 -1 x15004 -1 x15005 -1 x15006 -1 x15007 -1 x15008 -1 x15009 >= 0 ;
+2 x15238 +2 x15239 +2 x15240 -1 x15007 -1 x15008 -1 x15009 -1 x15010 -1 x15011 -1 x15012 >= 0 ;
+2 x15241 +2 x15242 +2 x15243 -1 x15010 -1 x15011 -1 x15012 -1 x15013 -1 x15014 -1 x15015 >= 0 ;
+2 x15244 +2 x15245 +2 x15246 -1 x15013 -1 x15014 -1 x15015 -1 x15016 -1 x15017 -1 x15018 >= 0 ;
+2 x15247 +2 x15248 +2 x15249 -1 x15016 -1 x15017 -1 x15018 -1 x15019 -1 x15020 -1 x15021 >= 0 ;
+2 x15250 +2 x15251 +2 x15252 -1 x15019 -1 x15020 -1 x15021 -1 x15022 -1 x15023 -1 x15024 >= 0 ;
+2 x15253 +2 x15254 +2 x15255 -1 x15022 -1 x15023 -1 x15024 -1 x15025 -1 x15026 -1 x15027 >= 0 ;
+2 x15256 +2 x15257 +2 x15258 -1 x15025 -1 x15026 -1 x15027 -1 x15028 -1 x15029 -1 x15030 >= 0 ;
+2 x15259 +2 x15260 +2 x15261 -1 x15028 -1 x15029 -1 x15030 -1 x15031 -1 x15032 -1 x15033 >= 0 ;
+2 x15262 +2 x15263 +2 x15264 -1 x15031 -1 x15032 -1 x15033 -1 x15034 -1 x15035 -1 x15036 >= 0 ;
+2 x15265 +2 x15266 +2 x15267 -1 x15034 -1 x15035 -1 x15036 -1 x15037 -1 x15038 -1 x15039 >= 0 ;
+2 x15268 +2 x15269 +2 x15270 -1 x15037 -1 x15038 -1 x15039 -1 x15040 -1 x15041 -1 x15042 >= 0 ;
+2 x15271 +2 x15272 +2 x15273 -1 x15040 -1 x15041 -1 x15042 -1 x15043 -1 x15044 -1 x15045 >= 0 ;
+2 x15274 +2 x15275 +2 x15276 -1 x15043 -1 x15044 -1 x15045 -1 x15046 -1 x15047 -1 x15048 >= 0 ;
+2 x15277 +2 x15278 +2 x15279 -1 x15046 -1 x15047 -1 x15048 -1 x15049 -1 x15050 -1 x15051 >= 0 ;
+2 x15280 +2 x15281 +2 x15282 -1 x15049 -1 x15050 -1 x15051 -1 x15052 -1 x15053 -1 x15054 >= 0 ;
+2 x15283 +2 x15284 +2 x15285 -1 x15052 -1 x15053 -1 x15054 -1 x15055 -1 x15056 -1 x15057 >= 0 ;
+2 x15286 +2 x15287 +2 x15288 -1 x15055 -1 x15056 -1 x15057 -1 x15058 -1 x15059 -1 x15060 >= 0 ;
+2 x15289 +2 x15290 +2 x15291 -1 x15058 -1 x15059 -1 x15060 -1 x15061 -1 x15062 -1 x15063 >= 0 ;
+2 x15292 +2 x15293 +2 x15294 -1 x15061 -1 x15062 -1 x15063 -1 x15064 -1 x15065 -1 x15066 >= 0 ;
+2 x15295 +2 x15296 +2 x15297 -1 x15064 -1 x15065 -1 x15066 -1 x15067 -1 x15068 -1 x15069 >= 0 ;
+2 x15298 +2 x15299 +2 x15300 -1 x15067 -1 x15068 -1 x15069 -1 x15070 -1 x15071 -1 x15072 >= 0 ;
+2 x15301 +2 x15302 +2 x15303 -1 x15070 -1 x15071 -1 x15072 -1 x15073 -1 x15074 -1 x15075 >= 0 ;
+2 x15304 +2 x15305 +2 x15306 -1 x15073 -1 x15074 -1 x15075 -1 x15076 -1 x15077 -1 x15078 >= 0 ;
+2 x15307 +2 x15308 +2 x15309 -1 x15076 -1 x15077 -1 x15078 -1 x15079 -1 x15080 -1 x15081 >= 0 ;
+2 x15310 +2 x15311 +2 x15312 -1 x15079 -1 x15080 -1 x15081 -1 x15082 -1 x15083 -1 x15084 >= 0 ;
+2 x15313 +2 x15314 +2 x15315 -1 x15082 -1 x15083 -1 x15084 -1 x15085 -1 x15086 -1 x15087 >= 0 ;
+2 x15316 +2 x15317 +2 x15318 -1 x15085 -1 x15086 -1 x15087 -1 x15088 -1 x15089 -1 x15090 >= 0 ;
+2 x15319 +2 x15320 +2 x15321 -1 x15088 -1 x15089 -1 x15090 -1 x15091 -1 x15092 -1 x15093 >= 0 ;
+2 x15322 +2 x15323 +2 x15324 -1 x15091 -1 x15092 -1 x15093 -1 x15094 -1 x15095 -1 x15096 >= 0 ;
+2 x15325 +2 x15326 +2 x15327 -1 x15094 -1 x15095 -1 x15096 -1 x15097 -1 x15098 -1 x15099 >= 0 ;
+2 x15328 +2 x15329 +2 x15330 -1 x15097 -1 x15098 -1 x15099 -1 x15100 -1 x15101 -1 x15102 >= 0 ;
+2 x15331 +2 x15332 +2 x15333 -1 x15100 -1 x15101 -1 x15102 -1 x15103 -1 x15104 -1 x15105 >= 0 ;
+2 x15334 +2 x15335 +2 x15336 -1 x15103 -1 x15104 -1 x15105 -1 x15106 -1 x15107 -1 x15108 >= 0 ;
+2 x15337 +2 x15338 +2 x15339 -1 x15106 -1 x15107 -1 x15108 -1 x15109 -1 x15110 -1 x15111 >= 0 ;
+2 x15340 +2 x15341 +2 x15342 -1 x15109 -1 x15110 -1 x15111 -1 x15112 -1 x15113 -1 x15114 >= 0 ;
+2 x15343 +2 x15344 +2 x15345 -1 x15112 -1 x15113 -1 x15114 -1 x15115 -1 x15116 -1 x15117 >= 0 ;
+2 x15346 +2 x15347 +2 x15348 -1 x15115 -1 x15116 -1 x15117 -1 x15118 -1 x15119 -1 x15120 >= 0 ;
+2 x15349 +2 x15350 +2 x15351 -1 x15118 -1 x15119 -1 x15120 -1 x15121 -1 x15122 -1 x15123 >= 0 ;
+2 x15352 +2 x15353 +2 x15354 -1 x15121 -1 x15122 -1 x15123 -1 x15124 -1 x15125 -1 x15126 >= 0 ;
+2 x15355 +2 x15356 +2 x15357 -1 x15124 -1 x15125 -1 x15126 -1 x15127 -1 x15128 -1 x15129 >= 0 ;
+2 x15358 +2 x15359 +2 x15360 -1 x15127 -1 x15128 -1 x15129 -1 x15130 -1 x15131 -1 x15132 >= 0 ;
+2 x15361 +2 x15362 +2 x15363 -1 x15130 -1 x15131 -1 x15132 -1 x15133 -1 x15134 -1 x15135 >= 0 ;
+2 x15364 +2 x15365 +2 x15366 -1 x15133 -1 x15134 -1 x15135 -1 x15136 -1 x15137 -1 x15138 >= 0 ;
+2 x15367 +2 x15368 +2 x15369 -1 x15136 -1 x15137 -1 x15138 -1 x15139 -1 x15140 -1 x15141 >= 0 ;
+2 x15370 +2 x15371 +2 x15372 -1 x15139 -1 x15140 -1 x15141 -1 x15142 -1 x15143 -1 x15144 >= 0 ;
+2 x15373 +2 x15374 +2 x15375 -1 x15142 -1 x15143 -1 x15144 -1 x15145 -1 x15146 -1 x15147 >= 0 ;
+2 x15376 +2 x15377 +2 x15378 -1 x15145 -1 x15146 -1 x15147 -1 x15148 -1 x15149 -1 x15150 >= 0 ;
+2 x15379 +2 x15380 +2 x15381 -1 x15148 -1 x15149 -1 x15150 -1 x15151 -1 x15152 -1 x15153 >= 0 ;
+2 x15382 +2 x15383 +2 x15384 -1 x15151 -1 x15152 -1 x15153 -1 x15154 -1 x15155 -1 x15156 >= 0 ;
+2 x15385 +2 x15386 +2 x15387 -1 x15154 -1 x15155 -1 x15156 -1 x15157 -1 x15158 -1 x15159 >= 0 ;
+2 x15388 +2 x15389 +2 x15390 -1 x15157 -1 x15158 -1 x15159 -1 x15160 -1 x15161 -1 x15162 >= 0 ;
+2 x15391 +2 x15392 +2 x15393 -1 x15160 -1 x15161 -1 x15162 -1 x15163 -1 x15164 -1 x15165 >= 0 ;
+2 x15394 +2 x15395 +2 x15396 -1 x15163 -1 x15164 -1 x15165 -1 x15166 -1 x15167 -1 x15168 >= 0 ;
+2 x15397 +2 x15398 +2 x15399 -1 x15166 -1 x15167 -1 x15168 -1 x15169 -1 x15170 -1 x15171 >= 0 ;
+2 x15400 +2 x15401 +2 x15402 -1 x15169 -1 x15170 -1 x15171 -1 x15172 -1 x15173 -1 x15174 >= 0 ;
+2 x15403 +2 x15404 +2 x15405 -1 x15172 -1 x15173 -1 x15174 -1 x15175 -1 x15176 -1 x15177 >= 0 ;
+2 x15406 +2 x15407 +2 x15408 -1 x15175 -1 x15176 -1 x15177 -1 x15178 -1 x15179 -1 x15180 >= 0 ;
+2 x15409 +2 x15410 +2 x15411 -1 x15178 -1 x15179 -1 x15180 -1 x15181 -1 x15182 -1 x15183 >= 0 ;
+2 x15412 +2 x15413 +2 x15414 -1 x15181 -1 x15182 -1 x15183 -1 x15184 -1 x15185 -1 x15186 >= 0 ;
+2 x15415 +2 x15416 +2 x15417 -1 x15184 -1 x15185 -1 x15186 -1 x15187 -1 x15188 -1 x15189 >= 0 ;
+2 x15418 +2 x15419 +2 x15420 -1 x15187 -1 x15188 -1 x15189 -1 x15190 -1 x15191 -1 x15192 >= 0 ;
+2 x15421 +2 x15422 +2 x15423 -1 x15190 -1 x15191 -1 x15192 -1 x15193 -1 x15194 -1 x15195 >= 0 ;
+2 x15424 +2 x15425 +2 x15426 -1 x15193 -1 x15194 -1 x15195 -1 x15196 -1 x15197 -1 x15198 >= 0 ;
+2 x15427 +2 x15428 +2 x15429 -1 x15196 -1 x15197 -1 x15198 -1 x15199 -1 x15200 -1 x15201 >= 0 ;
+2 x15430 +2 x15431 +2 x15432 -1 x15199 -1 x15200 -1 x15201 -1 x15202 -1 x15203 -1 x15204 >= 0 ;
+2 x15433 +2 x15434 +2 x15435 -1 x15202 -1 x15203 -1 x15204 -1 x15205 -1 x15206 -1 x15207 >= 0 ;
+2 x15436 +2 x15437 +2 x15438 -1 x15205 -1 x15206 -1 x15207 -1 x15208 -1 x15209 -1 x15210 >= 0 ;
+2 x15439 +2 x15440 +2 x15441 -1 x15208 -1 x15209 -1 x15210 -1 x15211 -1 x15212 -1 x15213 >= 0 ;
+2 x15442 +2 x15443 +2 x15444 -1 x15211 -1 x15212 -1 x15213 -1 x15214 -1 x15215 -1 x15216 >= 0 ;
+2 x15445 +2 x15446 +2 x15447 -1 x15214 -1 x15215 -1 x15216 -1 x15217 -1 x15218 -1 x15219 >= 0 ;
+2 x15448 +2 x15449 +2 x15450 -1 x15217 -1 x15218 -1 x15219 -1 x15220 -1 x15221 -1 x15222 >= 0 ;
+2 x15451 +2 x15452 +2 x15453 -1 x15220 -1 x15221 -1 x15222 -1 x15223 -1 x15224 -1 x15225 >= 0 ;
+2 x15454 +2 x15455 +2 x15456 -1 x15226 -1 x15227 -1 x15228 -1 x15229 -1 x15230 -1 x15231 >= 0 ;
+2 x15457 +2 x15458 +2 x15459 -1 x15229 -1 x15230 -1 x15231 -1 x15232 -1 x15233 -1 x15234 >= 0 ;
+2 x15460 +2 x15461 +2 x15462 -1 x15232 -1 x15233 -1 x15234 -1 x15235 -1 x15236 -1 x15237 >= 0 ;
+2 x15463 +2 x15464 +2 x15465 -1 x15235 -1 x15236 -1 x15237 -1 x15238 -1 x15239 -1 x15240 >= 0 ;
+2 x15466 +2 x15467 +2 x15468 -1 x15238 -1 x15239 -1 x15240 -1 x15241 -1 x15242 -1 x15243 >= 0 ;
+2 x15469 +2 x15470 +2 x15471 -1 x15241 -1 x15242 -1 x15243 -1 x15244 -1 x15245 -1 x15246 >= 0 ;
+2 x15472 +2 x15473 +2 x15474 -1 x15244 -1 x15245 -1 x15246 -1 x15247 -1 x15248 -1 x15249 >= 0 ;
+2 x15475 +2 x15476 +2 x15477 -1 x15247 -1 x15248 -1 x15249 -1 x15250 -1 x15251 -1 x15252 >= 0 ;
+2 x15478 +2 x15479 +2 x15480 -1 x15250 -1 x15251 -1 x15252 -1 x15253 -1 x15254 -1 x15255 >= 0 ;
+2 x15481 +2 x15482 +2 x15483 -1 x15253 -1 x15254 -1 x15255 -1 x15256 -1 x15257 -1 x15258 >= 0 ;
+2 x15484 +2 x15485 +2 x15486 -1 x15256 -1 x15257 -1 x15258 -1 x15259 -1 x15260 -1 x15261 >= 0 ;
+2 x15487 +2 x15488 +2 x15489 -1 x15259 -1 x15260 -1 x15261 -1 x15262 -1 x15263 -1 x15264 >= 0 ;
+2 x15490 +2 x15491 +2 x15492 -1 x15262 -1 x15263 -1 x15264 -1 x15265 -1 x15266 -1 x15267 >= 0 ;
+2 x15493 +2 x15494 +2 x15495 -1 x15265 -1 x15266 -1 x15267 -1 x15268 -1 x15269 -1 x15270 >= 0 ;
+2 x15496 +2 x15497 +2 x15498 -1 x15268 -1 x15269 -1 x15270 -1 x15271 -1 x15272 -1 x15273 >= 0 ;
+2 x15499 +2 x15500 +2 x15501 -1 x15271 -1 x15272 -1 x15273 -1 x15274 -1 x15275 -1 x15276 >= 0 ;
+2 x15502 +2 x15503 +2 x15504 -1 x15274 -1 x15275 -1 x15276 -1 x15277 -1 x15278 -1 x15279 >= 0 ;
+2 x15505 +2 x15506 +2 x15507 -1 x15277 -1 x15278 -1 x15279 -1 x15280 -1 x15281 -1 x15282 >= 0 ;
+2 x15508 +2 x15509 +2 x15510 -1 x15280 -1 x15281 -1 x15282 -1 x15283 -1 x15284 -1 x15285 >= 0 ;
+2 x15511 +2 x15512 +2 x15513 -1 x15283 -1 x15284 -1 x15285 -1 x15286 -1 x15287 -1 x15288 >= 0 ;
+2 x15514 +2 x15515 +2 x15516 -1 x15286 -1 x15287 -1 x15288 -1 x15289 -1 x15290 -1 x15291 >= 0 ;
+2 x15517 +2 x15518 +2 x15519 -1 x15289 -1 x15290 -1 x15291 -1 x15292 -1 x15293 -1 x15294 >= 0 ;
+2 x15520 +2 x15521 +2 x15522 -1 x15292 -1 x15293 -1 x15294 -1 x15295 -1 x15296 -1 x15297 >= 0 ;
+2 x15523 +2 x15524 +2 x15525 -1 x15295 -1 x15296 -1 x15297 -1 x15298 -1 x15299 -1 x15300 >= 0 ;
+2 x15526 +2 x15527 +2 x15528 -1 x15298 -1 x15299 -1 x15300 -1 x15301 -1 x15302 -1 x15303 >= 0 ;
+2 x15529 +2 x15530 +2 x15531 -1 x15301 -1 x15302 -1 x15303 -1 x15304 -1 x15305 -1 x15306 >= 0 ;
+2 x15532 +2 x15533 +2 x15534 -1 x15304 -1 x15305 -1 x15306 -1 x15307 -1 x15308 -1 x15309 >= 0 ;
+2 x15535 +2 x15536 +2 x15537 -1 x15307 -1 x15308 -1 x15309 -1 x15310 -1 x15311 -1 x15312 >= 0 ;
+2 x15538 +2 x15539 +2 x15540 -1 x15310 -1 x15311 -1 x15312 -1 x15313 -1 x15314 -1 x15315 >= 0 ;
+2 x15541 +2 x15542 +2 x15543 -1 x15313 -1 x15314 -1 x15315 -1 x15316 -1 x15317 -1 x15318 >= 0 ;
+2 x15544 +2 x15545 +2 x15546 -1 x15316 -1 x15317 -1 x15318 -1 x15319 -1 x15320 -1 x15321 >= 0 ;
+2 x15547 +2 x15548 +2 x15549 -1 x15319 -1 x15320 -1 x15321 -1 x15322 -1 x15323 -1 x15324 >= 0 ;
+2 x15550 +2 x15551 +2 x15552 -1 x15322 -1 x15323 -1 x15324 -1 x15325 -1 x15326 -1 x15327 >= 0 ;
+2 x15553 +2 x15554 +2 x15555 -1 x15325 -1 x15326 -1 x15327 -1 x15328 -1 x15329 -1 x15330 >= 0 ;
+2 x15556 +2 x15557 +2 x15558 -1 x15328 -1 x15329 -1 x15330 -1 x15331 -1 x15332 -1 x15333 >= 0 ;
+2 x15559 +2 x15560 +2 x15561 -1 x15331 -1 x15332 -1 x15333 -1 x15334 -1 x15335 -1 x15336 >= 0 ;
+2 x15562 +2 x15563 +2 x15564 -1 x15334 -1 x15335 -1 x15336 -1 x15337 -1 x15338 -1 x15339 >= 0 ;
+2 x15565 +2 x15566 +2 x15567 -1 x15337 -1 x15338 -1 x15339 -1 x15340 -1 x15341 -1 x15342 >= 0 ;
+2 x15568 +2 x15569 +2 x15570 -1 x15340 -1 x15341 -1 x15342 -1 x15343 -1 x15344 -1 x15345 >= 0 ;
+2 x15571 +2 x15572 +2 x15573 -1 x15343 -1 x15344 -1 x15345 -1 x15346 -1 x15347 -1 x15348 >= 0 ;
+2 x15574 +2 x15575 +2 x15576 -1 x15346 -1 x15347 -1 x15348 -1 x15349 -1 x15350 -1 x15351 >= 0 ;
+2 x15577 +2 x15578 +2 x15579 -1 x15349 -1 x15350 -1 x15351 -1 x15352 -1 x15353 -1 x15354 >= 0 ;
+2 x15580 +2 x15581 +2 x15582 -1 x15352 -1 x15353 -1 x15354 -1 x15355 -1 x15356 -1 x15357 >= 0 ;
+2 x15583 +2 x15584 +2 x15585 -1 x15355 -1 x15356 -1 x15357 -1 x15358 -1 x15359 -1 x15360 >= 0 ;
+2 x15586 +2 x15587 +2 x15588 -1 x15358 -1 x15359 -1 x15360 -1 x15361 -1 x15362 -1 x15363 >= 0 ;
+2 x15589 +2 x15590 +2 x15591 -1 x15361 -1 x15362 -1 x15363 -1 x15364 -1 x15365 -1 x15366 >= 0 ;
+2 x15592 +2 x15593 +2 x15594 -1 x15364 -1 x15365 -1 x15366 -1 x15367 -1 x15368 -1 x15369 >= 0 ;
+2 x15595 +2 x15596 +2 x15597 -1 x15367 -1 x15368 -1 x15369 -1 x15370 -1 x15371 -1 x15372 >= 0 ;
+2 x15598 +2 x15599 +2 x15600 -1 x15370 -1 x15371 -1 x15372 -1 x15373 -1 x15374 -1 x15375 >= 0 ;
+2 x15601 +2 x15602 +2 x15603 -1 x15373 -1 x15374 -1 x15375 -1 x15376 -1 x15377 -1 x15378 >= 0 ;
+2 x15604 +2 x15605 +2 x15606 -1 x15376 -1 x15377 -1 x15378 -1 x15379 -1 x15380 -1 x15381 >= 0 ;
+2 x15607 +2 x15608 +2 x15609 -1 x15379 -1 x15380 -1 x15381 -1 x15382 -1 x15383 -1 x15384 >= 0 ;
+2 x15610 +2 x15611 +2 x15612 -1 x15382 -1 x15383 -1 x15384 -1 x15385 -1 x15386 -1 x15387 >= 0 ;
+2 x15613 +2 x15614 +2 x15615 -1 x15385 -1 x15386 -1 x15387 -1 x15388 -1 x15389 -1 x15390 >= 0 ;
+2 x15616 +2 x15617 +2 x15618 -1 x15388 -1 x15389 -1 x15390 -1 x15391 -1 x15392 -1 x15393 >= 0 ;
+2 x15619 +2 x15620 +2 x15621 -1 x15391 -1 x15392 -1 x15393 -1 x15394 -1 x15395 -1 x15396 >= 0 ;
+2 x15622 +2 x15623 +2 x15624 -1 x15394 -1 x15395 -1 x15396 -1 x15397 -1 x15398 -1 x15399 >= 0 ;
+2 x15625 +2 x15626 +2 x15627 -1 x15397 -1 x15398 -1 x15399 -1 x15400 -1 x15401 -1 x15402 >= 0 ;
+2 x15628 +2 x15629 +2 x15630 -1 x15400 -1 x15401 -1 x15402 -1 x15403 -1 x15404 -1 x15405 >= 0 ;
+2 x15631 +2 x15632 +2 x15633 -1 x15403 -1 x15404 -1 x15405 -1 x15406 -1 x15407 -1 x15408 >= 0 ;
+2 x15634 +2 x15635 +2 x15636 -1 x15406 -1 x15407 -1 x15408 -1 x15409 -1 x15410 -1 x15411 >= 0 ;
+2 x15637 +2 x15638 +2 x15639 -1 x15409 -1 x15410 -1 x15411 -1 x15412 -1 x15413 -1 x15414 >= 0 ;
+2 x15640 +2 x15641 +2 x15642 -1 x15412 -1 x15413 -1 x15414 -1 x15415 -1 x15416 -1 x15417 >= 0 ;
+2 x15643 +2 x15644 +2 x15645 -1 x15415 -1 x15416 -1 x15417 -1 x15418 -1 x15419 -1 x15420 >= 0 ;
+2 x15646 +2 x15647 +2 x15648 -1 x15418 -1 x15419 -1 x15420 -1 x15421 -1 x15422 -1 x15423 >= 0 ;
+2 x15649 +2 x15650 +2 x15651 -1 x15421 -1 x15422 -1 x15423 -1 x15424 -1 x15425 -1 x15426 >= 0 ;
+2 x15652 +2 x15653 +2 x15654 -1 x15424 -1 x15425 -1 x15426 -1 x15427 -1 x15428 -1 x15429 >= 0 ;
+2 x15655 +2 x15656 +2 x15657 -1 x15427 -1 x15428 -1 x15429 -1 x15430 -1 x15431 -1 x15432 >= 0 ;
+2 x15658 +2 x15659 +2 x15660 -1 x15430 -1 x15431 -1 x15432 -1 x15433 -1 x15434 -1 x15435 >= 0 ;
+2 x15661 +2 x15662 +2 x15663 -1 x15433 -1 x15434 -1 x15435 -1 x15436 -1 x15437 -1 x15438 >= 0 ;
+2 x15664 +2 x15665 +2 x15666 -1 x15436 -1 x15437 -1 x15438 -1 x15439 -1 x15440 -1 x15441 >= 0 ;
+2 x15667 +2 x15668 +2 x15669 -1 x15439 -1 x15440 -1 x15441 -1 x15442 -1 x15443 -1 x15444 >= 0 ;
+2 x15670 +2 x15671 +2 x15672 -1 x15442 -1 x15443 -1 x15444 -1 x15445 -1 x15446 -1 x15447 >= 0 ;
+2 x15673 +2 x15674 +2 x15675 -1 x15445 -1 x15446 -1 x15447 -1 x15448 -1 x15449 -1 x15450 >= 0 ;
+2 x15676 +2 x15677 +2 x15678 -1 x15448 -1 x15449 -1 x15450 -1 x15451 -1 x15452 -1 x15453 >= 0 ;
+2 x15679 +2 x15680 +2 x15681 -1 x15454 -1 x15455 -1 x15456 -1 x15457 -1 x15458 -1 x15459 >= 0 ;
+2 x15682 +2 x15683 +2 x15684 -1 x15457 -1 x15458 -1 x15459 -1 x15460 -1 x15461 -1 x15462 >= 0 ;
+2 x15685 +2 x15686 +2 x15687 -1 x15460 -1 x15461 -1 x15462 -1 x15463 -1 x15464 -1 x15465 >= 0 ;
+2 x15688 +2 x15689 +2 x15690 -1 x15463 -1 x15464 -1 x15465 -1 x15466 -1 x15467 -1 x15468 >= 0 ;
+2 x15691 +2 x15692 +2 x15693 -1 x15466 -1 x15467 -1 x15468 -1 x15469 -1 x15470 -1 x15471 >= 0 ;
+2 x15694 +2 x15695 +2 x15696 -1 x15469 -1 x15470 -1 x15471 -1 x15472 -1 x15473 -1 x15474 >= 0 ;
+2 x15697 +2 x15698 +2 x15699 -1 x15472 -1 x15473 -1 x15474 -1 x15475 -1 x15476 -1 x15477 >= 0 ;
+2 x15700 +2 x15701 +2 x15702 -1 x15475 -1 x15476 -1 x15477 -1 x15478 -1 x15479 -1 x15480 >= 0 ;
+2 x15703 +2 x15704 +2 x15705 -1 x15478 -1 x15479 -1 x15480 -1 x15481 -1 x15482 -1 x15483 >= 0 ;
+2 x15706 +2 x15707 +2 x15708 -1 x15481 -1 x15482 -1 x15483 -1 x15484 -1 x15485 -1 x15486 >= 0 ;
+2 x15709 +2 x15710 +2 x15711 -1 x15484 -1 x15485 -1 x15486 -1 x15487 -1 x15488 -1 x15489 >= 0 ;
+2 x15712 +2 x15713 +2 x15714 -1 x15487 -1 x15488 -1 x15489 -1 x15490 -1 x15491 -1 x15492 >= 0 ;
+2 x15715 +2 x15716 +2 x15717 -1 x15490 -1 x15491 -1 x15492 -1 x15493 -1 x15494 -1 x15495 >= 0 ;
+2 x15718 +2 x15719 +2 x15720 -1 x15493 -1 x15494 -1 x15495 -1 x15496 -1 x15497 -1 x15498 >= 0 ;
+2 x15721 +2 x15722 +2 x15723 -1 x15496 -1 x15497 -1 x15498 -1 x15499 -1 x15500 -1 x15501 >= 0 ;
+2 x15724 +2 x15725 +2 x15726 -1 x15499 -1 x15500 -1 x15501 -1 x15502 -1 x15503 -1 x15504 >= 0 ;
+2 x15727 +2 x15728 +2 x15729 -1 x15502 -1 x15503 -1 x15504 -1 x15505 -1 x15506 -1 x15507 >= 0 ;
+2 x15730 +2 x15731 +2 x15732 -1 x15505 -1 x15506 -1 x15507 -1 x15508 -1 x15509 -1 x15510 >= 0 ;
+2 x15733 +2 x15734 +2 x15735 -1 x15508 -1 x15509 -1 x15510 -1 x15511 -1 x15512 -1 x15513 >= 0 ;
+2 x15736 +2 x15737 +2 x15738 -1 x15511 -1 x15512 -1 x15513 -1 x15514 -1 x15515 -1 x15516 >= 0 ;
+2 x15739 +2 x15740 +2 x15741 -1 x15514 -1 x15515 -1 x15516 -1 x15517 -1 x15518 -1 x15519 >= 0 ;
+2 x15742 +2 x15743 +2 x15744 -1 x15517 -1 x15518 -1 x15519 -1 x15520 -1 x15521 -1 x15522 >= 0 ;
+2 x15745 +2 x15746 +2 x15747 -1 x15520 -1 x15521 -1 x15522 -1 x15523 -1 x15524 -1 x15525 >= 0 ;
+2 x15748 +2 x15749 +2 x15750 -1 x15523 -1 x15524 -1 x15525 -1 x15526 -1 x15527 -1 x15528 >= 0 ;
+2 x15751 +2 x15752 +2 x15753 -1 x15526 -1 x15527 -1 x15528 -1 x15529 -1 x15530 -1 x15531 >= 0 ;
+2 x15754 +2 x15755 +2 x15756 -1 x15529 -1 x15530 -1 x15531 -1 x15532 -1 x15533 -1 x15534 >= 0 ;
+2 x15757 +2 x15758 +2 x15759 -1 x15532 -1 x15533 -1 x15534 -1 x15535 -1 x15536 -1 x15537 >= 0 ;
+2 x15760 +2 x15761 +2 x15762 -1 x15535 -1 x15536 -1 x15537 -1 x15538 -1 x15539 -1 x15540 >= 0 ;
+2 x15763 +2 x15764 +2 x15765 -1 x15538 -1 x15539 -1 x15540 -1 x15541 -1 x15542 -1 x15543 >= 0 ;
+2 x15766 +2 x15767 +2 x15768 -1 x15541 -1 x15542 -1 x15543 -1 x15544 -1 x15545 -1 x15546 >= 0 ;
+2 x15769 +2 x15770 +2 x15771 -1 x15544 -1 x15545 -1 x15546 -1 x15547 -1 x15548 -1 x15549 >= 0 ;
+2 x15772 +2 x15773 +2 x15774 -1 x15547 -1 x15548 -1 x15549 -1 x15550 -1 x15551 -1 x15552 >= 0 ;
+2 x15775 +2 x15776 +2 x15777 -1 x15550 -1 x15551 -1 x15552 -1 x15553 -1 x15554 -1 x15555 >= 0 ;
+2 x15778 +2 x15779 +2 x15780 -1 x15553 -1 x15554 -1 x15555 -1 x15556 -1 x15557 -1 x15558 >= 0 ;
+2 x15781 +2 x15782 +2 x15783 -1 x15556 -1 x15557 -1 x15558 -1 x15559 -1 x15560 -1 x15561 >= 0 ;
+2 x15784 +2 x15785 +2 x15786 -1 x15559 -1 x15560 -1 x15561 -1 x15562 -1 x15563 -1 x15564 >= 0 ;
+2 x15787 +2 x15788 +2 x15789 -1 x15562 -1 x15563 -1 x15564 -1 x15565 -1 x15566 -1 x15567 >= 0 ;
+2 x15790 +2 x15791 +2 x15792 -1 x15565 -1 x15566 -1 x15567 -1 x15568 -1 x15569 -1 x15570 >= 0 ;
+2 x15793 +2 x15794 +2 x15795 -1 x15568 -1 x15569 -1 x15570 -1 x15571 -1 x15572 -1 x15573 >= 0 ;
+2 x15796 +2 x15797 +2 x15798 -1 x15571 -1 x15572 -1 x15573 -1 x15574 -1 x15575 -1 x15576 >= 0 ;
+2 x15799 +2 x15800 +2 x15801 -1 x15574 -1 x15575 -1 x15576 -1 x15577 -1 x15578 -1 x15579 >= 0 ;
+2 x15802 +2 x15803 +2 x15804 -1 x15577 -1 x15578 -1 x15579 -1 x15580 -1 x15581 -1 x15582 >= 0 ;
+2 x15805 +2 x15806 +2 x15807 -1 x15580 -1 x15581 -1 x15582 -1 x15583 -1 x15584 -1 x15585 >= 0 ;
+2 x15808 +2 x15809 +2 x15810 -1 x15583 -1 x15584 -1 x15585 -1 x15586 -1 x15587 -1 x15588 >= 0 ;
+2 x15811 +2 x15812 +2 x15813 -1 x15586 -1 x15587 -1 x15588 -1 x15589 -1 x15590 -1 x15591 >= 0 ;
+2 x15814 +2 x15815 +2 x15816 -1 x15589 -1 x15590 -1 x15591 -1 x15592 -1 x15593 -1 x15594 >= 0 ;
+2 x15817 +2 x15818 +2 x15819 -1 x15592 -1 x15593 -1 x15594 -1 x15595 -1 x15596 -1 x15597 >= 0 ;
+2 x15820 +2 x15821 +2 x15822 -1 x15595 -1 x15596 -1 x15597 -1 x15598 -1 x15599 -1 x15600 >= 0 ;
+2 x15823 +2 x15824 +2 x15825 -1 x15598 -1 x15599 -1 x15600 -1 x15601 -1 x15602 -1 x15603 >= 0 ;
+2 x15826 +2 x15827 +2 x15828 -1 x15601 -1 x15602 -1 x15603 -1 x15604 -1 x15605 -1 x15606 >= 0 ;
+2 x15829 +2 x15830 +2 x15831 -1 x15604 -1 x15605 -1 x15606 -1 x15607 -1 x15608 -1 x15609 >= 0 ;
+2 x15832 +2 x15833 +2 x15834 -1 x15607 -1 x15608 -1 x15609 -1 x15610 -1 x15611 -1 x15612 >= 0 ;
+2 x15835 +2 x15836 +2 x15837 -1 x15610 -1 x15611 -1 x15612 -1 x15613 -1 x15614 -1 x15615 >= 0 ;
+2 x15838 +2 x15839 +2 x15840 -1 x15613 -1 x15614 -1 x15615 -1 x15616 -1 x15617 -1 x15618 >= 0 ;
+2 x15841 +2 x15842 +2 x15843 -1 x15616 -1 x15617 -1 x15618 -1 x15619 -1 x15620 -1 x15621 >= 0 ;
+2 x15844 +2 x15845 +2 x15846 -1 x15619 -1 x15620 -1 x15621 -1 x15622 -1 x15623 -1 x15624 >= 0 ;
+2 x15847 +2 x15848 +2 x15849 -1 x15622 -1 x15623 -1 x15624 -1 x15625 -1 x15626 -1 x15627 >= 0 ;
+2 x15850 +2 x15851 +2 x15852 -1 x15625 -1 x15626 -1 x15627 -1 x15628 -1 x15629 -1 x15630 >= 0 ;
+2 x15853 +2 x15854 +2 x15855 -1 x15628 -1 x15629 -1 x15630 -1 x15631 -1 x15632 -1 x15633 >= 0 ;
+2 x15856 +2 x15857 +2 x15858 -1 x15631 -1 x15632 -1 x15633 -1 x15634 -1 x15635 -1 x15636 >= 0 ;
+2 x15859 +2 x15860 +2 x15861 -1 x15634 -1 x15635 -1 x15636 -1 x15637 -1 x15638 -1 x15639 >= 0 ;
+2 x15862 +2 x15863 +2 x15864 -1 x15637 -1 x15638 -1 x15639 -1 x15640 -1 x15641 -1 x15642 >= 0 ;
+2 x15865 +2 x15866 +2 x15867 -1 x15640 -1 x15641 -1 x15642 -1 x15643 -1 x15644 -1 x15645 >= 0 ;
+2 x15868 +2 x15869 +2 x15870 -1 x15643 -1 x15644 -1 x15645 -1 x15646 -1 x15647 -1 x15648 >= 0 ;
+2 x15871 +2 x15872 +2 x15873 -1 x15646 -1 x15647 -1 x15648 -1 x15649 -1 x15650 -1 x15651 >= 0 ;
+2 x15874 +2 x15875 +2 x15876 -1 x15649 -1 x15650 -1 x15651 -1 x15652 -1 x15653 -1 x15654 >= 0 ;
+2 x15877 +2 x15878 +2 x15879 -1 x15652 -1 x15653 -1 x15654 -1 x15655 -1 x15656 -1 x15657 >= 0 ;
+2 x15880 +2 x15881 +2 x15882 -1 x15655 -1 x15656 -1 x15657 -1 x15658 -1 x15659 -1 x15660 >= 0 ;
+2 x15883 +2 x15884 +2 x15885 -1 x15658 -1 x15659 -1 x15660 -1 x15661 -1 x15662 -1 x15663 >= 0 ;
+2 x15886 +2 x15887 +2 x15888 -1 x15661 -1 x15662 -1 x15663 -1 x15664 -1 x15665 -1 x15666 >= 0 ;
+2 x15889 +2 x15890 +2 x15891 -1 x15664 -1 x15665 -1 x15666 -1 x15667 -1 x15668 -1 x15669 >= 0 ;
+2 x15892 +2 x15893 +2 x15894 -1 x15667 -1 x15668 -1 x15669 -1 x15670 -1 x15671 -1 x15672 >= 0 ;
+2 x15895 +2 x15896 +2 x15897 -1 x15670 -1 x15671 -1 x15672 -1 x15673 -1 x15674 -1 x15675 >= 0 ;
+2 x15898 +2 x15899 +2 x15900 -1 x15673 -1 x15674 -1 x15675 -1 x15676 -1 x15677 -1 x15678 >= 0 ;
+2 x15901 +2 x15902 +2 x15903 -1 x15679 -1 x15680 -1 x15681 -1 x15682 -1 x15683 -1 x15684 >= 0 ;
+2 x15904 +2 x15905 +2 x15906 -1 x15682 -1 x15683 -1 x15684 -1 x15685 -1 x15686 -1 x15687 >= 0 ;
+2 x15907 +2 x15908 +2 x15909 -1 x15685 -1 x15686 -1 x15687 -1 x15688 -1 x15689 -1 x15690 >= 0 ;
+2 x15910 +2 x15911 +2 x15912 -1 x15688 -1 x15689 -1 x15690 -1 x15691 -1 x15692 -1 x15693 >= 0 ;
+2 x15913 +2 x15914 +2 x15915 -1 x15691 -1 x15692 -1 x15693 -1 x15694 -1 x15695 -1 x15696 >= 0 ;
+2 x15916 +2 x15917 +2 x15918 -1 x15694 -1 x15695 -1 x15696 -1 x15697 -1 x15698 -1 x15699 >= 0 ;
+2 x15919 +2 x15920 +2 x15921 -1 x15697 -1 x15698 -1 x15699 -1 x15700 -1 x15701 -1 x15702 >= 0 ;
+2 x15922 +2 x15923 +2 x15924 -1 x15700 -1 x15701 -1 x15702 -1 x15703 -1 x15704 -1 x15705 >= 0 ;
+2 x15925 +2 x15926 +2 x15927 -1 x15703 -1 x15704 -1 x15705 -1 x15706 -1 x15707 -1 x15708 >= 0 ;
+2 x15928 +2 x15929 +2 x15930 -1 x15706 -1 x15707 -1 x15708 -1 x15709 -1 x15710 -1 x15711 >= 0 ;
+2 x15931 +2 x15932 +2 x15933 -1 x15709 -1 x15710 -1 x15711 -1 x15712 -1 x15713 -1 x15714 >= 0 ;
+2 x15934 +2 x15935 +2 x15936 -1 x15712 -1 x15713 -1 x15714 -1 x15715 -1 x15716 -1 x15717 >= 0 ;
+2 x15937 +2 x15938 +2 x15939 -1 x15715 -1 x15716 -1 x15717 -1 x15718 -1 x15719 -1 x15720 >= 0 ;
+2 x15940 +2 x15941 +2 x15942 -1 x15718 -1 x15719 -1 x15720 -1 x15721 -1 x15722 -1 x15723 >= 0 ;
+2 x15943 +2 x15944 +2 x15945 -1 x15721 -1 x15722 -1 x15723 -1 x15724 -1 x15725 -1 x15726 >= 0 ;
+2 x15946 +2 x15947 +2 x15948 -1 x15724 -1 x15725 -1 x15726 -1 x15727 -1 x15728 -1 x15729 >= 0 ;
+2 x15949 +2 x15950 +2 x15951 -1 x15727 -1 x15728 -1 x15729 -1 x15730 -1 x15731 -1 x15732 >= 0 ;
+2 x15952 +2 x15953 +2 x15954 -1 x15730 -1 x15731 -1 x15732 -1 x15733 -1 x15734 -1 x15735 >= 0 ;
+2 x15955 +2 x15956 +2 x15957 -1 x15733 -1 x15734 -1 x15735 -1 x15736 -1 x15737 -1 x15738 >= 0 ;
+2 x15958 +2 x15959 +2 x15960 -1 x15736 -1 x15737 -1 x15738 -1 x15739 -1 x15740 -1 x15741 >= 0 ;
+2 x15961 +2 x15962 +2 x15963 -1 x15739 -1 x15740 -1 x15741 -1 x15742 -1 x15743 -1 x15744 >= 0 ;
+2 x15964 +2 x15965 +2 x15966 -1 x15742 -1 x15743 -1 x15744 -1 x15745 -1 x15746 -1 x15747 >= 0 ;
+2 x15967 +2 x15968 +2 x15969 -1 x15745 -1 x15746 -1 x15747 -1 x15748 -1 x15749 -1 x15750 >= 0 ;
+2 x15970 +2 x15971 +2 x15972 -1 x15748 -1 x15749 -1 x15750 -1 x15751 -1 x15752 -1 x15753 >= 0 ;
+2 x15973 +2 x15974 +2 x15975 -1 x15751 -1 x15752 -1 x15753 -1 x15754 -1 x15755 -1 x15756 >= 0 ;
+2 x15976 +2 x15977 +2 x15978 -1 x15754 -1 x15755 -1 x15756 -1 x15757 -1 x15758 -1 x15759 >= 0 ;
+2 x15979 +2 x15980 +2 x15981 -1 x15757 -1 x15758 -1 x15759 -1 x15760 -1 x15761 -1 x15762 >= 0 ;
+2 x15982 +2 x15983 +2 x15984 -1 x15760 -1 x15761 -1 x15762 -1 x15763 -1 x15764 -1 x15765 >= 0 ;
+2 x15985 +2 x15986 +2 x15987 -1 x15763 -1 x15764 -1 x15765 -1 x15766 -1 x15767 -1 x15768 >= 0 ;
+2 x15988 +2 x15989 +2 x15990 -1 x15766 -1 x15767 -1 x15768 -1 x15769 -1 x15770 -1 x15771 >= 0 ;
+2 x15991 +2 x15992 +2 x15993 -1 x15769 -1 x15770 -1 x15771 -1 x15772 -1 x15773 -1 x15774 >= 0 ;
+2 x15994 +2 x15995 +2 x15996 -1 x15772 -1 x15773 -1 x15774 -1 x15775 -1 x15776 -1 x15777 >= 0 ;
+2 x15997 +2 x15998 +2 x15999 -1 x15775 -1 x15776 -1 x15777 -1 x15778 -1 x15779 -1 x15780 >= 0 ;
+2 x16000 +2 x16001 +2 x16002 -1 x15778 -1 x15779 -1 x15780 -1 x15781 -1 x15782 -1 x15783 >= 0 ;
+2 x16003 +2 x16004 +2 x16005 -1 x15781 -1 x15782 -1 x15783 -1 x15784 -1 x15785 -1 x15786 >= 0 ;
+2 x16006 +2 x16007 +2 x16008 -1 x15784 -1 x15785 -1 x15786 -1 x15787 -1 x15788 -1 x15789 >= 0 ;
+2 x16009 +2 x16010 +2 x16011 -1 x15787 -1 x15788 -1 x15789 -1 x15790 -1 x15791 -1 x15792 >= 0 ;
+2 x16012 +2 x16013 +2 x16014 -1 x15790 -1 x15791 -1 x15792 -1 x15793 -1 x15794 -1 x15795 >= 0 ;
+2 x16015 +2 x16016 +2 x16017 -1 x15793 -1 x15794 -1 x15795 -1 x15796 -1 x15797 -1 x15798 >= 0 ;
+2 x16018 +2 x16019 +2 x16020 -1 x15796 -1 x15797 -1 x15798 -1 x15799 -1 x15800 -1 x15801 >= 0 ;
+2 x16021 +2 x16022 +2 x16023 -1 x15799 -1 x15800 -1 x15801 -1 x15802 -1 x15803 -1 x15804 >= 0 ;
+2 x16024 +2 x16025 +2 x16026 -1 x15802 -1 x15803 -1 x15804 -1 x15805 -1 x15806 -1 x15807 >= 0 ;
+2 x16027 +2 x16028 +2 x16029 -1 x15805 -1 x15806 -1 x15807 -1 x15808 -1 x15809 -1 x15810 >= 0 ;
+2 x16030 +2 x16031 +2 x16032 -1 x15808 -1 x15809 -1 x15810 -1 x15811 -1 x15812 -1 x15813 >= 0 ;
+2 x16033 +2 x16034 +2 x16035 -1 x15811 -1 x15812 -1 x15813 -1 x15814 -1 x15815 -1 x15816 >= 0 ;
+2 x16036 +2 x16037 +2 x16038 -1 x15814 -1 x15815 -1 x15816 -1 x15817 -1 x15818 -1 x15819 >= 0 ;
+2 x16039 +2 x16040 +2 x16041 -1 x15817 -1 x15818 -1 x15819 -1 x15820 -1 x15821 -1 x15822 >= 0 ;
+2 x16042 +2 x16043 +2 x16044 -1 x15820 -1 x15821 -1 x15822 -1 x15823 -1 x15824 -1 x15825 >= 0 ;
+2 x16045 +2 x16046 +2 x16047 -1 x15823 -1 x15824 -1 x15825 -1 x15826 -1 x15827 -1 x15828 >= 0 ;
+2 x16048 +2 x16049 +2 x16050 -1 x15826 -1 x15827 -1 x15828 -1 x15829 -1 x15830 -1 x15831 >= 0 ;
+2 x16051 +2 x16052 +2 x16053 -1 x15829 -1 x15830 -1 x15831 -1 x15832 -1 x15833 -1 x15834 >= 0 ;
+2 x16054 +2 x16055 +2 x16056 -1 x15832 -1 x15833 -1 x15834 -1 x15835 -1 x15836 -1 x15837 >= 0 ;
+2 x16057 +2 x16058 +2 x16059 -1 x15835 -1 x15836 -1 x15837 -1 x15838 -1 x15839 -1 x15840 >= 0 ;
+2 x16060 +2 x16061 +2 x16062 -1 x15838 -1 x15839 -1 x15840 -1 x15841 -1 x15842 -1 x15843 >= 0 ;
+2 x16063 +2 x16064 +2 x16065 -1 x15841 -1 x15842 -1 x15843 -1 x15844 -1 x15845 -1 x15846 >= 0 ;
+2 x16066 +2 x16067 +2 x16068 -1 x15844 -1 x15845 -1 x15846 -1 x15847 -1 x15848 -1 x15849 >= 0 ;
+2 x16069 +2 x16070 +2 x16071 -1 x15847 -1 x15848 -1 x15849 -1 x15850 -1 x15851 -1 x15852 >= 0 ;
+2 x16072 +2 x16073 +2 x16074 -1 x15850 -1 x15851 -1 x15852 -1 x15853 -1 x15854 -1 x15855 >= 0 ;
+2 x16075 +2 x16076 +2 x16077 -1 x15853 -1 x15854 -1 x15855 -1 x15856 -1 x15857 -1 x15858 >= 0 ;
+2 x16078 +2 x16079 +2 x16080 -1 x15856 -1 x15857 -1 x15858 -1 x15859 -1 x15860 -1 x15861 >= 0 ;
+2 x16081 +2 x16082 +2 x16083 -1 x15859 -1 x15860 -1 x15861 -1 x15862 -1 x15863 -1 x15864 >= 0 ;
+2 x16084 +2 x16085 +2 x16086 -1 x15862 -1 x15863 -1 x15864 -1 x15865 -1 x15866 -1 x15867 >= 0 ;
+2 x16087 +2 x16088 +2 x16089 -1 x15865 -1 x15866 -1 x15867 -1 x15868 -1 x15869 -1 x15870 >= 0 ;
+2 x16090 +2 x16091 +2 x16092 -1 x15868 -1 x15869 -1 x15870 -1 x15871 -1 x15872 -1 x15873 >= 0 ;
+2 x16093 +2 x16094 +2 x16095 -1 x15871 -1 x15872 -1 x15873 -1 x15874 -1 x15875 -1 x15876 >= 0 ;
+2 x16096 +2 x16097 +2 x16098 -1 x15874 -1 x15875 -1 x15876 -1 x15877 -1 x15878 -1 x15879 >= 0 ;
+2 x16099 +2 x16100 +2 x16101 -1 x15877 -1 x15878 -1 x15879 -1 x15880 -1 x15881 -1 x15882 >= 0 ;
+2 x16102 +2 x16103 +2 x16104 -1 x15880 -1 x15881 -1 x15882 -1 x15883 -1 x15884 -1 x15885 >= 0 ;
+2 x16105 +2 x16106 +2 x16107 -1 x15883 -1 x15884 -1 x15885 -1 x15886 -1 x15887 -1 x15888 >= 0 ;
+2 x16108 +2 x16109 +2 x16110 -1 x15886 -1 x15887 -1 x15888 -1 x15889 -1 x15890 -1 x15891 >= 0 ;
+2 x16111 +2 x16112 +2 x16113 -1 x15889 -1 x15890 -1 x15891 -1 x15892 -1 x15893 -1 x15894 >= 0 ;
+2 x16114 +2 x16115 +2 x16116 -1 x15892 -1 x15893 -1 x15894 -1 x15895 -1 x15896 -1 x15897 >= 0 ;
+2 x16117 +2 x16118 +2 x16119 -1 x15895 -1 x15896 -1 x15897 -1 x15898 -1 x15899 -1 x15900 >= 0 ;
+2 x16120 +2 x16121 +2 x16122 -1 x15901 -1 x15902 -1 x15903 -1 x15904 -1 x15905 -1 x15906 >= 0 ;
+2 x16123 +2 x16124 +2 x16125 -1 x15904 -1 x15905 -1 x15906 -1 x15907 -1 x15908 -1 x15909 >= 0 ;
+2 x16126 +2 x16127 +2 x16128 -1 x15907 -1 x15908 -1 x15909 -1 x15910 -1 x15911 -1 x15912 >= 0 ;
+2 x16129 +2 x16130 +2 x16131 -1 x15910 -1 x15911 -1 x15912 -1 x15913 -1 x15914 -1 x15915 >= 0 ;
+2 x16132 +2 x16133 +2 x16134 -1 x15913 -1 x15914 -1 x15915 -1 x15916 -1 x15917 -1 x15918 >= 0 ;
+2 x16135 +2 x16136 +2 x16137 -1 x15916 -1 x15917 -1 x15918 -1 x15919 -1 x15920 -1 x15921 >= 0 ;
+2 x16138 +2 x16139 +2 x16140 -1 x15919 -1 x15920 -1 x15921 -1 x15922 -1 x15923 -1 x15924 >= 0 ;
+2 x16141 +2 x16142 +2 x16143 -1 x15922 -1 x15923 -1 x15924 -1 x15925 -1 x15926 -1 x15927 >= 0 ;
+2 x16144 +2 x16145 +2 x16146 -1 x15925 -1 x15926 -1 x15927 -1 x15928 -1 x15929 -1 x15930 >= 0 ;
+2 x16147 +2 x16148 +2 x16149 -1 x15928 -1 x15929 -1 x15930 -1 x15931 -1 x15932 -1 x15933 >= 0 ;
+2 x16150 +2 x16151 +2 x16152 -1 x15931 -1 x15932 -1 x15933 -1 x15934 -1 x15935 -1 x15936 >= 0 ;
+2 x16153 +2 x16154 +2 x16155 -1 x15934 -1 x15935 -1 x15936 -1 x15937 -1 x15938 -1 x15939 >= 0 ;
+2 x16156 +2 x16157 +2 x16158 -1 x15937 -1 x15938 -1 x15939 -1 x15940 -1 x15941 -1 x15942 >= 0 ;
+2 x16159 +2 x16160 +2 x16161 -1 x15940 -1 x15941 -1 x15942 -1 x15943 -1 x15944 -1 x15945 >= 0 ;
+2 x16162 +2 x16163 +2 x16164 -1 x15943 -1 x15944 -1 x15945 -1 x15946 -1 x15947 -1 x15948 >= 0 ;
+2 x16165 +2 x16166 +2 x16167 -1 x15946 -1 x15947 -1 x15948 -1 x15949 -1 x15950 -1 x15951 >= 0 ;
+2 x16168 +2 x16169 +2 x16170 -1 x15949 -1 x15950 -1 x15951 -1 x15952 -1 x15953 -1 x15954 >= 0 ;
+2 x16171 +2 x16172 +2 x16173 -1 x15952 -1 x15953 -1 x15954 -1 x15955 -1 x15956 -1 x15957 >= 0 ;
+2 x16174 +2 x16175 +2 x16176 -1 x15955 -1 x15956 -1 x15957 -1 x15958 -1 x15959 -1 x15960 >= 0 ;
+2 x16177 +2 x16178 +2 x16179 -1 x15958 -1 x15959 -1 x15960 -1 x15961 -1 x15962 -1 x15963 >= 0 ;
+2 x16180 +2 x16181 +2 x16182 -1 x15961 -1 x15962 -1 x15963 -1 x15964 -1 x15965 -1 x15966 >= 0 ;
+2 x16183 +2 x16184 +2 x16185 -1 x15964 -1 x15965 -1 x15966 -1 x15967 -1 x15968 -1 x15969 >= 0 ;
+2 x16186 +2 x16187 +2 x16188 -1 x15967 -1 x15968 -1 x15969 -1 x15970 -1 x15971 -1 x15972 >= 0 ;
+2 x16189 +2 x16190 +2 x16191 -1 x15970 -1 x15971 -1 x15972 -1 x15973 -1 x15974 -1 x15975 >= 0 ;
+2 x16192 +2 x16193 +2 x16194 -1 x15973 -1 x15974 -1 x15975 -1 x15976 -1 x15977 -1 x15978 >= 0 ;
+2 x16195 +2 x16196 +2 x16197 -1 x15976 -1 x15977 -1 x15978 -1 x15979 -1 x15980 -1 x15981 >= 0 ;
+2 x16198 +2 x16199 +2 x16200 -1 x15979 -1 x15980 -1 x15981 -1 x15982 -1 x15983 -1 x15984 >= 0 ;
+2 x16201 +2 x16202 +2 x16203 -1 x15982 -1 x15983 -1 x15984 -1 x15985 -1 x15986 -1 x15987 >= 0 ;
+2 x16204 +2 x16205 +2 x16206 -1 x15985 -1 x15986 -1 x15987 -1 x15988 -1 x15989 -1 x15990 >= 0 ;
+2 x16207 +2 x16208 +2 x16209 -1 x15988 -1 x15989 -1 x15990 -1 x15991 -1 x15992 -1 x15993 >= 0 ;
+2 x16210 +2 x16211 +2 x16212 -1 x15991 -1 x15992 -1 x15993 -1 x15994 -1 x15995 -1 x15996 >= 0 ;
+2 x16213 +2 x16214 +2 x16215 -1 x15994 -1 x15995 -1 x15996 -1 x15997 -1 x15998 -1 x15999 >= 0 ;
+2 x16216 +2 x16217 +2 x16218 -1 x15997 -1 x15998 -1 x15999 -1 x16000 -1 x16001 -1 x16002 >= 0 ;
+2 x16219 +2 x16220 +2 x16221 -1 x16000 -1 x16001 -1 x16002 -1 x16003 -1 x16004 -1 x16005 >= 0 ;
+2 x16222 +2 x16223 +2 x16224 -1 x16003 -1 x16004 -1 x16005 -1 x16006 -1 x16007 -1 x16008 >= 0 ;
+2 x16225 +2 x16226 +2 x16227 -1 x16006 -1 x16007 -1 x16008 -1 x16009 -1 x16010 -1 x16011 >= 0 ;
+2 x16228 +2 x16229 +2 x16230 -1 x16009 -1 x16010 -1 x16011 -1 x16012 -1 x16013 -1 x16014 >= 0 ;
+2 x16231 +2 x16232 +2 x16233 -1 x16012 -1 x16013 -1 x16014 -1 x16015 -1 x16016 -1 x16017 >= 0 ;
+2 x16234 +2 x16235 +2 x16236 -1 x16015 -1 x16016 -1 x16017 -1 x16018 -1 x16019 -1 x16020 >= 0 ;
+2 x16237 +2 x16238 +2 x16239 -1 x16018 -1 x16019 -1 x16020 -1 x16021 -1 x16022 -1 x16023 >= 0 ;
+2 x16240 +2 x16241 +2 x16242 -1 x16021 -1 x16022 -1 x16023 -1 x16024 -1 x16025 -1 x16026 >= 0 ;
+2 x16243 +2 x16244 +2 x16245 -1 x16024 -1 x16025 -1 x16026 -1 x16027 -1 x16028 -1 x16029 >= 0 ;
+2 x16246 +2 x16247 +2 x16248 -1 x16027 -1 x16028 -1 x16029 -1 x16030 -1 x16031 -1 x16032 >= 0 ;
+2 x16249 +2 x16250 +2 x16251 -1 x16030 -1 x16031 -1 x16032 -1 x16033 -1 x16034 -1 x16035 >= 0 ;
+2 x16252 +2 x16253 +2 x16254 -1 x16033 -1 x16034 -1 x16035 -1 x16036 -1 x16037 -1 x16038 >= 0 ;
+2 x16255 +2 x16256 +2 x16257 -1 x16036 -1 x16037 -1 x16038 -1 x16039 -1 x16040 -1 x16041 >= 0 ;
+2 x16258 +2 x16259 +2 x16260 -1 x16039 -1 x16040 -1 x16041 -1 x16042 -1 x16043 -1 x16044 >= 0 ;
+2 x16261 +2 x16262 +2 x16263 -1 x16042 -1 x16043 -1 x16044 -1 x16045 -1 x16046 -1 x16047 >= 0 ;
+2 x16264 +2 x16265 +2 x16266 -1 x16045 -1 x16046 -1 x16047 -1 x16048 -1 x16049 -1 x16050 >= 0 ;
+2 x16267 +2 x16268 +2 x16269 -1 x16048 -1 x16049 -1 x16050 -1 x16051 -1 x16052 -1 x16053 >= 0 ;
+2 x16270 +2 x16271 +2 x16272 -1 x16051 -1 x16052 -1 x16053 -1 x16054 -1 x16055 -1 x16056 >= 0 ;
+2 x16273 +2 x16274 +2 x16275 -1 x16054 -1 x16055 -1 x16056 -1 x16057 -1 x16058 -1 x16059 >= 0 ;
+2 x16276 +2 x16277 +2 x16278 -1 x16057 -1 x16058 -1 x16059 -1 x16060 -1 x16061 -1 x16062 >= 0 ;
+2 x16279 +2 x16280 +2 x16281 -1 x16060 -1 x16061 -1 x16062 -1 x16063 -1 x16064 -1 x16065 >= 0 ;
+2 x16282 +2 x16283 +2 x16284 -1 x16063 -1 x16064 -1 x16065 -1 x16066 -1 x16067 -1 x16068 >= 0 ;
+2 x16285 +2 x16286 +2 x16287 -1 x16066 -1 x16067 -1 x16068 -1 x16069 -1 x16070 -1 x16071 >= 0 ;
+2 x16288 +2 x16289 +2 x16290 -1 x16069 -1 x16070 -1 x16071 -1 x16072 -1 x16073 -1 x16074 >= 0 ;
+2 x16291 +2 x16292 +2 x16293 -1 x16072 -1 x16073 -1 x16074 -1 x16075 -1 x16076 -1 x16077 >= 0 ;
+2 x16294 +2 x16295 +2 x16296 -1 x16075 -1 x16076 -1 x16077 -1 x16078 -1 x16079 -1 x16080 >= 0 ;
+2 x16297 +2 x16298 +2 x16299 -1 x16078 -1 x16079 -1 x16080 -1 x16081 -1 x16082 -1 x16083 >= 0 ;
+2 x16300 +2 x16301 +2 x16302 -1 x16081 -1 x16082 -1 x16083 -1 x16084 -1 x16085 -1 x16086 >= 0 ;
+2 x16303 +2 x16304 +2 x16305 -1 x16084 -1 x16085 -1 x16086 -1 x16087 -1 x16088 -1 x16089 >= 0 ;
+2 x16306 +2 x16307 +2 x16308 -1 x16087 -1 x16088 -1 x16089 -1 x16090 -1 x16091 -1 x16092 >= 0 ;
+2 x16309 +2 x16310 +2 x16311 -1 x16090 -1 x16091 -1 x16092 -1 x16093 -1 x16094 -1 x16095 >= 0 ;
+2 x16312 +2 x16313 +2 x16314 -1 x16093 -1 x16094 -1 x16095 -1 x16096 -1 x16097 -1 x16098 >= 0 ;
+2 x16315 +2 x16316 +2 x16317 -1 x16096 -1 x16097 -1 x16098 -1 x16099 -1 x16100 -1 x16101 >= 0 ;
+2 x16318 +2 x16319 +2 x16320 -1 x16099 -1 x16100 -1 x16101 -1 x16102 -1 x16103 -1 x16104 >= 0 ;
+2 x16321 +2 x16322 +2 x16323 -1 x16102 -1 x16103 -1 x16104 -1 x16105 -1 x16106 -1 x16107 >= 0 ;
+2 x16324 +2 x16325 +2 x16326 -1 x16105 -1 x16106 -1 x16107 -1 x16108 -1 x16109 -1 x16110 >= 0 ;
+2 x16327 +2 x16328 +2 x16329 -1 x16108 -1 x16109 -1 x16110 -1 x16111 -1 x16112 -1 x16113 >= 0 ;
+2 x16330 +2 x16331 +2 x16332 -1 x16111 -1 x16112 -1 x16113 -1 x16114 -1 x16115 -1 x16116 >= 0 ;
+2 x16333 +2 x16334 +2 x16335 -1 x16114 -1 x16115 -1 x16116 -1 x16117 -1 x16118 -1 x16119 >= 0 ;
+2 x16336 +2 x16337 +2 x16338 -1 x16120 -1 x16121 -1 x16122 -1 x16123 -1 x16124 -1 x16125 >= 0 ;
+2 x16339 +2 x16340 +2 x16341 -1 x16123 -1 x16124 -1 x16125 -1 x16126 -1 x16127 -1 x16128 >= 0 ;
+2 x16342 +2 x16343 +2 x16344 -1 x16126 -1 x16127 -1 x16128 -1 x16129 -1 x16130 -1 x16131 >= 0 ;
+2 x16345 +2 x16346 +2 x16347 -1 x16129 -1 x16130 -1 x16131 -1 x16132 -1 x16133 -1 x16134 >= 0 ;
+2 x16348 +2 x16349 +2 x16350 -1 x16132 -1 x16133 -1 x16134 -1 x16135 -1 x16136 -1 x16137 >= 0 ;
+2 x16351 +2 x16352 +2 x16353 -1 x16135 -1 x16136 -1 x16137 -1 x16138 -1 x16139 -1 x16140 >= 0 ;
+2 x16354 +2 x16355 +2 x16356 -1 x16138 -1 x16139 -1 x16140 -1 x16141 -1 x16142 -1 x16143 >= 0 ;
+2 x16357 +2 x16358 +2 x16359 -1 x16141 -1 x16142 -1 x16143 -1 x16144 -1 x16145 -1 x16146 >= 0 ;
+2 x16360 +2 x16361 +2 x16362 -1 x16144 -1 x16145 -1 x16146 -1 x16147 -1 x16148 -1 x16149 >= 0 ;
+2 x16363 +2 x16364 +2 x16365 -1 x16147 -1 x16148 -1 x16149 -1 x16150 -1 x16151 -1 x16152 >= 0 ;
+2 x16366 +2 x16367 +2 x16368 -1 x16150 -1 x16151 -1 x16152 -1 x16153 -1 x16154 -1 x16155 >= 0 ;
+2 x16369 +2 x16370 +2 x16371 -1 x16153 -1 x16154 -1 x16155 -1 x16156 -1 x16157 -1 x16158 >= 0 ;
+2 x16372 +2 x16373 +2 x16374 -1 x16156 -1 x16157 -1 x16158 -1 x16159 -1 x16160 -1 x16161 >= 0 ;
+2 x16375 +2 x16376 +2 x16377 -1 x16159 -1 x16160 -1 x16161 -1 x16162 -1 x16163 -1 x16164 >= 0 ;
+2 x16378 +2 x16379 +2 x16380 -1 x16162 -1 x16163 -1 x16164 -1 x16165 -1 x16166 -1 x16167 >= 0 ;
+2 x16381 +2 x16382 +2 x16383 -1 x16165 -1 x16166 -1 x16167 -1 x16168 -1 x16169 -1 x16170 >= 0 ;
+2 x16384 +2 x16385 +2 x16386 -1 x16168 -1 x16169 -1 x16170 -1 x16171 -1 x16172 -1 x16173 >= 0 ;
+2 x16387 +2 x16388 +2 x16389 -1 x16171 -1 x16172 -1 x16173 -1 x16174 -1 x16175 -1 x16176 >= 0 ;
+2 x16390 +2 x16391 +2 x16392 -1 x16174 -1 x16175 -1 x16176 -1 x16177 -1 x16178 -1 x16179 >= 0 ;
+2 x16393 +2 x16394 +2 x16395 -1 x16177 -1 x16178 -1 x16179 -1 x16180 -1 x16181 -1 x16182 >= 0 ;
+2 x16396 +2 x16397 +2 x16398 -1 x16180 -1 x16181 -1 x16182 -1 x16183 -1 x16184 -1 x16185 >= 0 ;
+2 x16399 +2 x16400 +2 x16401 -1 x16183 -1 x16184 -1 x16185 -1 x16186 -1 x16187 -1 x16188 >= 0 ;
+2 x16402 +2 x16403 +2 x16404 -1 x16186 -1 x16187 -1 x16188 -1 x16189 -1 x16190 -1 x16191 >= 0 ;
+2 x16405 +2 x16406 +2 x16407 -1 x16189 -1 x16190 -1 x16191 -1 x16192 -1 x16193 -1 x16194 >= 0 ;
+2 x16408 +2 x16409 +2 x16410 -1 x16192 -1 x16193 -1 x16194 -1 x16195 -1 x16196 -1 x16197 >= 0 ;
+2 x16411 +2 x16412 +2 x16413 -1 x16195 -1 x16196 -1 x16197 -1 x16198 -1 x16199 -1 x16200 >= 0 ;
+2 x16414 +2 x16415 +2 x16416 -1 x16198 -1 x16199 -1 x16200 -1 x16201 -1 x16202 -1 x16203 >= 0 ;
+2 x16417 +2 x16418 +2 x16419 -1 x16201 -1 x16202 -1 x16203 -1 x16204 -1 x16205 -1 x16206 >= 0 ;
+2 x16420 +2 x16421 +2 x16422 -1 x16204 -1 x16205 -1 x16206 -1 x16207 -1 x16208 -1 x16209 >= 0 ;
+2 x16423 +2 x16424 +2 x16425 -1 x16207 -1 x16208 -1 x16209 -1 x16210 -1 x16211 -1 x16212 >= 0 ;
+2 x16426 +2 x16427 +2 x16428 -1 x16210 -1 x16211 -1 x16212 -1 x16213 -1 x16214 -1 x16215 >= 0 ;
+2 x16429 +2 x16430 +2 x16431 -1 x16213 -1 x16214 -1 x16215 -1 x16216 -1 x16217 -1 x16218 >= 0 ;
+2 x16432 +2 x16433 +2 x16434 -1 x16216 -1 x16217 -1 x16218 -1 x16219 -1 x16220 -1 x16221 >= 0 ;
+2 x16435 +2 x16436 +2 x16437 -1 x16219 -1 x16220 -1 x16221 -1 x16222 -1 x16223 -1 x16224 >= 0 ;
+2 x16438 +2 x16439 +2 x16440 -1 x16222 -1 x16223 -1 x16224 -1 x16225 -1 x16226 -1 x16227 >= 0 ;
+2 x16441 +2 x16442 +2 x16443 -1 x16225 -1 x16226 -1 x16227 -1 x16228 -1 x16229 -1 x16230 >= 0 ;
+2 x16444 +2 x16445 +2 x16446 -1 x16228 -1 x16229 -1 x16230 -1 x16231 -1 x16232 -1 x16233 >= 0 ;
+2 x16447 +2 x16448 +2 x16449 -1 x16231 -1 x16232 -1 x16233 -1 x16234 -1 x16235 -1 x16236 >= 0 ;
+2 x16450 +2 x16451 +2 x16452 -1 x16234 -1 x16235 -1 x16236 -1 x16237 -1 x16238 -1 x16239 >= 0 ;
+2 x16453 +2 x16454 +2 x16455 -1 x16237 -1 x16238 -1 x16239 -1 x16240 -1 x16241 -1 x16242 >= 0 ;
+2 x16456 +2 x16457 +2 x16458 -1 x16240 -1 x16241 -1 x16242 -1 x16243 -1 x16244 -1 x16245 >= 0 ;
+2 x16459 +2 x16460 +2 x16461 -1 x16243 -1 x16244 -1 x16245 -1 x16246 -1 x16247 -1 x16248 >= 0 ;
+2 x16462 +2 x16463 +2 x16464 -1 x16246 -1 x16247 -1 x16248 -1 x16249 -1 x16250 -1 x16251 >= 0 ;
+2 x16465 +2 x16466 +2 x16467 -1 x16249 -1 x16250 -1 x16251 -1 x16252 -1 x16253 -1 x16254 >= 0 ;
+2 x16468 +2 x16469 +2 x16470 -1 x16252 -1 x16253 -1 x16254 -1 x16255 -1 x16256 -1 x16257 >= 0 ;
+2 x16471 +2 x16472 +2 x16473 -1 x16255 -1 x16256 -1 x16257 -1 x16258 -1 x16259 -1 x16260 >= 0 ;
+2 x16474 +2 x16475 +2 x16476 -1 x16258 -1 x16259 -1 x16260 -1 x16261 -1 x16262 -1 x16263 >= 0 ;
+2 x16477 +2 x16478 +2 x16479 -1 x16261 -1 x16262 -1 x16263 -1 x16264 -1 x16265 -1 x16266 >= 0 ;
+2 x16480 +2 x16481 +2 x16482 -1 x16264 -1 x16265 -1 x16266 -1 x16267 -1 x16268 -1 x16269 >= 0 ;
+2 x16483 +2 x16484 +2 x16485 -1 x16267 -1 x16268 -1 x16269 -1 x16270 -1 x16271 -1 x16272 >= 0 ;
+2 x16486 +2 x16487 +2 x16488 -1 x16270 -1 x16271 -1 x16272 -1 x16273 -1 x16274 -1 x16275 >= 0 ;
+2 x16489 +2 x16490 +2 x16491 -1 x16273 -1 x16274 -1 x16275 -1 x16276 -1 x16277 -1 x16278 >= 0 ;
+2 x16492 +2 x16493 +2 x16494 -1 x16276 -1 x16277 -1 x16278 -1 x16279 -1 x16280 -1 x16281 >= 0 ;
+2 x16495 +2 x16496 +2 x16497 -1 x16279 -1 x16280 -1 x16281 -1 x16282 -1 x16283 -1 x16284 >= 0 ;
+2 x16498 +2 x16499 +2 x16500 -1 x16282 -1 x16283 -1 x16284 -1 x16285 -1 x16286 -1 x16287 >= 0 ;
+2 x16501 +2 x16502 +2 x16503 -1 x16285 -1 x16286 -1 x16287 -1 x16288 -1 x16289 -1 x16290 >= 0 ;
+2 x16504 +2 x16505 +2 x16506 -1 x16288 -1 x16289 -1 x16290 -1 x16291 -1 x16292 -1 x16293 >= 0 ;
+2 x16507 +2 x16508 +2 x16509 -1 x16291 -1 x16292 -1 x16293 -1 x16294 -1 x16295 -1 x16296 >= 0 ;
+2 x16510 +2 x16511 +2 x16512 -1 x16294 -1 x16295 -1 x16296 -1 x16297 -1 x16298 -1 x16299 >= 0 ;
+2 x16513 +2 x16514 +2 x16515 -1 x16297 -1 x16298 -1 x16299 -1 x16300 -1 x16301 -1 x16302 >= 0 ;
+2 x16516 +2 x16517 +2 x16518 -1 x16300 -1 x16301 -1 x16302 -1 x16303 -1 x16304 -1 x16305 >= 0 ;
+2 x16519 +2 x16520 +2 x16521 -1 x16303 -1 x16304 -1 x16305 -1 x16306 -1 x16307 -1 x16308 >= 0 ;
+2 x16522 +2 x16523 +2 x16524 -1 x16306 -1 x16307 -1 x16308 -1 x16309 -1 x16310 -1 x16311 >= 0 ;
+2 x16525 +2 x16526 +2 x16527 -1 x16309 -1 x16310 -1 x16311 -1 x16312 -1 x16313 -1 x16314 >= 0 ;
+2 x16528 +2 x16529 +2 x16530 -1 x16312 -1 x16313 -1 x16314 -1 x16315 -1 x16316 -1 x16317 >= 0 ;
+2 x16531 +2 x16532 +2 x16533 -1 x16315 -1 x16316 -1 x16317 -1 x16318 -1 x16319 -1 x16320 >= 0 ;
+2 x16534 +2 x16535 +2 x16536 -1 x16318 -1 x16319 -1 x16320 -1 x16321 -1 x16322 -1 x16323 >= 0 ;
+2 x16537 +2 x16538 +2 x16539 -1 x16321 -1 x16322 -1 x16323 -1 x16324 -1 x16325 -1 x16326 >= 0 ;
+2 x16540 +2 x16541 +2 x16542 -1 x16324 -1 x16325 -1 x16326 -1 x16327 -1 x16328 -1 x16329 >= 0 ;
+2 x16543 +2 x16544 +2 x16545 -1 x16327 -1 x16328 -1 x16329 -1 x16330 -1 x16331 -1 x16332 >= 0 ;
+2 x16546 +2 x16547 +2 x16548 -1 x16330 -1 x16331 -1 x16332 -1 x16333 -1 x16334 -1 x16335 >= 0 ;
+2 x16549 +2 x16550 +2 x16551 -1 x16336 -1 x16337 -1 x16338 -1 x16339 -1 x16340 -1 x16341 >= 0 ;
+2 x16552 +2 x16553 +2 x16554 -1 x16339 -1 x16340 -1 x16341 -1 x16342 -1 x16343 -1 x16344 >= 0 ;
+2 x16555 +2 x16556 +2 x16557 -1 x16342 -1 x16343 -1 x16344 -1 x16345 -1 x16346 -1 x16347 >= 0 ;
+2 x16558 +2 x16559 +2 x16560 -1 x16345 -1 x16346 -1 x16347 -1 x16348 -1 x16349 -1 x16350 >= 0 ;
+2 x16561 +2 x16562 +2 x16563 -1 x16348 -1 x16349 -1 x16350 -1 x16351 -1 x16352 -1 x16353 >= 0 ;
+2 x16564 +2 x16565 +2 x16566 -1 x16351 -1 x16352 -1 x16353 -1 x16354 -1 x16355 -1 x16356 >= 0 ;
+2 x16567 +2 x16568 +2 x16569 -1 x16354 -1 x16355 -1 x16356 -1 x16357 -1 x16358 -1 x16359 >= 0 ;
+2 x16570 +2 x16571 +2 x16572 -1 x16357 -1 x16358 -1 x16359 -1 x16360 -1 x16361 -1 x16362 >= 0 ;
+2 x16573 +2 x16574 +2 x16575 -1 x16360 -1 x16361 -1 x16362 -1 x16363 -1 x16364 -1 x16365 >= 0 ;
+2 x16576 +2 x16577 +2 x16578 -1 x16363 -1 x16364 -1 x16365 -1 x16366 -1 x16367 -1 x16368 >= 0 ;
+2 x16579 +2 x16580 +2 x16581 -1 x16366 -1 x16367 -1 x16368 -1 x16369 -1 x16370 -1 x16371 >= 0 ;
+2 x16582 +2 x16583 +2 x16584 -1 x16369 -1 x16370 -1 x16371 -1 x16372 -1 x16373 -1 x16374 >= 0 ;
+2 x16585 +2 x16586 +2 x16587 -1 x16372 -1 x16373 -1 x16374 -1 x16375 -1 x16376 -1 x16377 >= 0 ;
+2 x16588 +2 x16589 +2 x16590 -1 x16375 -1 x16376 -1 x16377 -1 x16378 -1 x16379 -1 x16380 >= 0 ;
+2 x16591 +2 x16592 +2 x16593 -1 x16378 -1 x16379 -1 x16380 -1 x16381 -1 x16382 -1 x16383 >= 0 ;
+2 x16594 +2 x16595 +2 x16596 -1 x16381 -1 x16382 -1 x16383 -1 x16384 -1 x16385 -1 x16386 >= 0 ;
+2 x16597 +2 x16598 +2 x16599 -1 x16384 -1 x16385 -1 x16386 -1 x16387 -1 x16388 -1 x16389 >= 0 ;
+2 x16600 +2 x16601 +2 x16602 -1 x16387 -1 x16388 -1 x16389 -1 x16390 -1 x16391 -1 x16392 >= 0 ;
+2 x16603 +2 x16604 +2 x16605 -1 x16390 -1 x16391 -1 x16392 -1 x16393 -1 x16394 -1 x16395 >= 0 ;
+2 x16606 +2 x16607 +2 x16608 -1 x16393 -1 x16394 -1 x16395 -1 x16396 -1 x16397 -1 x16398 >= 0 ;
+2 x16609 +2 x16610 +2 x16611 -1 x16396 -1 x16397 -1 x16398 -1 x16399 -1 x16400 -1 x16401 >= 0 ;
+2 x16612 +2 x16613 +2 x16614 -1 x16399 -1 x16400 -1 x16401 -1 x16402 -1 x16403 -1 x16404 >= 0 ;
+2 x16615 +2 x16616 +2 x16617 -1 x16402 -1 x16403 -1 x16404 -1 x16405 -1 x16406 -1 x16407 >= 0 ;
+2 x16618 +2 x16619 +2 x16620 -1 x16405 -1 x16406 -1 x16407 -1 x16408 -1 x16409 -1 x16410 >= 0 ;
+2 x16621 +2 x16622 +2 x16623 -1 x16408 -1 x16409 -1 x16410 -1 x16411 -1 x16412 -1 x16413 >= 0 ;
+2 x16624 +2 x16625 +2 x16626 -1 x16411 -1 x16412 -1 x16413 -1 x16414 -1 x16415 -1 x16416 >= 0 ;
+2 x16627 +2 x16628 +2 x16629 -1 x16414 -1 x16415 -1 x16416 -1 x16417 -1 x16418 -1 x16419 >= 0 ;
+2 x16630 +2 x16631 +2 x16632 -1 x16417 -1 x16418 -1 x16419 -1 x16420 -1 x16421 -1 x16422 >= 0 ;
+2 x16633 +2 x16634 +2 x16635 -1 x16420 -1 x16421 -1 x16422 -1 x16423 -1 x16424 -1 x16425 >= 0 ;
+2 x16636 +2 x16637 +2 x16638 -1 x16423 -1 x16424 -1 x16425 -1 x16426 -1 x16427 -1 x16428 >= 0 ;
+2 x16639 +2 x16640 +2 x16641 -1 x16426 -1 x16427 -1 x16428 -1 x16429 -1 x16430 -1 x16431 >= 0 ;
+2 x16642 +2 x16643 +2 x16644 -1 x16429 -1 x16430 -1 x16431 -1 x16432 -1 x16433 -1 x16434 >= 0 ;
+2 x16645 +2 x16646 +2 x16647 -1 x16432 -1 x16433 -1 x16434 -1 x16435 -1 x16436 -1 x16437 >= 0 ;
+2 x16648 +2 x16649 +2 x16650 -1 x16435 -1 x16436 -1 x16437 -1 x16438 -1 x16439 -1 x16440 >= 0 ;
+2 x16651 +2 x16652 +2 x16653 -1 x16438 -1 x16439 -1 x16440 -1 x16441 -1 x16442 -1 x16443 >= 0 ;
+2 x16654 +2 x16655 +2 x16656 -1 x16441 -1 x16442 -1 x16443 -1 x16444 -1 x16445 -1 x16446 >= 0 ;
+2 x16657 +2 x16658 +2 x16659 -1 x16444 -1 x16445 -1 x16446 -1 x16447 -1 x16448 -1 x16449 >= 0 ;
+2 x16660 +2 x16661 +2 x16662 -1 x16447 -1 x16448 -1 x16449 -1 x16450 -1 x16451 -1 x16452 >= 0 ;
+2 x16663 +2 x16664 +2 x16665 -1 x16450 -1 x16451 -1 x16452 -1 x16453 -1 x16454 -1 x16455 >= 0 ;
+2 x16666 +2 x16667 +2 x16668 -1 x16453 -1 x16454 -1 x16455 -1 x16456 -1 x16457 -1 x16458 >= 0 ;
+2 x16669 +2 x16670 +2 x16671 -1 x16456 -1 x16457 -1 x16458 -1 x16459 -1 x16460 -1 x16461 >= 0 ;
+2 x16672 +2 x16673 +2 x16674 -1 x16459 -1 x16460 -1 x16461 -1 x16462 -1 x16463 -1 x16464 >= 0 ;
+2 x16675 +2 x16676 +2 x16677 -1 x16462 -1 x16463 -1 x16464 -1 x16465 -1 x16466 -1 x16467 >= 0 ;
+2 x16678 +2 x16679 +2 x16680 -1 x16465 -1 x16466 -1 x16467 -1 x16468 -1 x16469 -1 x16470 >= 0 ;
+2 x16681 +2 x16682 +2 x16683 -1 x16468 -1 x16469 -1 x16470 -1 x16471 -1 x16472 -1 x16473 >= 0 ;
+2 x16684 +2 x16685 +2 x16686 -1 x16471 -1 x16472 -1 x16473 -1 x16474 -1 x16475 -1 x16476 >= 0 ;
+2 x16687 +2 x16688 +2 x16689 -1 x16474 -1 x16475 -1 x16476 -1 x16477 -1 x16478 -1 x16479 >= 0 ;
+2 x16690 +2 x16691 +2 x16692 -1 x16477 -1 x16478 -1 x16479 -1 x16480 -1 x16481 -1 x16482 >= 0 ;
+2 x16693 +2 x16694 +2 x16695 -1 x16480 -1 x16481 -1 x16482 -1 x16483 -1 x16484 -1 x16485 >= 0 ;
+2 x16696 +2 x16697 +2 x16698 -1 x16483 -1 x16484 -1 x16485 -1 x16486 -1 x16487 -1 x16488 >= 0 ;
+2 x16699 +2 x16700 +2 x16701 -1 x16486 -1 x16487 -1 x16488 -1 x16489 -1 x16490 -1 x16491 >= 0 ;
+2 x16702 +2 x16703 +2 x16704 -1 x16489 -1 x16490 -1 x16491 -1 x16492 -1 x16493 -1 x16494 >= 0 ;
+2 x16705 +2 x16706 +2 x16707 -1 x16492 -1 x16493 -1 x16494 -1 x16495 -1 x16496 -1 x16497 >= 0 ;
+2 x16708 +2 x16709 +2 x16710 -1 x16495 -1 x16496 -1 x16497 -1 x16498 -1 x16499 -1 x16500 >= 0 ;
+2 x16711 +2 x16712 +2 x16713 -1 x16498 -1 x16499 -1 x16500 -1 x16501 -1 x16502 -1 x16503 >= 0 ;
+2 x16714 +2 x16715 +2 x16716 -1 x16501 -1 x16502 -1 x16503 -1 x16504 -1 x16505 -1 x16506 >= 0 ;
+2 x16717 +2 x16718 +2 x16719 -1 x16504 -1 x16505 -1 x16506 -1 x16507 -1 x16508 -1 x16509 >= 0 ;
+2 x16720 +2 x16721 +2 x16722 -1 x16507 -1 x16508 -1 x16509 -1 x16510 -1 x16511 -1 x16512 >= 0 ;
+2 x16723 +2 x16724 +2 x16725 -1 x16510 -1 x16511 -1 x16512 -1 x16513 -1 x16514 -1 x16515 >= 0 ;
+2 x16726 +2 x16727 +2 x16728 -1 x16513 -1 x16514 -1 x16515 -1 x16516 -1 x16517 -1 x16518 >= 0 ;
+2 x16729 +2 x16730 +2 x16731 -1 x16516 -1 x16517 -1 x16518 -1 x16519 -1 x16520 -1 x16521 >= 0 ;
+2 x16732 +2 x16733 +2 x16734 -1 x16519 -1 x16520 -1 x16521 -1 x16522 -1 x16523 -1 x16524 >= 0 ;
+2 x16735 +2 x16736 +2 x16737 -1 x16522 -1 x16523 -1 x16524 -1 x16525 -1 x16526 -1 x16527 >= 0 ;
+2 x16738 +2 x16739 +2 x16740 -1 x16525 -1 x16526 -1 x16527 -1 x16528 -1 x16529 -1 x16530 >= 0 ;
+2 x16741 +2 x16742 +2 x16743 -1 x16528 -1 x16529 -1 x16530 -1 x16531 -1 x16532 -1 x16533 >= 0 ;
+2 x16744 +2 x16745 +2 x16746 -1 x16531 -1 x16532 -1 x16533 -1 x16534 -1 x16535 -1 x16536 >= 0 ;
+2 x16747 +2 x16748 +2 x16749 -1 x16534 -1 x16535 -1 x16536 -1 x16537 -1 x16538 -1 x16539 >= 0 ;
+2 x16750 +2 x16751 +2 x16752 -1 x16537 -1 x16538 -1 x16539 -1 x16540 -1 x16541 -1 x16542 >= 0 ;
+2 x16753 +2 x16754 +2 x16755 -1 x16540 -1 x16541 -1 x16542 -1 x16543 -1 x16544 -1 x16545 >= 0 ;
+2 x16756 +2 x16757 +2 x16758 -1 x16543 -1 x16544 -1 x16545 -1 x16546 -1 x16547 -1 x16548 >= 0 ;
+2 x16759 +2 x16760 +2 x16761 -1 x16549 -1 x16550 -1 x16551 -1 x16552 -1 x16553 -1 x16554 >= 0 ;
+2 x16762 +2 x16763 +2 x16764 -1 x16552 -1 x16553 -1 x16554 -1 x16555 -1 x16556 -1 x16557 >= 0 ;
+2 x16765 +2 x16766 +2 x16767 -1 x16555 -1 x16556 -1 x16557 -1 x16558 -1 x16559 -1 x16560 >= 0 ;
+2 x16768 +2 x16769 +2 x16770 -1 x16558 -1 x16559 -1 x16560 -1 x16561 -1 x16562 -1 x16563 >= 0 ;
+2 x16771 +2 x16772 +2 x16773 -1 x16561 -1 x16562 -1 x16563 -1 x16564 -1 x16565 -1 x16566 >= 0 ;
+2 x16774 +2 x16775 +2 x16776 -1 x16564 -1 x16565 -1 x16566 -1 x16567 -1 x16568 -1 x16569 >= 0 ;
+2 x16777 +2 x16778 +2 x16779 -1 x16567 -1 x16568 -1 x16569 -1 x16570 -1 x16571 -1 x16572 >= 0 ;
+2 x16780 +2 x16781 +2 x16782 -1 x16570 -1 x16571 -1 x16572 -1 x16573 -1 x16574 -1 x16575 >= 0 ;
+2 x16783 +2 x16784 +2 x16785 -1 x16573 -1 x16574 -1 x16575 -1 x16576 -1 x16577 -1 x16578 >= 0 ;
+2 x16786 +2 x16787 +2 x16788 -1 x16576 -1 x16577 -1 x16578 -1 x16579 -1 x16580 -1 x16581 >= 0 ;
+2 x16789 +2 x16790 +2 x16791 -1 x16579 -1 x16580 -1 x16581 -1 x16582 -1 x16583 -1 x16584 >= 0 ;
+2 x16792 +2 x16793 +2 x16794 -1 x16582 -1 x16583 -1 x16584 -1 x16585 -1 x16586 -1 x16587 >= 0 ;
+2 x16795 +2 x16796 +2 x16797 -1 x16585 -1 x16586 -1 x16587 -1 x16588 -1 x16589 -1 x16590 >= 0 ;
+2 x16798 +2 x16799 +2 x16800 -1 x16588 -1 x16589 -1 x16590 -1 x16591 -1 x16592 -1 x16593 >= 0 ;
+2 x16801 +2 x16802 +2 x16803 -1 x16591 -1 x16592 -1 x16593 -1 x16594 -1 x16595 -1 x16596 >= 0 ;
+2 x16804 +2 x16805 +2 x16806 -1 x16594 -1 x16595 -1 x16596 -1 x16597 -1 x16598 -1 x16599 >= 0 ;
+2 x16807 +2 x16808 +2 x16809 -1 x16597 -1 x16598 -1 x16599 -1 x16600 -1 x16601 -1 x16602 >= 0 ;
+2 x16810 +2 x16811 +2 x16812 -1 x16600 -1 x16601 -1 x16602 -1 x16603 -1 x16604 -1 x16605 >= 0 ;
+2 x16813 +2 x16814 +2 x16815 -1 x16603 -1 x16604 -1 x16605 -1 x16606 -1 x16607 -1 x16608 >= 0 ;
+2 x16816 +2 x16817 +2 x16818 -1 x16606 -1 x16607 -1 x16608 -1 x16609 -1 x16610 -1 x16611 >= 0 ;
+2 x16819 +2 x16820 +2 x16821 -1 x16609 -1 x16610 -1 x16611 -1 x16612 -1 x16613 -1 x16614 >= 0 ;
+2 x16822 +2 x16823 +2 x16824 -1 x16612 -1 x16613 -1 x16614 -1 x16615 -1 x16616 -1 x16617 >= 0 ;
+2 x16825 +2 x16826 +2 x16827 -1 x16615 -1 x16616 -1 x16617 -1 x16618 -1 x16619 -1 x16620 >= 0 ;
+2 x16828 +2 x16829 +2 x16830 -1 x16618 -1 x16619 -1 x16620 -1 x16621 -1 x16622 -1 x16623 >= 0 ;
+2 x16831 +2 x16832 +2 x16833 -1 x16621 -1 x16622 -1 x16623 -1 x16624 -1 x16625 -1 x16626 >= 0 ;
+2 x16834 +2 x16835 +2 x16836 -1 x16624 -1 x16625 -1 x16626 -1 x16627 -1 x16628 -1 x16629 >= 0 ;
+2 x16837 +2 x16838 +2 x16839 -1 x16627 -1 x16628 -1 x16629 -1 x16630 -1 x16631 -1 x16632 >= 0 ;
+2 x16840 +2 x16841 +2 x16842 -1 x16630 -1 x16631 -1 x16632 -1 x16633 -1 x16634 -1 x16635 >= 0 ;
+2 x16843 +2 x16844 +2 x16845 -1 x16633 -1 x16634 -1 x16635 -1 x16636 -1 x16637 -1 x16638 >= 0 ;
+2 x16846 +2 x16847 +2 x16848 -1 x16636 -1 x16637 -1 x16638 -1 x16639 -1 x16640 -1 x16641 >= 0 ;
+2 x16849 +2 x16850 +2 x16851 -1 x16639 -1 x16640 -1 x16641 -1 x16642 -1 x16643 -1 x16644 >= 0 ;
+2 x16852 +2 x16853 +2 x16854 -1 x16642 -1 x16643 -1 x16644 -1 x16645 -1 x16646 -1 x16647 >= 0 ;
+2 x16855 +2 x16856 +2 x16857 -1 x16645 -1 x16646 -1 x16647 -1 x16648 -1 x16649 -1 x16650 >= 0 ;
+2 x16858 +2 x16859 +2 x16860 -1 x16648 -1 x16649 -1 x16650 -1 x16651 -1 x16652 -1 x16653 >= 0 ;
+2 x16861 +2 x16862 +2 x16863 -1 x16651 -1 x16652 -1 x16653 -1 x16654 -1 x16655 -1 x16656 >= 0 ;
+2 x16864 +2 x16865 +2 x16866 -1 x16654 -1 x16655 -1 x16656 -1 x16657 -1 x16658 -1 x16659 >= 0 ;
+2 x16867 +2 x16868 +2 x16869 -1 x16657 -1 x16658 -1 x16659 -1 x16660 -1 x16661 -1 x16662 >= 0 ;
+2 x16870 +2 x16871 +2 x16872 -1 x16660 -1 x16661 -1 x16662 -1 x16663 -1 x16664 -1 x16665 >= 0 ;
+2 x16873 +2 x16874 +2 x16875 -1 x16663 -1 x16664 -1 x16665 -1 x16666 -1 x16667 -1 x16668 >= 0 ;
+2 x16876 +2 x16877 +2 x16878 -1 x16666 -1 x16667 -1 x16668 -1 x16669 -1 x16670 -1 x16671 >= 0 ;
+2 x16879 +2 x16880 +2 x16881 -1 x16669 -1 x16670 -1 x16671 -1 x16672 -1 x16673 -1 x16674 >= 0 ;
+2 x16882 +2 x16883 +2 x16884 -1 x16672 -1 x16673 -1 x16674 -1 x16675 -1 x16676 -1 x16677 >= 0 ;
+2 x16885 +2 x16886 +2 x16887 -1 x16675 -1 x16676 -1 x16677 -1 x16678 -1 x16679 -1 x16680 >= 0 ;
+2 x16888 +2 x16889 +2 x16890 -1 x16678 -1 x16679 -1 x16680 -1 x16681 -1 x16682 -1 x16683 >= 0 ;
+2 x16891 +2 x16892 +2 x16893 -1 x16681 -1 x16682 -1 x16683 -1 x16684 -1 x16685 -1 x16686 >= 0 ;
+2 x16894 +2 x16895 +2 x16896 -1 x16684 -1 x16685 -1 x16686 -1 x16687 -1 x16688 -1 x16689 >= 0 ;
+2 x16897 +2 x16898 +2 x16899 -1 x16687 -1 x16688 -1 x16689 -1 x16690 -1 x16691 -1 x16692 >= 0 ;
+2 x16900 +2 x16901 +2 x16902 -1 x16690 -1 x16691 -1 x16692 -1 x16693 -1 x16694 -1 x16695 >= 0 ;
+2 x16903 +2 x16904 +2 x16905 -1 x16693 -1 x16694 -1 x16695 -1 x16696 -1 x16697 -1 x16698 >= 0 ;
+2 x16906 +2 x16907 +2 x16908 -1 x16696 -1 x16697 -1 x16698 -1 x16699 -1 x16700 -1 x16701 >= 0 ;
+2 x16909 +2 x16910 +2 x16911 -1 x16699 -1 x16700 -1 x16701 -1 x16702 -1 x16703 -1 x16704 >= 0 ;
+2 x16912 +2 x16913 +2 x16914 -1 x16702 -1 x16703 -1 x16704 -1 x16705 -1 x16706 -1 x16707 >= 0 ;
+2 x16915 +2 x16916 +2 x16917 -1 x16705 -1 x16706 -1 x16707 -1 x16708 -1 x16709 -1 x16710 >= 0 ;
+2 x16918 +2 x16919 +2 x16920 -1 x16708 -1 x16709 -1 x16710 -1 x16711 -1 x16712 -1 x16713 >= 0 ;
+2 x16921 +2 x16922 +2 x16923 -1 x16711 -1 x16712 -1 x16713 -1 x16714 -1 x16715 -1 x16716 >= 0 ;
+2 x16924 +2 x16925 +2 x16926 -1 x16714 -1 x16715 -1 x16716 -1 x16717 -1 x16718 -1 x16719 >= 0 ;
+2 x16927 +2 x16928 +2 x16929 -1 x16717 -1 x16718 -1 x16719 -1 x16720 -1 x16721 -1 x16722 >= 0 ;
+2 x16930 +2 x16931 +2 x16932 -1 x16720 -1 x16721 -1 x16722 -1 x16723 -1 x16724 -1 x16725 >= 0 ;
+2 x16933 +2 x16934 +2 x16935 -1 x16723 -1 x16724 -1 x16725 -1 x16726 -1 x16727 -1 x16728 >= 0 ;
+2 x16936 +2 x16937 +2 x16938 -1 x16726 -1 x16727 -1 x16728 -1 x16729 -1 x16730 -1 x16731 >= 0 ;
+2 x16939 +2 x16940 +2 x16941 -1 x16729 -1 x16730 -1 x16731 -1 x16732 -1 x16733 -1 x16734 >= 0 ;
+2 x16942 +2 x16943 +2 x16944 -1 x16732 -1 x16733 -1 x16734 -1 x16735 -1 x16736 -1 x16737 >= 0 ;
+2 x16945 +2 x16946 +2 x16947 -1 x16735 -1 x16736 -1 x16737 -1 x16738 -1 x16739 -1 x16740 >= 0 ;
+2 x16948 +2 x16949 +2 x16950 -1 x16738 -1 x16739 -1 x16740 -1 x16741 -1 x16742 -1 x16743 >= 0 ;
+2 x16951 +2 x16952 +2 x16953 -1 x16741 -1 x16742 -1 x16743 -1 x16744 -1 x16745 -1 x16746 >= 0 ;
+2 x16954 +2 x16955 +2 x16956 -1 x16744 -1 x16745 -1 x16746 -1 x16747 -1 x16748 -1 x16749 >= 0 ;
+2 x16957 +2 x16958 +2 x16959 -1 x16747 -1 x16748 -1 x16749 -1 x16750 -1 x16751 -1 x16752 >= 0 ;
+2 x16960 +2 x16961 +2 x16962 -1 x16750 -1 x16751 -1 x16752 -1 x16753 -1 x16754 -1 x16755 >= 0 ;
+2 x16963 +2 x16964 +2 x16965 -1 x16753 -1 x16754 -1 x16755 -1 x16756 -1 x16757 -1 x16758 >= 0 ;
+2 x16966 +2 x16967 +2 x16968 -1 x16759 -1 x16760 -1 x16761 -1 x16762 -1 x16763 -1 x16764 >= 0 ;
+2 x16969 +2 x16970 +2 x16971 -1 x16762 -1 x16763 -1 x16764 -1 x16765 -1 x16766 -1 x16767 >= 0 ;
+2 x16972 +2 x16973 +2 x16974 -1 x16765 -1 x16766 -1 x16767 -1 x16768 -1 x16769 -1 x16770 >= 0 ;
+2 x16975 +2 x16976 +2 x16977 -1 x16768 -1 x16769 -1 x16770 -1 x16771 -1 x16772 -1 x16773 >= 0 ;
+2 x16978 +2 x16979 +2 x16980 -1 x16771 -1 x16772 -1 x16773 -1 x16774 -1 x16775 -1 x16776 >= 0 ;
+2 x16981 +2 x16982 +2 x16983 -1 x16774 -1 x16775 -1 x16776 -1 x16777 -1 x16778 -1 x16779 >= 0 ;
+2 x16984 +2 x16985 +2 x16986 -1 x16777 -1 x16778 -1 x16779 -1 x16780 -1 x16781 -1 x16782 >= 0 ;
+2 x16987 +2 x16988 +2 x16989 -1 x16780 -1 x16781 -1 x16782 -1 x16783 -1 x16784 -1 x16785 >= 0 ;
+2 x16990 +2 x16991 +2 x16992 -1 x16783 -1 x16784 -1 x16785 -1 x16786 -1 x16787 -1 x16788 >= 0 ;
+2 x16993 +2 x16994 +2 x16995 -1 x16786 -1 x16787 -1 x16788 -1 x16789 -1 x16790 -1 x16791 >= 0 ;
+2 x16996 +2 x16997 +2 x16998 -1 x16789 -1 x16790 -1 x16791 -1 x16792 -1 x16793 -1 x16794 >= 0 ;
+2 x16999 +2 x17000 +2 x17001 -1 x16792 -1 x16793 -1 x16794 -1 x16795 -1 x16796 -1 x16797 >= 0 ;
+2 x17002 +2 x17003 +2 x17004 -1 x16795 -1 x16796 -1 x16797 -1 x16798 -1 x16799 -1 x16800 >= 0 ;
+2 x17005 +2 x17006 +2 x17007 -1 x16798 -1 x16799 -1 x16800 -1 x16801 -1 x16802 -1 x16803 >= 0 ;
+2 x17008 +2 x17009 +2 x17010 -1 x16801 -1 x16802 -1 x16803 -1 x16804 -1 x16805 -1 x16806 >= 0 ;
+2 x17011 +2 x17012 +2 x17013 -1 x16804 -1 x16805 -1 x16806 -1 x16807 -1 x16808 -1 x16809 >= 0 ;
+2 x17014 +2 x17015 +2 x17016 -1 x16807 -1 x16808 -1 x16809 -1 x16810 -1 x16811 -1 x16812 >= 0 ;
+2 x17017 +2 x17018 +2 x17019 -1 x16810 -1 x16811 -1 x16812 -1 x16813 -1 x16814 -1 x16815 >= 0 ;
+2 x17020 +2 x17021 +2 x17022 -1 x16813 -1 x16814 -1 x16815 -1 x16816 -1 x16817 -1 x16818 >= 0 ;
+2 x17023 +2 x17024 +2 x17025 -1 x16816 -1 x16817 -1 x16818 -1 x16819 -1 x16820 -1 x16821 >= 0 ;
+2 x17026 +2 x17027 +2 x17028 -1 x16819 -1 x16820 -1 x16821 -1 x16822 -1 x16823 -1 x16824 >= 0 ;
+2 x17029 +2 x17030 +2 x17031 -1 x16822 -1 x16823 -1 x16824 -1 x16825 -1 x16826 -1 x16827 >= 0 ;
+2 x17032 +2 x17033 +2 x17034 -1 x16825 -1 x16826 -1 x16827 -1 x16828 -1 x16829 -1 x16830 >= 0 ;
+2 x17035 +2 x17036 +2 x17037 -1 x16828 -1 x16829 -1 x16830 -1 x16831 -1 x16832 -1 x16833 >= 0 ;
+2 x17038 +2 x17039 +2 x17040 -1 x16831 -1 x16832 -1 x16833 -1 x16834 -1 x16835 -1 x16836 >= 0 ;
+2 x17041 +2 x17042 +2 x17043 -1 x16834 -1 x16835 -1 x16836 -1 x16837 -1 x16838 -1 x16839 >= 0 ;
+2 x17044 +2 x17045 +2 x17046 -1 x16837 -1 x16838 -1 x16839 -1 x16840 -1 x16841 -1 x16842 >= 0 ;
+2 x17047 +2 x17048 +2 x17049 -1 x16840 -1 x16841 -1 x16842 -1 x16843 -1 x16844 -1 x16845 >= 0 ;
+2 x17050 +2 x17051 +2 x17052 -1 x16843 -1 x16844 -1 x16845 -1 x16846 -1 x16847 -1 x16848 >= 0 ;
+2 x17053 +2 x17054 +2 x17055 -1 x16846 -1 x16847 -1 x16848 -1 x16849 -1 x16850 -1 x16851 >= 0 ;
+2 x17056 +2 x17057 +2 x17058 -1 x16849 -1 x16850 -1 x16851 -1 x16852 -1 x16853 -1 x16854 >= 0 ;
+2 x17059 +2 x17060 +2 x17061 -1 x16852 -1 x16853 -1 x16854 -1 x16855 -1 x16856 -1 x16857 >= 0 ;
+2 x17062 +2 x17063 +2 x17064 -1 x16855 -1 x16856 -1 x16857 -1 x16858 -1 x16859 -1 x16860 >= 0 ;
+2 x17065 +2 x17066 +2 x17067 -1 x16858 -1 x16859 -1 x16860 -1 x16861 -1 x16862 -1 x16863 >= 0 ;
+2 x17068 +2 x17069 +2 x17070 -1 x16861 -1 x16862 -1 x16863 -1 x16864 -1 x16865 -1 x16866 >= 0 ;
+2 x17071 +2 x17072 +2 x17073 -1 x16864 -1 x16865 -1 x16866 -1 x16867 -1 x16868 -1 x16869 >= 0 ;
+2 x17074 +2 x17075 +2 x17076 -1 x16867 -1 x16868 -1 x16869 -1 x16870 -1 x16871 -1 x16872 >= 0 ;
+2 x17077 +2 x17078 +2 x17079 -1 x16870 -1 x16871 -1 x16872 -1 x16873 -1 x16874 -1 x16875 >= 0 ;
+2 x17080 +2 x17081 +2 x17082 -1 x16873 -1 x16874 -1 x16875 -1 x16876 -1 x16877 -1 x16878 >= 0 ;
+2 x17083 +2 x17084 +2 x17085 -1 x16876 -1 x16877 -1 x16878 -1 x16879 -1 x16880 -1 x16881 >= 0 ;
+2 x17086 +2 x17087 +2 x17088 -1 x16879 -1 x16880 -1 x16881 -1 x16882 -1 x16883 -1 x16884 >= 0 ;
+2 x17089 +2 x17090 +2 x17091 -1 x16882 -1 x16883 -1 x16884 -1 x16885 -1 x16886 -1 x16887 >= 0 ;
+2 x17092 +2 x17093 +2 x17094 -1 x16885 -1 x16886 -1 x16887 -1 x16888 -1 x16889 -1 x16890 >= 0 ;
+2 x17095 +2 x17096 +2 x17097 -1 x16888 -1 x16889 -1 x16890 -1 x16891 -1 x16892 -1 x16893 >= 0 ;
+2 x17098 +2 x17099 +2 x17100 -1 x16891 -1 x16892 -1 x16893 -1 x16894 -1 x16895 -1 x16896 >= 0 ;
+2 x17101 +2 x17102 +2 x17103 -1 x16894 -1 x16895 -1 x16896 -1 x16897 -1 x16898 -1 x16899 >= 0 ;
+2 x17104 +2 x17105 +2 x17106 -1 x16897 -1 x16898 -1 x16899 -1 x16900 -1 x16901 -1 x16902 >= 0 ;
+2 x17107 +2 x17108 +2 x17109 -1 x16900 -1 x16901 -1 x16902 -1 x16903 -1 x16904 -1 x16905 >= 0 ;
+2 x17110 +2 x17111 +2 x17112 -1 x16903 -1 x16904 -1 x16905 -1 x16906 -1 x16907 -1 x16908 >= 0 ;
+2 x17113 +2 x17114 +2 x17115 -1 x16906 -1 x16907 -1 x16908 -1 x16909 -1 x16910 -1 x16911 >= 0 ;
+2 x17116 +2 x17117 +2 x17118 -1 x16909 -1 x16910 -1 x16911 -1 x16912 -1 x16913 -1 x16914 >= 0 ;
+2 x17119 +2 x17120 +2 x17121 -1 x16912 -1 x16913 -1 x16914 -1 x16915 -1 x16916 -1 x16917 >= 0 ;
+2 x17122 +2 x17123 +2 x17124 -1 x16915 -1 x16916 -1 x16917 -1 x16918 -1 x16919 -1 x16920 >= 0 ;
+2 x17125 +2 x17126 +2 x17127 -1 x16918 -1 x16919 -1 x16920 -1 x16921 -1 x16922 -1 x16923 >= 0 ;
+2 x17128 +2 x17129 +2 x17130 -1 x16921 -1 x16922 -1 x16923 -1 x16924 -1 x16925 -1 x16926 >= 0 ;
+2 x17131 +2 x17132 +2 x17133 -1 x16924 -1 x16925 -1 x16926 -1 x16927 -1 x16928 -1 x16929 >= 0 ;
+2 x17134 +2 x17135 +2 x17136 -1 x16927 -1 x16928 -1 x16929 -1 x16930 -1 x16931 -1 x16932 >= 0 ;
+2 x17137 +2 x17138 +2 x17139 -1 x16930 -1 x16931 -1 x16932 -1 x16933 -1 x16934 -1 x16935 >= 0 ;
+2 x17140 +2 x17141 +2 x17142 -1 x16933 -1 x16934 -1 x16935 -1 x16936 -1 x16937 -1 x16938 >= 0 ;
+2 x17143 +2 x17144 +2 x17145 -1 x16936 -1 x16937 -1 x16938 -1 x16939 -1 x16940 -1 x16941 >= 0 ;
+2 x17146 +2 x17147 +2 x17148 -1 x16939 -1 x16940 -1 x16941 -1 x16942 -1 x16943 -1 x16944 >= 0 ;
+2 x17149 +2 x17150 +2 x17151 -1 x16942 -1 x16943 -1 x16944 -1 x16945 -1 x16946 -1 x16947 >= 0 ;
+2 x17152 +2 x17153 +2 x17154 -1 x16945 -1 x16946 -1 x16947 -1 x16948 -1 x16949 -1 x16950 >= 0 ;
+2 x17155 +2 x17156 +2 x17157 -1 x16948 -1 x16949 -1 x16950 -1 x16951 -1 x16952 -1 x16953 >= 0 ;
+2 x17158 +2 x17159 +2 x17160 -1 x16951 -1 x16952 -1 x16953 -1 x16954 -1 x16955 -1 x16956 >= 0 ;
+2 x17161 +2 x17162 +2 x17163 -1 x16954 -1 x16955 -1 x16956 -1 x16957 -1 x16958 -1 x16959 >= 0 ;
+2 x17164 +2 x17165 +2 x17166 -1 x16957 -1 x16958 -1 x16959 -1 x16960 -1 x16961 -1 x16962 >= 0 ;
+2 x17167 +2 x17168 +2 x17169 -1 x16960 -1 x16961 -1 x16962 -1 x16963 -1 x16964 -1 x16965 >= 0 ;
+2 x17170 +2 x17171 +2 x17172 -1 x16966 -1 x16967 -1 x16968 -1 x16969 -1 x16970 -1 x16971 >= 0 ;
+2 x17173 +2 x17174 +2 x17175 -1 x16969 -1 x16970 -1 x16971 -1 x16972 -1 x16973 -1 x16974 >= 0 ;
+2 x17176 +2 x17177 +2 x17178 -1 x16972 -1 x16973 -1 x16974 -1 x16975 -1 x16976 -1 x16977 >= 0 ;
+2 x17179 +2 x17180 +2 x17181 -1 x16975 -1 x16976 -1 x16977 -1 x16978 -1 x16979 -1 x16980 >= 0 ;
+2 x17182 +2 x17183 +2 x17184 -1 x16978 -1 x16979 -1 x16980 -1 x16981 -1 x16982 -1 x16983 >= 0 ;
+2 x17185 +2 x17186 +2 x17187 -1 x16981 -1 x16982 -1 x16983 -1 x16984 -1 x16985 -1 x16986 >= 0 ;
+2 x17188 +2 x17189 +2 x17190 -1 x16984 -1 x16985 -1 x16986 -1 x16987 -1 x16988 -1 x16989 >= 0 ;
+2 x17191 +2 x17192 +2 x17193 -1 x16987 -1 x16988 -1 x16989 -1 x16990 -1 x16991 -1 x16992 >= 0 ;
+2 x17194 +2 x17195 +2 x17196 -1 x16990 -1 x16991 -1 x16992 -1 x16993 -1 x16994 -1 x16995 >= 0 ;
+2 x17197 +2 x17198 +2 x17199 -1 x16993 -1 x16994 -1 x16995 -1 x16996 -1 x16997 -1 x16998 >= 0 ;
+2 x17200 +2 x17201 +2 x17202 -1 x16996 -1 x16997 -1 x16998 -1 x16999 -1 x17000 -1 x17001 >= 0 ;
+2 x17203 +2 x17204 +2 x17205 -1 x16999 -1 x17000 -1 x17001 -1 x17002 -1 x17003 -1 x17004 >= 0 ;
+2 x17206 +2 x17207 +2 x17208 -1 x17002 -1 x17003 -1 x17004 -1 x17005 -1 x17006 -1 x17007 >= 0 ;
+2 x17209 +2 x17210 +2 x17211 -1 x17005 -1 x17006 -1 x17007 -1 x17008 -1 x17009 -1 x17010 >= 0 ;
+2 x17212 +2 x17213 +2 x17214 -1 x17008 -1 x17009 -1 x17010 -1 x17011 -1 x17012 -1 x17013 >= 0 ;
+2 x17215 +2 x17216 +2 x17217 -1 x17011 -1 x17012 -1 x17013 -1 x17014 -1 x17015 -1 x17016 >= 0 ;
+2 x17218 +2 x17219 +2 x17220 -1 x17014 -1 x17015 -1 x17016 -1 x17017 -1 x17018 -1 x17019 >= 0 ;
+2 x17221 +2 x17222 +2 x17223 -1 x17017 -1 x17018 -1 x17019 -1 x17020 -1 x17021 -1 x17022 >= 0 ;
+2 x17224 +2 x17225 +2 x17226 -1 x17020 -1 x17021 -1 x17022 -1 x17023 -1 x17024 -1 x17025 >= 0 ;
+2 x17227 +2 x17228 +2 x17229 -1 x17023 -1 x17024 -1 x17025 -1 x17026 -1 x17027 -1 x17028 >= 0 ;
+2 x17230 +2 x17231 +2 x17232 -1 x17026 -1 x17027 -1 x17028 -1 x17029 -1 x17030 -1 x17031 >= 0 ;
+2 x17233 +2 x17234 +2 x17235 -1 x17029 -1 x17030 -1 x17031 -1 x17032 -1 x17033 -1 x17034 >= 0 ;
+2 x17236 +2 x17237 +2 x17238 -1 x17032 -1 x17033 -1 x17034 -1 x17035 -1 x17036 -1 x17037 >= 0 ;
+2 x17239 +2 x17240 +2 x17241 -1 x17035 -1 x17036 -1 x17037 -1 x17038 -1 x17039 -1 x17040 >= 0 ;
+2 x17242 +2 x17243 +2 x17244 -1 x17038 -1 x17039 -1 x17040 -1 x17041 -1 x17042 -1 x17043 >= 0 ;
+2 x17245 +2 x17246 +2 x17247 -1 x17041 -1 x17042 -1 x17043 -1 x17044 -1 x17045 -1 x17046 >= 0 ;
+2 x17248 +2 x17249 +2 x17250 -1 x17044 -1 x17045 -1 x17046 -1 x17047 -1 x17048 -1 x17049 >= 0 ;
+2 x17251 +2 x17252 +2 x17253 -1 x17047 -1 x17048 -1 x17049 -1 x17050 -1 x17051 -1 x17052 >= 0 ;
+2 x17254 +2 x17255 +2 x17256 -1 x17050 -1 x17051 -1 x17052 -1 x17053 -1 x17054 -1 x17055 >= 0 ;
+2 x17257 +2 x17258 +2 x17259 -1 x17053 -1 x17054 -1 x17055 -1 x17056 -1 x17057 -1 x17058 >= 0 ;
+2 x17260 +2 x17261 +2 x17262 -1 x17056 -1 x17057 -1 x17058 -1 x17059 -1 x17060 -1 x17061 >= 0 ;
+2 x17263 +2 x17264 +2 x17265 -1 x17059 -1 x17060 -1 x17061 -1 x17062 -1 x17063 -1 x17064 >= 0 ;
+2 x17266 +2 x17267 +2 x17268 -1 x17062 -1 x17063 -1 x17064 -1 x17065 -1 x17066 -1 x17067 >= 0 ;
+2 x17269 +2 x17270 +2 x17271 -1 x17065 -1 x17066 -1 x17067 -1 x17068 -1 x17069 -1 x17070 >= 0 ;
+2 x17272 +2 x17273 +2 x17274 -1 x17068 -1 x17069 -1 x17070 -1 x17071 -1 x17072 -1 x17073 >= 0 ;
+2 x17275 +2 x17276 +2 x17277 -1 x17071 -1 x17072 -1 x17073 -1 x17074 -1 x17075 -1 x17076 >= 0 ;
+2 x17278 +2 x17279 +2 x17280 -1 x17074 -1 x17075 -1 x17076 -1 x17077 -1 x17078 -1 x17079 >= 0 ;
+2 x17281 +2 x17282 +2 x17283 -1 x17077 -1 x17078 -1 x17079 -1 x17080 -1 x17081 -1 x17082 >= 0 ;
+2 x17284 +2 x17285 +2 x17286 -1 x17080 -1 x17081 -1 x17082 -1 x17083 -1 x17084 -1 x17085 >= 0 ;
+2 x17287 +2 x17288 +2 x17289 -1 x17083 -1 x17084 -1 x17085 -1 x17086 -1 x17087 -1 x17088 >= 0 ;
+2 x17290 +2 x17291 +2 x17292 -1 x17086 -1 x17087 -1 x17088 -1 x17089 -1 x17090 -1 x17091 >= 0 ;
+2 x17293 +2 x17294 +2 x17295 -1 x17089 -1 x17090 -1 x17091 -1 x17092 -1 x17093 -1 x17094 >= 0 ;
+2 x17296 +2 x17297 +2 x17298 -1 x17092 -1 x17093 -1 x17094 -1 x17095 -1 x17096 -1 x17097 >= 0 ;
+2 x17299 +2 x17300 +2 x17301 -1 x17095 -1 x17096 -1 x17097 -1 x17098 -1 x17099 -1 x17100 >= 0 ;
+2 x17302 +2 x17303 +2 x17304 -1 x17098 -1 x17099 -1 x17100 -1 x17101 -1 x17102 -1 x17103 >= 0 ;
+2 x17305 +2 x17306 +2 x17307 -1 x17101 -1 x17102 -1 x17103 -1 x17104 -1 x17105 -1 x17106 >= 0 ;
+2 x17308 +2 x17309 +2 x17310 -1 x17104 -1 x17105 -1 x17106 -1 x17107 -1 x17108 -1 x17109 >= 0 ;
+2 x17311 +2 x17312 +2 x17313 -1 x17107 -1 x17108 -1 x17109 -1 x17110 -1 x17111 -1 x17112 >= 0 ;
+2 x17314 +2 x17315 +2 x17316 -1 x17110 -1 x17111 -1 x17112 -1 x17113 -1 x17114 -1 x17115 >= 0 ;
+2 x17317 +2 x17318 +2 x17319 -1 x17113 -1 x17114 -1 x17115 -1 x17116 -1 x17117 -1 x17118 >= 0 ;
+2 x17320 +2 x17321 +2 x17322 -1 x17116 -1 x17117 -1 x17118 -1 x17119 -1 x17120 -1 x17121 >= 0 ;
+2 x17323 +2 x17324 +2 x17325 -1 x17119 -1 x17120 -1 x17121 -1 x17122 -1 x17123 -1 x17124 >= 0 ;
+2 x17326 +2 x17327 +2 x17328 -1 x17122 -1 x17123 -1 x17124 -1 x17125 -1 x17126 -1 x17127 >= 0 ;
+2 x17329 +2 x17330 +2 x17331 -1 x17125 -1 x17126 -1 x17127 -1 x17128 -1 x17129 -1 x17130 >= 0 ;
+2 x17332 +2 x17333 +2 x17334 -1 x17128 -1 x17129 -1 x17130 -1 x17131 -1 x17132 -1 x17133 >= 0 ;
+2 x17335 +2 x17336 +2 x17337 -1 x17131 -1 x17132 -1 x17133 -1 x17134 -1 x17135 -1 x17136 >= 0 ;
+2 x17338 +2 x17339 +2 x17340 -1 x17134 -1 x17135 -1 x17136 -1 x17137 -1 x17138 -1 x17139 >= 0 ;
+2 x17341 +2 x17342 +2 x17343 -1 x17137 -1 x17138 -1 x17139 -1 x17140 -1 x17141 -1 x17142 >= 0 ;
+2 x17344 +2 x17345 +2 x17346 -1 x17140 -1 x17141 -1 x17142 -1 x17143 -1 x17144 -1 x17145 >= 0 ;
+2 x17347 +2 x17348 +2 x17349 -1 x17143 -1 x17144 -1 x17145 -1 x17146 -1 x17147 -1 x17148 >= 0 ;
+2 x17350 +2 x17351 +2 x17352 -1 x17146 -1 x17147 -1 x17148 -1 x17149 -1 x17150 -1 x17151 >= 0 ;
+2 x17353 +2 x17354 +2 x17355 -1 x17149 -1 x17150 -1 x17151 -1 x17152 -1 x17153 -1 x17154 >= 0 ;
+2 x17356 +2 x17357 +2 x17358 -1 x17152 -1 x17153 -1 x17154 -1 x17155 -1 x17156 -1 x17157 >= 0 ;
+2 x17359 +2 x17360 +2 x17361 -1 x17155 -1 x17156 -1 x17157 -1 x17158 -1 x17159 -1 x17160 >= 0 ;
+2 x17362 +2 x17363 +2 x17364 -1 x17158 -1 x17159 -1 x17160 -1 x17161 -1 x17162 -1 x17163 >= 0 ;
+2 x17365 +2 x17366 +2 x17367 -1 x17161 -1 x17162 -1 x17163 -1 x17164 -1 x17165 -1 x17166 >= 0 ;
+2 x17368 +2 x17369 +2 x17370 -1 x17164 -1 x17165 -1 x17166 -1 x17167 -1 x17168 -1 x17169 >= 0 ;
+2 x17371 +2 x17372 +2 x17373 -1 x17170 -1 x17171 -1 x17172 -1 x17173 -1 x17174 -1 x17175 >= 0 ;
+2 x17374 +2 x17375 +2 x17376 -1 x17173 -1 x17174 -1 x17175 -1 x17176 -1 x17177 -1 x17178 >= 0 ;
+2 x17377 +2 x17378 +2 x17379 -1 x17176 -1 x17177 -1 x17178 -1 x17179 -1 x17180 -1 x17181 >= 0 ;
+2 x17380 +2 x17381 +2 x17382 -1 x17179 -1 x17180 -1 x17181 -1 x17182 -1 x17183 -1 x17184 >= 0 ;
+2 x17383 +2 x17384 +2 x17385 -1 x17182 -1 x17183 -1 x17184 -1 x17185 -1 x17186 -1 x17187 >= 0 ;
+2 x17386 +2 x17387 +2 x17388 -1 x17185 -1 x17186 -1 x17187 -1 x17188 -1 x17189 -1 x17190 >= 0 ;
+2 x17389 +2 x17390 +2 x17391 -1 x17188 -1 x17189 -1 x17190 -1 x17191 -1 x17192 -1 x17193 >= 0 ;
+2 x17392 +2 x17393 +2 x17394 -1 x17191 -1 x17192 -1 x17193 -1 x17194 -1 x17195 -1 x17196 >= 0 ;
+2 x17395 +2 x17396 +2 x17397 -1 x17194 -1 x17195 -1 x17196 -1 x17197 -1 x17198 -1 x17199 >= 0 ;
+2 x17398 +2 x17399 +2 x17400 -1 x17197 -1 x17198 -1 x17199 -1 x17200 -1 x17201 -1 x17202 >= 0 ;
+2 x17401 +2 x17402 +2 x17403 -1 x17200 -1 x17201 -1 x17202 -1 x17203 -1 x17204 -1 x17205 >= 0 ;
+2 x17404 +2 x17405 +2 x17406 -1 x17203 -1 x17204 -1 x17205 -1 x17206 -1 x17207 -1 x17208 >= 0 ;
+2 x17407 +2 x17408 +2 x17409 -1 x17206 -1 x17207 -1 x17208 -1 x17209 -1 x17210 -1 x17211 >= 0 ;
+2 x17410 +2 x17411 +2 x17412 -1 x17209 -1 x17210 -1 x17211 -1 x17212 -1 x17213 -1 x17214 >= 0 ;
+2 x17413 +2 x17414 +2 x17415 -1 x17212 -1 x17213 -1 x17214 -1 x17215 -1 x17216 -1 x17217 >= 0 ;
+2 x17416 +2 x17417 +2 x17418 -1 x17215 -1 x17216 -1 x17217 -1 x17218 -1 x17219 -1 x17220 >= 0 ;
+2 x17419 +2 x17420 +2 x17421 -1 x17218 -1 x17219 -1 x17220 -1 x17221 -1 x17222 -1 x17223 >= 0 ;
+2 x17422 +2 x17423 +2 x17424 -1 x17221 -1 x17222 -1 x17223 -1 x17224 -1 x17225 -1 x17226 >= 0 ;
+2 x17425 +2 x17426 +2 x17427 -1 x17224 -1 x17225 -1 x17226 -1 x17227 -1 x17228 -1 x17229 >= 0 ;
+2 x17428 +2 x17429 +2 x17430 -1 x17227 -1 x17228 -1 x17229 -1 x17230 -1 x17231 -1 x17232 >= 0 ;
+2 x17431 +2 x17432 +2 x17433 -1 x17230 -1 x17231 -1 x17232 -1 x17233 -1 x17234 -1 x17235 >= 0 ;
+2 x17434 +2 x17435 +2 x17436 -1 x17233 -1 x17234 -1 x17235 -1 x17236 -1 x17237 -1 x17238 >= 0 ;
+2 x17437 +2 x17438 +2 x17439 -1 x17236 -1 x17237 -1 x17238 -1 x17239 -1 x17240 -1 x17241 >= 0 ;
+2 x17440 +2 x17441 +2 x17442 -1 x17239 -1 x17240 -1 x17241 -1 x17242 -1 x17243 -1 x17244 >= 0 ;
+2 x17443 +2 x17444 +2 x17445 -1 x17242 -1 x17243 -1 x17244 -1 x17245 -1 x17246 -1 x17247 >= 0 ;
+2 x17446 +2 x17447 +2 x17448 -1 x17245 -1 x17246 -1 x17247 -1 x17248 -1 x17249 -1 x17250 >= 0 ;
+2 x17449 +2 x17450 +2 x17451 -1 x17248 -1 x17249 -1 x17250 -1 x17251 -1 x17252 -1 x17253 >= 0 ;
+2 x17452 +2 x17453 +2 x17454 -1 x17251 -1 x17252 -1 x17253 -1 x17254 -1 x17255 -1 x17256 >= 0 ;
+2 x17455 +2 x17456 +2 x17457 -1 x17254 -1 x17255 -1 x17256 -1 x17257 -1 x17258 -1 x17259 >= 0 ;
+2 x17458 +2 x17459 +2 x17460 -1 x17257 -1 x17258 -1 x17259 -1 x17260 -1 x17261 -1 x17262 >= 0 ;
+2 x17461 +2 x17462 +2 x17463 -1 x17260 -1 x17261 -1 x17262 -1 x17263 -1 x17264 -1 x17265 >= 0 ;
+2 x17464 +2 x17465 +2 x17466 -1 x17263 -1 x17264 -1 x17265 -1 x17266 -1 x17267 -1 x17268 >= 0 ;
+2 x17467 +2 x17468 +2 x17469 -1 x17266 -1 x17267 -1 x17268 -1 x17269 -1 x17270 -1 x17271 >= 0 ;
+2 x17470 +2 x17471 +2 x17472 -1 x17269 -1 x17270 -1 x17271 -1 x17272 -1 x17273 -1 x17274 >= 0 ;
+2 x17473 +2 x17474 +2 x17475 -1 x17272 -1 x17273 -1 x17274 -1 x17275 -1 x17276 -1 x17277 >= 0 ;
+2 x17476 +2 x17477 +2 x17478 -1 x17275 -1 x17276 -1 x17277 -1 x17278 -1 x17279 -1 x17280 >= 0 ;
+2 x17479 +2 x17480 +2 x17481 -1 x17278 -1 x17279 -1 x17280 -1 x17281 -1 x17282 -1 x17283 >= 0 ;
+2 x17482 +2 x17483 +2 x17484 -1 x17281 -1 x17282 -1 x17283 -1 x17284 -1 x17285 -1 x17286 >= 0 ;
+2 x17485 +2 x17486 +2 x17487 -1 x17284 -1 x17285 -1 x17286 -1 x17287 -1 x17288 -1 x17289 >= 0 ;
+2 x17488 +2 x17489 +2 x17490 -1 x17287 -1 x17288 -1 x17289 -1 x17290 -1 x17291 -1 x17292 >= 0 ;
+2 x17491 +2 x17492 +2 x17493 -1 x17290 -1 x17291 -1 x17292 -1 x17293 -1 x17294 -1 x17295 >= 0 ;
+2 x17494 +2 x17495 +2 x17496 -1 x17293 -1 x17294 -1 x17295 -1 x17296 -1 x17297 -1 x17298 >= 0 ;
+2 x17497 +2 x17498 +2 x17499 -1 x17296 -1 x17297 -1 x17298 -1 x17299 -1 x17300 -1 x17301 >= 0 ;
+2 x17500 +2 x17501 +2 x17502 -1 x17299 -1 x17300 -1 x17301 -1 x17302 -1 x17303 -1 x17304 >= 0 ;
+2 x17503 +2 x17504 +2 x17505 -1 x17302 -1 x17303 -1 x17304 -1 x17305 -1 x17306 -1 x17307 >= 0 ;
+2 x17506 +2 x17507 +2 x17508 -1 x17305 -1 x17306 -1 x17307 -1 x17308 -1 x17309 -1 x17310 >= 0 ;
+2 x17509 +2 x17510 +2 x17511 -1 x17308 -1 x17309 -1 x17310 -1 x17311 -1 x17312 -1 x17313 >= 0 ;
+2 x17512 +2 x17513 +2 x17514 -1 x17311 -1 x17312 -1 x17313 -1 x17314 -1 x17315 -1 x17316 >= 0 ;
+2 x17515 +2 x17516 +2 x17517 -1 x17314 -1 x17315 -1 x17316 -1 x17317 -1 x17318 -1 x17319 >= 0 ;
+2 x17518 +2 x17519 +2 x17520 -1 x17317 -1 x17318 -1 x17319 -1 x17320 -1 x17321 -1 x17322 >= 0 ;
+2 x17521 +2 x17522 +2 x17523 -1 x17320 -1 x17321 -1 x17322 -1 x17323 -1 x17324 -1 x17325 >= 0 ;
+2 x17524 +2 x17525 +2 x17526 -1 x17323 -1 x17324 -1 x17325 -1 x17326 -1 x17327 -1 x17328 >= 0 ;
+2 x17527 +2 x17528 +2 x17529 -1 x17326 -1 x17327 -1 x17328 -1 x17329 -1 x17330 -1 x17331 >= 0 ;
+2 x17530 +2 x17531 +2 x17532 -1 x17329 -1 x17330 -1 x17331 -1 x17332 -1 x17333 -1 x17334 >= 0 ;
+2 x17533 +2 x17534 +2 x17535 -1 x17332 -1 x17333 -1 x17334 -1 x17335 -1 x17336 -1 x17337 >= 0 ;
+2 x17536 +2 x17537 +2 x17538 -1 x17335 -1 x17336 -1 x17337 -1 x17338 -1 x17339 -1 x17340 >= 0 ;
+2 x17539 +2 x17540 +2 x17541 -1 x17338 -1 x17339 -1 x17340 -1 x17341 -1 x17342 -1 x17343 >= 0 ;
+2 x17542 +2 x17543 +2 x17544 -1 x17341 -1 x17342 -1 x17343 -1 x17344 -1 x17345 -1 x17346 >= 0 ;
+2 x17545 +2 x17546 +2 x17547 -1 x17344 -1 x17345 -1 x17346 -1 x17347 -1 x17348 -1 x17349 >= 0 ;
+2 x17548 +2 x17549 +2 x17550 -1 x17347 -1 x17348 -1 x17349 -1 x17350 -1 x17351 -1 x17352 >= 0 ;
+2 x17551 +2 x17552 +2 x17553 -1 x17350 -1 x17351 -1 x17352 -1 x17353 -1 x17354 -1 x17355 >= 0 ;
+2 x17554 +2 x17555 +2 x17556 -1 x17353 -1 x17354 -1 x17355 -1 x17356 -1 x17357 -1 x17358 >= 0 ;
+2 x17557 +2 x17558 +2 x17559 -1 x17356 -1 x17357 -1 x17358 -1 x17359 -1 x17360 -1 x17361 >= 0 ;
+2 x17560 +2 x17561 +2 x17562 -1 x17359 -1 x17360 -1 x17361 -1 x17362 -1 x17363 -1 x17364 >= 0 ;
+2 x17563 +2 x17564 +2 x17565 -1 x17362 -1 x17363 -1 x17364 -1 x17365 -1 x17366 -1 x17367 >= 0 ;
+2 x17566 +2 x17567 +2 x17568 -1 x17365 -1 x17366 -1 x17367 -1 x17368 -1 x17369 -1 x17370 >= 0 ;
+2 x17569 +2 x17570 +2 x17571 -1 x17371 -1 x17372 -1 x17373 -1 x17374 -1 x17375 -1 x17376 >= 0 ;
+2 x17572 +2 x17573 +2 x17574 -1 x17374 -1 x17375 -1 x17376 -1 x17377 -1 x17378 -1 x17379 >= 0 ;
+2 x17575 +2 x17576 +2 x17577 -1 x17377 -1 x17378 -1 x17379 -1 x17380 -1 x17381 -1 x17382 >= 0 ;
+2 x17578 +2 x17579 +2 x17580 -1 x17380 -1 x17381 -1 x17382 -1 x17383 -1 x17384 -1 x17385 >= 0 ;
+2 x17581 +2 x17582 +2 x17583 -1 x17383 -1 x17384 -1 x17385 -1 x17386 -1 x17387 -1 x17388 >= 0 ;
+2 x17584 +2 x17585 +2 x17586 -1 x17386 -1 x17387 -1 x17388 -1 x17389 -1 x17390 -1 x17391 >= 0 ;
+2 x17587 +2 x17588 +2 x17589 -1 x17389 -1 x17390 -1 x17391 -1 x17392 -1 x17393 -1 x17394 >= 0 ;
+2 x17590 +2 x17591 +2 x17592 -1 x17392 -1 x17393 -1 x17394 -1 x17395 -1 x17396 -1 x17397 >= 0 ;
+2 x17593 +2 x17594 +2 x17595 -1 x17395 -1 x17396 -1 x17397 -1 x17398 -1 x17399 -1 x17400 >= 0 ;
+2 x17596 +2 x17597 +2 x17598 -1 x17398 -1 x17399 -1 x17400 -1 x17401 -1 x17402 -1 x17403 >= 0 ;
+2 x17599 +2 x17600 +2 x17601 -1 x17401 -1 x17402 -1 x17403 -1 x17404 -1 x17405 -1 x17406 >= 0 ;
+2 x17602 +2 x17603 +2 x17604 -1 x17404 -1 x17405 -1 x17406 -1 x17407 -1 x17408 -1 x17409 >= 0 ;
+2 x17605 +2 x17606 +2 x17607 -1 x17407 -1 x17408 -1 x17409 -1 x17410 -1 x17411 -1 x17412 >= 0 ;
+2 x17608 +2 x17609 +2 x17610 -1 x17410 -1 x17411 -1 x17412 -1 x17413 -1 x17414 -1 x17415 >= 0 ;
+2 x17611 +2 x17612 +2 x17613 -1 x17413 -1 x17414 -1 x17415 -1 x17416 -1 x17417 -1 x17418 >= 0 ;
+2 x17614 +2 x17615 +2 x17616 -1 x17416 -1 x17417 -1 x17418 -1 x17419 -1 x17420 -1 x17421 >= 0 ;
+2 x17617 +2 x17618 +2 x17619 -1 x17419 -1 x17420 -1 x17421 -1 x17422 -1 x17423 -1 x17424 >= 0 ;
+2 x17620 +2 x17621 +2 x17622 -1 x17422 -1 x17423 -1 x17424 -1 x17425 -1 x17426 -1 x17427 >= 0 ;
+2 x17623 +2 x17624 +2 x17625 -1 x17425 -1 x17426 -1 x17427 -1 x17428 -1 x17429 -1 x17430 >= 0 ;
+2 x17626 +2 x17627 +2 x17628 -1 x17428 -1 x17429 -1 x17430 -1 x17431 -1 x17432 -1 x17433 >= 0 ;
+2 x17629 +2 x17630 +2 x17631 -1 x17431 -1 x17432 -1 x17433 -1 x17434 -1 x17435 -1 x17436 >= 0 ;
+2 x17632 +2 x17633 +2 x17634 -1 x17434 -1 x17435 -1 x17436 -1 x17437 -1 x17438 -1 x17439 >= 0 ;
+2 x17635 +2 x17636 +2 x17637 -1 x17437 -1 x17438 -1 x17439 -1 x17440 -1 x17441 -1 x17442 >= 0 ;
+2 x17638 +2 x17639 +2 x17640 -1 x17440 -1 x17441 -1 x17442 -1 x17443 -1 x17444 -1 x17445 >= 0 ;
+2 x17641 +2 x17642 +2 x17643 -1 x17443 -1 x17444 -1 x17445 -1 x17446 -1 x17447 -1 x17448 >= 0 ;
+2 x17644 +2 x17645 +2 x17646 -1 x17446 -1 x17447 -1 x17448 -1 x17449 -1 x17450 -1 x17451 >= 0 ;
+2 x17647 +2 x17648 +2 x17649 -1 x17449 -1 x17450 -1 x17451 -1 x17452 -1 x17453 -1 x17454 >= 0 ;
+2 x17650 +2 x17651 +2 x17652 -1 x17452 -1 x17453 -1 x17454 -1 x17455 -1 x17456 -1 x17457 >= 0 ;
+2 x17653 +2 x17654 +2 x17655 -1 x17455 -1 x17456 -1 x17457 -1 x17458 -1 x17459 -1 x17460 >= 0 ;
+2 x17656 +2 x17657 +2 x17658 -1 x17458 -1 x17459 -1 x17460 -1 x17461 -1 x17462 -1 x17463 >= 0 ;
+2 x17659 +2 x17660 +2 x17661 -1 x17461 -1 x17462 -1 x17463 -1 x17464 -1 x17465 -1 x17466 >= 0 ;
+2 x17662 +2 x17663 +2 x17664 -1 x17464 -1 x17465 -1 x17466 -1 x17467 -1 x17468 -1 x17469 >= 0 ;
+2 x17665 +2 x17666 +2 x17667 -1 x17467 -1 x17468 -1 x17469 -1 x17470 -1 x17471 -1 x17472 >= 0 ;
+2 x17668 +2 x17669 +2 x17670 -1 x17470 -1 x17471 -1 x17472 -1 x17473 -1 x17474 -1 x17475 >= 0 ;
+2 x17671 +2 x17672 +2 x17673 -1 x17473 -1 x17474 -1 x17475 -1 x17476 -1 x17477 -1 x17478 >= 0 ;
+2 x17674 +2 x17675 +2 x17676 -1 x17476 -1 x17477 -1 x17478 -1 x17479 -1 x17480 -1 x17481 >= 0 ;
+2 x17677 +2 x17678 +2 x17679 -1 x17479 -1 x17480 -1 x17481 -1 x17482 -1 x17483 -1 x17484 >= 0 ;
+2 x17680 +2 x17681 +2 x17682 -1 x17482 -1 x17483 -1 x17484 -1 x17485 -1 x17486 -1 x17487 >= 0 ;
+2 x17683 +2 x17684 +2 x17685 -1 x17485 -1 x17486 -1 x17487 -1 x17488 -1 x17489 -1 x17490 >= 0 ;
+2 x17686 +2 x17687 +2 x17688 -1 x17488 -1 x17489 -1 x17490 -1 x17491 -1 x17492 -1 x17493 >= 0 ;
+2 x17689 +2 x17690 +2 x17691 -1 x17491 -1 x17492 -1 x17493 -1 x17494 -1 x17495 -1 x17496 >= 0 ;
+2 x17692 +2 x17693 +2 x17694 -1 x17494 -1 x17495 -1 x17496 -1 x17497 -1 x17498 -1 x17499 >= 0 ;
+2 x17695 +2 x17696 +2 x17697 -1 x17497 -1 x17498 -1 x17499 -1 x17500 -1 x17501 -1 x17502 >= 0 ;
+2 x17698 +2 x17699 +2 x17700 -1 x17500 -1 x17501 -1 x17502 -1 x17503 -1 x17504 -1 x17505 >= 0 ;
+2 x17701 +2 x17702 +2 x17703 -1 x17503 -1 x17504 -1 x17505 -1 x17506 -1 x17507 -1 x17508 >= 0 ;
+2 x17704 +2 x17705 +2 x17706 -1 x17506 -1 x17507 -1 x17508 -1 x17509 -1 x17510 -1 x17511 >= 0 ;
+2 x17707 +2 x17708 +2 x17709 -1 x17509 -1 x17510 -1 x17511 -1 x17512 -1 x17513 -1 x17514 >= 0 ;
+2 x17710 +2 x17711 +2 x17712 -1 x17512 -1 x17513 -1 x17514 -1 x17515 -1 x17516 -1 x17517 >= 0 ;
+2 x17713 +2 x17714 +2 x17715 -1 x17515 -1 x17516 -1 x17517 -1 x17518 -1 x17519 -1 x17520 >= 0 ;
+2 x17716 +2 x17717 +2 x17718 -1 x17518 -1 x17519 -1 x17520 -1 x17521 -1 x17522 -1 x17523 >= 0 ;
+2 x17719 +2 x17720 +2 x17721 -1 x17521 -1 x17522 -1 x17523 -1 x17524 -1 x17525 -1 x17526 >= 0 ;
+2 x17722 +2 x17723 +2 x17724 -1 x17524 -1 x17525 -1 x17526 -1 x17527 -1 x17528 -1 x17529 >= 0 ;
+2 x17725 +2 x17726 +2 x17727 -1 x17527 -1 x17528 -1 x17529 -1 x17530 -1 x17531 -1 x17532 >= 0 ;
+2 x17728 +2 x17729 +2 x17730 -1 x17530 -1 x17531 -1 x17532 -1 x17533 -1 x17534 -1 x17535 >= 0 ;
+2 x17731 +2 x17732 +2 x17733 -1 x17533 -1 x17534 -1 x17535 -1 x17536 -1 x17537 -1 x17538 >= 0 ;
+2 x17734 +2 x17735 +2 x17736 -1 x17536 -1 x17537 -1 x17538 -1 x17539 -1 x17540 -1 x17541 >= 0 ;
+2 x17737 +2 x17738 +2 x17739 -1 x17539 -1 x17540 -1 x17541 -1 x17542 -1 x17543 -1 x17544 >= 0 ;
+2 x17740 +2 x17741 +2 x17742 -1 x17542 -1 x17543 -1 x17544 -1 x17545 -1 x17546 -1 x17547 >= 0 ;
+2 x17743 +2 x17744 +2 x17745 -1 x17545 -1 x17546 -1 x17547 -1 x17548 -1 x17549 -1 x17550 >= 0 ;
+2 x17746 +2 x17747 +2 x17748 -1 x17548 -1 x17549 -1 x17550 -1 x17551 -1 x17552 -1 x17553 >= 0 ;
+2 x17749 +2 x17750 +2 x17751 -1 x17551 -1 x17552 -1 x17553 -1 x17554 -1 x17555 -1 x17556 >= 0 ;
+2 x17752 +2 x17753 +2 x17754 -1 x17554 -1 x17555 -1 x17556 -1 x17557 -1 x17558 -1 x17559 >= 0 ;
+2 x17755 +2 x17756 +2 x17757 -1 x17557 -1 x17558 -1 x17559 -1 x17560 -1 x17561 -1 x17562 >= 0 ;
+2 x17758 +2 x17759 +2 x17760 -1 x17560 -1 x17561 -1 x17562 -1 x17563 -1 x17564 -1 x17565 >= 0 ;
+2 x17761 +2 x17762 +2 x17763 -1 x17563 -1 x17564 -1 x17565 -1 x17566 -1 x17567 -1 x17568 >= 0 ;
+2 x17764 +2 x17765 +2 x17766 -1 x17569 -1 x17570 -1 x17571 -1 x17572 -1 x17573 -1 x17574 >= 0 ;
+2 x17767 +2 x17768 +2 x17769 -1 x17572 -1 x17573 -1 x17574 -1 x17575 -1 x17576 -1 x17577 >= 0 ;
+2 x17770 +2 x17771 +2 x17772 -1 x17575 -1 x17576 -1 x17577 -1 x17578 -1 x17579 -1 x17580 >= 0 ;
+2 x17773 +2 x17774 +2 x17775 -1 x17578 -1 x17579 -1 x17580 -1 x17581 -1 x17582 -1 x17583 >= 0 ;
+2 x17776 +2 x17777 +2 x17778 -1 x17581 -1 x17582 -1 x17583 -1 x17584 -1 x17585 -1 x17586 >= 0 ;
+2 x17779 +2 x17780 +2 x17781 -1 x17584 -1 x17585 -1 x17586 -1 x17587 -1 x17588 -1 x17589 >= 0 ;
+2 x17782 +2 x17783 +2 x17784 -1 x17587 -1 x17588 -1 x17589 -1 x17590 -1 x17591 -1 x17592 >= 0 ;
+2 x17785 +2 x17786 +2 x17787 -1 x17590 -1 x17591 -1 x17592 -1 x17593 -1 x17594 -1 x17595 >= 0 ;
+2 x17788 +2 x17789 +2 x17790 -1 x17593 -1 x17594 -1 x17595 -1 x17596 -1 x17597 -1 x17598 >= 0 ;
+2 x17791 +2 x17792 +2 x17793 -1 x17596 -1 x17597 -1 x17598 -1 x17599 -1 x17600 -1 x17601 >= 0 ;
+2 x17794 +2 x17795 +2 x17796 -1 x17599 -1 x17600 -1 x17601 -1 x17602 -1 x17603 -1 x17604 >= 0 ;
+2 x17797 +2 x17798 +2 x17799 -1 x17602 -1 x17603 -1 x17604 -1 x17605 -1 x17606 -1 x17607 >= 0 ;
+2 x17800 +2 x17801 +2 x17802 -1 x17605 -1 x17606 -1 x17607 -1 x17608 -1 x17609 -1 x17610 >= 0 ;
+2 x17803 +2 x17804 +2 x17805 -1 x17608 -1 x17609 -1 x17610 -1 x17611 -1 x17612 -1 x17613 >= 0 ;
+2 x17806 +2 x17807 +2 x17808 -1 x17611 -1 x17612 -1 x17613 -1 x17614 -1 x17615 -1 x17616 >= 0 ;
+2 x17809 +2 x17810 +2 x17811 -1 x17614 -1 x17615 -1 x17616 -1 x17617 -1 x17618 -1 x17619 >= 0 ;
+2 x17812 +2 x17813 +2 x17814 -1 x17617 -1 x17618 -1 x17619 -1 x17620 -1 x17621 -1 x17622 >= 0 ;
+2 x17815 +2 x17816 +2 x17817 -1 x17620 -1 x17621 -1 x17622 -1 x17623 -1 x17624 -1 x17625 >= 0 ;
+2 x17818 +2 x17819 +2 x17820 -1 x17623 -1 x17624 -1 x17625 -1 x17626 -1 x17627 -1 x17628 >= 0 ;
+2 x17821 +2 x17822 +2 x17823 -1 x17626 -1 x17627 -1 x17628 -1 x17629 -1 x17630 -1 x17631 >= 0 ;
+2 x17824 +2 x17825 +2 x17826 -1 x17629 -1 x17630 -1 x17631 -1 x17632 -1 x17633 -1 x17634 >= 0 ;
+2 x17827 +2 x17828 +2 x17829 -1 x17632 -1 x17633 -1 x17634 -1 x17635 -1 x17636 -1 x17637 >= 0 ;
+2 x17830 +2 x17831 +2 x17832 -1 x17635 -1 x17636 -1 x17637 -1 x17638 -1 x17639 -1 x17640 >= 0 ;
+2 x17833 +2 x17834 +2 x17835 -1 x17638 -1 x17639 -1 x17640 -1 x17641 -1 x17642 -1 x17643 >= 0 ;
+2 x17836 +2 x17837 +2 x17838 -1 x17641 -1 x17642 -1 x17643 -1 x17644 -1 x17645 -1 x17646 >= 0 ;
+2 x17839 +2 x17840 +2 x17841 -1 x17644 -1 x17645 -1 x17646 -1 x17647 -1 x17648 -1 x17649 >= 0 ;
+2 x17842 +2 x17843 +2 x17844 -1 x17647 -1 x17648 -1 x17649 -1 x17650 -1 x17651 -1 x17652 >= 0 ;
+2 x17845 +2 x17846 +2 x17847 -1 x17650 -1 x17651 -1 x17652 -1 x17653 -1 x17654 -1 x17655 >= 0 ;
+2 x17848 +2 x17849 +2 x17850 -1 x17653 -1 x17654 -1 x17655 -1 x17656 -1 x17657 -1 x17658 >= 0 ;
+2 x17851 +2 x17852 +2 x17853 -1 x17656 -1 x17657 -1 x17658 -1 x17659 -1 x17660 -1 x17661 >= 0 ;
+2 x17854 +2 x17855 +2 x17856 -1 x17659 -1 x17660 -1 x17661 -1 x17662 -1 x17663 -1 x17664 >= 0 ;
+2 x17857 +2 x17858 +2 x17859 -1 x17662 -1 x17663 -1 x17664 -1 x17665 -1 x17666 -1 x17667 >= 0 ;
+2 x17860 +2 x17861 +2 x17862 -1 x17665 -1 x17666 -1 x17667 -1 x17668 -1 x17669 -1 x17670 >= 0 ;
+2 x17863 +2 x17864 +2 x17865 -1 x17668 -1 x17669 -1 x17670 -1 x17671 -1 x17672 -1 x17673 >= 0 ;
+2 x17866 +2 x17867 +2 x17868 -1 x17671 -1 x17672 -1 x17673 -1 x17674 -1 x17675 -1 x17676 >= 0 ;
+2 x17869 +2 x17870 +2 x17871 -1 x17674 -1 x17675 -1 x17676 -1 x17677 -1 x17678 -1 x17679 >= 0 ;
+2 x17872 +2 x17873 +2 x17874 -1 x17677 -1 x17678 -1 x17679 -1 x17680 -1 x17681 -1 x17682 >= 0 ;
+2 x17875 +2 x17876 +2 x17877 -1 x17680 -1 x17681 -1 x17682 -1 x17683 -1 x17684 -1 x17685 >= 0 ;
+2 x17878 +2 x17879 +2 x17880 -1 x17683 -1 x17684 -1 x17685 -1 x17686 -1 x17687 -1 x17688 >= 0 ;
+2 x17881 +2 x17882 +2 x17883 -1 x17686 -1 x17687 -1 x17688 -1 x17689 -1 x17690 -1 x17691 >= 0 ;
+2 x17884 +2 x17885 +2 x17886 -1 x17689 -1 x17690 -1 x17691 -1 x17692 -1 x17693 -1 x17694 >= 0 ;
+2 x17887 +2 x17888 +2 x17889 -1 x17692 -1 x17693 -1 x17694 -1 x17695 -1 x17696 -1 x17697 >= 0 ;
+2 x17890 +2 x17891 +2 x17892 -1 x17695 -1 x17696 -1 x17697 -1 x17698 -1 x17699 -1 x17700 >= 0 ;
+2 x17893 +2 x17894 +2 x17895 -1 x17698 -1 x17699 -1 x17700 -1 x17701 -1 x17702 -1 x17703 >= 0 ;
+2 x17896 +2 x17897 +2 x17898 -1 x17701 -1 x17702 -1 x17703 -1 x17704 -1 x17705 -1 x17706 >= 0 ;
+2 x17899 +2 x17900 +2 x17901 -1 x17704 -1 x17705 -1 x17706 -1 x17707 -1 x17708 -1 x17709 >= 0 ;
+2 x17902 +2 x17903 +2 x17904 -1 x17707 -1 x17708 -1 x17709 -1 x17710 -1 x17711 -1 x17712 >= 0 ;
+2 x17905 +2 x17906 +2 x17907 -1 x17710 -1 x17711 -1 x17712 -1 x17713 -1 x17714 -1 x17715 >= 0 ;
+2 x17908 +2 x17909 +2 x17910 -1 x17713 -1 x17714 -1 x17715 -1 x17716 -1 x17717 -1 x17718 >= 0 ;
+2 x17911 +2 x17912 +2 x17913 -1 x17716 -1 x17717 -1 x17718 -1 x17719 -1 x17720 -1 x17721 >= 0 ;
+2 x17914 +2 x17915 +2 x17916 -1 x17719 -1 x17720 -1 x17721 -1 x17722 -1 x17723 -1 x17724 >= 0 ;
+2 x17917 +2 x17918 +2 x17919 -1 x17722 -1 x17723 -1 x17724 -1 x17725 -1 x17726 -1 x17727 >= 0 ;
+2 x17920 +2 x17921 +2 x17922 -1 x17725 -1 x17726 -1 x17727 -1 x17728 -1 x17729 -1 x17730 >= 0 ;
+2 x17923 +2 x17924 +2 x17925 -1 x17728 -1 x17729 -1 x17730 -1 x17731 -1 x17732 -1 x17733 >= 0 ;
+2 x17926 +2 x17927 +2 x17928 -1 x17731 -1 x17732 -1 x17733 -1 x17734 -1 x17735 -1 x17736 >= 0 ;
+2 x17929 +2 x17930 +2 x17931 -1 x17734 -1 x17735 -1 x17736 -1 x17737 -1 x17738 -1 x17739 >= 0 ;
+2 x17932 +2 x17933 +2 x17934 -1 x17737 -1 x17738 -1 x17739 -1 x17740 -1 x17741 -1 x17742 >= 0 ;
+2 x17935 +2 x17936 +2 x17937 -1 x17740 -1 x17741 -1 x17742 -1 x17743 -1 x17744 -1 x17745 >= 0 ;
+2 x17938 +2 x17939 +2 x17940 -1 x17743 -1 x17744 -1 x17745 -1 x17746 -1 x17747 -1 x17748 >= 0 ;
+2 x17941 +2 x17942 +2 x17943 -1 x17746 -1 x17747 -1 x17748 -1 x17749 -1 x17750 -1 x17751 >= 0 ;
+2 x17944 +2 x17945 +2 x17946 -1 x17749 -1 x17750 -1 x17751 -1 x17752 -1 x17753 -1 x17754 >= 0 ;
+2 x17947 +2 x17948 +2 x17949 -1 x17752 -1 x17753 -1 x17754 -1 x17755 -1 x17756 -1 x17757 >= 0 ;
+2 x17950 +2 x17951 +2 x17952 -1 x17755 -1 x17756 -1 x17757 -1 x17758 -1 x17759 -1 x17760 >= 0 ;
+2 x17953 +2 x17954 +2 x17955 -1 x17758 -1 x17759 -1 x17760 -1 x17761 -1 x17762 -1 x17763 >= 0 ;
+2 x17956 +2 x17957 +2 x17958 -1 x17764 -1 x17765 -1 x17766 -1 x17767 -1 x17768 -1 x17769 >= 0 ;
+2 x17959 +2 x17960 +2 x17961 -1 x17767 -1 x17768 -1 x17769 -1 x17770 -1 x17771 -1 x17772 >= 0 ;
+2 x17962 +2 x17963 +2 x17964 -1 x17770 -1 x17771 -1 x17772 -1 x17773 -1 x17774 -1 x17775 >= 0 ;
+2 x17965 +2 x17966 +2 x17967 -1 x17773 -1 x17774 -1 x17775 -1 x17776 -1 x17777 -1 x17778 >= 0 ;
+2 x17968 +2 x17969 +2 x17970 -1 x17776 -1 x17777 -1 x17778 -1 x17779 -1 x17780 -1 x17781 >= 0 ;
+2 x17971 +2 x17972 +2 x17973 -1 x17779 -1 x17780 -1 x17781 -1 x17782 -1 x17783 -1 x17784 >= 0 ;
+2 x17974 +2 x17975 +2 x17976 -1 x17782 -1 x17783 -1 x17784 -1 x17785 -1 x17786 -1 x17787 >= 0 ;
+2 x17977 +2 x17978 +2 x17979 -1 x17785 -1 x17786 -1 x17787 -1 x17788 -1 x17789 -1 x17790 >= 0 ;
+2 x17980 +2 x17981 +2 x17982 -1 x17788 -1 x17789 -1 x17790 -1 x17791 -1 x17792 -1 x17793 >= 0 ;
+2 x17983 +2 x17984 +2 x17985 -1 x17791 -1 x17792 -1 x17793 -1 x17794 -1 x17795 -1 x17796 >= 0 ;
+2 x17986 +2 x17987 +2 x17988 -1 x17794 -1 x17795 -1 x17796 -1 x17797 -1 x17798 -1 x17799 >= 0 ;
+2 x17989 +2 x17990 +2 x17991 -1 x17797 -1 x17798 -1 x17799 -1 x17800 -1 x17801 -1 x17802 >= 0 ;
+2 x17992 +2 x17993 +2 x17994 -1 x17800 -1 x17801 -1 x17802 -1 x17803 -1 x17804 -1 x17805 >= 0 ;
+2 x17995 +2 x17996 +2 x17997 -1 x17803 -1 x17804 -1 x17805 -1 x17806 -1 x17807 -1 x17808 >= 0 ;
+2 x17998 +2 x17999 +2 x18000 -1 x17806 -1 x17807 -1 x17808 -1 x17809 -1 x17810 -1 x17811 >= 0 ;
+2 x18001 +2 x18002 +2 x18003 -1 x17809 -1 x17810 -1 x17811 -1 x17812 -1 x17813 -1 x17814 >= 0 ;
+2 x18004 +2 x18005 +2 x18006 -1 x17812 -1 x17813 -1 x17814 -1 x17815 -1 x17816 -1 x17817 >= 0 ;
+2 x18007 +2 x18008 +2 x18009 -1 x17815 -1 x17816 -1 x17817 -1 x17818 -1 x17819 -1 x17820 >= 0 ;
+2 x18010 +2 x18011 +2 x18012 -1 x17818 -1 x17819 -1 x17820 -1 x17821 -1 x17822 -1 x17823 >= 0 ;
+2 x18013 +2 x18014 +2 x18015 -1 x17821 -1 x17822 -1 x17823 -1 x17824 -1 x17825 -1 x17826 >= 0 ;
+2 x18016 +2 x18017 +2 x18018 -1 x17824 -1 x17825 -1 x17826 -1 x17827 -1 x17828 -1 x17829 >= 0 ;
+2 x18019 +2 x18020 +2 x18021 -1 x17827 -1 x17828 -1 x17829 -1 x17830 -1 x17831 -1 x17832 >= 0 ;
+2 x18022 +2 x18023 +2 x18024 -1 x17830 -1 x17831 -1 x17832 -1 x17833 -1 x17834 -1 x17835 >= 0 ;
+2 x18025 +2 x18026 +2 x18027 -1 x17833 -1 x17834 -1 x17835 -1 x17836 -1 x17837 -1 x17838 >= 0 ;
+2 x18028 +2 x18029 +2 x18030 -1 x17836 -1 x17837 -1 x17838 -1 x17839 -1 x17840 -1 x17841 >= 0 ;
+2 x18031 +2 x18032 +2 x18033 -1 x17839 -1 x17840 -1 x17841 -1 x17842 -1 x17843 -1 x17844 >= 0 ;
+2 x18034 +2 x18035 +2 x18036 -1 x17842 -1 x17843 -1 x17844 -1 x17845 -1 x17846 -1 x17847 >= 0 ;
+2 x18037 +2 x18038 +2 x18039 -1 x17845 -1 x17846 -1 x17847 -1 x17848 -1 x17849 -1 x17850 >= 0 ;
+2 x18040 +2 x18041 +2 x18042 -1 x17848 -1 x17849 -1 x17850 -1 x17851 -1 x17852 -1 x17853 >= 0 ;
+2 x18043 +2 x18044 +2 x18045 -1 x17851 -1 x17852 -1 x17853 -1 x17854 -1 x17855 -1 x17856 >= 0 ;
+2 x18046 +2 x18047 +2 x18048 -1 x17854 -1 x17855 -1 x17856 -1 x17857 -1 x17858 -1 x17859 >= 0 ;
+2 x18049 +2 x18050 +2 x18051 -1 x17857 -1 x17858 -1 x17859 -1 x17860 -1 x17861 -1 x17862 >= 0 ;
+2 x18052 +2 x18053 +2 x18054 -1 x17860 -1 x17861 -1 x17862 -1 x17863 -1 x17864 -1 x17865 >= 0 ;
+2 x18055 +2 x18056 +2 x18057 -1 x17863 -1 x17864 -1 x17865 -1 x17866 -1 x17867 -1 x17868 >= 0 ;
+2 x18058 +2 x18059 +2 x18060 -1 x17866 -1 x17867 -1 x17868 -1 x17869 -1 x17870 -1 x17871 >= 0 ;
+2 x18061 +2 x18062 +2 x18063 -1 x17869 -1 x17870 -1 x17871 -1 x17872 -1 x17873 -1 x17874 >= 0 ;
+2 x18064 +2 x18065 +2 x18066 -1 x17872 -1 x17873 -1 x17874 -1 x17875 -1 x17876 -1 x17877 >= 0 ;
+2 x18067 +2 x18068 +2 x18069 -1 x17875 -1 x17876 -1 x17877 -1 x17878 -1 x17879 -1 x17880 >= 0 ;
+2 x18070 +2 x18071 +2 x18072 -1 x17878 -1 x17879 -1 x17880 -1 x17881 -1 x17882 -1 x17883 >= 0 ;
+2 x18073 +2 x18074 +2 x18075 -1 x17881 -1 x17882 -1 x17883 -1 x17884 -1 x17885 -1 x17886 >= 0 ;
+2 x18076 +2 x18077 +2 x18078 -1 x17884 -1 x17885 -1 x17886 -1 x17887 -1 x17888 -1 x17889 >= 0 ;
+2 x18079 +2 x18080 +2 x18081 -1 x17887 -1 x17888 -1 x17889 -1 x17890 -1 x17891 -1 x17892 >= 0 ;
+2 x18082 +2 x18083 +2 x18084 -1 x17890 -1 x17891 -1 x17892 -1 x17893 -1 x17894 -1 x17895 >= 0 ;
+2 x18085 +2 x18086 +2 x18087 -1 x17893 -1 x17894 -1 x17895 -1 x17896 -1 x17897 -1 x17898 >= 0 ;
+2 x18088 +2 x18089 +2 x18090 -1 x17896 -1 x17897 -1 x17898 -1 x17899 -1 x17900 -1 x17901 >= 0 ;
+2 x18091 +2 x18092 +2 x18093 -1 x17899 -1 x17900 -1 x17901 -1 x17902 -1 x17903 -1 x17904 >= 0 ;
+2 x18094 +2 x18095 +2 x18096 -1 x17902 -1 x17903 -1 x17904 -1 x17905 -1 x17906 -1 x17907 >= 0 ;
+2 x18097 +2 x18098 +2 x18099 -1 x17905 -1 x17906 -1 x17907 -1 x17908 -1 x17909 -1 x17910 >= 0 ;
+2 x18100 +2 x18101 +2 x18102 -1 x17908 -1 x17909 -1 x17910 -1 x17911 -1 x17912 -1 x17913 >= 0 ;
+2 x18103 +2 x18104 +2 x18105 -1 x17911 -1 x17912 -1 x17913 -1 x17914 -1 x17915 -1 x17916 >= 0 ;
+2 x18106 +2 x18107 +2 x18108 -1 x17914 -1 x17915 -1 x17916 -1 x17917 -1 x17918 -1 x17919 >= 0 ;
+2 x18109 +2 x18110 +2 x18111 -1 x17917 -1 x17918 -1 x17919 -1 x17920 -1 x17921 -1 x17922 >= 0 ;
+2 x18112 +2 x18113 +2 x18114 -1 x17920 -1 x17921 -1 x17922 -1 x17923 -1 x17924 -1 x17925 >= 0 ;
+2 x18115 +2 x18116 +2 x18117 -1 x17923 -1 x17924 -1 x17925 -1 x17926 -1 x17927 -1 x17928 >= 0 ;
+2 x18118 +2 x18119 +2 x18120 -1 x17926 -1 x17927 -1 x17928 -1 x17929 -1 x17930 -1 x17931 >= 0 ;
+2 x18121 +2 x18122 +2 x18123 -1 x17929 -1 x17930 -1 x17931 -1 x17932 -1 x17933 -1 x17934 >= 0 ;
+2 x18124 +2 x18125 +2 x18126 -1 x17932 -1 x17933 -1 x17934 -1 x17935 -1 x17936 -1 x17937 >= 0 ;
+2 x18127 +2 x18128 +2 x18129 -1 x17935 -1 x17936 -1 x17937 -1 x17938 -1 x17939 -1 x17940 >= 0 ;
+2 x18130 +2 x18131 +2 x18132 -1 x17938 -1 x17939 -1 x17940 -1 x17941 -1 x17942 -1 x17943 >= 0 ;
+2 x18133 +2 x18134 +2 x18135 -1 x17941 -1 x17942 -1 x17943 -1 x17944 -1 x17945 -1 x17946 >= 0 ;
+2 x18136 +2 x18137 +2 x18138 -1 x17944 -1 x17945 -1 x17946 -1 x17947 -1 x17948 -1 x17949 >= 0 ;
+2 x18139 +2 x18140 +2 x18141 -1 x17947 -1 x17948 -1 x17949 -1 x17950 -1 x17951 -1 x17952 >= 0 ;
+2 x18142 +2 x18143 +2 x18144 -1 x17950 -1 x17951 -1 x17952 -1 x17953 -1 x17954 -1 x17955 >= 0 ;
+2 x18145 +2 x18146 +2 x18147 -1 x17956 -1 x17957 -1 x17958 -1 x17959 -1 x17960 -1 x17961 >= 0 ;
+2 x18148 +2 x18149 +2 x18150 -1 x17959 -1 x17960 -1 x17961 -1 x17962 -1 x17963 -1 x17964 >= 0 ;
+2 x18151 +2 x18152 +2 x18153 -1 x17962 -1 x17963 -1 x17964 -1 x17965 -1 x17966 -1 x17967 >= 0 ;
+2 x18154 +2 x18155 +2 x18156 -1 x17965 -1 x17966 -1 x17967 -1 x17968 -1 x17969 -1 x17970 >= 0 ;
+2 x18157 +2 x18158 +2 x18159 -1 x17968 -1 x17969 -1 x17970 -1 x17971 -1 x17972 -1 x17973 >= 0 ;
+2 x18160 +2 x18161 +2 x18162 -1 x17971 -1 x17972 -1 x17973 -1 x17974 -1 x17975 -1 x17976 >= 0 ;
+2 x18163 +2 x18164 +2 x18165 -1 x17974 -1 x17975 -1 x17976 -1 x17977 -1 x17978 -1 x17979 >= 0 ;
+2 x18166 +2 x18167 +2 x18168 -1 x17977 -1 x17978 -1 x17979 -1 x17980 -1 x17981 -1 x17982 >= 0 ;
+2 x18169 +2 x18170 +2 x18171 -1 x17980 -1 x17981 -1 x17982 -1 x17983 -1 x17984 -1 x17985 >= 0 ;
+2 x18172 +2 x18173 +2 x18174 -1 x17983 -1 x17984 -1 x17985 -1 x17986 -1 x17987 -1 x17988 >= 0 ;
+2 x18175 +2 x18176 +2 x18177 -1 x17986 -1 x17987 -1 x17988 -1 x17989 -1 x17990 -1 x17991 >= 0 ;
+2 x18178 +2 x18179 +2 x18180 -1 x17989 -1 x17990 -1 x17991 -1 x17992 -1 x17993 -1 x17994 >= 0 ;
+2 x18181 +2 x18182 +2 x18183 -1 x17992 -1 x17993 -1 x17994 -1 x17995 -1 x17996 -1 x17997 >= 0 ;
+2 x18184 +2 x18185 +2 x18186 -1 x17995 -1 x17996 -1 x17997 -1 x17998 -1 x17999 -1 x18000 >= 0 ;
+2 x18187 +2 x18188 +2 x18189 -1 x17998 -1 x17999 -1 x18000 -1 x18001 -1 x18002 -1 x18003 >= 0 ;
+2 x18190 +2 x18191 +2 x18192 -1 x18001 -1 x18002 -1 x18003 -1 x18004 -1 x18005 -1 x18006 >= 0 ;
+2 x18193 +2 x18194 +2 x18195 -1 x18004 -1 x18005 -1 x18006 -1 x18007 -1 x18008 -1 x18009 >= 0 ;
+2 x18196 +2 x18197 +2 x18198 -1 x18007 -1 x18008 -1 x18009 -1 x18010 -1 x18011 -1 x18012 >= 0 ;
+2 x18199 +2 x18200 +2 x18201 -1 x18010 -1 x18011 -1 x18012 -1 x18013 -1 x18014 -1 x18015 >= 0 ;
+2 x18202 +2 x18203 +2 x18204 -1 x18013 -1 x18014 -1 x18015 -1 x18016 -1 x18017 -1 x18018 >= 0 ;
+2 x18205 +2 x18206 +2 x18207 -1 x18016 -1 x18017 -1 x18018 -1 x18019 -1 x18020 -1 x18021 >= 0 ;
+2 x18208 +2 x18209 +2 x18210 -1 x18019 -1 x18020 -1 x18021 -1 x18022 -1 x18023 -1 x18024 >= 0 ;
+2 x18211 +2 x18212 +2 x18213 -1 x18022 -1 x18023 -1 x18024 -1 x18025 -1 x18026 -1 x18027 >= 0 ;
+2 x18214 +2 x18215 +2 x18216 -1 x18025 -1 x18026 -1 x18027 -1 x18028 -1 x18029 -1 x18030 >= 0 ;
+2 x18217 +2 x18218 +2 x18219 -1 x18028 -1 x18029 -1 x18030 -1 x18031 -1 x18032 -1 x18033 >= 0 ;
+2 x18220 +2 x18221 +2 x18222 -1 x18031 -1 x18032 -1 x18033 -1 x18034 -1 x18035 -1 x18036 >= 0 ;
+2 x18223 +2 x18224 +2 x18225 -1 x18034 -1 x18035 -1 x18036 -1 x18037 -1 x18038 -1 x18039 >= 0 ;
+2 x18226 +2 x18227 +2 x18228 -1 x18037 -1 x18038 -1 x18039 -1 x18040 -1 x18041 -1 x18042 >= 0 ;
+2 x18229 +2 x18230 +2 x18231 -1 x18040 -1 x18041 -1 x18042 -1 x18043 -1 x18044 -1 x18045 >= 0 ;
+2 x18232 +2 x18233 +2 x18234 -1 x18043 -1 x18044 -1 x18045 -1 x18046 -1 x18047 -1 x18048 >= 0 ;
+2 x18235 +2 x18236 +2 x18237 -1 x18046 -1 x18047 -1 x18048 -1 x18049 -1 x18050 -1 x18051 >= 0 ;
+2 x18238 +2 x18239 +2 x18240 -1 x18049 -1 x18050 -1 x18051 -1 x18052 -1 x18053 -1 x18054 >= 0 ;
+2 x18241 +2 x18242 +2 x18243 -1 x18052 -1 x18053 -1 x18054 -1 x18055 -1 x18056 -1 x18057 >= 0 ;
+2 x18244 +2 x18245 +2 x18246 -1 x18055 -1 x18056 -1 x18057 -1 x18058 -1 x18059 -1 x18060 >= 0 ;
+2 x18247 +2 x18248 +2 x18249 -1 x18058 -1 x18059 -1 x18060 -1 x18061 -1 x18062 -1 x18063 >= 0 ;
+2 x18250 +2 x18251 +2 x18252 -1 x18061 -1 x18062 -1 x18063 -1 x18064 -1 x18065 -1 x18066 >= 0 ;
+2 x18253 +2 x18254 +2 x18255 -1 x18064 -1 x18065 -1 x18066 -1 x18067 -1 x18068 -1 x18069 >= 0 ;
+2 x18256 +2 x18257 +2 x18258 -1 x18067 -1 x18068 -1 x18069 -1 x18070 -1 x18071 -1 x18072 >= 0 ;
+2 x18259 +2 x18260 +2 x18261 -1 x18070 -1 x18071 -1 x18072 -1 x18073 -1 x18074 -1 x18075 >= 0 ;
+2 x18262 +2 x18263 +2 x18264 -1 x18073 -1 x18074 -1 x18075 -1 x18076 -1 x18077 -1 x18078 >= 0 ;
+2 x18265 +2 x18266 +2 x18267 -1 x18076 -1 x18077 -1 x18078 -1 x18079 -1 x18080 -1 x18081 >= 0 ;
+2 x18268 +2 x18269 +2 x18270 -1 x18079 -1 x18080 -1 x18081 -1 x18082 -1 x18083 -1 x18084 >= 0 ;
+2 x18271 +2 x18272 +2 x18273 -1 x18082 -1 x18083 -1 x18084 -1 x18085 -1 x18086 -1 x18087 >= 0 ;
+2 x18274 +2 x18275 +2 x18276 -1 x18085 -1 x18086 -1 x18087 -1 x18088 -1 x18089 -1 x18090 >= 0 ;
+2 x18277 +2 x18278 +2 x18279 -1 x18088 -1 x18089 -1 x18090 -1 x18091 -1 x18092 -1 x18093 >= 0 ;
+2 x18280 +2 x18281 +2 x18282 -1 x18091 -1 x18092 -1 x18093 -1 x18094 -1 x18095 -1 x18096 >= 0 ;
+2 x18283 +2 x18284 +2 x18285 -1 x18094 -1 x18095 -1 x18096 -1 x18097 -1 x18098 -1 x18099 >= 0 ;
+2 x18286 +2 x18287 +2 x18288 -1 x18097 -1 x18098 -1 x18099 -1 x18100 -1 x18101 -1 x18102 >= 0 ;
+2 x18289 +2 x18290 +2 x18291 -1 x18100 -1 x18101 -1 x18102 -1 x18103 -1 x18104 -1 x18105 >= 0 ;
+2 x18292 +2 x18293 +2 x18294 -1 x18103 -1 x18104 -1 x18105 -1 x18106 -1 x18107 -1 x18108 >= 0 ;
+2 x18295 +2 x18296 +2 x18297 -1 x18106 -1 x18107 -1 x18108 -1 x18109 -1 x18110 -1 x18111 >= 0 ;
+2 x18298 +2 x18299 +2 x18300 -1 x18109 -1 x18110 -1 x18111 -1 x18112 -1 x18113 -1 x18114 >= 0 ;
+2 x18301 +2 x18302 +2 x18303 -1 x18112 -1 x18113 -1 x18114 -1 x18115 -1 x18116 -1 x18117 >= 0 ;
+2 x18304 +2 x18305 +2 x18306 -1 x18115 -1 x18116 -1 x18117 -1 x18118 -1 x18119 -1 x18120 >= 0 ;
+2 x18307 +2 x18308 +2 x18309 -1 x18118 -1 x18119 -1 x18120 -1 x18121 -1 x18122 -1 x18123 >= 0 ;
+2 x18310 +2 x18311 +2 x18312 -1 x18121 -1 x18122 -1 x18123 -1 x18124 -1 x18125 -1 x18126 >= 0 ;
+2 x18313 +2 x18314 +2 x18315 -1 x18124 -1 x18125 -1 x18126 -1 x18127 -1 x18128 -1 x18129 >= 0 ;
+2 x18316 +2 x18317 +2 x18318 -1 x18127 -1 x18128 -1 x18129 -1 x18130 -1 x18131 -1 x18132 >= 0 ;
+2 x18319 +2 x18320 +2 x18321 -1 x18130 -1 x18131 -1 x18132 -1 x18133 -1 x18134 -1 x18135 >= 0 ;
+2 x18322 +2 x18323 +2 x18324 -1 x18133 -1 x18134 -1 x18135 -1 x18136 -1 x18137 -1 x18138 >= 0 ;
+2 x18325 +2 x18326 +2 x18327 -1 x18136 -1 x18137 -1 x18138 -1 x18139 -1 x18140 -1 x18141 >= 0 ;
+2 x18328 +2 x18329 +2 x18330 -1 x18139 -1 x18140 -1 x18141 -1 x18142 -1 x18143 -1 x18144 >= 0 ;
+2 x18331 +2 x18332 +2 x18333 -1 x18145 -1 x18146 -1 x18147 -1 x18148 -1 x18149 -1 x18150 >= 0 ;
+2 x18334 +2 x18335 +2 x18336 -1 x18148 -1 x18149 -1 x18150 -1 x18151 -1 x18152 -1 x18153 >= 0 ;
+2 x18337 +2 x18338 +2 x18339 -1 x18151 -1 x18152 -1 x18153 -1 x18154 -1 x18155 -1 x18156 >= 0 ;
+2 x18340 +2 x18341 +2 x18342 -1 x18154 -1 x18155 -1 x18156 -1 x18157 -1 x18158 -1 x18159 >= 0 ;
+2 x18343 +2 x18344 +2 x18345 -1 x18157 -1 x18158 -1 x18159 -1 x18160 -1 x18161 -1 x18162 >= 0 ;
+2 x18346 +2 x18347 +2 x18348 -1 x18160 -1 x18161 -1 x18162 -1 x18163 -1 x18164 -1 x18165 >= 0 ;
+2 x18349 +2 x18350 +2 x18351 -1 x18163 -1 x18164 -1 x18165 -1 x18166 -1 x18167 -1 x18168 >= 0 ;
+2 x18352 +2 x18353 +2 x18354 -1 x18166 -1 x18167 -1 x18168 -1 x18169 -1 x18170 -1 x18171 >= 0 ;
+2 x18355 +2 x18356 +2 x18357 -1 x18169 -1 x18170 -1 x18171 -1 x18172 -1 x18173 -1 x18174 >= 0 ;
+2 x18358 +2 x18359 +2 x18360 -1 x18172 -1 x18173 -1 x18174 -1 x18175 -1 x18176 -1 x18177 >= 0 ;
+2 x18361 +2 x18362 +2 x18363 -1 x18175 -1 x18176 -1 x18177 -1 x18178 -1 x18179 -1 x18180 >= 0 ;
+2 x18364 +2 x18365 +2 x18366 -1 x18178 -1 x18179 -1 x18180 -1 x18181 -1 x18182 -1 x18183 >= 0 ;
+2 x18367 +2 x18368 +2 x18369 -1 x18181 -1 x18182 -1 x18183 -1 x18184 -1 x18185 -1 x18186 >= 0 ;
+2 x18370 +2 x18371 +2 x18372 -1 x18184 -1 x18185 -1 x18186 -1 x18187 -1 x18188 -1 x18189 >= 0 ;
+2 x18373 +2 x18374 +2 x18375 -1 x18187 -1 x18188 -1 x18189 -1 x18190 -1 x18191 -1 x18192 >= 0 ;
+2 x18376 +2 x18377 +2 x18378 -1 x18190 -1 x18191 -1 x18192 -1 x18193 -1 x18194 -1 x18195 >= 0 ;
+2 x18379 +2 x18380 +2 x18381 -1 x18193 -1 x18194 -1 x18195 -1 x18196 -1 x18197 -1 x18198 >= 0 ;
+2 x18382 +2 x18383 +2 x18384 -1 x18196 -1 x18197 -1 x18198 -1 x18199 -1 x18200 -1 x18201 >= 0 ;
+2 x18385 +2 x18386 +2 x18387 -1 x18199 -1 x18200 -1 x18201 -1 x18202 -1 x18203 -1 x18204 >= 0 ;
+2 x18388 +2 x18389 +2 x18390 -1 x18202 -1 x18203 -1 x18204 -1 x18205 -1 x18206 -1 x18207 >= 0 ;
+2 x18391 +2 x18392 +2 x18393 -1 x18205 -1 x18206 -1 x18207 -1 x18208 -1 x18209 -1 x18210 >= 0 ;
+2 x18394 +2 x18395 +2 x18396 -1 x18208 -1 x18209 -1 x18210 -1 x18211 -1 x18212 -1 x18213 >= 0 ;
+2 x18397 +2 x18398 +2 x18399 -1 x18211 -1 x18212 -1 x18213 -1 x18214 -1 x18215 -1 x18216 >= 0 ;
+2 x18400 +2 x18401 +2 x18402 -1 x18214 -1 x18215 -1 x18216 -1 x18217 -1 x18218 -1 x18219 >= 0 ;
+2 x18403 +2 x18404 +2 x18405 -1 x18217 -1 x18218 -1 x18219 -1 x18220 -1 x18221 -1 x18222 >= 0 ;
+2 x18406 +2 x18407 +2 x18408 -1 x18220 -1 x18221 -1 x18222 -1 x18223 -1 x18224 -1 x18225 >= 0 ;
+2 x18409 +2 x18410 +2 x18411 -1 x18223 -1 x18224 -1 x18225 -1 x18226 -1 x18227 -1 x18228 >= 0 ;
+2 x18412 +2 x18413 +2 x18414 -1 x18226 -1 x18227 -1 x18228 -1 x18229 -1 x18230 -1 x18231 >= 0 ;
+2 x18415 +2 x18416 +2 x18417 -1 x18229 -1 x18230 -1 x18231 -1 x18232 -1 x18233 -1 x18234 >= 0 ;
+2 x18418 +2 x18419 +2 x18420 -1 x18232 -1 x18233 -1 x18234 -1 x18235 -1 x18236 -1 x18237 >= 0 ;
+2 x18421 +2 x18422 +2 x18423 -1 x18235 -1 x18236 -1 x18237 -1 x18238 -1 x18239 -1 x18240 >= 0 ;
+2 x18424 +2 x18425 +2 x18426 -1 x18238 -1 x18239 -1 x18240 -1 x18241 -1 x18242 -1 x18243 >= 0 ;
+2 x18427 +2 x18428 +2 x18429 -1 x18241 -1 x18242 -1 x18243 -1 x18244 -1 x18245 -1 x18246 >= 0 ;
+2 x18430 +2 x18431 +2 x18432 -1 x18244 -1 x18245 -1 x18246 -1 x18247 -1 x18248 -1 x18249 >= 0 ;
+2 x18433 +2 x18434 +2 x18435 -1 x18247 -1 x18248 -1 x18249 -1 x18250 -1 x18251 -1 x18252 >= 0 ;
+2 x18436 +2 x18437 +2 x18438 -1 x18250 -1 x18251 -1 x18252 -1 x18253 -1 x18254 -1 x18255 >= 0 ;
+2 x18439 +2 x18440 +2 x18441 -1 x18253 -1 x18254 -1 x18255 -1 x18256 -1 x18257 -1 x18258 >= 0 ;
+2 x18442 +2 x18443 +2 x18444 -1 x18256 -1 x18257 -1 x18258 -1 x18259 -1 x18260 -1 x18261 >= 0 ;
+2 x18445 +2 x18446 +2 x18447 -1 x18259 -1 x18260 -1 x18261 -1 x18262 -1 x18263 -1 x18264 >= 0 ;
+2 x18448 +2 x18449 +2 x18450 -1 x18262 -1 x18263 -1 x18264 -1 x18265 -1 x18266 -1 x18267 >= 0 ;
+2 x18451 +2 x18452 +2 x18453 -1 x18265 -1 x18266 -1 x18267 -1 x18268 -1 x18269 -1 x18270 >= 0 ;
+2 x18454 +2 x18455 +2 x18456 -1 x18268 -1 x18269 -1 x18270 -1 x18271 -1 x18272 -1 x18273 >= 0 ;
+2 x18457 +2 x18458 +2 x18459 -1 x18271 -1 x18272 -1 x18273 -1 x18274 -1 x18275 -1 x18276 >= 0 ;
+2 x18460 +2 x18461 +2 x18462 -1 x18274 -1 x18275 -1 x18276 -1 x18277 -1 x18278 -1 x18279 >= 0 ;
+2 x18463 +2 x18464 +2 x18465 -1 x18277 -1 x18278 -1 x18279 -1 x18280 -1 x18281 -1 x18282 >= 0 ;
+2 x18466 +2 x18467 +2 x18468 -1 x18280 -1 x18281 -1 x18282 -1 x18283 -1 x18284 -1 x18285 >= 0 ;
+2 x18469 +2 x18470 +2 x18471 -1 x18283 -1 x18284 -1 x18285 -1 x18286 -1 x18287 -1 x18288 >= 0 ;
+2 x18472 +2 x18473 +2 x18474 -1 x18286 -1 x18287 -1 x18288 -1 x18289 -1 x18290 -1 x18291 >= 0 ;
+2 x18475 +2 x18476 +2 x18477 -1 x18289 -1 x18290 -1 x18291 -1 x18292 -1 x18293 -1 x18294 >= 0 ;
+2 x18478 +2 x18479 +2 x18480 -1 x18292 -1 x18293 -1 x18294 -1 x18295 -1 x18296 -1 x18297 >= 0 ;
+2 x18481 +2 x18482 +2 x18483 -1 x18295 -1 x18296 -1 x18297 -1 x18298 -1 x18299 -1 x18300 >= 0 ;
+2 x18484 +2 x18485 +2 x18486 -1 x18298 -1 x18299 -1 x18300 -1 x18301 -1 x18302 -1 x18303 >= 0 ;
+2 x18487 +2 x18488 +2 x18489 -1 x18301 -1 x18302 -1 x18303 -1 x18304 -1 x18305 -1 x18306 >= 0 ;
+2 x18490 +2 x18491 +2 x18492 -1 x18304 -1 x18305 -1 x18306 -1 x18307 -1 x18308 -1 x18309 >= 0 ;
+2 x18493 +2 x18494 +2 x18495 -1 x18307 -1 x18308 -1 x18309 -1 x18310 -1 x18311 -1 x18312 >= 0 ;
+2 x18496 +2 x18497 +2 x18498 -1 x18310 -1 x18311 -1 x18312 -1 x18313 -1 x18314 -1 x18315 >= 0 ;
+2 x18499 +2 x18500 +2 x18501 -1 x18313 -1 x18314 -1 x18315 -1 x18316 -1 x18317 -1 x18318 >= 0 ;
+2 x18502 +2 x18503 +2 x18504 -1 x18316 -1 x18317 -1 x18318 -1 x18319 -1 x18320 -1 x18321 >= 0 ;
+2 x18505 +2 x18506 +2 x18507 -1 x18319 -1 x18320 -1 x18321 -1 x18322 -1 x18323 -1 x18324 >= 0 ;
+2 x18508 +2 x18509 +2 x18510 -1 x18322 -1 x18323 -1 x18324 -1 x18325 -1 x18326 -1 x18327 >= 0 ;
+2 x18511 +2 x18512 +2 x18513 -1 x18325 -1 x18326 -1 x18327 -1 x18328 -1 x18329 -1 x18330 >= 0 ;
+2 x18514 +2 x18515 +2 x18516 -1 x18331 -1 x18332 -1 x18333 -1 x18334 -1 x18335 -1 x18336 >= 0 ;
+2 x18517 +2 x18518 +2 x18519 -1 x18334 -1 x18335 -1 x18336 -1 x18337 -1 x18338 -1 x18339 >= 0 ;
+2 x18520 +2 x18521 +2 x18522 -1 x18337 -1 x18338 -1 x18339 -1 x18340 -1 x18341 -1 x18342 >= 0 ;
+2 x18523 +2 x18524 +2 x18525 -1 x18340 -1 x18341 -1 x18342 -1 x18343 -1 x18344 -1 x18345 >= 0 ;
+2 x18526 +2 x18527 +2 x18528 -1 x18343 -1 x18344 -1 x18345 -1 x18346 -1 x18347 -1 x18348 >= 0 ;
+2 x18529 +2 x18530 +2 x18531 -1 x18346 -1 x18347 -1 x18348 -1 x18349 -1 x18350 -1 x18351 >= 0 ;
+2 x18532 +2 x18533 +2 x18534 -1 x18349 -1 x18350 -1 x18351 -1 x18352 -1 x18353 -1 x18354 >= 0 ;
+2 x18535 +2 x18536 +2 x18537 -1 x18352 -1 x18353 -1 x18354 -1 x18355 -1 x18356 -1 x18357 >= 0 ;
+2 x18538 +2 x18539 +2 x18540 -1 x18355 -1 x18356 -1 x18357 -1 x18358 -1 x18359 -1 x18360 >= 0 ;
+2 x18541 +2 x18542 +2 x18543 -1 x18358 -1 x18359 -1 x18360 -1 x18361 -1 x18362 -1 x18363 >= 0 ;
+2 x18544 +2 x18545 +2 x18546 -1 x18361 -1 x18362 -1 x18363 -1 x18364 -1 x18365 -1 x18366 >= 0 ;
+2 x18547 +2 x18548 +2 x18549 -1 x18364 -1 x18365 -1 x18366 -1 x18367 -1 x18368 -1 x18369 >= 0 ;
+2 x18550 +2 x18551 +2 x18552 -1 x18367 -1 x18368 -1 x18369 -1 x18370 -1 x18371 -1 x18372 >= 0 ;
+2 x18553 +2 x18554 +2 x18555 -1 x18370 -1 x18371 -1 x18372 -1 x18373 -1 x18374 -1 x18375 >= 0 ;
+2 x18556 +2 x18557 +2 x18558 -1 x18373 -1 x18374 -1 x18375 -1 x18376 -1 x18377 -1 x18378 >= 0 ;
+2 x18559 +2 x18560 +2 x18561 -1 x18376 -1 x18377 -1 x18378 -1 x18379 -1 x18380 -1 x18381 >= 0 ;
+2 x18562 +2 x18563 +2 x18564 -1 x18379 -1 x18380 -1 x18381 -1 x18382 -1 x18383 -1 x18384 >= 0 ;
+2 x18565 +2 x18566 +2 x18567 -1 x18382 -1 x18383 -1 x18384 -1 x18385 -1 x18386 -1 x18387 >= 0 ;
+2 x18568 +2 x18569 +2 x18570 -1 x18385 -1 x18386 -1 x18387 -1 x18388 -1 x18389 -1 x18390 >= 0 ;
+2 x18571 +2 x18572 +2 x18573 -1 x18388 -1 x18389 -1 x18390 -1 x18391 -1 x18392 -1 x18393 >= 0 ;
+2 x18574 +2 x18575 +2 x18576 -1 x18391 -1 x18392 -1 x18393 -1 x18394 -1 x18395 -1 x18396 >= 0 ;
+2 x18577 +2 x18578 +2 x18579 -1 x18394 -1 x18395 -1 x18396 -1 x18397 -1 x18398 -1 x18399 >= 0 ;
+2 x18580 +2 x18581 +2 x18582 -1 x18397 -1 x18398 -1 x18399 -1 x18400 -1 x18401 -1 x18402 >= 0 ;
+2 x18583 +2 x18584 +2 x18585 -1 x18400 -1 x18401 -1 x18402 -1 x18403 -1 x18404 -1 x18405 >= 0 ;
+2 x18586 +2 x18587 +2 x18588 -1 x18403 -1 x18404 -1 x18405 -1 x18406 -1 x18407 -1 x18408 >= 0 ;
+2 x18589 +2 x18590 +2 x18591 -1 x18406 -1 x18407 -1 x18408 -1 x18409 -1 x18410 -1 x18411 >= 0 ;
+2 x18592 +2 x18593 +2 x18594 -1 x18409 -1 x18410 -1 x18411 -1 x18412 -1 x18413 -1 x18414 >= 0 ;
+2 x18595 +2 x18596 +2 x18597 -1 x18412 -1 x18413 -1 x18414 -1 x18415 -1 x18416 -1 x18417 >= 0 ;
+2 x18598 +2 x18599 +2 x18600 -1 x18415 -1 x18416 -1 x18417 -1 x18418 -1 x18419 -1 x18420 >= 0 ;
+2 x18601 +2 x18602 +2 x18603 -1 x18418 -1 x18419 -1 x18420 -1 x18421 -1 x18422 -1 x18423 >= 0 ;
+2 x18604 +2 x18605 +2 x18606 -1 x18421 -1 x18422 -1 x18423 -1 x18424 -1 x18425 -1 x18426 >= 0 ;
+2 x18607 +2 x18608 +2 x18609 -1 x18424 -1 x18425 -1 x18426 -1 x18427 -1 x18428 -1 x18429 >= 0 ;
+2 x18610 +2 x18611 +2 x18612 -1 x18427 -1 x18428 -1 x18429 -1 x18430 -1 x18431 -1 x18432 >= 0 ;
+2 x18613 +2 x18614 +2 x18615 -1 x18430 -1 x18431 -1 x18432 -1 x18433 -1 x18434 -1 x18435 >= 0 ;
+2 x18616 +2 x18617 +2 x18618 -1 x18433 -1 x18434 -1 x18435 -1 x18436 -1 x18437 -1 x18438 >= 0 ;
+2 x18619 +2 x18620 +2 x18621 -1 x18436 -1 x18437 -1 x18438 -1 x18439 -1 x18440 -1 x18441 >= 0 ;
+2 x18622 +2 x18623 +2 x18624 -1 x18439 -1 x18440 -1 x18441 -1 x18442 -1 x18443 -1 x18444 >= 0 ;
+2 x18625 +2 x18626 +2 x18627 -1 x18442 -1 x18443 -1 x18444 -1 x18445 -1 x18446 -1 x18447 >= 0 ;
+2 x18628 +2 x18629 +2 x18630 -1 x18445 -1 x18446 -1 x18447 -1 x18448 -1 x18449 -1 x18450 >= 0 ;
+2 x18631 +2 x18632 +2 x18633 -1 x18448 -1 x18449 -1 x18450 -1 x18451 -1 x18452 -1 x18453 >= 0 ;
+2 x18634 +2 x18635 +2 x18636 -1 x18451 -1 x18452 -1 x18453 -1 x18454 -1 x18455 -1 x18456 >= 0 ;
+2 x18637 +2 x18638 +2 x18639 -1 x18454 -1 x18455 -1 x18456 -1 x18457 -1 x18458 -1 x18459 >= 0 ;
+2 x18640 +2 x18641 +2 x18642 -1 x18457 -1 x18458 -1 x18459 -1 x18460 -1 x18461 -1 x18462 >= 0 ;
+2 x18643 +2 x18644 +2 x18645 -1 x18460 -1 x18461 -1 x18462 -1 x18463 -1 x18464 -1 x18465 >= 0 ;
+2 x18646 +2 x18647 +2 x18648 -1 x18463 -1 x18464 -1 x18465 -1 x18466 -1 x18467 -1 x18468 >= 0 ;
+2 x18649 +2 x18650 +2 x18651 -1 x18466 -1 x18467 -1 x18468 -1 x18469 -1 x18470 -1 x18471 >= 0 ;
+2 x18652 +2 x18653 +2 x18654 -1 x18469 -1 x18470 -1 x18471 -1 x18472 -1 x18473 -1 x18474 >= 0 ;
+2 x18655 +2 x18656 +2 x18657 -1 x18472 -1 x18473 -1 x18474 -1 x18475 -1 x18476 -1 x18477 >= 0 ;
+2 x18658 +2 x18659 +2 x18660 -1 x18475 -1 x18476 -1 x18477 -1 x18478 -1 x18479 -1 x18480 >= 0 ;
+2 x18661 +2 x18662 +2 x18663 -1 x18478 -1 x18479 -1 x18480 -1 x18481 -1 x18482 -1 x18483 >= 0 ;
+2 x18664 +2 x18665 +2 x18666 -1 x18481 -1 x18482 -1 x18483 -1 x18484 -1 x18485 -1 x18486 >= 0 ;
+2 x18667 +2 x18668 +2 x18669 -1 x18484 -1 x18485 -1 x18486 -1 x18487 -1 x18488 -1 x18489 >= 0 ;
+2 x18670 +2 x18671 +2 x18672 -1 x18487 -1 x18488 -1 x18489 -1 x18490 -1 x18491 -1 x18492 >= 0 ;
+2 x18673 +2 x18674 +2 x18675 -1 x18490 -1 x18491 -1 x18492 -1 x18493 -1 x18494 -1 x18495 >= 0 ;
+2 x18676 +2 x18677 +2 x18678 -1 x18493 -1 x18494 -1 x18495 -1 x18496 -1 x18497 -1 x18498 >= 0 ;
+2 x18679 +2 x18680 +2 x18681 -1 x18496 -1 x18497 -1 x18498 -1 x18499 -1 x18500 -1 x18501 >= 0 ;
+2 x18682 +2 x18683 +2 x18684 -1 x18499 -1 x18500 -1 x18501 -1 x18502 -1 x18503 -1 x18504 >= 0 ;
+2 x18685 +2 x18686 +2 x18687 -1 x18502 -1 x18503 -1 x18504 -1 x18505 -1 x18506 -1 x18507 >= 0 ;
+2 x18688 +2 x18689 +2 x18690 -1 x18505 -1 x18506 -1 x18507 -1 x18508 -1 x18509 -1 x18510 >= 0 ;
+2 x18691 +2 x18692 +2 x18693 -1 x18508 -1 x18509 -1 x18510 -1 x18511 -1 x18512 -1 x18513 >= 0 ;
+2 x18694 +2 x18695 +2 x18696 -1 x18514 -1 x18515 -1 x18516 -1 x18517 -1 x18518 -1 x18519 >= 0 ;
+2 x18697 +2 x18698 +2 x18699 -1 x18517 -1 x18518 -1 x18519 -1 x18520 -1 x18521 -1 x18522 >= 0 ;
+2 x18700 +2 x18701 +2 x18702 -1 x18520 -1 x18521 -1 x18522 -1 x18523 -1 x18524 -1 x18525 >= 0 ;
+2 x18703 +2 x18704 +2 x18705 -1 x18523 -1 x18524 -1 x18525 -1 x18526 -1 x18527 -1 x18528 >= 0 ;
+2 x18706 +2 x18707 +2 x18708 -1 x18526 -1 x18527 -1 x18528 -1 x18529 -1 x18530 -1 x18531 >= 0 ;
+2 x18709 +2 x18710 +2 x18711 -1 x18529 -1 x18530 -1 x18531 -1 x18532 -1 x18533 -1 x18534 >= 0 ;
+2 x18712 +2 x18713 +2 x18714 -1 x18532 -1 x18533 -1 x18534 -1 x18535 -1 x18536 -1 x18537 >= 0 ;
+2 x18715 +2 x18716 +2 x18717 -1 x18535 -1 x18536 -1 x18537 -1 x18538 -1 x18539 -1 x18540 >= 0 ;
+2 x18718 +2 x18719 +2 x18720 -1 x18538 -1 x18539 -1 x18540 -1 x18541 -1 x18542 -1 x18543 >= 0 ;
+2 x18721 +2 x18722 +2 x18723 -1 x18541 -1 x18542 -1 x18543 -1 x18544 -1 x18545 -1 x18546 >= 0 ;
+2 x18724 +2 x18725 +2 x18726 -1 x18544 -1 x18545 -1 x18546 -1 x18547 -1 x18548 -1 x18549 >= 0 ;
+2 x18727 +2 x18728 +2 x18729 -1 x18547 -1 x18548 -1 x18549 -1 x18550 -1 x18551 -1 x18552 >= 0 ;
+2 x18730 +2 x18731 +2 x18732 -1 x18550 -1 x18551 -1 x18552 -1 x18553 -1 x18554 -1 x18555 >= 0 ;
+2 x18733 +2 x18734 +2 x18735 -1 x18553 -1 x18554 -1 x18555 -1 x18556 -1 x18557 -1 x18558 >= 0 ;
+2 x18736 +2 x18737 +2 x18738 -1 x18556 -1 x18557 -1 x18558 -1 x18559 -1 x18560 -1 x18561 >= 0 ;
+2 x18739 +2 x18740 +2 x18741 -1 x18559 -1 x18560 -1 x18561 -1 x18562 -1 x18563 -1 x18564 >= 0 ;
+2 x18742 +2 x18743 +2 x18744 -1 x18562 -1 x18563 -1 x18564 -1 x18565 -1 x18566 -1 x18567 >= 0 ;
+2 x18745 +2 x18746 +2 x18747 -1 x18565 -1 x18566 -1 x18567 -1 x18568 -1 x18569 -1 x18570 >= 0 ;
+2 x18748 +2 x18749 +2 x18750 -1 x18568 -1 x18569 -1 x18570 -1 x18571 -1 x18572 -1 x18573 >= 0 ;
+2 x18751 +2 x18752 +2 x18753 -1 x18571 -1 x18572 -1 x18573 -1 x18574 -1 x18575 -1 x18576 >= 0 ;
+2 x18754 +2 x18755 +2 x18756 -1 x18574 -1 x18575 -1 x18576 -1 x18577 -1 x18578 -1 x18579 >= 0 ;
+2 x18757 +2 x18758 +2 x18759 -1 x18577 -1 x18578 -1 x18579 -1 x18580 -1 x18581 -1 x18582 >= 0 ;
+2 x18760 +2 x18761 +2 x18762 -1 x18580 -1 x18581 -1 x18582 -1 x18583 -1 x18584 -1 x18585 >= 0 ;
+2 x18763 +2 x18764 +2 x18765 -1 x18583 -1 x18584 -1 x18585 -1 x18586 -1 x18587 -1 x18588 >= 0 ;
+2 x18766 +2 x18767 +2 x18768 -1 x18586 -1 x18587 -1 x18588 -1 x18589 -1 x18590 -1 x18591 >= 0 ;
+2 x18769 +2 x18770 +2 x18771 -1 x18589 -1 x18590 -1 x18591 -1 x18592 -1 x18593 -1 x18594 >= 0 ;
+2 x18772 +2 x18773 +2 x18774 -1 x18592 -1 x18593 -1 x18594 -1 x18595 -1 x18596 -1 x18597 >= 0 ;
+2 x18775 +2 x18776 +2 x18777 -1 x18595 -1 x18596 -1 x18597 -1 x18598 -1 x18599 -1 x18600 >= 0 ;
+2 x18778 +2 x18779 +2 x18780 -1 x18598 -1 x18599 -1 x18600 -1 x18601 -1 x18602 -1 x18603 >= 0 ;
+2 x18781 +2 x18782 +2 x18783 -1 x18601 -1 x18602 -1 x18603 -1 x18604 -1 x18605 -1 x18606 >= 0 ;
+2 x18784 +2 x18785 +2 x18786 -1 x18604 -1 x18605 -1 x18606 -1 x18607 -1 x18608 -1 x18609 >= 0 ;
+2 x18787 +2 x18788 +2 x18789 -1 x18607 -1 x18608 -1 x18609 -1 x18610 -1 x18611 -1 x18612 >= 0 ;
+2 x18790 +2 x18791 +2 x18792 -1 x18610 -1 x18611 -1 x18612 -1 x18613 -1 x18614 -1 x18615 >= 0 ;
+2 x18793 +2 x18794 +2 x18795 -1 x18613 -1 x18614 -1 x18615 -1 x18616 -1 x18617 -1 x18618 >= 0 ;
+2 x18796 +2 x18797 +2 x18798 -1 x18616 -1 x18617 -1 x18618 -1 x18619 -1 x18620 -1 x18621 >= 0 ;
+2 x18799 +2 x18800 +2 x18801 -1 x18619 -1 x18620 -1 x18621 -1 x18622 -1 x18623 -1 x18624 >= 0 ;
+2 x18802 +2 x18803 +2 x18804 -1 x18622 -1 x18623 -1 x18624 -1 x18625 -1 x18626 -1 x18627 >= 0 ;
+2 x18805 +2 x18806 +2 x18807 -1 x18625 -1 x18626 -1 x18627 -1 x18628 -1 x18629 -1 x18630 >= 0 ;
+2 x18808 +2 x18809 +2 x18810 -1 x18628 -1 x18629 -1 x18630 -1 x18631 -1 x18632 -1 x18633 >= 0 ;
+2 x18811 +2 x18812 +2 x18813 -1 x18631 -1 x18632 -1 x18633 -1 x18634 -1 x18635 -1 x18636 >= 0 ;
+2 x18814 +2 x18815 +2 x18816 -1 x18634 -1 x18635 -1 x18636 -1 x18637 -1 x18638 -1 x18639 >= 0 ;
+2 x18817 +2 x18818 +2 x18819 -1 x18637 -1 x18638 -1 x18639 -1 x18640 -1 x18641 -1 x18642 >= 0 ;
+2 x18820 +2 x18821 +2 x18822 -1 x18640 -1 x18641 -1 x18642 -1 x18643 -1 x18644 -1 x18645 >= 0 ;
+2 x18823 +2 x18824 +2 x18825 -1 x18643 -1 x18644 -1 x18645 -1 x18646 -1 x18647 -1 x18648 >= 0 ;
+2 x18826 +2 x18827 +2 x18828 -1 x18646 -1 x18647 -1 x18648 -1 x18649 -1 x18650 -1 x18651 >= 0 ;
+2 x18829 +2 x18830 +2 x18831 -1 x18649 -1 x18650 -1 x18651 -1 x18652 -1 x18653 -1 x18654 >= 0 ;
+2 x18832 +2 x18833 +2 x18834 -1 x18652 -1 x18653 -1 x18654 -1 x18655 -1 x18656 -1 x18657 >= 0 ;
+2 x18835 +2 x18836 +2 x18837 -1 x18655 -1 x18656 -1 x18657 -1 x18658 -1 x18659 -1 x18660 >= 0 ;
+2 x18838 +2 x18839 +2 x18840 -1 x18658 -1 x18659 -1 x18660 -1 x18661 -1 x18662 -1 x18663 >= 0 ;
+2 x18841 +2 x18842 +2 x18843 -1 x18661 -1 x18662 -1 x18663 -1 x18664 -1 x18665 -1 x18666 >= 0 ;
+2 x18844 +2 x18845 +2 x18846 -1 x18664 -1 x18665 -1 x18666 -1 x18667 -1 x18668 -1 x18669 >= 0 ;
+2 x18847 +2 x18848 +2 x18849 -1 x18667 -1 x18668 -1 x18669 -1 x18670 -1 x18671 -1 x18672 >= 0 ;
+2 x18850 +2 x18851 +2 x18852 -1 x18670 -1 x18671 -1 x18672 -1 x18673 -1 x18674 -1 x18675 >= 0 ;
+2 x18853 +2 x18854 +2 x18855 -1 x18673 -1 x18674 -1 x18675 -1 x18676 -1 x18677 -1 x18678 >= 0 ;
+2 x18856 +2 x18857 +2 x18858 -1 x18676 -1 x18677 -1 x18678 -1 x18679 -1 x18680 -1 x18681 >= 0 ;
+2 x18859 +2 x18860 +2 x18861 -1 x18679 -1 x18680 -1 x18681 -1 x18682 -1 x18683 -1 x18684 >= 0 ;
+2 x18862 +2 x18863 +2 x18864 -1 x18682 -1 x18683 -1 x18684 -1 x18685 -1 x18686 -1 x18687 >= 0 ;
+2 x18865 +2 x18866 +2 x18867 -1 x18685 -1 x18686 -1 x18687 -1 x18688 -1 x18689 -1 x18690 >= 0 ;
+2 x18868 +2 x18869 +2 x18870 -1 x18688 -1 x18689 -1 x18690 -1 x18691 -1 x18692 -1 x18693 >= 0 ;
+2 x18871 +2 x18872 +2 x18873 -1 x18694 -1 x18695 -1 x18696 -1 x18697 -1 x18698 -1 x18699 >= 0 ;
+2 x18874 +2 x18875 +2 x18876 -1 x18697 -1 x18698 -1 x18699 -1 x18700 -1 x18701 -1 x18702 >= 0 ;
+2 x18877 +2 x18878 +2 x18879 -1 x18700 -1 x18701 -1 x18702 -1 x18703 -1 x18704 -1 x18705 >= 0 ;
+2 x18880 +2 x18881 +2 x18882 -1 x18703 -1 x18704 -1 x18705 -1 x18706 -1 x18707 -1 x18708 >= 0 ;
+2 x18883 +2 x18884 +2 x18885 -1 x18706 -1 x18707 -1 x18708 -1 x18709 -1 x18710 -1 x18711 >= 0 ;
+2 x18886 +2 x18887 +2 x18888 -1 x18709 -1 x18710 -1 x18711 -1 x18712 -1 x18713 -1 x18714 >= 0 ;
+2 x18889 +2 x18890 +2 x18891 -1 x18712 -1 x18713 -1 x18714 -1 x18715 -1 x18716 -1 x18717 >= 0 ;
+2 x18892 +2 x18893 +2 x18894 -1 x18715 -1 x18716 -1 x18717 -1 x18718 -1 x18719 -1 x18720 >= 0 ;
+2 x18895 +2 x18896 +2 x18897 -1 x18718 -1 x18719 -1 x18720 -1 x18721 -1 x18722 -1 x18723 >= 0 ;
+2 x18898 +2 x18899 +2 x18900 -1 x18721 -1 x18722 -1 x18723 -1 x18724 -1 x18725 -1 x18726 >= 0 ;
+2 x18901 +2 x18902 +2 x18903 -1 x18724 -1 x18725 -1 x18726 -1 x18727 -1 x18728 -1 x18729 >= 0 ;
+2 x18904 +2 x18905 +2 x18906 -1 x18727 -1 x18728 -1 x18729 -1 x18730 -1 x18731 -1 x18732 >= 0 ;
+2 x18907 +2 x18908 +2 x18909 -1 x18730 -1 x18731 -1 x18732 -1 x18733 -1 x18734 -1 x18735 >= 0 ;
+2 x18910 +2 x18911 +2 x18912 -1 x18733 -1 x18734 -1 x18735 -1 x18736 -1 x18737 -1 x18738 >= 0 ;
+2 x18913 +2 x18914 +2 x18915 -1 x18736 -1 x18737 -1 x18738 -1 x18739 -1 x18740 -1 x18741 >= 0 ;
+2 x18916 +2 x18917 +2 x18918 -1 x18739 -1 x18740 -1 x18741 -1 x18742 -1 x18743 -1 x18744 >= 0 ;
+2 x18919 +2 x18920 +2 x18921 -1 x18742 -1 x18743 -1 x18744 -1 x18745 -1 x18746 -1 x18747 >= 0 ;
+2 x18922 +2 x18923 +2 x18924 -1 x18745 -1 x18746 -1 x18747 -1 x18748 -1 x18749 -1 x18750 >= 0 ;
+2 x18925 +2 x18926 +2 x18927 -1 x18748 -1 x18749 -1 x18750 -1 x18751 -1 x18752 -1 x18753 >= 0 ;
+2 x18928 +2 x18929 +2 x18930 -1 x18751 -1 x18752 -1 x18753 -1 x18754 -1 x18755 -1 x18756 >= 0 ;
+2 x18931 +2 x18932 +2 x18933 -1 x18754 -1 x18755 -1 x18756 -1 x18757 -1 x18758 -1 x18759 >= 0 ;
+2 x18934 +2 x18935 +2 x18936 -1 x18757 -1 x18758 -1 x18759 -1 x18760 -1 x18761 -1 x18762 >= 0 ;
+2 x18937 +2 x18938 +2 x18939 -1 x18760 -1 x18761 -1 x18762 -1 x18763 -1 x18764 -1 x18765 >= 0 ;
+2 x18940 +2 x18941 +2 x18942 -1 x18763 -1 x18764 -1 x18765 -1 x18766 -1 x18767 -1 x18768 >= 0 ;
+2 x18943 +2 x18944 +2 x18945 -1 x18766 -1 x18767 -1 x18768 -1 x18769 -1 x18770 -1 x18771 >= 0 ;
+2 x18946 +2 x18947 +2 x18948 -1 x18769 -1 x18770 -1 x18771 -1 x18772 -1 x18773 -1 x18774 >= 0 ;
+2 x18949 +2 x18950 +2 x18951 -1 x18772 -1 x18773 -1 x18774 -1 x18775 -1 x18776 -1 x18777 >= 0 ;
+2 x18952 +2 x18953 +2 x18954 -1 x18775 -1 x18776 -1 x18777 -1 x18778 -1 x18779 -1 x18780 >= 0 ;
+2 x18955 +2 x18956 +2 x18957 -1 x18778 -1 x18779 -1 x18780 -1 x18781 -1 x18782 -1 x18783 >= 0 ;
+2 x18958 +2 x18959 +2 x18960 -1 x18781 -1 x18782 -1 x18783 -1 x18784 -1 x18785 -1 x18786 >= 0 ;
+2 x18961 +2 x18962 +2 x18963 -1 x18784 -1 x18785 -1 x18786 -1 x18787 -1 x18788 -1 x18789 >= 0 ;
+2 x18964 +2 x18965 +2 x18966 -1 x18787 -1 x18788 -1 x18789 -1 x18790 -1 x18791 -1 x18792 >= 0 ;
+2 x18967 +2 x18968 +2 x18969 -1 x18790 -1 x18791 -1 x18792 -1 x18793 -1 x18794 -1 x18795 >= 0 ;
+2 x18970 +2 x18971 +2 x18972 -1 x18793 -1 x18794 -1 x18795 -1 x18796 -1 x18797 -1 x18798 >= 0 ;
+2 x18973 +2 x18974 +2 x18975 -1 x18796 -1 x18797 -1 x18798 -1 x18799 -1 x18800 -1 x18801 >= 0 ;
+2 x18976 +2 x18977 +2 x18978 -1 x18799 -1 x18800 -1 x18801 -1 x18802 -1 x18803 -1 x18804 >= 0 ;
+2 x18979 +2 x18980 +2 x18981 -1 x18802 -1 x18803 -1 x18804 -1 x18805 -1 x18806 -1 x18807 >= 0 ;
+2 x18982 +2 x18983 +2 x18984 -1 x18805 -1 x18806 -1 x18807 -1 x18808 -1 x18809 -1 x18810 >= 0 ;
+2 x18985 +2 x18986 +2 x18987 -1 x18808 -1 x18809 -1 x18810 -1 x18811 -1 x18812 -1 x18813 >= 0 ;
+2 x18988 +2 x18989 +2 x18990 -1 x18811 -1 x18812 -1 x18813 -1 x18814 -1 x18815 -1 x18816 >= 0 ;
+2 x18991 +2 x18992 +2 x18993 -1 x18814 -1 x18815 -1 x18816 -1 x18817 -1 x18818 -1 x18819 >= 0 ;
+2 x18994 +2 x18995 +2 x18996 -1 x18817 -1 x18818 -1 x18819 -1 x18820 -1 x18821 -1 x18822 >= 0 ;
+2 x18997 +2 x18998 +2 x18999 -1 x18820 -1 x18821 -1 x18822 -1 x18823 -1 x18824 -1 x18825 >= 0 ;
+2 x19000 +2 x19001 +2 x19002 -1 x18823 -1 x18824 -1 x18825 -1 x18826 -1 x18827 -1 x18828 >= 0 ;
+2 x19003 +2 x19004 +2 x19005 -1 x18826 -1 x18827 -1 x18828 -1 x18829 -1 x18830 -1 x18831 >= 0 ;
+2 x19006 +2 x19007 +2 x19008 -1 x18829 -1 x18830 -1 x18831 -1 x18832 -1 x18833 -1 x18834 >= 0 ;
+2 x19009 +2 x19010 +2 x19011 -1 x18832 -1 x18833 -1 x18834 -1 x18835 -1 x18836 -1 x18837 >= 0 ;
+2 x19012 +2 x19013 +2 x19014 -1 x18835 -1 x18836 -1 x18837 -1 x18838 -1 x18839 -1 x18840 >= 0 ;
+2 x19015 +2 x19016 +2 x19017 -1 x18838 -1 x18839 -1 x18840 -1 x18841 -1 x18842 -1 x18843 >= 0 ;
+2 x19018 +2 x19019 +2 x19020 -1 x18841 -1 x18842 -1 x18843 -1 x18844 -1 x18845 -1 x18846 >= 0 ;
+2 x19021 +2 x19022 +2 x19023 -1 x18844 -1 x18845 -1 x18846 -1 x18847 -1 x18848 -1 x18849 >= 0 ;
+2 x19024 +2 x19025 +2 x19026 -1 x18847 -1 x18848 -1 x18849 -1 x18850 -1 x18851 -1 x18852 >= 0 ;
+2 x19027 +2 x19028 +2 x19029 -1 x18850 -1 x18851 -1 x18852 -1 x18853 -1 x18854 -1 x18855 >= 0 ;
+2 x19030 +2 x19031 +2 x19032 -1 x18853 -1 x18854 -1 x18855 -1 x18856 -1 x18857 -1 x18858 >= 0 ;
+2 x19033 +2 x19034 +2 x19035 -1 x18856 -1 x18857 -1 x18858 -1 x18859 -1 x18860 -1 x18861 >= 0 ;
+2 x19036 +2 x19037 +2 x19038 -1 x18859 -1 x18860 -1 x18861 -1 x18862 -1 x18863 -1 x18864 >= 0 ;
+2 x19039 +2 x19040 +2 x19041 -1 x18862 -1 x18863 -1 x18864 -1 x18865 -1 x18866 -1 x18867 >= 0 ;
+2 x19042 +2 x19043 +2 x19044 -1 x18865 -1 x18866 -1 x18867 -1 x18868 -1 x18869 -1 x18870 >= 0 ;
+2 x19045 +2 x19046 +2 x19047 -1 x18871 -1 x18872 -1 x18873 -1 x18874 -1 x18875 -1 x18876 >= 0 ;
+2 x19048 +2 x19049 +2 x19050 -1 x18874 -1 x18875 -1 x18876 -1 x18877 -1 x18878 -1 x18879 >= 0 ;
+2 x19051 +2 x19052 +2 x19053 -1 x18877 -1 x18878 -1 x18879 -1 x18880 -1 x18881 -1 x18882 >= 0 ;
+2 x19054 +2 x19055 +2 x19056 -1 x18880 -1 x18881 -1 x18882 -1 x18883 -1 x18884 -1 x18885 >= 0 ;
+2 x19057 +2 x19058 +2 x19059 -1 x18883 -1 x18884 -1 x18885 -1 x18886 -1 x18887 -1 x18888 >= 0 ;
+2 x19060 +2 x19061 +2 x19062 -1 x18886 -1 x18887 -1 x18888 -1 x18889 -1 x18890 -1 x18891 >= 0 ;
+2 x19063 +2 x19064 +2 x19065 -1 x18889 -1 x18890 -1 x18891 -1 x18892 -1 x18893 -1 x18894 >= 0 ;
+2 x19066 +2 x19067 +2 x19068 -1 x18892 -1 x18893 -1 x18894 -1 x18895 -1 x18896 -1 x18897 >= 0 ;
+2 x19069 +2 x19070 +2 x19071 -1 x18895 -1 x18896 -1 x18897 -1 x18898 -1 x18899 -1 x18900 >= 0 ;
+2 x19072 +2 x19073 +2 x19074 -1 x18898 -1 x18899 -1 x18900 -1 x18901 -1 x18902 -1 x18903 >= 0 ;
+2 x19075 +2 x19076 +2 x19077 -1 x18901 -1 x18902 -1 x18903 -1 x18904 -1 x18905 -1 x18906 >= 0 ;
+2 x19078 +2 x19079 +2 x19080 -1 x18904 -1 x18905 -1 x18906 -1 x18907 -1 x18908 -1 x18909 >= 0 ;
+2 x19081 +2 x19082 +2 x19083 -1 x18907 -1 x18908 -1 x18909 -1 x18910 -1 x18911 -1 x18912 >= 0 ;
+2 x19084 +2 x19085 +2 x19086 -1 x18910 -1 x18911 -1 x18912 -1 x18913 -1 x18914 -1 x18915 >= 0 ;
+2 x19087 +2 x19088 +2 x19089 -1 x18913 -1 x18914 -1 x18915 -1 x18916 -1 x18917 -1 x18918 >= 0 ;
+2 x19090 +2 x19091 +2 x19092 -1 x18916 -1 x18917 -1 x18918 -1 x18919 -1 x18920 -1 x18921 >= 0 ;
+2 x19093 +2 x19094 +2 x19095 -1 x18919 -1 x18920 -1 x18921 -1 x18922 -1 x18923 -1 x18924 >= 0 ;
+2 x19096 +2 x19097 +2 x19098 -1 x18922 -1 x18923 -1 x18924 -1 x18925 -1 x18926 -1 x18927 >= 0 ;
+2 x19099 +2 x19100 +2 x19101 -1 x18925 -1 x18926 -1 x18927 -1 x18928 -1 x18929 -1 x18930 >= 0 ;
+2 x19102 +2 x19103 +2 x19104 -1 x18928 -1 x18929 -1 x18930 -1 x18931 -1 x18932 -1 x18933 >= 0 ;
+2 x19105 +2 x19106 +2 x19107 -1 x18931 -1 x18932 -1 x18933 -1 x18934 -1 x18935 -1 x18936 >= 0 ;
+2 x19108 +2 x19109 +2 x19110 -1 x18934 -1 x18935 -1 x18936 -1 x18937 -1 x18938 -1 x18939 >= 0 ;
+2 x19111 +2 x19112 +2 x19113 -1 x18937 -1 x18938 -1 x18939 -1 x18940 -1 x18941 -1 x18942 >= 0 ;
+2 x19114 +2 x19115 +2 x19116 -1 x18940 -1 x18941 -1 x18942 -1 x18943 -1 x18944 -1 x18945 >= 0 ;
+2 x19117 +2 x19118 +2 x19119 -1 x18943 -1 x18944 -1 x18945 -1 x18946 -1 x18947 -1 x18948 >= 0 ;
+2 x19120 +2 x19121 +2 x19122 -1 x18946 -1 x18947 -1 x18948 -1 x18949 -1 x18950 -1 x18951 >= 0 ;
+2 x19123 +2 x19124 +2 x19125 -1 x18949 -1 x18950 -1 x18951 -1 x18952 -1 x18953 -1 x18954 >= 0 ;
+2 x19126 +2 x19127 +2 x19128 -1 x18952 -1 x18953 -1 x18954 -1 x18955 -1 x18956 -1 x18957 >= 0 ;
+2 x19129 +2 x19130 +2 x19131 -1 x18955 -1 x18956 -1 x18957 -1 x18958 -1 x18959 -1 x18960 >= 0 ;
+2 x19132 +2 x19133 +2 x19134 -1 x18958 -1 x18959 -1 x18960 -1 x18961 -1 x18962 -1 x18963 >= 0 ;
+2 x19135 +2 x19136 +2 x19137 -1 x18961 -1 x18962 -1 x18963 -1 x18964 -1 x18965 -1 x18966 >= 0 ;
+2 x19138 +2 x19139 +2 x19140 -1 x18964 -1 x18965 -1 x18966 -1 x18967 -1 x18968 -1 x18969 >= 0 ;
+2 x19141 +2 x19142 +2 x19143 -1 x18967 -1 x18968 -1 x18969 -1 x18970 -1 x18971 -1 x18972 >= 0 ;
+2 x19144 +2 x19145 +2 x19146 -1 x18970 -1 x18971 -1 x18972 -1 x18973 -1 x18974 -1 x18975 >= 0 ;
+2 x19147 +2 x19148 +2 x19149 -1 x18973 -1 x18974 -1 x18975 -1 x18976 -1 x18977 -1 x18978 >= 0 ;
+2 x19150 +2 x19151 +2 x19152 -1 x18976 -1 x18977 -1 x18978 -1 x18979 -1 x18980 -1 x18981 >= 0 ;
+2 x19153 +2 x19154 +2 x19155 -1 x18979 -1 x18980 -1 x18981 -1 x18982 -1 x18983 -1 x18984 >= 0 ;
+2 x19156 +2 x19157 +2 x19158 -1 x18982 -1 x18983 -1 x18984 -1 x18985 -1 x18986 -1 x18987 >= 0 ;
+2 x19159 +2 x19160 +2 x19161 -1 x18985 -1 x18986 -1 x18987 -1 x18988 -1 x18989 -1 x18990 >= 0 ;
+2 x19162 +2 x19163 +2 x19164 -1 x18988 -1 x18989 -1 x18990 -1 x18991 -1 x18992 -1 x18993 >= 0 ;
+2 x19165 +2 x19166 +2 x19167 -1 x18991 -1 x18992 -1 x18993 -1 x18994 -1 x18995 -1 x18996 >= 0 ;
+2 x19168 +2 x19169 +2 x19170 -1 x18994 -1 x18995 -1 x18996 -1 x18997 -1 x18998 -1 x18999 >= 0 ;
+2 x19171 +2 x19172 +2 x19173 -1 x18997 -1 x18998 -1 x18999 -1 x19000 -1 x19001 -1 x19002 >= 0 ;
+2 x19174 +2 x19175 +2 x19176 -1 x19000 -1 x19001 -1 x19002 -1 x19003 -1 x19004 -1 x19005 >= 0 ;
+2 x19177 +2 x19178 +2 x19179 -1 x19003 -1 x19004 -1 x19005 -1 x19006 -1 x19007 -1 x19008 >= 0 ;
+2 x19180 +2 x19181 +2 x19182 -1 x19006 -1 x19007 -1 x19008 -1 x19009 -1 x19010 -1 x19011 >= 0 ;
+2 x19183 +2 x19184 +2 x19185 -1 x19009 -1 x19010 -1 x19011 -1 x19012 -1 x19013 -1 x19014 >= 0 ;
+2 x19186 +2 x19187 +2 x19188 -1 x19012 -1 x19013 -1 x19014 -1 x19015 -1 x19016 -1 x19017 >= 0 ;
+2 x19189 +2 x19190 +2 x19191 -1 x19015 -1 x19016 -1 x19017 -1 x19018 -1 x19019 -1 x19020 >= 0 ;
+2 x19192 +2 x19193 +2 x19194 -1 x19018 -1 x19019 -1 x19020 -1 x19021 -1 x19022 -1 x19023 >= 0 ;
+2 x19195 +2 x19196 +2 x19197 -1 x19021 -1 x19022 -1 x19023 -1 x19024 -1 x19025 -1 x19026 >= 0 ;
+2 x19198 +2 x19199 +2 x19200 -1 x19024 -1 x19025 -1 x19026 -1 x19027 -1 x19028 -1 x19029 >= 0 ;
+2 x19201 +2 x19202 +2 x19203 -1 x19027 -1 x19028 -1 x19029 -1 x19030 -1 x19031 -1 x19032 >= 0 ;
+2 x19204 +2 x19205 +2 x19206 -1 x19030 -1 x19031 -1 x19032 -1 x19033 -1 x19034 -1 x19035 >= 0 ;
+2 x19207 +2 x19208 +2 x19209 -1 x19033 -1 x19034 -1 x19035 -1 x19036 -1 x19037 -1 x19038 >= 0 ;
+2 x19210 +2 x19211 +2 x19212 -1 x19036 -1 x19037 -1 x19038 -1 x19039 -1 x19040 -1 x19041 >= 0 ;
+2 x19213 +2 x19214 +2 x19215 -1 x19039 -1 x19040 -1 x19041 -1 x19042 -1 x19043 -1 x19044 >= 0 ;
+2 x19216 +2 x19217 +2 x19218 -1 x19045 -1 x19046 -1 x19047 -1 x19048 -1 x19049 -1 x19050 >= 0 ;
+2 x19219 +2 x19220 +2 x19221 -1 x19048 -1 x19049 -1 x19050 -1 x19051 -1 x19052 -1 x19053 >= 0 ;
+2 x19222 +2 x19223 +2 x19224 -1 x19051 -1 x19052 -1 x19053 -1 x19054 -1 x19055 -1 x19056 >= 0 ;
+2 x19225 +2 x19226 +2 x19227 -1 x19054 -1 x19055 -1 x19056 -1 x19057 -1 x19058 -1 x19059 >= 0 ;
+2 x19228 +2 x19229 +2 x19230 -1 x19057 -1 x19058 -1 x19059 -1 x19060 -1 x19061 -1 x19062 >= 0 ;
+2 x19231 +2 x19232 +2 x19233 -1 x19060 -1 x19061 -1 x19062 -1 x19063 -1 x19064 -1 x19065 >= 0 ;
+2 x19234 +2 x19235 +2 x19236 -1 x19063 -1 x19064 -1 x19065 -1 x19066 -1 x19067 -1 x19068 >= 0 ;
+2 x19237 +2 x19238 +2 x19239 -1 x19066 -1 x19067 -1 x19068 -1 x19069 -1 x19070 -1 x19071 >= 0 ;
+2 x19240 +2 x19241 +2 x19242 -1 x19069 -1 x19070 -1 x19071 -1 x19072 -1 x19073 -1 x19074 >= 0 ;
+2 x19243 +2 x19244 +2 x19245 -1 x19072 -1 x19073 -1 x19074 -1 x19075 -1 x19076 -1 x19077 >= 0 ;
+2 x19246 +2 x19247 +2 x19248 -1 x19075 -1 x19076 -1 x19077 -1 x19078 -1 x19079 -1 x19080 >= 0 ;
+2 x19249 +2 x19250 +2 x19251 -1 x19078 -1 x19079 -1 x19080 -1 x19081 -1 x19082 -1 x19083 >= 0 ;
+2 x19252 +2 x19253 +2 x19254 -1 x19081 -1 x19082 -1 x19083 -1 x19084 -1 x19085 -1 x19086 >= 0 ;
+2 x19255 +2 x19256 +2 x19257 -1 x19084 -1 x19085 -1 x19086 -1 x19087 -1 x19088 -1 x19089 >= 0 ;
+2 x19258 +2 x19259 +2 x19260 -1 x19087 -1 x19088 -1 x19089 -1 x19090 -1 x19091 -1 x19092 >= 0 ;
+2 x19261 +2 x19262 +2 x19263 -1 x19090 -1 x19091 -1 x19092 -1 x19093 -1 x19094 -1 x19095 >= 0 ;
+2 x19264 +2 x19265 +2 x19266 -1 x19093 -1 x19094 -1 x19095 -1 x19096 -1 x19097 -1 x19098 >= 0 ;
+2 x19267 +2 x19268 +2 x19269 -1 x19096 -1 x19097 -1 x19098 -1 x19099 -1 x19100 -1 x19101 >= 0 ;
+2 x19270 +2 x19271 +2 x19272 -1 x19099 -1 x19100 -1 x19101 -1 x19102 -1 x19103 -1 x19104 >= 0 ;
+2 x19273 +2 x19274 +2 x19275 -1 x19102 -1 x19103 -1 x19104 -1 x19105 -1 x19106 -1 x19107 >= 0 ;
+2 x19276 +2 x19277 +2 x19278 -1 x19105 -1 x19106 -1 x19107 -1 x19108 -1 x19109 -1 x19110 >= 0 ;
+2 x19279 +2 x19280 +2 x19281 -1 x19108 -1 x19109 -1 x19110 -1 x19111 -1 x19112 -1 x19113 >= 0 ;
+2 x19282 +2 x19283 +2 x19284 -1 x19111 -1 x19112 -1 x19113 -1 x19114 -1 x19115 -1 x19116 >= 0 ;
+2 x19285 +2 x19286 +2 x19287 -1 x19114 -1 x19115 -1 x19116 -1 x19117 -1 x19118 -1 x19119 >= 0 ;
+2 x19288 +2 x19289 +2 x19290 -1 x19117 -1 x19118 -1 x19119 -1 x19120 -1 x19121 -1 x19122 >= 0 ;
+2 x19291 +2 x19292 +2 x19293 -1 x19120 -1 x19121 -1 x19122 -1 x19123 -1 x19124 -1 x19125 >= 0 ;
+2 x19294 +2 x19295 +2 x19296 -1 x19123 -1 x19124 -1 x19125 -1 x19126 -1 x19127 -1 x19128 >= 0 ;
+2 x19297 +2 x19298 +2 x19299 -1 x19126 -1 x19127 -1 x19128 -1 x19129 -1 x19130 -1 x19131 >= 0 ;
+2 x19300 +2 x19301 +2 x19302 -1 x19129 -1 x19130 -1 x19131 -1 x19132 -1 x19133 -1 x19134 >= 0 ;
+2 x19303 +2 x19304 +2 x19305 -1 x19132 -1 x19133 -1 x19134 -1 x19135 -1 x19136 -1 x19137 >= 0 ;
+2 x19306 +2 x19307 +2 x19308 -1 x19135 -1 x19136 -1 x19137 -1 x19138 -1 x19139 -1 x19140 >= 0 ;
+2 x19309 +2 x19310 +2 x19311 -1 x19138 -1 x19139 -1 x19140 -1 x19141 -1 x19142 -1 x19143 >= 0 ;
+2 x19312 +2 x19313 +2 x19314 -1 x19141 -1 x19142 -1 x19143 -1 x19144 -1 x19145 -1 x19146 >= 0 ;
+2 x19315 +2 x19316 +2 x19317 -1 x19144 -1 x19145 -1 x19146 -1 x19147 -1 x19148 -1 x19149 >= 0 ;
+2 x19318 +2 x19319 +2 x19320 -1 x19147 -1 x19148 -1 x19149 -1 x19150 -1 x19151 -1 x19152 >= 0 ;
+2 x19321 +2 x19322 +2 x19323 -1 x19150 -1 x19151 -1 x19152 -1 x19153 -1 x19154 -1 x19155 >= 0 ;
+2 x19324 +2 x19325 +2 x19326 -1 x19153 -1 x19154 -1 x19155 -1 x19156 -1 x19157 -1 x19158 >= 0 ;
+2 x19327 +2 x19328 +2 x19329 -1 x19156 -1 x19157 -1 x19158 -1 x19159 -1 x19160 -1 x19161 >= 0 ;
+2 x19330 +2 x19331 +2 x19332 -1 x19159 -1 x19160 -1 x19161 -1 x19162 -1 x19163 -1 x19164 >= 0 ;
+2 x19333 +2 x19334 +2 x19335 -1 x19162 -1 x19163 -1 x19164 -1 x19165 -1 x19166 -1 x19167 >= 0 ;
+2 x19336 +2 x19337 +2 x19338 -1 x19165 -1 x19166 -1 x19167 -1 x19168 -1 x19169 -1 x19170 >= 0 ;
+2 x19339 +2 x19340 +2 x19341 -1 x19168 -1 x19169 -1 x19170 -1 x19171 -1 x19172 -1 x19173 >= 0 ;
+2 x19342 +2 x19343 +2 x19344 -1 x19171 -1 x19172 -1 x19173 -1 x19174 -1 x19175 -1 x19176 >= 0 ;
+2 x19345 +2 x19346 +2 x19347 -1 x19174 -1 x19175 -1 x19176 -1 x19177 -1 x19178 -1 x19179 >= 0 ;
+2 x19348 +2 x19349 +2 x19350 -1 x19177 -1 x19178 -1 x19179 -1 x19180 -1 x19181 -1 x19182 >= 0 ;
+2 x19351 +2 x19352 +2 x19353 -1 x19180 -1 x19181 -1 x19182 -1 x19183 -1 x19184 -1 x19185 >= 0 ;
+2 x19354 +2 x19355 +2 x19356 -1 x19183 -1 x19184 -1 x19185 -1 x19186 -1 x19187 -1 x19188 >= 0 ;
+2 x19357 +2 x19358 +2 x19359 -1 x19186 -1 x19187 -1 x19188 -1 x19189 -1 x19190 -1 x19191 >= 0 ;
+2 x19360 +2 x19361 +2 x19362 -1 x19189 -1 x19190 -1 x19191 -1 x19192 -1 x19193 -1 x19194 >= 0 ;
+2 x19363 +2 x19364 +2 x19365 -1 x19192 -1 x19193 -1 x19194 -1 x19195 -1 x19196 -1 x19197 >= 0 ;
+2 x19366 +2 x19367 +2 x19368 -1 x19195 -1 x19196 -1 x19197 -1 x19198 -1 x19199 -1 x19200 >= 0 ;
+2 x19369 +2 x19370 +2 x19371 -1 x19198 -1 x19199 -1 x19200 -1 x19201 -1 x19202 -1 x19203 >= 0 ;
+2 x19372 +2 x19373 +2 x19374 -1 x19201 -1 x19202 -1 x19203 -1 x19204 -1 x19205 -1 x19206 >= 0 ;
+2 x19375 +2 x19376 +2 x19377 -1 x19204 -1 x19205 -1 x19206 -1 x19207 -1 x19208 -1 x19209 >= 0 ;
+2 x19378 +2 x19379 +2 x19380 -1 x19207 -1 x19208 -1 x19209 -1 x19210 -1 x19211 -1 x19212 >= 0 ;
+2 x19381 +2 x19382 +2 x19383 -1 x19210 -1 x19211 -1 x19212 -1 x19213 -1 x19214 -1 x19215 >= 0 ;
+2 x19384 +2 x19385 +2 x19386 -1 x19216 -1 x19217 -1 x19218 -1 x19219 -1 x19220 -1 x19221 >= 0 ;
+2 x19387 +2 x19388 +2 x19389 -1 x19219 -1 x19220 -1 x19221 -1 x19222 -1 x19223 -1 x19224 >= 0 ;
+2 x19390 +2 x19391 +2 x19392 -1 x19222 -1 x19223 -1 x19224 -1 x19225 -1 x19226 -1 x19227 >= 0 ;
+2 x19393 +2 x19394 +2 x19395 -1 x19225 -1 x19226 -1 x19227 -1 x19228 -1 x19229 -1 x19230 >= 0 ;
+2 x19396 +2 x19397 +2 x19398 -1 x19228 -1 x19229 -1 x19230 -1 x19231 -1 x19232 -1 x19233 >= 0 ;
+2 x19399 +2 x19400 +2 x19401 -1 x19231 -1 x19232 -1 x19233 -1 x19234 -1 x19235 -1 x19236 >= 0 ;
+2 x19402 +2 x19403 +2 x19404 -1 x19234 -1 x19235 -1 x19236 -1 x19237 -1 x19238 -1 x19239 >= 0 ;
+2 x19405 +2 x19406 +2 x19407 -1 x19237 -1 x19238 -1 x19239 -1 x19240 -1 x19241 -1 x19242 >= 0 ;
+2 x19408 +2 x19409 +2 x19410 -1 x19240 -1 x19241 -1 x19242 -1 x19243 -1 x19244 -1 x19245 >= 0 ;
+2 x19411 +2 x19412 +2 x19413 -1 x19243 -1 x19244 -1 x19245 -1 x19246 -1 x19247 -1 x19248 >= 0 ;
+2 x19414 +2 x19415 +2 x19416 -1 x19246 -1 x19247 -1 x19248 -1 x19249 -1 x19250 -1 x19251 >= 0 ;
+2 x19417 +2 x19418 +2 x19419 -1 x19249 -1 x19250 -1 x19251 -1 x19252 -1 x19253 -1 x19254 >= 0 ;
+2 x19420 +2 x19421 +2 x19422 -1 x19252 -1 x19253 -1 x19254 -1 x19255 -1 x19256 -1 x19257 >= 0 ;
+2 x19423 +2 x19424 +2 x19425 -1 x19255 -1 x19256 -1 x19257 -1 x19258 -1 x19259 -1 x19260 >= 0 ;
+2 x19426 +2 x19427 +2 x19428 -1 x19258 -1 x19259 -1 x19260 -1 x19261 -1 x19262 -1 x19263 >= 0 ;
+2 x19429 +2 x19430 +2 x19431 -1 x19261 -1 x19262 -1 x19263 -1 x19264 -1 x19265 -1 x19266 >= 0 ;
+2 x19432 +2 x19433 +2 x19434 -1 x19264 -1 x19265 -1 x19266 -1 x19267 -1 x19268 -1 x19269 >= 0 ;
+2 x19435 +2 x19436 +2 x19437 -1 x19267 -1 x19268 -1 x19269 -1 x19270 -1 x19271 -1 x19272 >= 0 ;
+2 x19438 +2 x19439 +2 x19440 -1 x19270 -1 x19271 -1 x19272 -1 x19273 -1 x19274 -1 x19275 >= 0 ;
+2 x19441 +2 x19442 +2 x19443 -1 x19273 -1 x19274 -1 x19275 -1 x19276 -1 x19277 -1 x19278 >= 0 ;
+2 x19444 +2 x19445 +2 x19446 -1 x19276 -1 x19277 -1 x19278 -1 x19279 -1 x19280 -1 x19281 >= 0 ;
+2 x19447 +2 x19448 +2 x19449 -1 x19279 -1 x19280 -1 x19281 -1 x19282 -1 x19283 -1 x19284 >= 0 ;
+2 x19450 +2 x19451 +2 x19452 -1 x19282 -1 x19283 -1 x19284 -1 x19285 -1 x19286 -1 x19287 >= 0 ;
+2 x19453 +2 x19454 +2 x19455 -1 x19285 -1 x19286 -1 x19287 -1 x19288 -1 x19289 -1 x19290 >= 0 ;
+2 x19456 +2 x19457 +2 x19458 -1 x19288 -1 x19289 -1 x19290 -1 x19291 -1 x19292 -1 x19293 >= 0 ;
+2 x19459 +2 x19460 +2 x19461 -1 x19291 -1 x19292 -1 x19293 -1 x19294 -1 x19295 -1 x19296 >= 0 ;
+2 x19462 +2 x19463 +2 x19464 -1 x19294 -1 x19295 -1 x19296 -1 x19297 -1 x19298 -1 x19299 >= 0 ;
+2 x19465 +2 x19466 +2 x19467 -1 x19297 -1 x19298 -1 x19299 -1 x19300 -1 x19301 -1 x19302 >= 0 ;
+2 x19468 +2 x19469 +2 x19470 -1 x19300 -1 x19301 -1 x19302 -1 x19303 -1 x19304 -1 x19305 >= 0 ;
+2 x19471 +2 x19472 +2 x19473 -1 x19303 -1 x19304 -1 x19305 -1 x19306 -1 x19307 -1 x19308 >= 0 ;
+2 x19474 +2 x19475 +2 x19476 -1 x19306 -1 x19307 -1 x19308 -1 x19309 -1 x19310 -1 x19311 >= 0 ;
+2 x19477 +2 x19478 +2 x19479 -1 x19309 -1 x19310 -1 x19311 -1 x19312 -1 x19313 -1 x19314 >= 0 ;
+2 x19480 +2 x19481 +2 x19482 -1 x19312 -1 x19313 -1 x19314 -1 x19315 -1 x19316 -1 x19317 >= 0 ;
+2 x19483 +2 x19484 +2 x19485 -1 x19315 -1 x19316 -1 x19317 -1 x19318 -1 x19319 -1 x19320 >= 0 ;
+2 x19486 +2 x19487 +2 x19488 -1 x19318 -1 x19319 -1 x19320 -1 x19321 -1 x19322 -1 x19323 >= 0 ;
+2 x19489 +2 x19490 +2 x19491 -1 x19321 -1 x19322 -1 x19323 -1 x19324 -1 x19325 -1 x19326 >= 0 ;
+2 x19492 +2 x19493 +2 x19494 -1 x19324 -1 x19325 -1 x19326 -1 x19327 -1 x19328 -1 x19329 >= 0 ;
+2 x19495 +2 x19496 +2 x19497 -1 x19327 -1 x19328 -1 x19329 -1 x19330 -1 x19331 -1 x19332 >= 0 ;
+2 x19498 +2 x19499 +2 x19500 -1 x19330 -1 x19331 -1 x19332 -1 x19333 -1 x19334 -1 x19335 >= 0 ;
+2 x19501 +2 x19502 +2 x19503 -1 x19333 -1 x19334 -1 x19335 -1 x19336 -1 x19337 -1 x19338 >= 0 ;
+2 x19504 +2 x19505 +2 x19506 -1 x19336 -1 x19337 -1 x19338 -1 x19339 -1 x19340 -1 x19341 >= 0 ;
+2 x19507 +2 x19508 +2 x19509 -1 x19339 -1 x19340 -1 x19341 -1 x19342 -1 x19343 -1 x19344 >= 0 ;
+2 x19510 +2 x19511 +2 x19512 -1 x19342 -1 x19343 -1 x19344 -1 x19345 -1 x19346 -1 x19347 >= 0 ;
+2 x19513 +2 x19514 +2 x19515 -1 x19345 -1 x19346 -1 x19347 -1 x19348 -1 x19349 -1 x19350 >= 0 ;
+2 x19516 +2 x19517 +2 x19518 -1 x19348 -1 x19349 -1 x19350 -1 x19351 -1 x19352 -1 x19353 >= 0 ;
+2 x19519 +2 x19520 +2 x19521 -1 x19351 -1 x19352 -1 x19353 -1 x19354 -1 x19355 -1 x19356 >= 0 ;
+2 x19522 +2 x19523 +2 x19524 -1 x19354 -1 x19355 -1 x19356 -1 x19357 -1 x19358 -1 x19359 >= 0 ;
+2 x19525 +2 x19526 +2 x19527 -1 x19357 -1 x19358 -1 x19359 -1 x19360 -1 x19361 -1 x19362 >= 0 ;
+2 x19528 +2 x19529 +2 x19530 -1 x19360 -1 x19361 -1 x19362 -1 x19363 -1 x19364 -1 x19365 >= 0 ;
+2 x19531 +2 x19532 +2 x19533 -1 x19363 -1 x19364 -1 x19365 -1 x19366 -1 x19367 -1 x19368 >= 0 ;
+2 x19534 +2 x19535 +2 x19536 -1 x19366 -1 x19367 -1 x19368 -1 x19369 -1 x19370 -1 x19371 >= 0 ;
+2 x19537 +2 x19538 +2 x19539 -1 x19369 -1 x19370 -1 x19371 -1 x19372 -1 x19373 -1 x19374 >= 0 ;
+2 x19540 +2 x19541 +2 x19542 -1 x19372 -1 x19373 -1 x19374 -1 x19375 -1 x19376 -1 x19377 >= 0 ;
+2 x19543 +2 x19544 +2 x19545 -1 x19375 -1 x19376 -1 x19377 -1 x19378 -1 x19379 -1 x19380 >= 0 ;
+2 x19546 +2 x19547 +2 x19548 -1 x19378 -1 x19379 -1 x19380 -1 x19381 -1 x19382 -1 x19383 >= 0 ;
+2 x19549 +2 x19550 +2 x19551 -1 x19384 -1 x19385 -1 x19386 -1 x19387 -1 x19388 -1 x19389 >= 0 ;
+2 x19552 +2 x19553 +2 x19554 -1 x19387 -1 x19388 -1 x19389 -1 x19390 -1 x19391 -1 x19392 >= 0 ;
+2 x19555 +2 x19556 +2 x19557 -1 x19390 -1 x19391 -1 x19392 -1 x19393 -1 x19394 -1 x19395 >= 0 ;
+2 x19558 +2 x19559 +2 x19560 -1 x19393 -1 x19394 -1 x19395 -1 x19396 -1 x19397 -1 x19398 >= 0 ;
+2 x19561 +2 x19562 +2 x19563 -1 x19396 -1 x19397 -1 x19398 -1 x19399 -1 x19400 -1 x19401 >= 0 ;
+2 x19564 +2 x19565 +2 x19566 -1 x19399 -1 x19400 -1 x19401 -1 x19402 -1 x19403 -1 x19404 >= 0 ;
+2 x19567 +2 x19568 +2 x19569 -1 x19402 -1 x19403 -1 x19404 -1 x19405 -1 x19406 -1 x19407 >= 0 ;
+2 x19570 +2 x19571 +2 x19572 -1 x19405 -1 x19406 -1 x19407 -1 x19408 -1 x19409 -1 x19410 >= 0 ;
+2 x19573 +2 x19574 +2 x19575 -1 x19408 -1 x19409 -1 x19410 -1 x19411 -1 x19412 -1 x19413 >= 0 ;
+2 x19576 +2 x19577 +2 x19578 -1 x19411 -1 x19412 -1 x19413 -1 x19414 -1 x19415 -1 x19416 >= 0 ;
+2 x19579 +2 x19580 +2 x19581 -1 x19414 -1 x19415 -1 x19416 -1 x19417 -1 x19418 -1 x19419 >= 0 ;
+2 x19582 +2 x19583 +2 x19584 -1 x19417 -1 x19418 -1 x19419 -1 x19420 -1 x19421 -1 x19422 >= 0 ;
+2 x19585 +2 x19586 +2 x19587 -1 x19420 -1 x19421 -1 x19422 -1 x19423 -1 x19424 -1 x19425 >= 0 ;
+2 x19588 +2 x19589 +2 x19590 -1 x19423 -1 x19424 -1 x19425 -1 x19426 -1 x19427 -1 x19428 >= 0 ;
+2 x19591 +2 x19592 +2 x19593 -1 x19426 -1 x19427 -1 x19428 -1 x19429 -1 x19430 -1 x19431 >= 0 ;
+2 x19594 +2 x19595 +2 x19596 -1 x19429 -1 x19430 -1 x19431 -1 x19432 -1 x19433 -1 x19434 >= 0 ;
+2 x19597 +2 x19598 +2 x19599 -1 x19432 -1 x19433 -1 x19434 -1 x19435 -1 x19436 -1 x19437 >= 0 ;
+2 x19600 +2 x19601 +2 x19602 -1 x19435 -1 x19436 -1 x19437 -1 x19438 -1 x19439 -1 x19440 >= 0 ;
+2 x19603 +2 x19604 +2 x19605 -1 x19438 -1 x19439 -1 x19440 -1 x19441 -1 x19442 -1 x19443 >= 0 ;
+2 x19606 +2 x19607 +2 x19608 -1 x19441 -1 x19442 -1 x19443 -1 x19444 -1 x19445 -1 x19446 >= 0 ;
+2 x19609 +2 x19610 +2 x19611 -1 x19444 -1 x19445 -1 x19446 -1 x19447 -1 x19448 -1 x19449 >= 0 ;
+2 x19612 +2 x19613 +2 x19614 -1 x19447 -1 x19448 -1 x19449 -1 x19450 -1 x19451 -1 x19452 >= 0 ;
+2 x19615 +2 x19616 +2 x19617 -1 x19450 -1 x19451 -1 x19452 -1 x19453 -1 x19454 -1 x19455 >= 0 ;
+2 x19618 +2 x19619 +2 x19620 -1 x19453 -1 x19454 -1 x19455 -1 x19456 -1 x19457 -1 x19458 >= 0 ;
+2 x19621 +2 x19622 +2 x19623 -1 x19456 -1 x19457 -1 x19458 -1 x19459 -1 x19460 -1 x19461 >= 0 ;
+2 x19624 +2 x19625 +2 x19626 -1 x19459 -1 x19460 -1 x19461 -1 x19462 -1 x19463 -1 x19464 >= 0 ;
+2 x19627 +2 x19628 +2 x19629 -1 x19462 -1 x19463 -1 x19464 -1 x19465 -1 x19466 -1 x19467 >= 0 ;
+2 x19630 +2 x19631 +2 x19632 -1 x19465 -1 x19466 -1 x19467 -1 x19468 -1 x19469 -1 x19470 >= 0 ;
+2 x19633 +2 x19634 +2 x19635 -1 x19468 -1 x19469 -1 x19470 -1 x19471 -1 x19472 -1 x19473 >= 0 ;
+2 x19636 +2 x19637 +2 x19638 -1 x19471 -1 x19472 -1 x19473 -1 x19474 -1 x19475 -1 x19476 >= 0 ;
+2 x19639 +2 x19640 +2 x19641 -1 x19474 -1 x19475 -1 x19476 -1 x19477 -1 x19478 -1 x19479 >= 0 ;
+2 x19642 +2 x19643 +2 x19644 -1 x19477 -1 x19478 -1 x19479 -1 x19480 -1 x19481 -1 x19482 >= 0 ;
+2 x19645 +2 x19646 +2 x19647 -1 x19480 -1 x19481 -1 x19482 -1 x19483 -1 x19484 -1 x19485 >= 0 ;
+2 x19648 +2 x19649 +2 x19650 -1 x19483 -1 x19484 -1 x19485 -1 x19486 -1 x19487 -1 x19488 >= 0 ;
+2 x19651 +2 x19652 +2 x19653 -1 x19486 -1 x19487 -1 x19488 -1 x19489 -1 x19490 -1 x19491 >= 0 ;
+2 x19654 +2 x19655 +2 x19656 -1 x19489 -1 x19490 -1 x19491 -1 x19492 -1 x19493 -1 x19494 >= 0 ;
+2 x19657 +2 x19658 +2 x19659 -1 x19492 -1 x19493 -1 x19494 -1 x19495 -1 x19496 -1 x19497 >= 0 ;
+2 x19660 +2 x19661 +2 x19662 -1 x19495 -1 x19496 -1 x19497 -1 x19498 -1 x19499 -1 x19500 >= 0 ;
+2 x19663 +2 x19664 +2 x19665 -1 x19498 -1 x19499 -1 x19500 -1 x19501 -1 x19502 -1 x19503 >= 0 ;
+2 x19666 +2 x19667 +2 x19668 -1 x19501 -1 x19502 -1 x19503 -1 x19504 -1 x19505 -1 x19506 >= 0 ;
+2 x19669 +2 x19670 +2 x19671 -1 x19504 -1 x19505 -1 x19506 -1 x19507 -1 x19508 -1 x19509 >= 0 ;
+2 x19672 +2 x19673 +2 x19674 -1 x19507 -1 x19508 -1 x19509 -1 x19510 -1 x19511 -1 x19512 >= 0 ;
+2 x19675 +2 x19676 +2 x19677 -1 x19510 -1 x19511 -1 x19512 -1 x19513 -1 x19514 -1 x19515 >= 0 ;
+2 x19678 +2 x19679 +2 x19680 -1 x19513 -1 x19514 -1 x19515 -1 x19516 -1 x19517 -1 x19518 >= 0 ;
+2 x19681 +2 x19682 +2 x19683 -1 x19516 -1 x19517 -1 x19518 -1 x19519 -1 x19520 -1 x19521 >= 0 ;
+2 x19684 +2 x19685 +2 x19686 -1 x19519 -1 x19520 -1 x19521 -1 x19522 -1 x19523 -1 x19524 >= 0 ;
+2 x19687 +2 x19688 +2 x19689 -1 x19522 -1 x19523 -1 x19524 -1 x19525 -1 x19526 -1 x19527 >= 0 ;
+2 x19690 +2 x19691 +2 x19692 -1 x19525 -1 x19526 -1 x19527 -1 x19528 -1 x19529 -1 x19530 >= 0 ;
+2 x19693 +2 x19694 +2 x19695 -1 x19528 -1 x19529 -1 x19530 -1 x19531 -1 x19532 -1 x19533 >= 0 ;
+2 x19696 +2 x19697 +2 x19698 -1 x19531 -1 x19532 -1 x19533 -1 x19534 -1 x19535 -1 x19536 >= 0 ;
+2 x19699 +2 x19700 +2 x19701 -1 x19534 -1 x19535 -1 x19536 -1 x19537 -1 x19538 -1 x19539 >= 0 ;
+2 x19702 +2 x19703 +2 x19704 -1 x19537 -1 x19538 -1 x19539 -1 x19540 -1 x19541 -1 x19542 >= 0 ;
+2 x19705 +2 x19706 +2 x19707 -1 x19540 -1 x19541 -1 x19542 -1 x19543 -1 x19544 -1 x19545 >= 0 ;
+2 x19708 +2 x19709 +2 x19710 -1 x19543 -1 x19544 -1 x19545 -1 x19546 -1 x19547 -1 x19548 >= 0 ;
+2 x19711 +2 x19712 +2 x19713 -1 x19549 -1 x19550 -1 x19551 -1 x19552 -1 x19553 -1 x19554 >= 0 ;
+2 x19714 +2 x19715 +2 x19716 -1 x19552 -1 x19553 -1 x19554 -1 x19555 -1 x19556 -1 x19557 >= 0 ;
+2 x19717 +2 x19718 +2 x19719 -1 x19555 -1 x19556 -1 x19557 -1 x19558 -1 x19559 -1 x19560 >= 0 ;
+2 x19720 +2 x19721 +2 x19722 -1 x19558 -1 x19559 -1 x19560 -1 x19561 -1 x19562 -1 x19563 >= 0 ;
+2 x19723 +2 x19724 +2 x19725 -1 x19561 -1 x19562 -1 x19563 -1 x19564 -1 x19565 -1 x19566 >= 0 ;
+2 x19726 +2 x19727 +2 x19728 -1 x19564 -1 x19565 -1 x19566 -1 x19567 -1 x19568 -1 x19569 >= 0 ;
+2 x19729 +2 x19730 +2 x19731 -1 x19567 -1 x19568 -1 x19569 -1 x19570 -1 x19571 -1 x19572 >= 0 ;
+2 x19732 +2 x19733 +2 x19734 -1 x19570 -1 x19571 -1 x19572 -1 x19573 -1 x19574 -1 x19575 >= 0 ;
+2 x19735 +2 x19736 +2 x19737 -1 x19573 -1 x19574 -1 x19575 -1 x19576 -1 x19577 -1 x19578 >= 0 ;
+2 x19738 +2 x19739 +2 x19740 -1 x19576 -1 x19577 -1 x19578 -1 x19579 -1 x19580 -1 x19581 >= 0 ;
+2 x19741 +2 x19742 +2 x19743 -1 x19579 -1 x19580 -1 x19581 -1 x19582 -1 x19583 -1 x19584 >= 0 ;
+2 x19744 +2 x19745 +2 x19746 -1 x19582 -1 x19583 -1 x19584 -1 x19585 -1 x19586 -1 x19587 >= 0 ;
+2 x19747 +2 x19748 +2 x19749 -1 x19585 -1 x19586 -1 x19587 -1 x19588 -1 x19589 -1 x19590 >= 0 ;
+2 x19750 +2 x19751 +2 x19752 -1 x19588 -1 x19589 -1 x19590 -1 x19591 -1 x19592 -1 x19593 >= 0 ;
+2 x19753 +2 x19754 +2 x19755 -1 x19591 -1 x19592 -1 x19593 -1 x19594 -1 x19595 -1 x19596 >= 0 ;
+2 x19756 +2 x19757 +2 x19758 -1 x19594 -1 x19595 -1 x19596 -1 x19597 -1 x19598 -1 x19599 >= 0 ;
+2 x19759 +2 x19760 +2 x19761 -1 x19597 -1 x19598 -1 x19599 -1 x19600 -1 x19601 -1 x19602 >= 0 ;
+2 x19762 +2 x19763 +2 x19764 -1 x19600 -1 x19601 -1 x19602 -1 x19603 -1 x19604 -1 x19605 >= 0 ;
+2 x19765 +2 x19766 +2 x19767 -1 x19603 -1 x19604 -1 x19605 -1 x19606 -1 x19607 -1 x19608 >= 0 ;
+2 x19768 +2 x19769 +2 x19770 -1 x19606 -1 x19607 -1 x19608 -1 x19609 -1 x19610 -1 x19611 >= 0 ;
+2 x19771 +2 x19772 +2 x19773 -1 x19609 -1 x19610 -1 x19611 -1 x19612 -1 x19613 -1 x19614 >= 0 ;
+2 x19774 +2 x19775 +2 x19776 -1 x19612 -1 x19613 -1 x19614 -1 x19615 -1 x19616 -1 x19617 >= 0 ;
+2 x19777 +2 x19778 +2 x19779 -1 x19615 -1 x19616 -1 x19617 -1 x19618 -1 x19619 -1 x19620 >= 0 ;
+2 x19780 +2 x19781 +2 x19782 -1 x19618 -1 x19619 -1 x19620 -1 x19621 -1 x19622 -1 x19623 >= 0 ;
+2 x19783 +2 x19784 +2 x19785 -1 x19621 -1 x19622 -1 x19623 -1 x19624 -1 x19625 -1 x19626 >= 0 ;
+2 x19786 +2 x19787 +2 x19788 -1 x19624 -1 x19625 -1 x19626 -1 x19627 -1 x19628 -1 x19629 >= 0 ;
+2 x19789 +2 x19790 +2 x19791 -1 x19627 -1 x19628 -1 x19629 -1 x19630 -1 x19631 -1 x19632 >= 0 ;
+2 x19792 +2 x19793 +2 x19794 -1 x19630 -1 x19631 -1 x19632 -1 x19633 -1 x19634 -1 x19635 >= 0 ;
+2 x19795 +2 x19796 +2 x19797 -1 x19633 -1 x19634 -1 x19635 -1 x19636 -1 x19637 -1 x19638 >= 0 ;
+2 x19798 +2 x19799 +2 x19800 -1 x19636 -1 x19637 -1 x19638 -1 x19639 -1 x19640 -1 x19641 >= 0 ;
+2 x19801 +2 x19802 +2 x19803 -1 x19639 -1 x19640 -1 x19641 -1 x19642 -1 x19643 -1 x19644 >= 0 ;
+2 x19804 +2 x19805 +2 x19806 -1 x19642 -1 x19643 -1 x19644 -1 x19645 -1 x19646 -1 x19647 >= 0 ;
+2 x19807 +2 x19808 +2 x19809 -1 x19645 -1 x19646 -1 x19647 -1 x19648 -1 x19649 -1 x19650 >= 0 ;
+2 x19810 +2 x19811 +2 x19812 -1 x19648 -1 x19649 -1 x19650 -1 x19651 -1 x19652 -1 x19653 >= 0 ;
+2 x19813 +2 x19814 +2 x19815 -1 x19651 -1 x19652 -1 x19653 -1 x19654 -1 x19655 -1 x19656 >= 0 ;
+2 x19816 +2 x19817 +2 x19818 -1 x19654 -1 x19655 -1 x19656 -1 x19657 -1 x19658 -1 x19659 >= 0 ;
+2 x19819 +2 x19820 +2 x19821 -1 x19657 -1 x19658 -1 x19659 -1 x19660 -1 x19661 -1 x19662 >= 0 ;
+2 x19822 +2 x19823 +2 x19824 -1 x19660 -1 x19661 -1 x19662 -1 x19663 -1 x19664 -1 x19665 >= 0 ;
+2 x19825 +2 x19826 +2 x19827 -1 x19663 -1 x19664 -1 x19665 -1 x19666 -1 x19667 -1 x19668 >= 0 ;
+2 x19828 +2 x19829 +2 x19830 -1 x19666 -1 x19667 -1 x19668 -1 x19669 -1 x19670 -1 x19671 >= 0 ;
+2 x19831 +2 x19832 +2 x19833 -1 x19669 -1 x19670 -1 x19671 -1 x19672 -1 x19673 -1 x19674 >= 0 ;
+2 x19834 +2 x19835 +2 x19836 -1 x19672 -1 x19673 -1 x19674 -1 x19675 -1 x19676 -1 x19677 >= 0 ;
+2 x19837 +2 x19838 +2 x19839 -1 x19675 -1 x19676 -1 x19677 -1 x19678 -1 x19679 -1 x19680 >= 0 ;
+2 x19840 +2 x19841 +2 x19842 -1 x19678 -1 x19679 -1 x19680 -1 x19681 -1 x19682 -1 x19683 >= 0 ;
+2 x19843 +2 x19844 +2 x19845 -1 x19681 -1 x19682 -1 x19683 -1 x19684 -1 x19685 -1 x19686 >= 0 ;
+2 x19846 +2 x19847 +2 x19848 -1 x19684 -1 x19685 -1 x19686 -1 x19687 -1 x19688 -1 x19689 >= 0 ;
+2 x19849 +2 x19850 +2 x19851 -1 x19687 -1 x19688 -1 x19689 -1 x19690 -1 x19691 -1 x19692 >= 0 ;
+2 x19852 +2 x19853 +2 x19854 -1 x19690 -1 x19691 -1 x19692 -1 x19693 -1 x19694 -1 x19695 >= 0 ;
+2 x19855 +2 x19856 +2 x19857 -1 x19693 -1 x19694 -1 x19695 -1 x19696 -1 x19697 -1 x19698 >= 0 ;
+2 x19858 +2 x19859 +2 x19860 -1 x19696 -1 x19697 -1 x19698 -1 x19699 -1 x19700 -1 x19701 >= 0 ;
+2 x19861 +2 x19862 +2 x19863 -1 x19699 -1 x19700 -1 x19701 -1 x19702 -1 x19703 -1 x19704 >= 0 ;
+2 x19864 +2 x19865 +2 x19866 -1 x19702 -1 x19703 -1 x19704 -1 x19705 -1 x19706 -1 x19707 >= 0 ;
+2 x19867 +2 x19868 +2 x19869 -1 x19705 -1 x19706 -1 x19707 -1 x19708 -1 x19709 -1 x19710 >= 0 ;
+2 x19870 +2 x19871 +2 x19872 -1 x19711 -1 x19712 -1 x19713 -1 x19714 -1 x19715 -1 x19716 >= 0 ;
+2 x19873 +2 x19874 +2 x19875 -1 x19714 -1 x19715 -1 x19716 -1 x19717 -1 x19718 -1 x19719 >= 0 ;
+2 x19876 +2 x19877 +2 x19878 -1 x19717 -1 x19718 -1 x19719 -1 x19720 -1 x19721 -1 x19722 >= 0 ;
+2 x19879 +2 x19880 +2 x19881 -1 x19720 -1 x19721 -1 x19722 -1 x19723 -1 x19724 -1 x19725 >= 0 ;
+2 x19882 +2 x19883 +2 x19884 -1 x19723 -1 x19724 -1 x19725 -1 x19726 -1 x19727 -1 x19728 >= 0 ;
+2 x19885 +2 x19886 +2 x19887 -1 x19726 -1 x19727 -1 x19728 -1 x19729 -1 x19730 -1 x19731 >= 0 ;
+2 x19888 +2 x19889 +2 x19890 -1 x19729 -1 x19730 -1 x19731 -1 x19732 -1 x19733 -1 x19734 >= 0 ;
+2 x19891 +2 x19892 +2 x19893 -1 x19732 -1 x19733 -1 x19734 -1 x19735 -1 x19736 -1 x19737 >= 0 ;
+2 x19894 +2 x19895 +2 x19896 -1 x19735 -1 x19736 -1 x19737 -1 x19738 -1 x19739 -1 x19740 >= 0 ;
+2 x19897 +2 x19898 +2 x19899 -1 x19738 -1 x19739 -1 x19740 -1 x19741 -1 x19742 -1 x19743 >= 0 ;
+2 x19900 +2 x19901 +2 x19902 -1 x19741 -1 x19742 -1 x19743 -1 x19744 -1 x19745 -1 x19746 >= 0 ;
+2 x19903 +2 x19904 +2 x19905 -1 x19744 -1 x19745 -1 x19746 -1 x19747 -1 x19748 -1 x19749 >= 0 ;
+2 x19906 +2 x19907 +2 x19908 -1 x19747 -1 x19748 -1 x19749 -1 x19750 -1 x19751 -1 x19752 >= 0 ;
+2 x19909 +2 x19910 +2 x19911 -1 x19750 -1 x19751 -1 x19752 -1 x19753 -1 x19754 -1 x19755 >= 0 ;
+2 x19912 +2 x19913 +2 x19914 -1 x19753 -1 x19754 -1 x19755 -1 x19756 -1 x19757 -1 x19758 >= 0 ;
+2 x19915 +2 x19916 +2 x19917 -1 x19756 -1 x19757 -1 x19758 -1 x19759 -1 x19760 -1 x19761 >= 0 ;
+2 x19918 +2 x19919 +2 x19920 -1 x19759 -1 x19760 -1 x19761 -1 x19762 -1 x19763 -1 x19764 >= 0 ;
+2 x19921 +2 x19922 +2 x19923 -1 x19762 -1 x19763 -1 x19764 -1 x19765 -1 x19766 -1 x19767 >= 0 ;
+2 x19924 +2 x19925 +2 x19926 -1 x19765 -1 x19766 -1 x19767 -1 x19768 -1 x19769 -1 x19770 >= 0 ;
+2 x19927 +2 x19928 +2 x19929 -1 x19768 -1 x19769 -1 x19770 -1 x19771 -1 x19772 -1 x19773 >= 0 ;
+2 x19930 +2 x19931 +2 x19932 -1 x19771 -1 x19772 -1 x19773 -1 x19774 -1 x19775 -1 x19776 >= 0 ;
+2 x19933 +2 x19934 +2 x19935 -1 x19774 -1 x19775 -1 x19776 -1 x19777 -1 x19778 -1 x19779 >= 0 ;
+2 x19936 +2 x19937 +2 x19938 -1 x19777 -1 x19778 -1 x19779 -1 x19780 -1 x19781 -1 x19782 >= 0 ;
+2 x19939 +2 x19940 +2 x19941 -1 x19780 -1 x19781 -1 x19782 -1 x19783 -1 x19784 -1 x19785 >= 0 ;
+2 x19942 +2 x19943 +2 x19944 -1 x19783 -1 x19784 -1 x19785 -1 x19786 -1 x19787 -1 x19788 >= 0 ;
+2 x19945 +2 x19946 +2 x19947 -1 x19786 -1 x19787 -1 x19788 -1 x19789 -1 x19790 -1 x19791 >= 0 ;
+2 x19948 +2 x19949 +2 x19950 -1 x19789 -1 x19790 -1 x19791 -1 x19792 -1 x19793 -1 x19794 >= 0 ;
+2 x19951 +2 x19952 +2 x19953 -1 x19792 -1 x19793 -1 x19794 -1 x19795 -1 x19796 -1 x19797 >= 0 ;
+2 x19954 +2 x19955 +2 x19956 -1 x19795 -1 x19796 -1 x19797 -1 x19798 -1 x19799 -1 x19800 >= 0 ;
+2 x19957 +2 x19958 +2 x19959 -1 x19798 -1 x19799 -1 x19800 -1 x19801 -1 x19802 -1 x19803 >= 0 ;
+2 x19960 +2 x19961 +2 x19962 -1 x19801 -1 x19802 -1 x19803 -1 x19804 -1 x19805 -1 x19806 >= 0 ;
+2 x19963 +2 x19964 +2 x19965 -1 x19804 -1 x19805 -1 x19806 -1 x19807 -1 x19808 -1 x19809 >= 0 ;
+2 x19966 +2 x19967 +2 x19968 -1 x19807 -1 x19808 -1 x19809 -1 x19810 -1 x19811 -1 x19812 >= 0 ;
+2 x19969 +2 x19970 +2 x19971 -1 x19810 -1 x19811 -1 x19812 -1 x19813 -1 x19814 -1 x19815 >= 0 ;
+2 x19972 +2 x19973 +2 x19974 -1 x19813 -1 x19814 -1 x19815 -1 x19816 -1 x19817 -1 x19818 >= 0 ;
+2 x19975 +2 x19976 +2 x19977 -1 x19816 -1 x19817 -1 x19818 -1 x19819 -1 x19820 -1 x19821 >= 0 ;
+2 x19978 +2 x19979 +2 x19980 -1 x19819 -1 x19820 -1 x19821 -1 x19822 -1 x19823 -1 x19824 >= 0 ;
+2 x19981 +2 x19982 +2 x19983 -1 x19822 -1 x19823 -1 x19824 -1 x19825 -1 x19826 -1 x19827 >= 0 ;
+2 x19984 +2 x19985 +2 x19986 -1 x19825 -1 x19826 -1 x19827 -1 x19828 -1 x19829 -1 x19830 >= 0 ;
+2 x19987 +2 x19988 +2 x19989 -1 x19828 -1 x19829 -1 x19830 -1 x19831 -1 x19832 -1 x19833 >= 0 ;
+2 x19990 +2 x19991 +2 x19992 -1 x19831 -1 x19832 -1 x19833 -1 x19834 -1 x19835 -1 x19836 >= 0 ;
+2 x19993 +2 x19994 +2 x19995 -1 x19834 -1 x19835 -1 x19836 -1 x19837 -1 x19838 -1 x19839 >= 0 ;
+2 x19996 +2 x19997 +2 x19998 -1 x19837 -1 x19838 -1 x19839 -1 x19840 -1 x19841 -1 x19842 >= 0 ;
+2 x19999 +2 x20000 +2 x20001 -1 x19840 -1 x19841 -1 x19842 -1 x19843 -1 x19844 -1 x19845 >= 0 ;
+2 x20002 +2 x20003 +2 x20004 -1 x19843 -1 x19844 -1 x19845 -1 x19846 -1 x19847 -1 x19848 >= 0 ;
+2 x20005 +2 x20006 +2 x20007 -1 x19846 -1 x19847 -1 x19848 -1 x19849 -1 x19850 -1 x19851 >= 0 ;
+2 x20008 +2 x20009 +2 x20010 -1 x19849 -1 x19850 -1 x19851 -1 x19852 -1 x19853 -1 x19854 >= 0 ;
+2 x20011 +2 x20012 +2 x20013 -1 x19852 -1 x19853 -1 x19854 -1 x19855 -1 x19856 -1 x19857 >= 0 ;
+2 x20014 +2 x20015 +2 x20016 -1 x19855 -1 x19856 -1 x19857 -1 x19858 -1 x19859 -1 x19860 >= 0 ;
+2 x20017 +2 x20018 +2 x20019 -1 x19858 -1 x19859 -1 x19860 -1 x19861 -1 x19862 -1 x19863 >= 0 ;
+2 x20020 +2 x20021 +2 x20022 -1 x19861 -1 x19862 -1 x19863 -1 x19864 -1 x19865 -1 x19866 >= 0 ;
+2 x20023 +2 x20024 +2 x20025 -1 x19864 -1 x19865 -1 x19866 -1 x19867 -1 x19868 -1 x19869 >= 0 ;
+2 x20026 +2 x20027 +2 x20028 -1 x19870 -1 x19871 -1 x19872 -1 x19873 -1 x19874 -1 x19875 >= 0 ;
+2 x20029 +2 x20030 +2 x20031 -1 x19873 -1 x19874 -1 x19875 -1 x19876 -1 x19877 -1 x19878 >= 0 ;
+2 x20032 +2 x20033 +2 x20034 -1 x19876 -1 x19877 -1 x19878 -1 x19879 -1 x19880 -1 x19881 >= 0 ;
+2 x20035 +2 x20036 +2 x20037 -1 x19879 -1 x19880 -1 x19881 -1 x19882 -1 x19883 -1 x19884 >= 0 ;
+2 x20038 +2 x20039 +2 x20040 -1 x19882 -1 x19883 -1 x19884 -1 x19885 -1 x19886 -1 x19887 >= 0 ;
+2 x20041 +2 x20042 +2 x20043 -1 x19885 -1 x19886 -1 x19887 -1 x19888 -1 x19889 -1 x19890 >= 0 ;
+2 x20044 +2 x20045 +2 x20046 -1 x19888 -1 x19889 -1 x19890 -1 x19891 -1 x19892 -1 x19893 >= 0 ;
+2 x20047 +2 x20048 +2 x20049 -1 x19891 -1 x19892 -1 x19893 -1 x19894 -1 x19895 -1 x19896 >= 0 ;
+2 x20050 +2 x20051 +2 x20052 -1 x19894 -1 x19895 -1 x19896 -1 x19897 -1 x19898 -1 x19899 >= 0 ;
+2 x20053 +2 x20054 +2 x20055 -1 x19897 -1 x19898 -1 x19899 -1 x19900 -1 x19901 -1 x19902 >= 0 ;
+2 x20056 +2 x20057 +2 x20058 -1 x19900 -1 x19901 -1 x19902 -1 x19903 -1 x19904 -1 x19905 >= 0 ;
+2 x20059 +2 x20060 +2 x20061 -1 x19903 -1 x19904 -1 x19905 -1 x19906 -1 x19907 -1 x19908 >= 0 ;
+2 x20062 +2 x20063 +2 x20064 -1 x19906 -1 x19907 -1 x19908 -1 x19909 -1 x19910 -1 x19911 >= 0 ;
+2 x20065 +2 x20066 +2 x20067 -1 x19909 -1 x19910 -1 x19911 -1 x19912 -1 x19913 -1 x19914 >= 0 ;
+2 x20068 +2 x20069 +2 x20070 -1 x19912 -1 x19913 -1 x19914 -1 x19915 -1 x19916 -1 x19917 >= 0 ;
+2 x20071 +2 x20072 +2 x20073 -1 x19915 -1 x19916 -1 x19917 -1 x19918 -1 x19919 -1 x19920 >= 0 ;
+2 x20074 +2 x20075 +2 x20076 -1 x19918 -1 x19919 -1 x19920 -1 x19921 -1 x19922 -1 x19923 >= 0 ;
+2 x20077 +2 x20078 +2 x20079 -1 x19921 -1 x19922 -1 x19923 -1 x19924 -1 x19925 -1 x19926 >= 0 ;
+2 x20080 +2 x20081 +2 x20082 -1 x19924 -1 x19925 -1 x19926 -1 x19927 -1 x19928 -1 x19929 >= 0 ;
+2 x20083 +2 x20084 +2 x20085 -1 x19927 -1 x19928 -1 x19929 -1 x19930 -1 x19931 -1 x19932 >= 0 ;
+2 x20086 +2 x20087 +2 x20088 -1 x19930 -1 x19931 -1 x19932 -1 x19933 -1 x19934 -1 x19935 >= 0 ;
+2 x20089 +2 x20090 +2 x20091 -1 x19933 -1 x19934 -1 x19935 -1 x19936 -1 x19937 -1 x19938 >= 0 ;
+2 x20092 +2 x20093 +2 x20094 -1 x19936 -1 x19937 -1 x19938 -1 x19939 -1 x19940 -1 x19941 >= 0 ;
+2 x20095 +2 x20096 +2 x20097 -1 x19939 -1 x19940 -1 x19941 -1 x19942 -1 x19943 -1 x19944 >= 0 ;
+2 x20098 +2 x20099 +2 x20100 -1 x19942 -1 x19943 -1 x19944 -1 x19945 -1 x19946 -1 x19947 >= 0 ;
+2 x20101 +2 x20102 +2 x20103 -1 x19945 -1 x19946 -1 x19947 -1 x19948 -1 x19949 -1 x19950 >= 0 ;
+2 x20104 +2 x20105 +2 x20106 -1 x19948 -1 x19949 -1 x19950 -1 x19951 -1 x19952 -1 x19953 >= 0 ;
+2 x20107 +2 x20108 +2 x20109 -1 x19951 -1 x19952 -1 x19953 -1 x19954 -1 x19955 -1 x19956 >= 0 ;
+2 x20110 +2 x20111 +2 x20112 -1 x19954 -1 x19955 -1 x19956 -1 x19957 -1 x19958 -1 x19959 >= 0 ;
+2 x20113 +2 x20114 +2 x20115 -1 x19957 -1 x19958 -1 x19959 -1 x19960 -1 x19961 -1 x19962 >= 0 ;
+2 x20116 +2 x20117 +2 x20118 -1 x19960 -1 x19961 -1 x19962 -1 x19963 -1 x19964 -1 x19965 >= 0 ;
+2 x20119 +2 x20120 +2 x20121 -1 x19963 -1 x19964 -1 x19965 -1 x19966 -1 x19967 -1 x19968 >= 0 ;
+2 x20122 +2 x20123 +2 x20124 -1 x19966 -1 x19967 -1 x19968 -1 x19969 -1 x19970 -1 x19971 >= 0 ;
+2 x20125 +2 x20126 +2 x20127 -1 x19969 -1 x19970 -1 x19971 -1 x19972 -1 x19973 -1 x19974 >= 0 ;
+2 x20128 +2 x20129 +2 x20130 -1 x19972 -1 x19973 -1 x19974 -1 x19975 -1 x19976 -1 x19977 >= 0 ;
+2 x20131 +2 x20132 +2 x20133 -1 x19975 -1 x19976 -1 x19977 -1 x19978 -1 x19979 -1 x19980 >= 0 ;
+2 x20134 +2 x20135 +2 x20136 -1 x19978 -1 x19979 -1 x19980 -1 x19981 -1 x19982 -1 x19983 >= 0 ;
+2 x20137 +2 x20138 +2 x20139 -1 x19981 -1 x19982 -1 x19983 -1 x19984 -1 x19985 -1 x19986 >= 0 ;
+2 x20140 +2 x20141 +2 x20142 -1 x19984 -1 x19985 -1 x19986 -1 x19987 -1 x19988 -1 x19989 >= 0 ;
+2 x20143 +2 x20144 +2 x20145 -1 x19987 -1 x19988 -1 x19989 -1 x19990 -1 x19991 -1 x19992 >= 0 ;
+2 x20146 +2 x20147 +2 x20148 -1 x19990 -1 x19991 -1 x19992 -1 x19993 -1 x19994 -1 x19995 >= 0 ;
+2 x20149 +2 x20150 +2 x20151 -1 x19993 -1 x19994 -1 x19995 -1 x19996 -1 x19997 -1 x19998 >= 0 ;
+2 x20152 +2 x20153 +2 x20154 -1 x19996 -1 x19997 -1 x19998 -1 x19999 -1 x20000 -1 x20001 >= 0 ;
+2 x20155 +2 x20156 +2 x20157 -1 x19999 -1 x20000 -1 x20001 -1 x20002 -1 x20003 -1 x20004 >= 0 ;
+2 x20158 +2 x20159 +2 x20160 -1 x20002 -1 x20003 -1 x20004 -1 x20005 -1 x20006 -1 x20007 >= 0 ;
+2 x20161 +2 x20162 +2 x20163 -1 x20005 -1 x20006 -1 x20007 -1 x20008 -1 x20009 -1 x20010 >= 0 ;
+2 x20164 +2 x20165 +2 x20166 -1 x20008 -1 x20009 -1 x20010 -1 x20011 -1 x20012 -1 x20013 >= 0 ;
+2 x20167 +2 x20168 +2 x20169 -1 x20011 -1 x20012 -1 x20013 -1 x20014 -1 x20015 -1 x20016 >= 0 ;
+2 x20170 +2 x20171 +2 x20172 -1 x20014 -1 x20015 -1 x20016 -1 x20017 -1 x20018 -1 x20019 >= 0 ;
+2 x20173 +2 x20174 +2 x20175 -1 x20017 -1 x20018 -1 x20019 -1 x20020 -1 x20021 -1 x20022 >= 0 ;
+2 x20176 +2 x20177 +2 x20178 -1 x20020 -1 x20021 -1 x20022 -1 x20023 -1 x20024 -1 x20025 >= 0 ;
+2 x20179 +2 x20180 +2 x20181 -1 x20026 -1 x20027 -1 x20028 -1 x20029 -1 x20030 -1 x20031 >= 0 ;
+2 x20182 +2 x20183 +2 x20184 -1 x20029 -1 x20030 -1 x20031 -1 x20032 -1 x20033 -1 x20034 >= 0 ;
+2 x20185 +2 x20186 +2 x20187 -1 x20032 -1 x20033 -1 x20034 -1 x20035 -1 x20036 -1 x20037 >= 0 ;
+2 x20188 +2 x20189 +2 x20190 -1 x20035 -1 x20036 -1 x20037 -1 x20038 -1 x20039 -1 x20040 >= 0 ;
+2 x20191 +2 x20192 +2 x20193 -1 x20038 -1 x20039 -1 x20040 -1 x20041 -1 x20042 -1 x20043 >= 0 ;
+2 x20194 +2 x20195 +2 x20196 -1 x20041 -1 x20042 -1 x20043 -1 x20044 -1 x20045 -1 x20046 >= 0 ;
+2 x20197 +2 x20198 +2 x20199 -1 x20044 -1 x20045 -1 x20046 -1 x20047 -1 x20048 -1 x20049 >= 0 ;
+2 x20200 +2 x20201 +2 x20202 -1 x20047 -1 x20048 -1 x20049 -1 x20050 -1 x20051 -1 x20052 >= 0 ;
+2 x20203 +2 x20204 +2 x20205 -1 x20050 -1 x20051 -1 x20052 -1 x20053 -1 x20054 -1 x20055 >= 0 ;
+2 x20206 +2 x20207 +2 x20208 -1 x20053 -1 x20054 -1 x20055 -1 x20056 -1 x20057 -1 x20058 >= 0 ;
+2 x20209 +2 x20210 +2 x20211 -1 x20056 -1 x20057 -1 x20058 -1 x20059 -1 x20060 -1 x20061 >= 0 ;
+2 x20212 +2 x20213 +2 x20214 -1 x20059 -1 x20060 -1 x20061 -1 x20062 -1 x20063 -1 x20064 >= 0 ;
+2 x20215 +2 x20216 +2 x20217 -1 x20062 -1 x20063 -1 x20064 -1 x20065 -1 x20066 -1 x20067 >= 0 ;
+2 x20218 +2 x20219 +2 x20220 -1 x20065 -1 x20066 -1 x20067 -1 x20068 -1 x20069 -1 x20070 >= 0 ;
+2 x20221 +2 x20222 +2 x20223 -1 x20068 -1 x20069 -1 x20070 -1 x20071 -1 x20072 -1 x20073 >= 0 ;
+2 x20224 +2 x20225 +2 x20226 -1 x20071 -1 x20072 -1 x20073 -1 x20074 -1 x20075 -1 x20076 >= 0 ;
+2 x20227 +2 x20228 +2 x20229 -1 x20074 -1 x20075 -1 x20076 -1 x20077 -1 x20078 -1 x20079 >= 0 ;
+2 x20230 +2 x20231 +2 x20232 -1 x20077 -1 x20078 -1 x20079 -1 x20080 -1 x20081 -1 x20082 >= 0 ;
+2 x20233 +2 x20234 +2 x20235 -1 x20080 -1 x20081 -1 x20082 -1 x20083 -1 x20084 -1 x20085 >= 0 ;
+2 x20236 +2 x20237 +2 x20238 -1 x20083 -1 x20084 -1 x20085 -1 x20086 -1 x20087 -1 x20088 >= 0 ;
+2 x20239 +2 x20240 +2 x20241 -1 x20086 -1 x20087 -1 x20088 -1 x20089 -1 x20090 -1 x20091 >= 0 ;
+2 x20242 +2 x20243 +2 x20244 -1 x20089 -1 x20090 -1 x20091 -1 x20092 -1 x20093 -1 x20094 >= 0 ;
+2 x20245 +2 x20246 +2 x20247 -1 x20092 -1 x20093 -1 x20094 -1 x20095 -1 x20096 -1 x20097 >= 0 ;
+2 x20248 +2 x20249 +2 x20250 -1 x20095 -1 x20096 -1 x20097 -1 x20098 -1 x20099 -1 x20100 >= 0 ;
+2 x20251 +2 x20252 +2 x20253 -1 x20098 -1 x20099 -1 x20100 -1 x20101 -1 x20102 -1 x20103 >= 0 ;
+2 x20254 +2 x20255 +2 x20256 -1 x20101 -1 x20102 -1 x20103 -1 x20104 -1 x20105 -1 x20106 >= 0 ;
+2 x20257 +2 x20258 +2 x20259 -1 x20104 -1 x20105 -1 x20106 -1 x20107 -1 x20108 -1 x20109 >= 0 ;
+2 x20260 +2 x20261 +2 x20262 -1 x20107 -1 x20108 -1 x20109 -1 x20110 -1 x20111 -1 x20112 >= 0 ;
+2 x20263 +2 x20264 +2 x20265 -1 x20110 -1 x20111 -1 x20112 -1 x20113 -1 x20114 -1 x20115 >= 0 ;
+2 x20266 +2 x20267 +2 x20268 -1 x20113 -1 x20114 -1 x20115 -1 x20116 -1 x20117 -1 x20118 >= 0 ;
+2 x20269 +2 x20270 +2 x20271 -1 x20116 -1 x20117 -1 x20118 -1 x20119 -1 x20120 -1 x20121 >= 0 ;
+2 x20272 +2 x20273 +2 x20274 -1 x20119 -1 x20120 -1 x20121 -1 x20122 -1 x20123 -1 x20124 >= 0 ;
+2 x20275 +2 x20276 +2 x20277 -1 x20122 -1 x20123 -1 x20124 -1 x20125 -1 x20126 -1 x20127 >= 0 ;
+2 x20278 +2 x20279 +2 x20280 -1 x20125 -1 x20126 -1 x20127 -1 x20128 -1 x20129 -1 x20130 >= 0 ;
+2 x20281 +2 x20282 +2 x20283 -1 x20128 -1 x20129 -1 x20130 -1 x20131 -1 x20132 -1 x20133 >= 0 ;
+2 x20284 +2 x20285 +2 x20286 -1 x20131 -1 x20132 -1 x20133 -1 x20134 -1 x20135 -1 x20136 >= 0 ;
+2 x20287 +2 x20288 +2 x20289 -1 x20134 -1 x20135 -1 x20136 -1 x20137 -1 x20138 -1 x20139 >= 0 ;
+2 x20290 +2 x20291 +2 x20292 -1 x20137 -1 x20138 -1 x20139 -1 x20140 -1 x20141 -1 x20142 >= 0 ;
+2 x20293 +2 x20294 +2 x20295 -1 x20140 -1 x20141 -1 x20142 -1 x20143 -1 x20144 -1 x20145 >= 0 ;
+2 x20296 +2 x20297 +2 x20298 -1 x20143 -1 x20144 -1 x20145 -1 x20146 -1 x20147 -1 x20148 >= 0 ;
+2 x20299 +2 x20300 +2 x20301 -1 x20146 -1 x20147 -1 x20148 -1 x20149 -1 x20150 -1 x20151 >= 0 ;
+2 x20302 +2 x20303 +2 x20304 -1 x20149 -1 x20150 -1 x20151 -1 x20152 -1 x20153 -1 x20154 >= 0 ;
+2 x20305 +2 x20306 +2 x20307 -1 x20152 -1 x20153 -1 x20154 -1 x20155 -1 x20156 -1 x20157 >= 0 ;
+2 x20308 +2 x20309 +2 x20310 -1 x20155 -1 x20156 -1 x20157 -1 x20158 -1 x20159 -1 x20160 >= 0 ;
+2 x20311 +2 x20312 +2 x20313 -1 x20158 -1 x20159 -1 x20160 -1 x20161 -1 x20162 -1 x20163 >= 0 ;
+2 x20314 +2 x20315 +2 x20316 -1 x20161 -1 x20162 -1 x20163 -1 x20164 -1 x20165 -1 x20166 >= 0 ;
+2 x20317 +2 x20318 +2 x20319 -1 x20164 -1 x20165 -1 x20166 -1 x20167 -1 x20168 -1 x20169 >= 0 ;
+2 x20320 +2 x20321 +2 x20322 -1 x20167 -1 x20168 -1 x20169 -1 x20170 -1 x20171 -1 x20172 >= 0 ;
+2 x20323 +2 x20324 +2 x20325 -1 x20170 -1 x20171 -1 x20172 -1 x20173 -1 x20174 -1 x20175 >= 0 ;
+2 x20326 +2 x20327 +2 x20328 -1 x20173 -1 x20174 -1 x20175 -1 x20176 -1 x20177 -1 x20178 >= 0 ;
+2 x20329 +2 x20330 +2 x20331 -1 x20179 -1 x20180 -1 x20181 -1 x20182 -1 x20183 -1 x20184 >= 0 ;
+2 x20332 +2 x20333 +2 x20334 -1 x20182 -1 x20183 -1 x20184 -1 x20185 -1 x20186 -1 x20187 >= 0 ;
+2 x20335 +2 x20336 +2 x20337 -1 x20185 -1 x20186 -1 x20187 -1 x20188 -1 x20189 -1 x20190 >= 0 ;
+2 x20338 +2 x20339 +2 x20340 -1 x20188 -1 x20189 -1 x20190 -1 x20191 -1 x20192 -1 x20193 >= 0 ;
+2 x20341 +2 x20342 +2 x20343 -1 x20191 -1 x20192 -1 x20193 -1 x20194 -1 x20195 -1 x20196 >= 0 ;
+2 x20344 +2 x20345 +2 x20346 -1 x20194 -1 x20195 -1 x20196 -1 x20197 -1 x20198 -1 x20199 >= 0 ;
+2 x20347 +2 x20348 +2 x20349 -1 x20197 -1 x20198 -1 x20199 -1 x20200 -1 x20201 -1 x20202 >= 0 ;
+2 x20350 +2 x20351 +2 x20352 -1 x20200 -1 x20201 -1 x20202 -1 x20203 -1 x20204 -1 x20205 >= 0 ;
+2 x20353 +2 x20354 +2 x20355 -1 x20203 -1 x20204 -1 x20205 -1 x20206 -1 x20207 -1 x20208 >= 0 ;
+2 x20356 +2 x20357 +2 x20358 -1 x20206 -1 x20207 -1 x20208 -1 x20209 -1 x20210 -1 x20211 >= 0 ;
+2 x20359 +2 x20360 +2 x20361 -1 x20209 -1 x20210 -1 x20211 -1 x20212 -1 x20213 -1 x20214 >= 0 ;
+2 x20362 +2 x20363 +2 x20364 -1 x20212 -1 x20213 -1 x20214 -1 x20215 -1 x20216 -1 x20217 >= 0 ;
+2 x20365 +2 x20366 +2 x20367 -1 x20215 -1 x20216 -1 x20217 -1 x20218 -1 x20219 -1 x20220 >= 0 ;
+2 x20368 +2 x20369 +2 x20370 -1 x20218 -1 x20219 -1 x20220 -1 x20221 -1 x20222 -1 x20223 >= 0 ;
+2 x20371 +2 x20372 +2 x20373 -1 x20221 -1 x20222 -1 x20223 -1 x20224 -1 x20225 -1 x20226 >= 0 ;
+2 x20374 +2 x20375 +2 x20376 -1 x20224 -1 x20225 -1 x20226 -1 x20227 -1 x20228 -1 x20229 >= 0 ;
+2 x20377 +2 x20378 +2 x20379 -1 x20227 -1 x20228 -1 x20229 -1 x20230 -1 x20231 -1 x20232 >= 0 ;
+2 x20380 +2 x20381 +2 x20382 -1 x20230 -1 x20231 -1 x20232 -1 x20233 -1 x20234 -1 x20235 >= 0 ;
+2 x20383 +2 x20384 +2 x20385 -1 x20233 -1 x20234 -1 x20235 -1 x20236 -1 x20237 -1 x20238 >= 0 ;
+2 x20386 +2 x20387 +2 x20388 -1 x20236 -1 x20237 -1 x20238 -1 x20239 -1 x20240 -1 x20241 >= 0 ;
+2 x20389 +2 x20390 +2 x20391 -1 x20239 -1 x20240 -1 x20241 -1 x20242 -1 x20243 -1 x20244 >= 0 ;
+2 x20392 +2 x20393 +2 x20394 -1 x20242 -1 x20243 -1 x20244 -1 x20245 -1 x20246 -1 x20247 >= 0 ;
+2 x20395 +2 x20396 +2 x20397 -1 x20245 -1 x20246 -1 x20247 -1 x20248 -1 x20249 -1 x20250 >= 0 ;
+2 x20398 +2 x20399 +2 x20400 -1 x20248 -1 x20249 -1 x20250 -1 x20251 -1 x20252 -1 x20253 >= 0 ;
+2 x20401 +2 x20402 +2 x20403 -1 x20251 -1 x20252 -1 x20253 -1 x20254 -1 x20255 -1 x20256 >= 0 ;
+2 x20404 +2 x20405 +2 x20406 -1 x20254 -1 x20255 -1 x20256 -1 x20257 -1 x20258 -1 x20259 >= 0 ;
+2 x20407 +2 x20408 +2 x20409 -1 x20257 -1 x20258 -1 x20259 -1 x20260 -1 x20261 -1 x20262 >= 0 ;
+2 x20410 +2 x20411 +2 x20412 -1 x20260 -1 x20261 -1 x20262 -1 x20263 -1 x20264 -1 x20265 >= 0 ;
+2 x20413 +2 x20414 +2 x20415 -1 x20263 -1 x20264 -1 x20265 -1 x20266 -1 x20267 -1 x20268 >= 0 ;
+2 x20416 +2 x20417 +2 x20418 -1 x20266 -1 x20267 -1 x20268 -1 x20269 -1 x20270 -1 x20271 >= 0 ;
+2 x20419 +2 x20420 +2 x20421 -1 x20269 -1 x20270 -1 x20271 -1 x20272 -1 x20273 -1 x20274 >= 0 ;
+2 x20422 +2 x20423 +2 x20424 -1 x20272 -1 x20273 -1 x20274 -1 x20275 -1 x20276 -1 x20277 >= 0 ;
+2 x20425 +2 x20426 +2 x20427 -1 x20275 -1 x20276 -1 x20277 -1 x20278 -1 x20279 -1 x20280 >= 0 ;
+2 x20428 +2 x20429 +2 x20430 -1 x20278 -1 x20279 -1 x20280 -1 x20281 -1 x20282 -1 x20283 >= 0 ;
+2 x20431 +2 x20432 +2 x20433 -1 x20281 -1 x20282 -1 x20283 -1 x20284 -1 x20285 -1 x20286 >= 0 ;
+2 x20434 +2 x20435 +2 x20436 -1 x20284 -1 x20285 -1 x20286 -1 x20287 -1 x20288 -1 x20289 >= 0 ;
+2 x20437 +2 x20438 +2 x20439 -1 x20287 -1 x20288 -1 x20289 -1 x20290 -1 x20291 -1 x20292 >= 0 ;
+2 x20440 +2 x20441 +2 x20442 -1 x20290 -1 x20291 -1 x20292 -1 x20293 -1 x20294 -1 x20295 >= 0 ;
+2 x20443 +2 x20444 +2 x20445 -1 x20293 -1 x20294 -1 x20295 -1 x20296 -1 x20297 -1 x20298 >= 0 ;
+2 x20446 +2 x20447 +2 x20448 -1 x20296 -1 x20297 -1 x20298 -1 x20299 -1 x20300 -1 x20301 >= 0 ;
+2 x20449 +2 x20450 +2 x20451 -1 x20299 -1 x20300 -1 x20301 -1 x20302 -1 x20303 -1 x20304 >= 0 ;
+2 x20452 +2 x20453 +2 x20454 -1 x20302 -1 x20303 -1 x20304 -1 x20305 -1 x20306 -1 x20307 >= 0 ;
+2 x20455 +2 x20456 +2 x20457 -1 x20305 -1 x20306 -1 x20307 -1 x20308 -1 x20309 -1 x20310 >= 0 ;
+2 x20458 +2 x20459 +2 x20460 -1 x20308 -1 x20309 -1 x20310 -1 x20311 -1 x20312 -1 x20313 >= 0 ;
+2 x20461 +2 x20462 +2 x20463 -1 x20311 -1 x20312 -1 x20313 -1 x20314 -1 x20315 -1 x20316 >= 0 ;
+2 x20464 +2 x20465 +2 x20466 -1 x20314 -1 x20315 -1 x20316 -1 x20317 -1 x20318 -1 x20319 >= 0 ;
+2 x20467 +2 x20468 +2 x20469 -1 x20317 -1 x20318 -1 x20319 -1 x20320 -1 x20321 -1 x20322 >= 0 ;
+2 x20470 +2 x20471 +2 x20472 -1 x20320 -1 x20321 -1 x20322 -1 x20323 -1 x20324 -1 x20325 >= 0 ;
+2 x20473 +2 x20474 +2 x20475 -1 x20323 -1 x20324 -1 x20325 -1 x20326 -1 x20327 -1 x20328 >= 0 ;
+2 x20476 +2 x20477 +2 x20478 -1 x20329 -1 x20330 -1 x20331 -1 x20332 -1 x20333 -1 x20334 >= 0 ;
+2 x20479 +2 x20480 +2 x20481 -1 x20332 -1 x20333 -1 x20334 -1 x20335 -1 x20336 -1 x20337 >= 0 ;
+2 x20482 +2 x20483 +2 x20484 -1 x20335 -1 x20336 -1 x20337 -1 x20338 -1 x20339 -1 x20340 >= 0 ;
+2 x20485 +2 x20486 +2 x20487 -1 x20338 -1 x20339 -1 x20340 -1 x20341 -1 x20342 -1 x20343 >= 0 ;
+2 x20488 +2 x20489 +2 x20490 -1 x20341 -1 x20342 -1 x20343 -1 x20344 -1 x20345 -1 x20346 >= 0 ;
+2 x20491 +2 x20492 +2 x20493 -1 x20344 -1 x20345 -1 x20346 -1 x20347 -1 x20348 -1 x20349 >= 0 ;
+2 x20494 +2 x20495 +2 x20496 -1 x20347 -1 x20348 -1 x20349 -1 x20350 -1 x20351 -1 x20352 >= 0 ;
+2 x20497 +2 x20498 +2 x20499 -1 x20350 -1 x20351 -1 x20352 -1 x20353 -1 x20354 -1 x20355 >= 0 ;
+2 x20500 +2 x20501 +2 x20502 -1 x20353 -1 x20354 -1 x20355 -1 x20356 -1 x20357 -1 x20358 >= 0 ;
+2 x20503 +2 x20504 +2 x20505 -1 x20356 -1 x20357 -1 x20358 -1 x20359 -1 x20360 -1 x20361 >= 0 ;
+2 x20506 +2 x20507 +2 x20508 -1 x20359 -1 x20360 -1 x20361 -1 x20362 -1 x20363 -1 x20364 >= 0 ;
+2 x20509 +2 x20510 +2 x20511 -1 x20362 -1 x20363 -1 x20364 -1 x20365 -1 x20366 -1 x20367 >= 0 ;
+2 x20512 +2 x20513 +2 x20514 -1 x20365 -1 x20366 -1 x20367 -1 x20368 -1 x20369 -1 x20370 >= 0 ;
+2 x20515 +2 x20516 +2 x20517 -1 x20368 -1 x20369 -1 x20370 -1 x20371 -1 x20372 -1 x20373 >= 0 ;
+2 x20518 +2 x20519 +2 x20520 -1 x20371 -1 x20372 -1 x20373 -1 x20374 -1 x20375 -1 x20376 >= 0 ;
+2 x20521 +2 x20522 +2 x20523 -1 x20374 -1 x20375 -1 x20376 -1 x20377 -1 x20378 -1 x20379 >= 0 ;
+2 x20524 +2 x20525 +2 x20526 -1 x20377 -1 x20378 -1 x20379 -1 x20380 -1 x20381 -1 x20382 >= 0 ;
+2 x20527 +2 x20528 +2 x20529 -1 x20380 -1 x20381 -1 x20382 -1 x20383 -1 x20384 -1 x20385 >= 0 ;
+2 x20530 +2 x20531 +2 x20532 -1 x20383 -1 x20384 -1 x20385 -1 x20386 -1 x20387 -1 x20388 >= 0 ;
+2 x20533 +2 x20534 +2 x20535 -1 x20386 -1 x20387 -1 x20388 -1 x20389 -1 x20390 -1 x20391 >= 0 ;
+2 x20536 +2 x20537 +2 x20538 -1 x20389 -1 x20390 -1 x20391 -1 x20392 -1 x20393 -1 x20394 >= 0 ;
+2 x20539 +2 x20540 +2 x20541 -1 x20392 -1 x20393 -1 x20394 -1 x20395 -1 x20396 -1 x20397 >= 0 ;
+2 x20542 +2 x20543 +2 x20544 -1 x20395 -1 x20396 -1 x20397 -1 x20398 -1 x20399 -1 x20400 >= 0 ;
+2 x20545 +2 x20546 +2 x20547 -1 x20398 -1 x20399 -1 x20400 -1 x20401 -1 x20402 -1 x20403 >= 0 ;
+2 x20548 +2 x20549 +2 x20550 -1 x20401 -1 x20402 -1 x20403 -1 x20404 -1 x20405 -1 x20406 >= 0 ;
+2 x20551 +2 x20552 +2 x20553 -1 x20404 -1 x20405 -1 x20406 -1 x20407 -1 x20408 -1 x20409 >= 0 ;
+2 x20554 +2 x20555 +2 x20556 -1 x20407 -1 x20408 -1 x20409 -1 x20410 -1 x20411 -1 x20412 >= 0 ;
+2 x20557 +2 x20558 +2 x20559 -1 x20410 -1 x20411 -1 x20412 -1 x20413 -1 x20414 -1 x20415 >= 0 ;
+2 x20560 +2 x20561 +2 x20562 -1 x20413 -1 x20414 -1 x20415 -1 x20416 -1 x20417 -1 x20418 >= 0 ;
+2 x20563 +2 x20564 +2 x20565 -1 x20416 -1 x20417 -1 x20418 -1 x20419 -1 x20420 -1 x20421 >= 0 ;
+2 x20566 +2 x20567 +2 x20568 -1 x20419 -1 x20420 -1 x20421 -1 x20422 -1 x20423 -1 x20424 >= 0 ;
+2 x20569 +2 x20570 +2 x20571 -1 x20422 -1 x20423 -1 x20424 -1 x20425 -1 x20426 -1 x20427 >= 0 ;
+2 x20572 +2 x20573 +2 x20574 -1 x20425 -1 x20426 -1 x20427 -1 x20428 -1 x20429 -1 x20430 >= 0 ;
+2 x20575 +2 x20576 +2 x20577 -1 x20428 -1 x20429 -1 x20430 -1 x20431 -1 x20432 -1 x20433 >= 0 ;
+2 x20578 +2 x20579 +2 x20580 -1 x20431 -1 x20432 -1 x20433 -1 x20434 -1 x20435 -1 x20436 >= 0 ;
+2 x20581 +2 x20582 +2 x20583 -1 x20434 -1 x20435 -1 x20436 -1 x20437 -1 x20438 -1 x20439 >= 0 ;
+2 x20584 +2 x20585 +2 x20586 -1 x20437 -1 x20438 -1 x20439 -1 x20440 -1 x20441 -1 x20442 >= 0 ;
+2 x20587 +2 x20588 +2 x20589 -1 x20440 -1 x20441 -1 x20442 -1 x20443 -1 x20444 -1 x20445 >= 0 ;
+2 x20590 +2 x20591 +2 x20592 -1 x20443 -1 x20444 -1 x20445 -1 x20446 -1 x20447 -1 x20448 >= 0 ;
+2 x20593 +2 x20594 +2 x20595 -1 x20446 -1 x20447 -1 x20448 -1 x20449 -1 x20450 -1 x20451 >= 0 ;
+2 x20596 +2 x20597 +2 x20598 -1 x20449 -1 x20450 -1 x20451 -1 x20452 -1 x20453 -1 x20454 >= 0 ;
+2 x20599 +2 x20600 +2 x20601 -1 x20452 -1 x20453 -1 x20454 -1 x20455 -1 x20456 -1 x20457 >= 0 ;
+2 x20602 +2 x20603 +2 x20604 -1 x20455 -1 x20456 -1 x20457 -1 x20458 -1 x20459 -1 x20460 >= 0 ;
+2 x20605 +2 x20606 +2 x20607 -1 x20458 -1 x20459 -1 x20460 -1 x20461 -1 x20462 -1 x20463 >= 0 ;
+2 x20608 +2 x20609 +2 x20610 -1 x20461 -1 x20462 -1 x20463 -1 x20464 -1 x20465 -1 x20466 >= 0 ;
+2 x20611 +2 x20612 +2 x20613 -1 x20464 -1 x20465 -1 x20466 -1 x20467 -1 x20468 -1 x20469 >= 0 ;
+2 x20614 +2 x20615 +2 x20616 -1 x20467 -1 x20468 -1 x20469 -1 x20470 -1 x20471 -1 x20472 >= 0 ;
+2 x20617 +2 x20618 +2 x20619 -1 x20470 -1 x20471 -1 x20472 -1 x20473 -1 x20474 -1 x20475 >= 0 ;
+2 x20620 +2 x20621 +2 x20622 -1 x20476 -1 x20477 -1 x20478 -1 x20479 -1 x20480 -1 x20481 >= 0 ;
+2 x20623 +2 x20624 +2 x20625 -1 x20479 -1 x20480 -1 x20481 -1 x20482 -1 x20483 -1 x20484 >= 0 ;
+2 x20626 +2 x20627 +2 x20628 -1 x20482 -1 x20483 -1 x20484 -1 x20485 -1 x20486 -1 x20487 >= 0 ;
+2 x20629 +2 x20630 +2 x20631 -1 x20485 -1 x20486 -1 x20487 -1 x20488 -1 x20489 -1 x20490 >= 0 ;
+2 x20632 +2 x20633 +2 x20634 -1 x20488 -1 x20489 -1 x20490 -1 x20491 -1 x20492 -1 x20493 >= 0 ;
+2 x20635 +2 x20636 +2 x20637 -1 x20491 -1 x20492 -1 x20493 -1 x20494 -1 x20495 -1 x20496 >= 0 ;
+2 x20638 +2 x20639 +2 x20640 -1 x20494 -1 x20495 -1 x20496 -1 x20497 -1 x20498 -1 x20499 >= 0 ;
+2 x20641 +2 x20642 +2 x20643 -1 x20497 -1 x20498 -1 x20499 -1 x20500 -1 x20501 -1 x20502 >= 0 ;
+2 x20644 +2 x20645 +2 x20646 -1 x20500 -1 x20501 -1 x20502 -1 x20503 -1 x20504 -1 x20505 >= 0 ;
+2 x20647 +2 x20648 +2 x20649 -1 x20503 -1 x20504 -1 x20505 -1 x20506 -1 x20507 -1 x20508 >= 0 ;
+2 x20650 +2 x20651 +2 x20652 -1 x20506 -1 x20507 -1 x20508 -1 x20509 -1 x20510 -1 x20511 >= 0 ;
+2 x20653 +2 x20654 +2 x20655 -1 x20509 -1 x20510 -1 x20511 -1 x20512 -1 x20513 -1 x20514 >= 0 ;
+2 x20656 +2 x20657 +2 x20658 -1 x20512 -1 x20513 -1 x20514 -1 x20515 -1 x20516 -1 x20517 >= 0 ;
+2 x20659 +2 x20660 +2 x20661 -1 x20515 -1 x20516 -1 x20517 -1 x20518 -1 x20519 -1 x20520 >= 0 ;
+2 x20662 +2 x20663 +2 x20664 -1 x20518 -1 x20519 -1 x20520 -1 x20521 -1 x20522 -1 x20523 >= 0 ;
+2 x20665 +2 x20666 +2 x20667 -1 x20521 -1 x20522 -1 x20523 -1 x20524 -1 x20525 -1 x20526 >= 0 ;
+2 x20668 +2 x20669 +2 x20670 -1 x20524 -1 x20525 -1 x20526 -1 x20527 -1 x20528 -1 x20529 >= 0 ;
+2 x20671 +2 x20672 +2 x20673 -1 x20527 -1 x20528 -1 x20529 -1 x20530 -1 x20531 -1 x20532 >= 0 ;
+2 x20674 +2 x20675 +2 x20676 -1 x20530 -1 x20531 -1 x20532 -1 x20533 -1 x20534 -1 x20535 >= 0 ;
+2 x20677 +2 x20678 +2 x20679 -1 x20533 -1 x20534 -1 x20535 -1 x20536 -1 x20537 -1 x20538 >= 0 ;
+2 x20680 +2 x20681 +2 x20682 -1 x20536 -1 x20537 -1 x20538 -1 x20539 -1 x20540 -1 x20541 >= 0 ;
+2 x20683 +2 x20684 +2 x20685 -1 x20539 -1 x20540 -1 x20541 -1 x20542 -1 x20543 -1 x20544 >= 0 ;
+2 x20686 +2 x20687 +2 x20688 -1 x20542 -1 x20543 -1 x20544 -1 x20545 -1 x20546 -1 x20547 >= 0 ;
+2 x20689 +2 x20690 +2 x20691 -1 x20545 -1 x20546 -1 x20547 -1 x20548 -1 x20549 -1 x20550 >= 0 ;
+2 x20692 +2 x20693 +2 x20694 -1 x20548 -1 x20549 -1 x20550 -1 x20551 -1 x20552 -1 x20553 >= 0 ;
+2 x20695 +2 x20696 +2 x20697 -1 x20551 -1 x20552 -1 x20553 -1 x20554 -1 x20555 -1 x20556 >= 0 ;
+2 x20698 +2 x20699 +2 x20700 -1 x20554 -1 x20555 -1 x20556 -1 x20557 -1 x20558 -1 x20559 >= 0 ;
+2 x20701 +2 x20702 +2 x20703 -1 x20557 -1 x20558 -1 x20559 -1 x20560 -1 x20561 -1 x20562 >= 0 ;
+2 x20704 +2 x20705 +2 x20706 -1 x20560 -1 x20561 -1 x20562 -1 x20563 -1 x20564 -1 x20565 >= 0 ;
+2 x20707 +2 x20708 +2 x20709 -1 x20563 -1 x20564 -1 x20565 -1 x20566 -1 x20567 -1 x20568 >= 0 ;
+2 x20710 +2 x20711 +2 x20712 -1 x20566 -1 x20567 -1 x20568 -1 x20569 -1 x20570 -1 x20571 >= 0 ;
+2 x20713 +2 x20714 +2 x20715 -1 x20569 -1 x20570 -1 x20571 -1 x20572 -1 x20573 -1 x20574 >= 0 ;
+2 x20716 +2 x20717 +2 x20718 -1 x20572 -1 x20573 -1 x20574 -1 x20575 -1 x20576 -1 x20577 >= 0 ;
+2 x20719 +2 x20720 +2 x20721 -1 x20575 -1 x20576 -1 x20577 -1 x20578 -1 x20579 -1 x20580 >= 0 ;
+2 x20722 +2 x20723 +2 x20724 -1 x20578 -1 x20579 -1 x20580 -1 x20581 -1 x20582 -1 x20583 >= 0 ;
+2 x20725 +2 x20726 +2 x20727 -1 x20581 -1 x20582 -1 x20583 -1 x20584 -1 x20585 -1 x20586 >= 0 ;
+2 x20728 +2 x20729 +2 x20730 -1 x20584 -1 x20585 -1 x20586 -1 x20587 -1 x20588 -1 x20589 >= 0 ;
+2 x20731 +2 x20732 +2 x20733 -1 x20587 -1 x20588 -1 x20589 -1 x20590 -1 x20591 -1 x20592 >= 0 ;
+2 x20734 +2 x20735 +2 x20736 -1 x20590 -1 x20591 -1 x20592 -1 x20593 -1 x20594 -1 x20595 >= 0 ;
+2 x20737 +2 x20738 +2 x20739 -1 x20593 -1 x20594 -1 x20595 -1 x20596 -1 x20597 -1 x20598 >= 0 ;
+2 x20740 +2 x20741 +2 x20742 -1 x20596 -1 x20597 -1 x20598 -1 x20599 -1 x20600 -1 x20601 >= 0 ;
+2 x20743 +2 x20744 +2 x20745 -1 x20599 -1 x20600 -1 x20601 -1 x20602 -1 x20603 -1 x20604 >= 0 ;
+2 x20746 +2 x20747 +2 x20748 -1 x20602 -1 x20603 -1 x20604 -1 x20605 -1 x20606 -1 x20607 >= 0 ;
+2 x20749 +2 x20750 +2 x20751 -1 x20605 -1 x20606 -1 x20607 -1 x20608 -1 x20609 -1 x20610 >= 0 ;
+2 x20752 +2 x20753 +2 x20754 -1 x20608 -1 x20609 -1 x20610 -1 x20611 -1 x20612 -1 x20613 >= 0 ;
+2 x20755 +2 x20756 +2 x20757 -1 x20611 -1 x20612 -1 x20613 -1 x20614 -1 x20615 -1 x20616 >= 0 ;
+2 x20758 +2 x20759 +2 x20760 -1 x20614 -1 x20615 -1 x20616 -1 x20617 -1 x20618 -1 x20619 >= 0 ;
+2 x20761 +2 x20762 +2 x20763 -1 x20620 -1 x20621 -1 x20622 -1 x20623 -1 x20624 -1 x20625 >= 0 ;
+2 x20764 +2 x20765 +2 x20766 -1 x20623 -1 x20624 -1 x20625 -1 x20626 -1 x20627 -1 x20628 >= 0 ;
+2 x20767 +2 x20768 +2 x20769 -1 x20626 -1 x20627 -1 x20628 -1 x20629 -1 x20630 -1 x20631 >= 0 ;
+2 x20770 +2 x20771 +2 x20772 -1 x20629 -1 x20630 -1 x20631 -1 x20632 -1 x20633 -1 x20634 >= 0 ;
+2 x20773 +2 x20774 +2 x20775 -1 x20632 -1 x20633 -1 x20634 -1 x20635 -1 x20636 -1 x20637 >= 0 ;
+2 x20776 +2 x20777 +2 x20778 -1 x20635 -1 x20636 -1 x20637 -1 x20638 -1 x20639 -1 x20640 >= 0 ;
+2 x20779 +2 x20780 +2 x20781 -1 x20638 -1 x20639 -1 x20640 -1 x20641 -1 x20642 -1 x20643 >= 0 ;
+2 x20782 +2 x20783 +2 x20784 -1 x20641 -1 x20642 -1 x20643 -1 x20644 -1 x20645 -1 x20646 >= 0 ;
+2 x20785 +2 x20786 +2 x20787 -1 x20644 -1 x20645 -1 x20646 -1 x20647 -1 x20648 -1 x20649 >= 0 ;
+2 x20788 +2 x20789 +2 x20790 -1 x20647 -1 x20648 -1 x20649 -1 x20650 -1 x20651 -1 x20652 >= 0 ;
+2 x20791 +2 x20792 +2 x20793 -1 x20650 -1 x20651 -1 x20652 -1 x20653 -1 x20654 -1 x20655 >= 0 ;
+2 x20794 +2 x20795 +2 x20796 -1 x20653 -1 x20654 -1 x20655 -1 x20656 -1 x20657 -1 x20658 >= 0 ;
+2 x20797 +2 x20798 +2 x20799 -1 x20656 -1 x20657 -1 x20658 -1 x20659 -1 x20660 -1 x20661 >= 0 ;
+2 x20800 +2 x20801 +2 x20802 -1 x20659 -1 x20660 -1 x20661 -1 x20662 -1 x20663 -1 x20664 >= 0 ;
+2 x20803 +2 x20804 +2 x20805 -1 x20662 -1 x20663 -1 x20664 -1 x20665 -1 x20666 -1 x20667 >= 0 ;
+2 x20806 +2 x20807 +2 x20808 -1 x20665 -1 x20666 -1 x20667 -1 x20668 -1 x20669 -1 x20670 >= 0 ;
+2 x20809 +2 x20810 +2 x20811 -1 x20668 -1 x20669 -1 x20670 -1 x20671 -1 x20672 -1 x20673 >= 0 ;
+2 x20812 +2 x20813 +2 x20814 -1 x20671 -1 x20672 -1 x20673 -1 x20674 -1 x20675 -1 x20676 >= 0 ;
+2 x20815 +2 x20816 +2 x20817 -1 x20674 -1 x20675 -1 x20676 -1 x20677 -1 x20678 -1 x20679 >= 0 ;
+2 x20818 +2 x20819 +2 x20820 -1 x20677 -1 x20678 -1 x20679 -1 x20680 -1 x20681 -1 x20682 >= 0 ;
+2 x20821 +2 x20822 +2 x20823 -1 x20680 -1 x20681 -1 x20682 -1 x20683 -1 x20684 -1 x20685 >= 0 ;
+2 x20824 +2 x20825 +2 x20826 -1 x20683 -1 x20684 -1 x20685 -1 x20686 -1 x20687 -1 x20688 >= 0 ;
+2 x20827 +2 x20828 +2 x20829 -1 x20686 -1 x20687 -1 x20688 -1 x20689 -1 x20690 -1 x20691 >= 0 ;
+2 x20830 +2 x20831 +2 x20832 -1 x20689 -1 x20690 -1 x20691 -1 x20692 -1 x20693 -1 x20694 >= 0 ;
+2 x20833 +2 x20834 +2 x20835 -1 x20692 -1 x20693 -1 x20694 -1 x20695 -1 x20696 -1 x20697 >= 0 ;
+2 x20836 +2 x20837 +2 x20838 -1 x20695 -1 x20696 -1 x20697 -1 x20698 -1 x20699 -1 x20700 >= 0 ;
+2 x20839 +2 x20840 +2 x20841 -1 x20698 -1 x20699 -1 x20700 -1 x20701 -1 x20702 -1 x20703 >= 0 ;
+2 x20842 +2 x20843 +2 x20844 -1 x20701 -1 x20702 -1 x20703 -1 x20704 -1 x20705 -1 x20706 >= 0 ;
+2 x20845 +2 x20846 +2 x20847 -1 x20704 -1 x20705 -1 x20706 -1 x20707 -1 x20708 -1 x20709 >= 0 ;
+2 x20848 +2 x20849 +2 x20850 -1 x20707 -1 x20708 -1 x20709 -1 x20710 -1 x20711 -1 x20712 >= 0 ;
+2 x20851 +2 x20852 +2 x20853 -1 x20710 -1 x20711 -1 x20712 -1 x20713 -1 x20714 -1 x20715 >= 0 ;
+2 x20854 +2 x20855 +2 x20856 -1 x20713 -1 x20714 -1 x20715 -1 x20716 -1 x20717 -1 x20718 >= 0 ;
+2 x20857 +2 x20858 +2 x20859 -1 x20716 -1 x20717 -1 x20718 -1 x20719 -1 x20720 -1 x20721 >= 0 ;
+2 x20860 +2 x20861 +2 x20862 -1 x20719 -1 x20720 -1 x20721 -1 x20722 -1 x20723 -1 x20724 >= 0 ;
+2 x20863 +2 x20864 +2 x20865 -1 x20722 -1 x20723 -1 x20724 -1 x20725 -1 x20726 -1 x20727 >= 0 ;
+2 x20866 +2 x20867 +2 x20868 -1 x20725 -1 x20726 -1 x20727 -1 x20728 -1 x20729 -1 x20730 >= 0 ;
+2 x20869 +2 x20870 +2 x20871 -1 x20728 -1 x20729 -1 x20730 -1 x20731 -1 x20732 -1 x20733 >= 0 ;
+2 x20872 +2 x20873 +2 x20874 -1 x20731 -1 x20732 -1 x20733 -1 x20734 -1 x20735 -1 x20736 >= 0 ;
+2 x20875 +2 x20876 +2 x20877 -1 x20734 -1 x20735 -1 x20736 -1 x20737 -1 x20738 -1 x20739 >= 0 ;
+2 x20878 +2 x20879 +2 x20880 -1 x20737 -1 x20738 -1 x20739 -1 x20740 -1 x20741 -1 x20742 >= 0 ;
+2 x20881 +2 x20882 +2 x20883 -1 x20740 -1 x20741 -1 x20742 -1 x20743 -1 x20744 -1 x20745 >= 0 ;
+2 x20884 +2 x20885 +2 x20886 -1 x20743 -1 x20744 -1 x20745 -1 x20746 -1 x20747 -1 x20748 >= 0 ;
+2 x20887 +2 x20888 +2 x20889 -1 x20746 -1 x20747 -1 x20748 -1 x20749 -1 x20750 -1 x20751 >= 0 ;
+2 x20890 +2 x20891 +2 x20892 -1 x20749 -1 x20750 -1 x20751 -1 x20752 -1 x20753 -1 x20754 >= 0 ;
+2 x20893 +2 x20894 +2 x20895 -1 x20752 -1 x20753 -1 x20754 -1 x20755 -1 x20756 -1 x20757 >= 0 ;
+2 x20896 +2 x20897 +2 x20898 -1 x20755 -1 x20756 -1 x20757 -1 x20758 -1 x20759 -1 x20760 >= 0 ;
+2 x20899 +2 x20900 +2 x20901 -1 x20761 -1 x20762 -1 x20763 -1 x20764 -1 x20765 -1 x20766 >= 0 ;
+2 x20902 +2 x20903 +2 x20904 -1 x20764 -1 x20765 -1 x20766 -1 x20767 -1 x20768 -1 x20769 >= 0 ;
+2 x20905 +2 x20906 +2 x20907 -1 x20767 -1 x20768 -1 x20769 -1 x20770 -1 x20771 -1 x20772 >= 0 ;
+2 x20908 +2 x20909 +2 x20910 -1 x20770 -1 x20771 -1 x20772 -1 x20773 -1 x20774 -1 x20775 >= 0 ;
+2 x20911 +2 x20912 +2 x20913 -1 x20773 -1 x20774 -1 x20775 -1 x20776 -1 x20777 -1 x20778 >= 0 ;
+2 x20914 +2 x20915 +2 x20916 -1 x20776 -1 x20777 -1 x20778 -1 x20779 -1 x20780 -1 x20781 >= 0 ;
+2 x20917 +2 x20918 +2 x20919 -1 x20779 -1 x20780 -1 x20781 -1 x20782 -1 x20783 -1 x20784 >= 0 ;
+2 x20920 +2 x20921 +2 x20922 -1 x20782 -1 x20783 -1 x20784 -1 x20785 -1 x20786 -1 x20787 >= 0 ;
+2 x20923 +2 x20924 +2 x20925 -1 x20785 -1 x20786 -1 x20787 -1 x20788 -1 x20789 -1 x20790 >= 0 ;
+2 x20926 +2 x20927 +2 x20928 -1 x20788 -1 x20789 -1 x20790 -1 x20791 -1 x20792 -1 x20793 >= 0 ;
+2 x20929 +2 x20930 +2 x20931 -1 x20791 -1 x20792 -1 x20793 -1 x20794 -1 x20795 -1 x20796 >= 0 ;
+2 x20932 +2 x20933 +2 x20934 -1 x20794 -1 x20795 -1 x20796 -1 x20797 -1 x20798 -1 x20799 >= 0 ;
+2 x20935 +2 x20936 +2 x20937 -1 x20797 -1 x20798 -1 x20799 -1 x20800 -1 x20801 -1 x20802 >= 0 ;
+2 x20938 +2 x20939 +2 x20940 -1 x20800 -1 x20801 -1 x20802 -1 x20803 -1 x20804 -1 x20805 >= 0 ;
+2 x20941 +2 x20942 +2 x20943 -1 x20803 -1 x20804 -1 x20805 -1 x20806 -1 x20807 -1 x20808 >= 0 ;
+2 x20944 +2 x20945 +2 x20946 -1 x20806 -1 x20807 -1 x20808 -1 x20809 -1 x20810 -1 x20811 >= 0 ;
+2 x20947 +2 x20948 +2 x20949 -1 x20809 -1 x20810 -1 x20811 -1 x20812 -1 x20813 -1 x20814 >= 0 ;
+2 x20950 +2 x20951 +2 x20952 -1 x20812 -1 x20813 -1 x20814 -1 x20815 -1 x20816 -1 x20817 >= 0 ;
+2 x20953 +2 x20954 +2 x20955 -1 x20815 -1 x20816 -1 x20817 -1 x20818 -1 x20819 -1 x20820 >= 0 ;
+2 x20956 +2 x20957 +2 x20958 -1 x20818 -1 x20819 -1 x20820 -1 x20821 -1 x20822 -1 x20823 >= 0 ;
+2 x20959 +2 x20960 +2 x20961 -1 x20821 -1 x20822 -1 x20823 -1 x20824 -1 x20825 -1 x20826 >= 0 ;
+2 x20962 +2 x20963 +2 x20964 -1 x20824 -1 x20825 -1 x20826 -1 x20827 -1 x20828 -1 x20829 >= 0 ;
+2 x20965 +2 x20966 +2 x20967 -1 x20827 -1 x20828 -1 x20829 -1 x20830 -1 x20831 -1 x20832 >= 0 ;
+2 x20968 +2 x20969 +2 x20970 -1 x20830 -1 x20831 -1 x20832 -1 x20833 -1 x20834 -1 x20835 >= 0 ;
+2 x20971 +2 x20972 +2 x20973 -1 x20833 -1 x20834 -1 x20835 -1 x20836 -1 x20837 -1 x20838 >= 0 ;
+2 x20974 +2 x20975 +2 x20976 -1 x20836 -1 x20837 -1 x20838 -1 x20839 -1 x20840 -1 x20841 >= 0 ;
+2 x20977 +2 x20978 +2 x20979 -1 x20839 -1 x20840 -1 x20841 -1 x20842 -1 x20843 -1 x20844 >= 0 ;
+2 x20980 +2 x20981 +2 x20982 -1 x20842 -1 x20843 -1 x20844 -1 x20845 -1 x20846 -1 x20847 >= 0 ;
+2 x20983 +2 x20984 +2 x20985 -1 x20845 -1 x20846 -1 x20847 -1 x20848 -1 x20849 -1 x20850 >= 0 ;
+2 x20986 +2 x20987 +2 x20988 -1 x20848 -1 x20849 -1 x20850 -1 x20851 -1 x20852 -1 x20853 >= 0 ;
+2 x20989 +2 x20990 +2 x20991 -1 x20851 -1 x20852 -1 x20853 -1 x20854 -1 x20855 -1 x20856 >= 0 ;
+2 x20992 +2 x20993 +2 x20994 -1 x20854 -1 x20855 -1 x20856 -1 x20857 -1 x20858 -1 x20859 >= 0 ;
+2 x20995 +2 x20996 +2 x20997 -1 x20857 -1 x20858 -1 x20859 -1 x20860 -1 x20861 -1 x20862 >= 0 ;
+2 x20998 +2 x20999 +2 x21000 -1 x20860 -1 x20861 -1 x20862 -1 x20863 -1 x20864 -1 x20865 >= 0 ;
+2 x21001 +2 x21002 +2 x21003 -1 x20863 -1 x20864 -1 x20865 -1 x20866 -1 x20867 -1 x20868 >= 0 ;
+2 x21004 +2 x21005 +2 x21006 -1 x20866 -1 x20867 -1 x20868 -1 x20869 -1 x20870 -1 x20871 >= 0 ;
+2 x21007 +2 x21008 +2 x21009 -1 x20869 -1 x20870 -1 x20871 -1 x20872 -1 x20873 -1 x20874 >= 0 ;
+2 x21010 +2 x21011 +2 x21012 -1 x20872 -1 x20873 -1 x20874 -1 x20875 -1 x20876 -1 x20877 >= 0 ;
+2 x21013 +2 x21014 +2 x21015 -1 x20875 -1 x20876 -1 x20877 -1 x20878 -1 x20879 -1 x20880 >= 0 ;
+2 x21016 +2 x21017 +2 x21018 -1 x20878 -1 x20879 -1 x20880 -1 x20881 -1 x20882 -1 x20883 >= 0 ;
+2 x21019 +2 x21020 +2 x21021 -1 x20881 -1 x20882 -1 x20883 -1 x20884 -1 x20885 -1 x20886 >= 0 ;
+2 x21022 +2 x21023 +2 x21024 -1 x20884 -1 x20885 -1 x20886 -1 x20887 -1 x20888 -1 x20889 >= 0 ;
+2 x21025 +2 x21026 +2 x21027 -1 x20887 -1 x20888 -1 x20889 -1 x20890 -1 x20891 -1 x20892 >= 0 ;
+2 x21028 +2 x21029 +2 x21030 -1 x20890 -1 x20891 -1 x20892 -1 x20893 -1 x20894 -1 x20895 >= 0 ;
+2 x21031 +2 x21032 +2 x21033 -1 x20893 -1 x20894 -1 x20895 -1 x20896 -1 x20897 -1 x20898 >= 0 ;
+2 x21034 +2 x21035 +2 x21036 -1 x20899 -1 x20900 -1 x20901 -1 x20902 -1 x20903 -1 x20904 >= 0 ;
+2 x21037 +2 x21038 +2 x21039 -1 x20902 -1 x20903 -1 x20904 -1 x20905 -1 x20906 -1 x20907 >= 0 ;
+2 x21040 +2 x21041 +2 x21042 -1 x20905 -1 x20906 -1 x20907 -1 x20908 -1 x20909 -1 x20910 >= 0 ;
+2 x21043 +2 x21044 +2 x21045 -1 x20908 -1 x20909 -1 x20910 -1 x20911 -1 x20912 -1 x20913 >= 0 ;
+2 x21046 +2 x21047 +2 x21048 -1 x20911 -1 x20912 -1 x20913 -1 x20914 -1 x20915 -1 x20916 >= 0 ;
+2 x21049 +2 x21050 +2 x21051 -1 x20914 -1 x20915 -1 x20916 -1 x20917 -1 x20918 -1 x20919 >= 0 ;
+2 x21052 +2 x21053 +2 x21054 -1 x20917 -1 x20918 -1 x20919 -1 x20920 -1 x20921 -1 x20922 >= 0 ;
+2 x21055 +2 x21056 +2 x21057 -1 x20920 -1 x20921 -1 x20922 -1 x20923 -1 x20924 -1 x20925 >= 0 ;
+2 x21058 +2 x21059 +2 x21060 -1 x20923 -1 x20924 -1 x20925 -1 x20926 -1 x20927 -1 x20928 >= 0 ;
+2 x21061 +2 x21062 +2 x21063 -1 x20926 -1 x20927 -1 x20928 -1 x20929 -1 x20930 -1 x20931 >= 0 ;
+2 x21064 +2 x21065 +2 x21066 -1 x20929 -1 x20930 -1 x20931 -1 x20932 -1 x20933 -1 x20934 >= 0 ;
+2 x21067 +2 x21068 +2 x21069 -1 x20932 -1 x20933 -1 x20934 -1 x20935 -1 x20936 -1 x20937 >= 0 ;
+2 x21070 +2 x21071 +2 x21072 -1 x20935 -1 x20936 -1 x20937 -1 x20938 -1 x20939 -1 x20940 >= 0 ;
+2 x21073 +2 x21074 +2 x21075 -1 x20938 -1 x20939 -1 x20940 -1 x20941 -1 x20942 -1 x20943 >= 0 ;
+2 x21076 +2 x21077 +2 x21078 -1 x20941 -1 x20942 -1 x20943 -1 x20944 -1 x20945 -1 x20946 >= 0 ;
+2 x21079 +2 x21080 +2 x21081 -1 x20944 -1 x20945 -1 x20946 -1 x20947 -1 x20948 -1 x20949 >= 0 ;
+2 x21082 +2 x21083 +2 x21084 -1 x20947 -1 x20948 -1 x20949 -1 x20950 -1 x20951 -1 x20952 >= 0 ;
+2 x21085 +2 x21086 +2 x21087 -1 x20950 -1 x20951 -1 x20952 -1 x20953 -1 x20954 -1 x20955 >= 0 ;
+2 x21088 +2 x21089 +2 x21090 -1 x20953 -1 x20954 -1 x20955 -1 x20956 -1 x20957 -1 x20958 >= 0 ;
+2 x21091 +2 x21092 +2 x21093 -1 x20956 -1 x20957 -1 x20958 -1 x20959 -1 x20960 -1 x20961 >= 0 ;
+2 x21094 +2 x21095 +2 x21096 -1 x20959 -1 x20960 -1 x20961 -1 x20962 -1 x20963 -1 x20964 >= 0 ;
+2 x21097 +2 x21098 +2 x21099 -1 x20962 -1 x20963 -1 x20964 -1 x20965 -1 x20966 -1 x20967 >= 0 ;
+2 x21100 +2 x21101 +2 x21102 -1 x20965 -1 x20966 -1 x20967 -1 x20968 -1 x20969 -1 x20970 >= 0 ;
+2 x21103 +2 x21104 +2 x21105 -1 x20968 -1 x20969 -1 x20970 -1 x20971 -1 x20972 -1 x20973 >= 0 ;
+2 x21106 +2 x21107 +2 x21108 -1 x20971 -1 x20972 -1 x20973 -1 x20974 -1 x20975 -1 x20976 >= 0 ;
+2 x21109 +2 x21110 +2 x21111 -1 x20974 -1 x20975 -1 x20976 -1 x20977 -1 x20978 -1 x20979 >= 0 ;
+2 x21112 +2 x21113 +2 x21114 -1 x20977 -1 x20978 -1 x20979 -1 x20980 -1 x20981 -1 x20982 >= 0 ;
+2 x21115 +2 x21116 +2 x21117 -1 x20980 -1 x20981 -1 x20982 -1 x20983 -1 x20984 -1 x20985 >= 0 ;
+2 x21118 +2 x21119 +2 x21120 -1 x20983 -1 x20984 -1 x20985 -1 x20986 -1 x20987 -1 x20988 >= 0 ;
+2 x21121 +2 x21122 +2 x21123 -1 x20986 -1 x20987 -1 x20988 -1 x20989 -1 x20990 -1 x20991 >= 0 ;
+2 x21124 +2 x21125 +2 x21126 -1 x20989 -1 x20990 -1 x20991 -1 x20992 -1 x20993 -1 x20994 >= 0 ;
+2 x21127 +2 x21128 +2 x21129 -1 x20992 -1 x20993 -1 x20994 -1 x20995 -1 x20996 -1 x20997 >= 0 ;
+2 x21130 +2 x21131 +2 x21132 -1 x20995 -1 x20996 -1 x20997 -1 x20998 -1 x20999 -1 x21000 >= 0 ;
+2 x21133 +2 x21134 +2 x21135 -1 x20998 -1 x20999 -1 x21000 -1 x21001 -1 x21002 -1 x21003 >= 0 ;
+2 x21136 +2 x21137 +2 x21138 -1 x21001 -1 x21002 -1 x21003 -1 x21004 -1 x21005 -1 x21006 >= 0 ;
+2 x21139 +2 x21140 +2 x21141 -1 x21004 -1 x21005 -1 x21006 -1 x21007 -1 x21008 -1 x21009 >= 0 ;
+2 x21142 +2 x21143 +2 x21144 -1 x21007 -1 x21008 -1 x21009 -1 x21010 -1 x21011 -1 x21012 >= 0 ;
+2 x21145 +2 x21146 +2 x21147 -1 x21010 -1 x21011 -1 x21012 -1 x21013 -1 x21014 -1 x21015 >= 0 ;
+2 x21148 +2 x21149 +2 x21150 -1 x21013 -1 x21014 -1 x21015 -1 x21016 -1 x21017 -1 x21018 >= 0 ;
+2 x21151 +2 x21152 +2 x21153 -1 x21016 -1 x21017 -1 x21018 -1 x21019 -1 x21020 -1 x21021 >= 0 ;
+2 x21154 +2 x21155 +2 x21156 -1 x21019 -1 x21020 -1 x21021 -1 x21022 -1 x21023 -1 x21024 >= 0 ;
+2 x21157 +2 x21158 +2 x21159 -1 x21022 -1 x21023 -1 x21024 -1 x21025 -1 x21026 -1 x21027 >= 0 ;
+2 x21160 +2 x21161 +2 x21162 -1 x21025 -1 x21026 -1 x21027 -1 x21028 -1 x21029 -1 x21030 >= 0 ;
+2 x21163 +2 x21164 +2 x21165 -1 x21028 -1 x21029 -1 x21030 -1 x21031 -1 x21032 -1 x21033 >= 0 ;
+2 x21166 +2 x21167 +2 x21168 -1 x21034 -1 x21035 -1 x21036 -1 x21037 -1 x21038 -1 x21039 >= 0 ;
+2 x21169 +2 x21170 +2 x21171 -1 x21037 -1 x21038 -1 x21039 -1 x21040 -1 x21041 -1 x21042 >= 0 ;
+2 x21172 +2 x21173 +2 x21174 -1 x21040 -1 x21041 -1 x21042 -1 x21043 -1 x21044 -1 x21045 >= 0 ;
+2 x21175 +2 x21176 +2 x21177 -1 x21043 -1 x21044 -1 x21045 -1 x21046 -1 x21047 -1 x21048 >= 0 ;
+2 x21178 +2 x21179 +2 x21180 -1 x21046 -1 x21047 -1 x21048 -1 x21049 -1 x21050 -1 x21051 >= 0 ;
+2 x21181 +2 x21182 +2 x21183 -1 x21049 -1 x21050 -1 x21051 -1 x21052 -1 x21053 -1 x21054 >= 0 ;
+2 x21184 +2 x21185 +2 x21186 -1 x21052 -1 x21053 -1 x21054 -1 x21055 -1 x21056 -1 x21057 >= 0 ;
+2 x21187 +2 x21188 +2 x21189 -1 x21055 -1 x21056 -1 x21057 -1 x21058 -1 x21059 -1 x21060 >= 0 ;
+2 x21190 +2 x21191 +2 x21192 -1 x21058 -1 x21059 -1 x21060 -1 x21061 -1 x21062 -1 x21063 >= 0 ;
+2 x21193 +2 x21194 +2 x21195 -1 x21061 -1 x21062 -1 x21063 -1 x21064 -1 x21065 -1 x21066 >= 0 ;
+2 x21196 +2 x21197 +2 x21198 -1 x21064 -1 x21065 -1 x21066 -1 x21067 -1 x21068 -1 x21069 >= 0 ;
+2 x21199 +2 x21200 +2 x21201 -1 x21067 -1 x21068 -1 x21069 -1 x21070 -1 x21071 -1 x21072 >= 0 ;
+2 x21202 +2 x21203 +2 x21204 -1 x21070 -1 x21071 -1 x21072 -1 x21073 -1 x21074 -1 x21075 >= 0 ;
+2 x21205 +2 x21206 +2 x21207 -1 x21073 -1 x21074 -1 x21075 -1 x21076 -1 x21077 -1 x21078 >= 0 ;
+2 x21208 +2 x21209 +2 x21210 -1 x21076 -1 x21077 -1 x21078 -1 x21079 -1 x21080 -1 x21081 >= 0 ;
+2 x21211 +2 x21212 +2 x21213 -1 x21079 -1 x21080 -1 x21081 -1 x21082 -1 x21083 -1 x21084 >= 0 ;
+2 x21214 +2 x21215 +2 x21216 -1 x21082 -1 x21083 -1 x21084 -1 x21085 -1 x21086 -1 x21087 >= 0 ;
+2 x21217 +2 x21218 +2 x21219 -1 x21085 -1 x21086 -1 x21087 -1 x21088 -1 x21089 -1 x21090 >= 0 ;
+2 x21220 +2 x21221 +2 x21222 -1 x21088 -1 x21089 -1 x21090 -1 x21091 -1 x21092 -1 x21093 >= 0 ;
+2 x21223 +2 x21224 +2 x21225 -1 x21091 -1 x21092 -1 x21093 -1 x21094 -1 x21095 -1 x21096 >= 0 ;
+2 x21226 +2 x21227 +2 x21228 -1 x21094 -1 x21095 -1 x21096 -1 x21097 -1 x21098 -1 x21099 >= 0 ;
+2 x21229 +2 x21230 +2 x21231 -1 x21097 -1 x21098 -1 x21099 -1 x21100 -1 x21101 -1 x21102 >= 0 ;
+2 x21232 +2 x21233 +2 x21234 -1 x21100 -1 x21101 -1 x21102 -1 x21103 -1 x21104 -1 x21105 >= 0 ;
+2 x21235 +2 x21236 +2 x21237 -1 x21103 -1 x21104 -1 x21105 -1 x21106 -1 x21107 -1 x21108 >= 0 ;
+2 x21238 +2 x21239 +2 x21240 -1 x21106 -1 x21107 -1 x21108 -1 x21109 -1 x21110 -1 x21111 >= 0 ;
+2 x21241 +2 x21242 +2 x21243 -1 x21109 -1 x21110 -1 x21111 -1 x21112 -1 x21113 -1 x21114 >= 0 ;
+2 x21244 +2 x21245 +2 x21246 -1 x21112 -1 x21113 -1 x21114 -1 x21115 -1 x21116 -1 x21117 >= 0 ;
+2 x21247 +2 x21248 +2 x21249 -1 x21115 -1 x21116 -1 x21117 -1 x21118 -1 x21119 -1 x21120 >= 0 ;
+2 x21250 +2 x21251 +2 x21252 -1 x21118 -1 x21119 -1 x21120 -1 x21121 -1 x21122 -1 x21123 >= 0 ;
+2 x21253 +2 x21254 +2 x21255 -1 x21121 -1 x21122 -1 x21123 -1 x21124 -1 x21125 -1 x21126 >= 0 ;
+2 x21256 +2 x21257 +2 x21258 -1 x21124 -1 x21125 -1 x21126 -1 x21127 -1 x21128 -1 x21129 >= 0 ;
+2 x21259 +2 x21260 +2 x21261 -1 x21127 -1 x21128 -1 x21129 -1 x21130 -1 x21131 -1 x21132 >= 0 ;
+2 x21262 +2 x21263 +2 x21264 -1 x21130 -1 x21131 -1 x21132 -1 x21133 -1 x21134 -1 x21135 >= 0 ;
+2 x21265 +2 x21266 +2 x21267 -1 x21133 -1 x21134 -1 x21135 -1 x21136 -1 x21137 -1 x21138 >= 0 ;
+2 x21268 +2 x21269 +2 x21270 -1 x21136 -1 x21137 -1 x21138 -1 x21139 -1 x21140 -1 x21141 >= 0 ;
+2 x21271 +2 x21272 +2 x21273 -1 x21139 -1 x21140 -1 x21141 -1 x21142 -1 x21143 -1 x21144 >= 0 ;
+2 x21274 +2 x21275 +2 x21276 -1 x21142 -1 x21143 -1 x21144 -1 x21145 -1 x21146 -1 x21147 >= 0 ;
+2 x21277 +2 x21278 +2 x21279 -1 x21145 -1 x21146 -1 x21147 -1 x21148 -1 x21149 -1 x21150 >= 0 ;
+2 x21280 +2 x21281 +2 x21282 -1 x21148 -1 x21149 -1 x21150 -1 x21151 -1 x21152 -1 x21153 >= 0 ;
+2 x21283 +2 x21284 +2 x21285 -1 x21151 -1 x21152 -1 x21153 -1 x21154 -1 x21155 -1 x21156 >= 0 ;
+2 x21286 +2 x21287 +2 x21288 -1 x21154 -1 x21155 -1 x21156 -1 x21157 -1 x21158 -1 x21159 >= 0 ;
+2 x21289 +2 x21290 +2 x21291 -1 x21157 -1 x21158 -1 x21159 -1 x21160 -1 x21161 -1 x21162 >= 0 ;
+2 x21292 +2 x21293 +2 x21294 -1 x21160 -1 x21161 -1 x21162 -1 x21163 -1 x21164 -1 x21165 >= 0 ;
+2 x21295 +2 x21296 +2 x21297 -1 x21166 -1 x21167 -1 x21168 -1 x21169 -1 x21170 -1 x21171 >= 0 ;
+2 x21298 +2 x21299 +2 x21300 -1 x21169 -1 x21170 -1 x21171 -1 x21172 -1 x21173 -1 x21174 >= 0 ;
+2 x21301 +2 x21302 +2 x21303 -1 x21172 -1 x21173 -1 x21174 -1 x21175 -1 x21176 -1 x21177 >= 0 ;
+2 x21304 +2 x21305 +2 x21306 -1 x21175 -1 x21176 -1 x21177 -1 x21178 -1 x21179 -1 x21180 >= 0 ;
+2 x21307 +2 x21308 +2 x21309 -1 x21178 -1 x21179 -1 x21180 -1 x21181 -1 x21182 -1 x21183 >= 0 ;
+2 x21310 +2 x21311 +2 x21312 -1 x21181 -1 x21182 -1 x21183 -1 x21184 -1 x21185 -1 x21186 >= 0 ;
+2 x21313 +2 x21314 +2 x21315 -1 x21184 -1 x21185 -1 x21186 -1 x21187 -1 x21188 -1 x21189 >= 0 ;
+2 x21316 +2 x21317 +2 x21318 -1 x21187 -1 x21188 -1 x21189 -1 x21190 -1 x21191 -1 x21192 >= 0 ;
+2 x21319 +2 x21320 +2 x21321 -1 x21190 -1 x21191 -1 x21192 -1 x21193 -1 x21194 -1 x21195 >= 0 ;
+2 x21322 +2 x21323 +2 x21324 -1 x21193 -1 x21194 -1 x21195 -1 x21196 -1 x21197 -1 x21198 >= 0 ;
+2 x21325 +2 x21326 +2 x21327 -1 x21196 -1 x21197 -1 x21198 -1 x21199 -1 x21200 -1 x21201 >= 0 ;
+2 x21328 +2 x21329 +2 x21330 -1 x21199 -1 x21200 -1 x21201 -1 x21202 -1 x21203 -1 x21204 >= 0 ;
+2 x21331 +2 x21332 +2 x21333 -1 x21202 -1 x21203 -1 x21204 -1 x21205 -1 x21206 -1 x21207 >= 0 ;
+2 x21334 +2 x21335 +2 x21336 -1 x21205 -1 x21206 -1 x21207 -1 x21208 -1 x21209 -1 x21210 >= 0 ;
+2 x21337 +2 x21338 +2 x21339 -1 x21208 -1 x21209 -1 x21210 -1 x21211 -1 x21212 -1 x21213 >= 0 ;
+2 x21340 +2 x21341 +2 x21342 -1 x21211 -1 x21212 -1 x21213 -1 x21214 -1 x21215 -1 x21216 >= 0 ;
+2 x21343 +2 x21344 +2 x21345 -1 x21214 -1 x21215 -1 x21216 -1 x21217 -1 x21218 -1 x21219 >= 0 ;
+2 x21346 +2 x21347 +2 x21348 -1 x21217 -1 x21218 -1 x21219 -1 x21220 -1 x21221 -1 x21222 >= 0 ;
+2 x21349 +2 x21350 +2 x21351 -1 x21220 -1 x21221 -1 x21222 -1 x21223 -1 x21224 -1 x21225 >= 0 ;
+2 x21352 +2 x21353 +2 x21354 -1 x21223 -1 x21224 -1 x21225 -1 x21226 -1 x21227 -1 x21228 >= 0 ;
+2 x21355 +2 x21356 +2 x21357 -1 x21226 -1 x21227 -1 x21228 -1 x21229 -1 x21230 -1 x21231 >= 0 ;
+2 x21358 +2 x21359 +2 x21360 -1 x21229 -1 x21230 -1 x21231 -1 x21232 -1 x21233 -1 x21234 >= 0 ;
+2 x21361 +2 x21362 +2 x21363 -1 x21232 -1 x21233 -1 x21234 -1 x21235 -1 x21236 -1 x21237 >= 0 ;
+2 x21364 +2 x21365 +2 x21366 -1 x21235 -1 x21236 -1 x21237 -1 x21238 -1 x21239 -1 x21240 >= 0 ;
+2 x21367 +2 x21368 +2 x21369 -1 x21238 -1 x21239 -1 x21240 -1 x21241 -1 x21242 -1 x21243 >= 0 ;
+2 x21370 +2 x21371 +2 x21372 -1 x21241 -1 x21242 -1 x21243 -1 x21244 -1 x21245 -1 x21246 >= 0 ;
+2 x21373 +2 x21374 +2 x21375 -1 x21244 -1 x21245 -1 x21246 -1 x21247 -1 x21248 -1 x21249 >= 0 ;
+2 x21376 +2 x21377 +2 x21378 -1 x21247 -1 x21248 -1 x21249 -1 x21250 -1 x21251 -1 x21252 >= 0 ;
+2 x21379 +2 x21380 +2 x21381 -1 x21250 -1 x21251 -1 x21252 -1 x21253 -1 x21254 -1 x21255 >= 0 ;
+2 x21382 +2 x21383 +2 x21384 -1 x21253 -1 x21254 -1 x21255 -1 x21256 -1 x21257 -1 x21258 >= 0 ;
+2 x21385 +2 x21386 +2 x21387 -1 x21256 -1 x21257 -1 x21258 -1 x21259 -1 x21260 -1 x21261 >= 0 ;
+2 x21388 +2 x21389 +2 x21390 -1 x21259 -1 x21260 -1 x21261 -1 x21262 -1 x21263 -1 x21264 >= 0 ;
+2 x21391 +2 x21392 +2 x21393 -1 x21262 -1 x21263 -1 x21264 -1 x21265 -1 x21266 -1 x21267 >= 0 ;
+2 x21394 +2 x21395 +2 x21396 -1 x21265 -1 x21266 -1 x21267 -1 x21268 -1 x21269 -1 x21270 >= 0 ;
+2 x21397 +2 x21398 +2 x21399 -1 x21268 -1 x21269 -1 x21270 -1 x21271 -1 x21272 -1 x21273 >= 0 ;
+2 x21400 +2 x21401 +2 x21402 -1 x21271 -1 x21272 -1 x21273 -1 x21274 -1 x21275 -1 x21276 >= 0 ;
+2 x21403 +2 x21404 +2 x21405 -1 x21274 -1 x21275 -1 x21276 -1 x21277 -1 x21278 -1 x21279 >= 0 ;
+2 x21406 +2 x21407 +2 x21408 -1 x21277 -1 x21278 -1 x21279 -1 x21280 -1 x21281 -1 x21282 >= 0 ;
+2 x21409 +2 x21410 +2 x21411 -1 x21280 -1 x21281 -1 x21282 -1 x21283 -1 x21284 -1 x21285 >= 0 ;
+2 x21412 +2 x21413 +2 x21414 -1 x21283 -1 x21284 -1 x21285 -1 x21286 -1 x21287 -1 x21288 >= 0 ;
+2 x21415 +2 x21416 +2 x21417 -1 x21286 -1 x21287 -1 x21288 -1 x21289 -1 x21290 -1 x21291 >= 0 ;
+2 x21418 +2 x21419 +2 x21420 -1 x21289 -1 x21290 -1 x21291 -1 x21292 -1 x21293 -1 x21294 >= 0 ;
+2 x21421 +2 x21422 +2 x21423 -1 x21295 -1 x21296 -1 x21297 -1 x21298 -1 x21299 -1 x21300 >= 0 ;
+2 x21424 +2 x21425 +2 x21426 -1 x21298 -1 x21299 -1 x21300 -1 x21301 -1 x21302 -1 x21303 >= 0 ;
+2 x21427 +2 x21428 +2 x21429 -1 x21301 -1 x21302 -1 x21303 -1 x21304 -1 x21305 -1 x21306 >= 0 ;
+2 x21430 +2 x21431 +2 x21432 -1 x21304 -1 x21305 -1 x21306 -1 x21307 -1 x21308 -1 x21309 >= 0 ;
+2 x21433 +2 x21434 +2 x21435 -1 x21307 -1 x21308 -1 x21309 -1 x21310 -1 x21311 -1 x21312 >= 0 ;
+2 x21436 +2 x21437 +2 x21438 -1 x21310 -1 x21311 -1 x21312 -1 x21313 -1 x21314 -1 x21315 >= 0 ;
+2 x21439 +2 x21440 +2 x21441 -1 x21313 -1 x21314 -1 x21315 -1 x21316 -1 x21317 -1 x21318 >= 0 ;
+2 x21442 +2 x21443 +2 x21444 -1 x21316 -1 x21317 -1 x21318 -1 x21319 -1 x21320 -1 x21321 >= 0 ;
+2 x21445 +2 x21446 +2 x21447 -1 x21319 -1 x21320 -1 x21321 -1 x21322 -1 x21323 -1 x21324 >= 0 ;
+2 x21448 +2 x21449 +2 x21450 -1 x21322 -1 x21323 -1 x21324 -1 x21325 -1 x21326 -1 x21327 >= 0 ;
+2 x21451 +2 x21452 +2 x21453 -1 x21325 -1 x21326 -1 x21327 -1 x21328 -1 x21329 -1 x21330 >= 0 ;
+2 x21454 +2 x21455 +2 x21456 -1 x21328 -1 x21329 -1 x21330 -1 x21331 -1 x21332 -1 x21333 >= 0 ;
+2 x21457 +2 x21458 +2 x21459 -1 x21331 -1 x21332 -1 x21333 -1 x21334 -1 x21335 -1 x21336 >= 0 ;
+2 x21460 +2 x21461 +2 x21462 -1 x21334 -1 x21335 -1 x21336 -1 x21337 -1 x21338 -1 x21339 >= 0 ;
+2 x21463 +2 x21464 +2 x21465 -1 x21337 -1 x21338 -1 x21339 -1 x21340 -1 x21341 -1 x21342 >= 0 ;
+2 x21466 +2 x21467 +2 x21468 -1 x21340 -1 x21341 -1 x21342 -1 x21343 -1 x21344 -1 x21345 >= 0 ;
+2 x21469 +2 x21470 +2 x21471 -1 x21343 -1 x21344 -1 x21345 -1 x21346 -1 x21347 -1 x21348 >= 0 ;
+2 x21472 +2 x21473 +2 x21474 -1 x21346 -1 x21347 -1 x21348 -1 x21349 -1 x21350 -1 x21351 >= 0 ;
+2 x21475 +2 x21476 +2 x21477 -1 x21349 -1 x21350 -1 x21351 -1 x21352 -1 x21353 -1 x21354 >= 0 ;
+2 x21478 +2 x21479 +2 x21480 -1 x21352 -1 x21353 -1 x21354 -1 x21355 -1 x21356 -1 x21357 >= 0 ;
+2 x21481 +2 x21482 +2 x21483 -1 x21355 -1 x21356 -1 x21357 -1 x21358 -1 x21359 -1 x21360 >= 0 ;
+2 x21484 +2 x21485 +2 x21486 -1 x21358 -1 x21359 -1 x21360 -1 x21361 -1 x21362 -1 x21363 >= 0 ;
+2 x21487 +2 x21488 +2 x21489 -1 x21361 -1 x21362 -1 x21363 -1 x21364 -1 x21365 -1 x21366 >= 0 ;
+2 x21490 +2 x21491 +2 x21492 -1 x21364 -1 x21365 -1 x21366 -1 x21367 -1 x21368 -1 x21369 >= 0 ;
+2 x21493 +2 x21494 +2 x21495 -1 x21367 -1 x21368 -1 x21369 -1 x21370 -1 x21371 -1 x21372 >= 0 ;
+2 x21496 +2 x21497 +2 x21498 -1 x21370 -1 x21371 -1 x21372 -1 x21373 -1 x21374 -1 x21375 >= 0 ;
+2 x21499 +2 x21500 +2 x21501 -1 x21373 -1 x21374 -1 x21375 -1 x21376 -1 x21377 -1 x21378 >= 0 ;
+2 x21502 +2 x21503 +2 x21504 -1 x21376 -1 x21377 -1 x21378 -1 x21379 -1 x21380 -1 x21381 >= 0 ;
+2 x21505 +2 x21506 +2 x21507 -1 x21379 -1 x21380 -1 x21381 -1 x21382 -1 x21383 -1 x21384 >= 0 ;
+2 x21508 +2 x21509 +2 x21510 -1 x21382 -1 x21383 -1 x21384 -1 x21385 -1 x21386 -1 x21387 >= 0 ;
+2 x21511 +2 x21512 +2 x21513 -1 x21385 -1 x21386 -1 x21387 -1 x21388 -1 x21389 -1 x21390 >= 0 ;
+2 x21514 +2 x21515 +2 x21516 -1 x21388 -1 x21389 -1 x21390 -1 x21391 -1 x21392 -1 x21393 >= 0 ;
+2 x21517 +2 x21518 +2 x21519 -1 x21391 -1 x21392 -1 x21393 -1 x21394 -1 x21395 -1 x21396 >= 0 ;
+2 x21520 +2 x21521 +2 x21522 -1 x21394 -1 x21395 -1 x21396 -1 x21397 -1 x21398 -1 x21399 >= 0 ;
+2 x21523 +2 x21524 +2 x21525 -1 x21397 -1 x21398 -1 x21399 -1 x21400 -1 x21401 -1 x21402 >= 0 ;
+2 x21526 +2 x21527 +2 x21528 -1 x21400 -1 x21401 -1 x21402 -1 x21403 -1 x21404 -1 x21405 >= 0 ;
+2 x21529 +2 x21530 +2 x21531 -1 x21403 -1 x21404 -1 x21405 -1 x21406 -1 x21407 -1 x21408 >= 0 ;
+2 x21532 +2 x21533 +2 x21534 -1 x21406 -1 x21407 -1 x21408 -1 x21409 -1 x21410 -1 x21411 >= 0 ;
+2 x21535 +2 x21536 +2 x21537 -1 x21409 -1 x21410 -1 x21411 -1 x21412 -1 x21413 -1 x21414 >= 0 ;
+2 x21538 +2 x21539 +2 x21540 -1 x21412 -1 x21413 -1 x21414 -1 x21415 -1 x21416 -1 x21417 >= 0 ;
+2 x21541 +2 x21542 +2 x21543 -1 x21415 -1 x21416 -1 x21417 -1 x21418 -1 x21419 -1 x21420 >= 0 ;
+2 x21544 +2 x21545 +2 x21546 -1 x21421 -1 x21422 -1 x21423 -1 x21424 -1 x21425 -1 x21426 >= 0 ;
+2 x21547 +2 x21548 +2 x21549 -1 x21424 -1 x21425 -1 x21426 -1 x21427 -1 x21428 -1 x21429 >= 0 ;
+2 x21550 +2 x21551 +2 x21552 -1 x21427 -1 x21428 -1 x21429 -1 x21430 -1 x21431 -1 x21432 >= 0 ;
+2 x21553 +2 x21554 +2 x21555 -1 x21430 -1 x21431 -1 x21432 -1 x21433 -1 x21434 -1 x21435 >= 0 ;
+2 x21556 +2 x21557 +2 x21558 -1 x21433 -1 x21434 -1 x21435 -1 x21436 -1 x21437 -1 x21438 >= 0 ;
+2 x21559 +2 x21560 +2 x21561 -1 x21436 -1 x21437 -1 x21438 -1 x21439 -1 x21440 -1 x21441 >= 0 ;
+2 x21562 +2 x21563 +2 x21564 -1 x21439 -1 x21440 -1 x21441 -1 x21442 -1 x21443 -1 x21444 >= 0 ;
+2 x21565 +2 x21566 +2 x21567 -1 x21442 -1 x21443 -1 x21444 -1 x21445 -1 x21446 -1 x21447 >= 0 ;
+2 x21568 +2 x21569 +2 x21570 -1 x21445 -1 x21446 -1 x21447 -1 x21448 -1 x21449 -1 x21450 >= 0 ;
+2 x21571 +2 x21572 +2 x21573 -1 x21448 -1 x21449 -1 x21450 -1 x21451 -1 x21452 -1 x21453 >= 0 ;
+2 x21574 +2 x21575 +2 x21576 -1 x21451 -1 x21452 -1 x21453 -1 x21454 -1 x21455 -1 x21456 >= 0 ;
+2 x21577 +2 x21578 +2 x21579 -1 x21454 -1 x21455 -1 x21456 -1 x21457 -1 x21458 -1 x21459 >= 0 ;
+2 x21580 +2 x21581 +2 x21582 -1 x21457 -1 x21458 -1 x21459 -1 x21460 -1 x21461 -1 x21462 >= 0 ;
+2 x21583 +2 x21584 +2 x21585 -1 x21460 -1 x21461 -1 x21462 -1 x21463 -1 x21464 -1 x21465 >= 0 ;
+2 x21586 +2 x21587 +2 x21588 -1 x21463 -1 x21464 -1 x21465 -1 x21466 -1 x21467 -1 x21468 >= 0 ;
+2 x21589 +2 x21590 +2 x21591 -1 x21466 -1 x21467 -1 x21468 -1 x21469 -1 x21470 -1 x21471 >= 0 ;
+2 x21592 +2 x21593 +2 x21594 -1 x21469 -1 x21470 -1 x21471 -1 x21472 -1 x21473 -1 x21474 >= 0 ;
+2 x21595 +2 x21596 +2 x21597 -1 x21472 -1 x21473 -1 x21474 -1 x21475 -1 x21476 -1 x21477 >= 0 ;
+2 x21598 +2 x21599 +2 x21600 -1 x21475 -1 x21476 -1 x21477 -1 x21478 -1 x21479 -1 x21480 >= 0 ;
+2 x21601 +2 x21602 +2 x21603 -1 x21478 -1 x21479 -1 x21480 -1 x21481 -1 x21482 -1 x21483 >= 0 ;
+2 x21604 +2 x21605 +2 x21606 -1 x21481 -1 x21482 -1 x21483 -1 x21484 -1 x21485 -1 x21486 >= 0 ;
+2 x21607 +2 x21608 +2 x21609 -1 x21484 -1 x21485 -1 x21486 -1 x21487 -1 x21488 -1 x21489 >= 0 ;
+2 x21610 +2 x21611 +2 x21612 -1 x21487 -1 x21488 -1 x21489 -1 x21490 -1 x21491 -1 x21492 >= 0 ;
+2 x21613 +2 x21614 +2 x21615 -1 x21490 -1 x21491 -1 x21492 -1 x21493 -1 x21494 -1 x21495 >= 0 ;
+2 x21616 +2 x21617 +2 x21618 -1 x21493 -1 x21494 -1 x21495 -1 x21496 -1 x21497 -1 x21498 >= 0 ;
+2 x21619 +2 x21620 +2 x21621 -1 x21496 -1 x21497 -1 x21498 -1 x21499 -1 x21500 -1 x21501 >= 0 ;
+2 x21622 +2 x21623 +2 x21624 -1 x21499 -1 x21500 -1 x21501 -1 x21502 -1 x21503 -1 x21504 >= 0 ;
+2 x21625 +2 x21626 +2 x21627 -1 x21502 -1 x21503 -1 x21504 -1 x21505 -1 x21506 -1 x21507 >= 0 ;
+2 x21628 +2 x21629 +2 x21630 -1 x21505 -1 x21506 -1 x21507 -1 x21508 -1 x21509 -1 x21510 >= 0 ;
+2 x21631 +2 x21632 +2 x21633 -1 x21508 -1 x21509 -1 x21510 -1 x21511 -1 x21512 -1 x21513 >= 0 ;
+2 x21634 +2 x21635 +2 x21636 -1 x21511 -1 x21512 -1 x21513 -1 x21514 -1 x21515 -1 x21516 >= 0 ;
+2 x21637 +2 x21638 +2 x21639 -1 x21514 -1 x21515 -1 x21516 -1 x21517 -1 x21518 -1 x21519 >= 0 ;
+2 x21640 +2 x21641 +2 x21642 -1 x21517 -1 x21518 -1 x21519 -1 x21520 -1 x21521 -1 x21522 >= 0 ;
+2 x21643 +2 x21644 +2 x21645 -1 x21520 -1 x21521 -1 x21522 -1 x21523 -1 x21524 -1 x21525 >= 0 ;
+2 x21646 +2 x21647 +2 x21648 -1 x21523 -1 x21524 -1 x21525 -1 x21526 -1 x21527 -1 x21528 >= 0 ;
+2 x21649 +2 x21650 +2 x21651 -1 x21526 -1 x21527 -1 x21528 -1 x21529 -1 x21530 -1 x21531 >= 0 ;
+2 x21652 +2 x21653 +2 x21654 -1 x21529 -1 x21530 -1 x21531 -1 x21532 -1 x21533 -1 x21534 >= 0 ;
+2 x21655 +2 x21656 +2 x21657 -1 x21532 -1 x21533 -1 x21534 -1 x21535 -1 x21536 -1 x21537 >= 0 ;
+2 x21658 +2 x21659 +2 x21660 -1 x21535 -1 x21536 -1 x21537 -1 x21538 -1 x21539 -1 x21540 >= 0 ;
+2 x21661 +2 x21662 +2 x21663 -1 x21538 -1 x21539 -1 x21540 -1 x21541 -1 x21542 -1 x21543 >= 0 ;
+2 x21664 +2 x21665 +2 x21666 -1 x21544 -1 x21545 -1 x21546 -1 x21547 -1 x21548 -1 x21549 >= 0 ;
+2 x21667 +2 x21668 +2 x21669 -1 x21547 -1 x21548 -1 x21549 -1 x21550 -1 x21551 -1 x21552 >= 0 ;
+2 x21670 +2 x21671 +2 x21672 -1 x21550 -1 x21551 -1 x21552 -1 x21553 -1 x21554 -1 x21555 >= 0 ;
+2 x21673 +2 x21674 +2 x21675 -1 x21553 -1 x21554 -1 x21555 -1 x21556 -1 x21557 -1 x21558 >= 0 ;
+2 x21676 +2 x21677 +2 x21678 -1 x21556 -1 x21557 -1 x21558 -1 x21559 -1 x21560 -1 x21561 >= 0 ;
+2 x21679 +2 x21680 +2 x21681 -1 x21559 -1 x21560 -1 x21561 -1 x21562 -1 x21563 -1 x21564 >= 0 ;
+2 x21682 +2 x21683 +2 x21684 -1 x21562 -1 x21563 -1 x21564 -1 x21565 -1 x21566 -1 x21567 >= 0 ;
+2 x21685 +2 x21686 +2 x21687 -1 x21565 -1 x21566 -1 x21567 -1 x21568 -1 x21569 -1 x21570 >= 0 ;
+2 x21688 +2 x21689 +2 x21690 -1 x21568 -1 x21569 -1 x21570 -1 x21571 -1 x21572 -1 x21573 >= 0 ;
+2 x21691 +2 x21692 +2 x21693 -1 x21571 -1 x21572 -1 x21573 -1 x21574 -1 x21575 -1 x21576 >= 0 ;
+2 x21694 +2 x21695 +2 x21696 -1 x21574 -1 x21575 -1 x21576 -1 x21577 -1 x21578 -1 x21579 >= 0 ;
+2 x21697 +2 x21698 +2 x21699 -1 x21577 -1 x21578 -1 x21579 -1 x21580 -1 x21581 -1 x21582 >= 0 ;
+2 x21700 +2 x21701 +2 x21702 -1 x21580 -1 x21581 -1 x21582 -1 x21583 -1 x21584 -1 x21585 >= 0 ;
+2 x21703 +2 x21704 +2 x21705 -1 x21583 -1 x21584 -1 x21585 -1 x21586 -1 x21587 -1 x21588 >= 0 ;
+2 x21706 +2 x21707 +2 x21708 -1 x21586 -1 x21587 -1 x21588 -1 x21589 -1 x21590 -1 x21591 >= 0 ;
+2 x21709 +2 x21710 +2 x21711 -1 x21589 -1 x21590 -1 x21591 -1 x21592 -1 x21593 -1 x21594 >= 0 ;
+2 x21712 +2 x21713 +2 x21714 -1 x21592 -1 x21593 -1 x21594 -1 x21595 -1 x21596 -1 x21597 >= 0 ;
+2 x21715 +2 x21716 +2 x21717 -1 x21595 -1 x21596 -1 x21597 -1 x21598 -1 x21599 -1 x21600 >= 0 ;
+2 x21718 +2 x21719 +2 x21720 -1 x21598 -1 x21599 -1 x21600 -1 x21601 -1 x21602 -1 x21603 >= 0 ;
+2 x21721 +2 x21722 +2 x21723 -1 x21601 -1 x21602 -1 x21603 -1 x21604 -1 x21605 -1 x21606 >= 0 ;
+2 x21724 +2 x21725 +2 x21726 -1 x21604 -1 x21605 -1 x21606 -1 x21607 -1 x21608 -1 x21609 >= 0 ;
+2 x21727 +2 x21728 +2 x21729 -1 x21607 -1 x21608 -1 x21609 -1 x21610 -1 x21611 -1 x21612 >= 0 ;
+2 x21730 +2 x21731 +2 x21732 -1 x21610 -1 x21611 -1 x21612 -1 x21613 -1 x21614 -1 x21615 >= 0 ;
+2 x21733 +2 x21734 +2 x21735 -1 x21613 -1 x21614 -1 x21615 -1 x21616 -1 x21617 -1 x21618 >= 0 ;
+2 x21736 +2 x21737 +2 x21738 -1 x21616 -1 x21617 -1 x21618 -1 x21619 -1 x21620 -1 x21621 >= 0 ;
+2 x21739 +2 x21740 +2 x21741 -1 x21619 -1 x21620 -1 x21621 -1 x21622 -1 x21623 -1 x21624 >= 0 ;
+2 x21742 +2 x21743 +2 x21744 -1 x21622 -1 x21623 -1 x21624 -1 x21625 -1 x21626 -1 x21627 >= 0 ;
+2 x21745 +2 x21746 +2 x21747 -1 x21625 -1 x21626 -1 x21627 -1 x21628 -1 x21629 -1 x21630 >= 0 ;
+2 x21748 +2 x21749 +2 x21750 -1 x21628 -1 x21629 -1 x21630 -1 x21631 -1 x21632 -1 x21633 >= 0 ;
+2 x21751 +2 x21752 +2 x21753 -1 x21631 -1 x21632 -1 x21633 -1 x21634 -1 x21635 -1 x21636 >= 0 ;
+2 x21754 +2 x21755 +2 x21756 -1 x21634 -1 x21635 -1 x21636 -1 x21637 -1 x21638 -1 x21639 >= 0 ;
+2 x21757 +2 x21758 +2 x21759 -1 x21637 -1 x21638 -1 x21639 -1 x21640 -1 x21641 -1 x21642 >= 0 ;
+2 x21760 +2 x21761 +2 x21762 -1 x21640 -1 x21641 -1 x21642 -1 x21643 -1 x21644 -1 x21645 >= 0 ;
+2 x21763 +2 x21764 +2 x21765 -1 x21643 -1 x21644 -1 x21645 -1 x21646 -1 x21647 -1 x21648 >= 0 ;
+2 x21766 +2 x21767 +2 x21768 -1 x21646 -1 x21647 -1 x21648 -1 x21649 -1 x21650 -1 x21651 >= 0 ;
+2 x21769 +2 x21770 +2 x21771 -1 x21649 -1 x21650 -1 x21651 -1 x21652 -1 x21653 -1 x21654 >= 0 ;
+2 x21772 +2 x21773 +2 x21774 -1 x21652 -1 x21653 -1 x21654 -1 x21655 -1 x21656 -1 x21657 >= 0 ;
+2 x21775 +2 x21776 +2 x21777 -1 x21655 -1 x21656 -1 x21657 -1 x21658 -1 x21659 -1 x21660 >= 0 ;
+2 x21778 +2 x21779 +2 x21780 -1 x21658 -1 x21659 -1 x21660 -1 x21661 -1 x21662 -1 x21663 >= 0 ;
+2 x21781 +2 x21782 +2 x21783 -1 x21664 -1 x21665 -1 x21666 -1 x21667 -1 x21668 -1 x21669 >= 0 ;
+2 x21784 +2 x21785 +2 x21786 -1 x21667 -1 x21668 -1 x21669 -1 x21670 -1 x21671 -1 x21672 >= 0 ;
+2 x21787 +2 x21788 +2 x21789 -1 x21670 -1 x21671 -1 x21672 -1 x21673 -1 x21674 -1 x21675 >= 0 ;
+2 x21790 +2 x21791 +2 x21792 -1 x21673 -1 x21674 -1 x21675 -1 x21676 -1 x21677 -1 x21678 >= 0 ;
+2 x21793 +2 x21794 +2 x21795 -1 x21676 -1 x21677 -1 x21678 -1 x21679 -1 x21680 -1 x21681 >= 0 ;
+2 x21796 +2 x21797 +2 x21798 -1 x21679 -1 x21680 -1 x21681 -1 x21682 -1 x21683 -1 x21684 >= 0 ;
+2 x21799 +2 x21800 +2 x21801 -1 x21682 -1 x21683 -1 x21684 -1 x21685 -1 x21686 -1 x21687 >= 0 ;
+2 x21802 +2 x21803 +2 x21804 -1 x21685 -1 x21686 -1 x21687 -1 x21688 -1 x21689 -1 x21690 >= 0 ;
+2 x21805 +2 x21806 +2 x21807 -1 x21688 -1 x21689 -1 x21690 -1 x21691 -1 x21692 -1 x21693 >= 0 ;
+2 x21808 +2 x21809 +2 x21810 -1 x21691 -1 x21692 -1 x21693 -1 x21694 -1 x21695 -1 x21696 >= 0 ;
+2 x21811 +2 x21812 +2 x21813 -1 x21694 -1 x21695 -1 x21696 -1 x21697 -1 x21698 -1 x21699 >= 0 ;
+2 x21814 +2 x21815 +2 x21816 -1 x21697 -1 x21698 -1 x21699 -1 x21700 -1 x21701 -1 x21702 >= 0 ;
+2 x21817 +2 x21818 +2 x21819 -1 x21700 -1 x21701 -1 x21702 -1 x21703 -1 x21704 -1 x21705 >= 0 ;
+2 x21820 +2 x21821 +2 x21822 -1 x21703 -1 x21704 -1 x21705 -1 x21706 -1 x21707 -1 x21708 >= 0 ;
+2 x21823 +2 x21824 +2 x21825 -1 x21706 -1 x21707 -1 x21708 -1 x21709 -1 x21710 -1 x21711 >= 0 ;
+2 x21826 +2 x21827 +2 x21828 -1 x21709 -1 x21710 -1 x21711 -1 x21712 -1 x21713 -1 x21714 >= 0 ;
+2 x21829 +2 x21830 +2 x21831 -1 x21712 -1 x21713 -1 x21714 -1 x21715 -1 x21716 -1 x21717 >= 0 ;
+2 x21832 +2 x21833 +2 x21834 -1 x21715 -1 x21716 -1 x21717 -1 x21718 -1 x21719 -1 x21720 >= 0 ;
+2 x21835 +2 x21836 +2 x21837 -1 x21718 -1 x21719 -1 x21720 -1 x21721 -1 x21722 -1 x21723 >= 0 ;
+2 x21838 +2 x21839 +2 x21840 -1 x21721 -1 x21722 -1 x21723 -1 x21724 -1 x21725 -1 x21726 >= 0 ;
+2 x21841 +2 x21842 +2 x21843 -1 x21724 -1 x21725 -1 x21726 -1 x21727 -1 x21728 -1 x21729 >= 0 ;
+2 x21844 +2 x21845 +2 x21846 -1 x21727 -1 x21728 -1 x21729 -1 x21730 -1 x21731 -1 x21732 >= 0 ;
+2 x21847 +2 x21848 +2 x21849 -1 x21730 -1 x21731 -1 x21732 -1 x21733 -1 x21734 -1 x21735 >= 0 ;
+2 x21850 +2 x21851 +2 x21852 -1 x21733 -1 x21734 -1 x21735 -1 x21736 -1 x21737 -1 x21738 >= 0 ;
+2 x21853 +2 x21854 +2 x21855 -1 x21736 -1 x21737 -1 x21738 -1 x21739 -1 x21740 -1 x21741 >= 0 ;
+2 x21856 +2 x21857 +2 x21858 -1 x21739 -1 x21740 -1 x21741 -1 x21742 -1 x21743 -1 x21744 >= 0 ;
+2 x21859 +2 x21860 +2 x21861 -1 x21742 -1 x21743 -1 x21744 -1 x21745 -1 x21746 -1 x21747 >= 0 ;
+2 x21862 +2 x21863 +2 x21864 -1 x21745 -1 x21746 -1 x21747 -1 x21748 -1 x21749 -1 x21750 >= 0 ;
+2 x21865 +2 x21866 +2 x21867 -1 x21748 -1 x21749 -1 x21750 -1 x21751 -1 x21752 -1 x21753 >= 0 ;
+2 x21868 +2 x21869 +2 x21870 -1 x21751 -1 x21752 -1 x21753 -1 x21754 -1 x21755 -1 x21756 >= 0 ;
+2 x21871 +2 x21872 +2 x21873 -1 x21754 -1 x21755 -1 x21756 -1 x21757 -1 x21758 -1 x21759 >= 0 ;
+2 x21874 +2 x21875 +2 x21876 -1 x21757 -1 x21758 -1 x21759 -1 x21760 -1 x21761 -1 x21762 >= 0 ;
+2 x21877 +2 x21878 +2 x21879 -1 x21760 -1 x21761 -1 x21762 -1 x21763 -1 x21764 -1 x21765 >= 0 ;
+2 x21880 +2 x21881 +2 x21882 -1 x21763 -1 x21764 -1 x21765 -1 x21766 -1 x21767 -1 x21768 >= 0 ;
+2 x21883 +2 x21884 +2 x21885 -1 x21766 -1 x21767 -1 x21768 -1 x21769 -1 x21770 -1 x21771 >= 0 ;
+2 x21886 +2 x21887 +2 x21888 -1 x21769 -1 x21770 -1 x21771 -1 x21772 -1 x21773 -1 x21774 >= 0 ;
+2 x21889 +2 x21890 +2 x21891 -1 x21772 -1 x21773 -1 x21774 -1 x21775 -1 x21776 -1 x21777 >= 0 ;
+2 x21892 +2 x21893 +2 x21894 -1 x21775 -1 x21776 -1 x21777 -1 x21778 -1 x21779 -1 x21780 >= 0 ;
+2 x21895 +2 x21896 +2 x21897 -1 x21781 -1 x21782 -1 x21783 -1 x21784 -1 x21785 -1 x21786 >= 0 ;
+2 x21898 +2 x21899 +2 x21900 -1 x21784 -1 x21785 -1 x21786 -1 x21787 -1 x21788 -1 x21789 >= 0 ;
+2 x21901 +2 x21902 +2 x21903 -1 x21787 -1 x21788 -1 x21789 -1 x21790 -1 x21791 -1 x21792 >= 0 ;
+2 x21904 +2 x21905 +2 x21906 -1 x21790 -1 x21791 -1 x21792 -1 x21793 -1 x21794 -1 x21795 >= 0 ;
+2 x21907 +2 x21908 +2 x21909 -1 x21793 -1 x21794 -1 x21795 -1 x21796 -1 x21797 -1 x21798 >= 0 ;
+2 x21910 +2 x21911 +2 x21912 -1 x21796 -1 x21797 -1 x21798 -1 x21799 -1 x21800 -1 x21801 >= 0 ;
+2 x21913 +2 x21914 +2 x21915 -1 x21799 -1 x21800 -1 x21801 -1 x21802 -1 x21803 -1 x21804 >= 0 ;
+2 x21916 +2 x21917 +2 x21918 -1 x21802 -1 x21803 -1 x21804 -1 x21805 -1 x21806 -1 x21807 >= 0 ;
+2 x21919 +2 x21920 +2 x21921 -1 x21805 -1 x21806 -1 x21807 -1 x21808 -1 x21809 -1 x21810 >= 0 ;
+2 x21922 +2 x21923 +2 x21924 -1 x21808 -1 x21809 -1 x21810 -1 x21811 -1 x21812 -1 x21813 >= 0 ;
+2 x21925 +2 x21926 +2 x21927 -1 x21811 -1 x21812 -1 x21813 -1 x21814 -1 x21815 -1 x21816 >= 0 ;
+2 x21928 +2 x21929 +2 x21930 -1 x21814 -1 x21815 -1 x21816 -1 x21817 -1 x21818 -1 x21819 >= 0 ;
+2 x21931 +2 x21932 +2 x21933 -1 x21817 -1 x21818 -1 x21819 -1 x21820 -1 x21821 -1 x21822 >= 0 ;
+2 x21934 +2 x21935 +2 x21936 -1 x21820 -1 x21821 -1 x21822 -1 x21823 -1 x21824 -1 x21825 >= 0 ;
+2 x21937 +2 x21938 +2 x21939 -1 x21823 -1 x21824 -1 x21825 -1 x21826 -1 x21827 -1 x21828 >= 0 ;
+2 x21940 +2 x21941 +2 x21942 -1 x21826 -1 x21827 -1 x21828 -1 x21829 -1 x21830 -1 x21831 >= 0 ;
+2 x21943 +2 x21944 +2 x21945 -1 x21829 -1 x21830 -1 x21831 -1 x21832 -1 x21833 -1 x21834 >= 0 ;
+2 x21946 +2 x21947 +2 x21948 -1 x21832 -1 x21833 -1 x21834 -1 x21835 -1 x21836 -1 x21837 >= 0 ;
+2 x21949 +2 x21950 +2 x21951 -1 x21835 -1 x21836 -1 x21837 -1 x21838 -1 x21839 -1 x21840 >= 0 ;
+2 x21952 +2 x21953 +2 x21954 -1 x21838 -1 x21839 -1 x21840 -1 x21841 -1 x21842 -1 x21843 >= 0 ;
+2 x21955 +2 x21956 +2 x21957 -1 x21841 -1 x21842 -1 x21843 -1 x21844 -1 x21845 -1 x21846 >= 0 ;
+2 x21958 +2 x21959 +2 x21960 -1 x21844 -1 x21845 -1 x21846 -1 x21847 -1 x21848 -1 x21849 >= 0 ;
+2 x21961 +2 x21962 +2 x21963 -1 x21847 -1 x21848 -1 x21849 -1 x21850 -1 x21851 -1 x21852 >= 0 ;
+2 x21964 +2 x21965 +2 x21966 -1 x21850 -1 x21851 -1 x21852 -1 x21853 -1 x21854 -1 x21855 >= 0 ;
+2 x21967 +2 x21968 +2 x21969 -1 x21853 -1 x21854 -1 x21855 -1 x21856 -1 x21857 -1 x21858 >= 0 ;
+2 x21970 +2 x21971 +2 x21972 -1 x21856 -1 x21857 -1 x21858 -1 x21859 -1 x21860 -1 x21861 >= 0 ;
+2 x21973 +2 x21974 +2 x21975 -1 x21859 -1 x21860 -1 x21861 -1 x21862 -1 x21863 -1 x21864 >= 0 ;
+2 x21976 +2 x21977 +2 x21978 -1 x21862 -1 x21863 -1 x21864 -1 x21865 -1 x21866 -1 x21867 >= 0 ;
+2 x21979 +2 x21980 +2 x21981 -1 x21865 -1 x21866 -1 x21867 -1 x21868 -1 x21869 -1 x21870 >= 0 ;
+2 x21982 +2 x21983 +2 x21984 -1 x21868 -1 x21869 -1 x21870 -1 x21871 -1 x21872 -1 x21873 >= 0 ;
+2 x21985 +2 x21986 +2 x21987 -1 x21871 -1 x21872 -1 x21873 -1 x21874 -1 x21875 -1 x21876 >= 0 ;
+2 x21988 +2 x21989 +2 x21990 -1 x21874 -1 x21875 -1 x21876 -1 x21877 -1 x21878 -1 x21879 >= 0 ;
+2 x21991 +2 x21992 +2 x21993 -1 x21877 -1 x21878 -1 x21879 -1 x21880 -1 x21881 -1 x21882 >= 0 ;
+2 x21994 +2 x21995 +2 x21996 -1 x21880 -1 x21881 -1 x21882 -1 x21883 -1 x21884 -1 x21885 >= 0 ;
+2 x21997 +2 x21998 +2 x21999 -1 x21883 -1 x21884 -1 x21885 -1 x21886 -1 x21887 -1 x21888 >= 0 ;
+2 x22000 +2 x22001 +2 x22002 -1 x21886 -1 x21887 -1 x21888 -1 x21889 -1 x21890 -1 x21891 >= 0 ;
+2 x22003 +2 x22004 +2 x22005 -1 x21889 -1 x21890 -1 x21891 -1 x21892 -1 x21893 -1 x21894 >= 0 ;
+2 x22006 +2 x22007 +2 x22008 -1 x21895 -1 x21896 -1 x21897 -1 x21898 -1 x21899 -1 x21900 >= 0 ;
+2 x22009 +2 x22010 +2 x22011 -1 x21898 -1 x21899 -1 x21900 -1 x21901 -1 x21902 -1 x21903 >= 0 ;
+2 x22012 +2 x22013 +2 x22014 -1 x21901 -1 x21902 -1 x21903 -1 x21904 -1 x21905 -1 x21906 >= 0 ;
+2 x22015 +2 x22016 +2 x22017 -1 x21904 -1 x21905 -1 x21906 -1 x21907 -1 x21908 -1 x21909 >= 0 ;
+2 x22018 +2 x22019 +2 x22020 -1 x21907 -1 x21908 -1 x21909 -1 x21910 -1 x21911 -1 x21912 >= 0 ;
+2 x22021 +2 x22022 +2 x22023 -1 x21910 -1 x21911 -1 x21912 -1 x21913 -1 x21914 -1 x21915 >= 0 ;
+2 x22024 +2 x22025 +2 x22026 -1 x21913 -1 x21914 -1 x21915 -1 x21916 -1 x21917 -1 x21918 >= 0 ;
+2 x22027 +2 x22028 +2 x22029 -1 x21916 -1 x21917 -1 x21918 -1 x21919 -1 x21920 -1 x21921 >= 0 ;
+2 x22030 +2 x22031 +2 x22032 -1 x21919 -1 x21920 -1 x21921 -1 x21922 -1 x21923 -1 x21924 >= 0 ;
+2 x22033 +2 x22034 +2 x22035 -1 x21922 -1 x21923 -1 x21924 -1 x21925 -1 x21926 -1 x21927 >= 0 ;
+2 x22036 +2 x22037 +2 x22038 -1 x21925 -1 x21926 -1 x21927 -1 x21928 -1 x21929 -1 x21930 >= 0 ;
+2 x22039 +2 x22040 +2 x22041 -1 x21928 -1 x21929 -1 x21930 -1 x21931 -1 x21932 -1 x21933 >= 0 ;
+2 x22042 +2 x22043 +2 x22044 -1 x21931 -1 x21932 -1 x21933 -1 x21934 -1 x21935 -1 x21936 >= 0 ;
+2 x22045 +2 x22046 +2 x22047 -1 x21934 -1 x21935 -1 x21936 -1 x21937 -1 x21938 -1 x21939 >= 0 ;
+2 x22048 +2 x22049 +2 x22050 -1 x21937 -1 x21938 -1 x21939 -1 x21940 -1 x21941 -1 x21942 >= 0 ;
+2 x22051 +2 x22052 +2 x22053 -1 x21940 -1 x21941 -1 x21942 -1 x21943 -1 x21944 -1 x21945 >= 0 ;
+2 x22054 +2 x22055 +2 x22056 -1 x21943 -1 x21944 -1 x21945 -1 x21946 -1 x21947 -1 x21948 >= 0 ;
+2 x22057 +2 x22058 +2 x22059 -1 x21946 -1 x21947 -1 x21948 -1 x21949 -1 x21950 -1 x21951 >= 0 ;
+2 x22060 +2 x22061 +2 x22062 -1 x21949 -1 x21950 -1 x21951 -1 x21952 -1 x21953 -1 x21954 >= 0 ;
+2 x22063 +2 x22064 +2 x22065 -1 x21952 -1 x21953 -1 x21954 -1 x21955 -1 x21956 -1 x21957 >= 0 ;
+2 x22066 +2 x22067 +2 x22068 -1 x21955 -1 x21956 -1 x21957 -1 x21958 -1 x21959 -1 x21960 >= 0 ;
+2 x22069 +2 x22070 +2 x22071 -1 x21958 -1 x21959 -1 x21960 -1 x21961 -1 x21962 -1 x21963 >= 0 ;
+2 x22072 +2 x22073 +2 x22074 -1 x21961 -1 x21962 -1 x21963 -1 x21964 -1 x21965 -1 x21966 >= 0 ;
+2 x22075 +2 x22076 +2 x22077 -1 x21964 -1 x21965 -1 x21966 -1 x21967 -1 x21968 -1 x21969 >= 0 ;
+2 x22078 +2 x22079 +2 x22080 -1 x21967 -1 x21968 -1 x21969 -1 x21970 -1 x21971 -1 x21972 >= 0 ;
+2 x22081 +2 x22082 +2 x22083 -1 x21970 -1 x21971 -1 x21972 -1 x21973 -1 x21974 -1 x21975 >= 0 ;
+2 x22084 +2 x22085 +2 x22086 -1 x21973 -1 x21974 -1 x21975 -1 x21976 -1 x21977 -1 x21978 >= 0 ;
+2 x22087 +2 x22088 +2 x22089 -1 x21976 -1 x21977 -1 x21978 -1 x21979 -1 x21980 -1 x21981 >= 0 ;
+2 x22090 +2 x22091 +2 x22092 -1 x21979 -1 x21980 -1 x21981 -1 x21982 -1 x21983 -1 x21984 >= 0 ;
+2 x22093 +2 x22094 +2 x22095 -1 x21982 -1 x21983 -1 x21984 -1 x21985 -1 x21986 -1 x21987 >= 0 ;
+2 x22096 +2 x22097 +2 x22098 -1 x21985 -1 x21986 -1 x21987 -1 x21988 -1 x21989 -1 x21990 >= 0 ;
+2 x22099 +2 x22100 +2 x22101 -1 x21988 -1 x21989 -1 x21990 -1 x21991 -1 x21992 -1 x21993 >= 0 ;
+2 x22102 +2 x22103 +2 x22104 -1 x21991 -1 x21992 -1 x21993 -1 x21994 -1 x21995 -1 x21996 >= 0 ;
+2 x22105 +2 x22106 +2 x22107 -1 x21994 -1 x21995 -1 x21996 -1 x21997 -1 x21998 -1 x21999 >= 0 ;
+2 x22108 +2 x22109 +2 x22110 -1 x21997 -1 x21998 -1 x21999 -1 x22000 -1 x22001 -1 x22002 >= 0 ;
+2 x22111 +2 x22112 +2 x22113 -1 x22000 -1 x22001 -1 x22002 -1 x22003 -1 x22004 -1 x22005 >= 0 ;
+2 x22114 +2 x22115 +2 x22116 -1 x22006 -1 x22007 -1 x22008 -1 x22009 -1 x22010 -1 x22011 >= 0 ;
+2 x22117 +2 x22118 +2 x22119 -1 x22009 -1 x22010 -1 x22011 -1 x22012 -1 x22013 -1 x22014 >= 0 ;
+2 x22120 +2 x22121 +2 x22122 -1 x22012 -1 x22013 -1 x22014 -1 x22015 -1 x22016 -1 x22017 >= 0 ;
+2 x22123 +2 x22124 +2 x22125 -1 x22015 -1 x22016 -1 x22017 -1 x22018 -1 x22019 -1 x22020 >= 0 ;
+2 x22126 +2 x22127 +2 x22128 -1 x22018 -1 x22019 -1 x22020 -1 x22021 -1 x22022 -1 x22023 >= 0 ;
+2 x22129 +2 x22130 +2 x22131 -1 x22021 -1 x22022 -1 x22023 -1 x22024 -1 x22025 -1 x22026 >= 0 ;
+2 x22132 +2 x22133 +2 x22134 -1 x22024 -1 x22025 -1 x22026 -1 x22027 -1 x22028 -1 x22029 >= 0 ;
+2 x22135 +2 x22136 +2 x22137 -1 x22027 -1 x22028 -1 x22029 -1 x22030 -1 x22031 -1 x22032 >= 0 ;
+2 x22138 +2 x22139 +2 x22140 -1 x22030 -1 x22031 -1 x22032 -1 x22033 -1 x22034 -1 x22035 >= 0 ;
+2 x22141 +2 x22142 +2 x22143 -1 x22033 -1 x22034 -1 x22035 -1 x22036 -1 x22037 -1 x22038 >= 0 ;
+2 x22144 +2 x22145 +2 x22146 -1 x22036 -1 x22037 -1 x22038 -1 x22039 -1 x22040 -1 x22041 >= 0 ;
+2 x22147 +2 x22148 +2 x22149 -1 x22039 -1 x22040 -1 x22041 -1 x22042 -1 x22043 -1 x22044 >= 0 ;
+2 x22150 +2 x22151 +2 x22152 -1 x22042 -1 x22043 -1 x22044 -1 x22045 -1 x22046 -1 x22047 >= 0 ;
+2 x22153 +2 x22154 +2 x22155 -1 x22045 -1 x22046 -1 x22047 -1 x22048 -1 x22049 -1 x22050 >= 0 ;
+2 x22156 +2 x22157 +2 x22158 -1 x22048 -1 x22049 -1 x22050 -1 x22051 -1 x22052 -1 x22053 >= 0 ;
+2 x22159 +2 x22160 +2 x22161 -1 x22051 -1 x22052 -1 x22053 -1 x22054 -1 x22055 -1 x22056 >= 0 ;
+2 x22162 +2 x22163 +2 x22164 -1 x22054 -1 x22055 -1 x22056 -1 x22057 -1 x22058 -1 x22059 >= 0 ;
+2 x22165 +2 x22166 +2 x22167 -1 x22057 -1 x22058 -1 x22059 -1 x22060 -1 x22061 -1 x22062 >= 0 ;
+2 x22168 +2 x22169 +2 x22170 -1 x22060 -1 x22061 -1 x22062 -1 x22063 -1 x22064 -1 x22065 >= 0 ;
+2 x22171 +2 x22172 +2 x22173 -1 x22063 -1 x22064 -1 x22065 -1 x22066 -1 x22067 -1 x22068 >= 0 ;
+2 x22174 +2 x22175 +2 x22176 -1 x22066 -1 x22067 -1 x22068 -1 x22069 -1 x22070 -1 x22071 >= 0 ;
+2 x22177 +2 x22178 +2 x22179 -1 x22069 -1 x22070 -1 x22071 -1 x22072 -1 x22073 -1 x22074 >= 0 ;
+2 x22180 +2 x22181 +2 x22182 -1 x22072 -1 x22073 -1 x22074 -1 x22075 -1 x22076 -1 x22077 >= 0 ;
+2 x22183 +2 x22184 +2 x22185 -1 x22075 -1 x22076 -1 x22077 -1 x22078 -1 x22079 -1 x22080 >= 0 ;
+2 x22186 +2 x22187 +2 x22188 -1 x22078 -1 x22079 -1 x22080 -1 x22081 -1 x22082 -1 x22083 >= 0 ;
+2 x22189 +2 x22190 +2 x22191 -1 x22081 -1 x22082 -1 x22083 -1 x22084 -1 x22085 -1 x22086 >= 0 ;
+2 x22192 +2 x22193 +2 x22194 -1 x22084 -1 x22085 -1 x22086 -1 x22087 -1 x22088 -1 x22089 >= 0 ;
+2 x22195 +2 x22196 +2 x22197 -1 x22087 -1 x22088 -1 x22089 -1 x22090 -1 x22091 -1 x22092 >= 0 ;
+2 x22198 +2 x22199 +2 x22200 -1 x22090 -1 x22091 -1 x22092 -1 x22093 -1 x22094 -1 x22095 >= 0 ;
+2 x22201 +2 x22202 +2 x22203 -1 x22093 -1 x22094 -1 x22095 -1 x22096 -1 x22097 -1 x22098 >= 0 ;
+2 x22204 +2 x22205 +2 x22206 -1 x22096 -1 x22097 -1 x22098 -1 x22099 -1 x22100 -1 x22101 >= 0 ;
+2 x22207 +2 x22208 +2 x22209 -1 x22099 -1 x22100 -1 x22101 -1 x22102 -1 x22103 -1 x22104 >= 0 ;
+2 x22210 +2 x22211 +2 x22212 -1 x22102 -1 x22103 -1 x22104 -1 x22105 -1 x22106 -1 x22107 >= 0 ;
+2 x22213 +2 x22214 +2 x22215 -1 x22105 -1 x22106 -1 x22107 -1 x22108 -1 x22109 -1 x22110 >= 0 ;
+2 x22216 +2 x22217 +2 x22218 -1 x22108 -1 x22109 -1 x22110 -1 x22111 -1 x22112 -1 x22113 >= 0 ;
+2 x22219 +2 x22220 +2 x22221 -1 x22114 -1 x22115 -1 x22116 -1 x22117 -1 x22118 -1 x22119 >= 0 ;
+2 x22222 +2 x22223 +2 x22224 -1 x22117 -1 x22118 -1 x22119 -1 x22120 -1 x22121 -1 x22122 >= 0 ;
+2 x22225 +2 x22226 +2 x22227 -1 x22120 -1 x22121 -1 x22122 -1 x22123 -1 x22124 -1 x22125 >= 0 ;
+2 x22228 +2 x22229 +2 x22230 -1 x22123 -1 x22124 -1 x22125 -1 x22126 -1 x22127 -1 x22128 >= 0 ;
+2 x22231 +2 x22232 +2 x22233 -1 x22126 -1 x22127 -1 x22128 -1 x22129 -1 x22130 -1 x22131 >= 0 ;
+2 x22234 +2 x22235 +2 x22236 -1 x22129 -1 x22130 -1 x22131 -1 x22132 -1 x22133 -1 x22134 >= 0 ;
+2 x22237 +2 x22238 +2 x22239 -1 x22132 -1 x22133 -1 x22134 -1 x22135 -1 x22136 -1 x22137 >= 0 ;
+2 x22240 +2 x22241 +2 x22242 -1 x22135 -1 x22136 -1 x22137 -1 x22138 -1 x22139 -1 x22140 >= 0 ;
+2 x22243 +2 x22244 +2 x22245 -1 x22138 -1 x22139 -1 x22140 -1 x22141 -1 x22142 -1 x22143 >= 0 ;
+2 x22246 +2 x22247 +2 x22248 -1 x22141 -1 x22142 -1 x22143 -1 x22144 -1 x22145 -1 x22146 >= 0 ;
+2 x22249 +2 x22250 +2 x22251 -1 x22144 -1 x22145 -1 x22146 -1 x22147 -1 x22148 -1 x22149 >= 0 ;
+2 x22252 +2 x22253 +2 x22254 -1 x22147 -1 x22148 -1 x22149 -1 x22150 -1 x22151 -1 x22152 >= 0 ;
+2 x22255 +2 x22256 +2 x22257 -1 x22150 -1 x22151 -1 x22152 -1 x22153 -1 x22154 -1 x22155 >= 0 ;
+2 x22258 +2 x22259 +2 x22260 -1 x22153 -1 x22154 -1 x22155 -1 x22156 -1 x22157 -1 x22158 >= 0 ;
+2 x22261 +2 x22262 +2 x22263 -1 x22156 -1 x22157 -1 x22158 -1 x22159 -1 x22160 -1 x22161 >= 0 ;
+2 x22264 +2 x22265 +2 x22266 -1 x22159 -1 x22160 -1 x22161 -1 x22162 -1 x22163 -1 x22164 >= 0 ;
+2 x22267 +2 x22268 +2 x22269 -1 x22162 -1 x22163 -1 x22164 -1 x22165 -1 x22166 -1 x22167 >= 0 ;
+2 x22270 +2 x22271 +2 x22272 -1 x22165 -1 x22166 -1 x22167 -1 x22168 -1 x22169 -1 x22170 >= 0 ;
+2 x22273 +2 x22274 +2 x22275 -1 x22168 -1 x22169 -1 x22170 -1 x22171 -1 x22172 -1 x22173 >= 0 ;
+2 x22276 +2 x22277 +2 x22278 -1 x22171 -1 x22172 -1 x22173 -1 x22174 -1 x22175 -1 x22176 >= 0 ;
+2 x22279 +2 x22280 +2 x22281 -1 x22174 -1 x22175 -1 x22176 -1 x22177 -1 x22178 -1 x22179 >= 0 ;
+2 x22282 +2 x22283 +2 x22284 -1 x22177 -1 x22178 -1 x22179 -1 x22180 -1 x22181 -1 x22182 >= 0 ;
+2 x22285 +2 x22286 +2 x22287 -1 x22180 -1 x22181 -1 x22182 -1 x22183 -1 x22184 -1 x22185 >= 0 ;
+2 x22288 +2 x22289 +2 x22290 -1 x22183 -1 x22184 -1 x22185 -1 x22186 -1 x22187 -1 x22188 >= 0 ;
+2 x22291 +2 x22292 +2 x22293 -1 x22186 -1 x22187 -1 x22188 -1 x22189 -1 x22190 -1 x22191 >= 0 ;
+2 x22294 +2 x22295 +2 x22296 -1 x22189 -1 x22190 -1 x22191 -1 x22192 -1 x22193 -1 x22194 >= 0 ;
+2 x22297 +2 x22298 +2 x22299 -1 x22192 -1 x22193 -1 x22194 -1 x22195 -1 x22196 -1 x22197 >= 0 ;
+2 x22300 +2 x22301 +2 x22302 -1 x22195 -1 x22196 -1 x22197 -1 x22198 -1 x22199 -1 x22200 >= 0 ;
+2 x22303 +2 x22304 +2 x22305 -1 x22198 -1 x22199 -1 x22200 -1 x22201 -1 x22202 -1 x22203 >= 0 ;
+2 x22306 +2 x22307 +2 x22308 -1 x22201 -1 x22202 -1 x22203 -1 x22204 -1 x22205 -1 x22206 >= 0 ;
+2 x22309 +2 x22310 +2 x22311 -1 x22204 -1 x22205 -1 x22206 -1 x22207 -1 x22208 -1 x22209 >= 0 ;
+2 x22312 +2 x22313 +2 x22314 -1 x22207 -1 x22208 -1 x22209 -1 x22210 -1 x22211 -1 x22212 >= 0 ;
+2 x22315 +2 x22316 +2 x22317 -1 x22210 -1 x22211 -1 x22212 -1 x22213 -1 x22214 -1 x22215 >= 0 ;
+2 x22318 +2 x22319 +2 x22320 -1 x22213 -1 x22214 -1 x22215 -1 x22216 -1 x22217 -1 x22218 >= 0 ;
+2 x22321 +2 x22322 +2 x22323 -1 x22219 -1 x22220 -1 x22221 -1 x22222 -1 x22223 -1 x22224 >= 0 ;
+2 x22324 +2 x22325 +2 x22326 -1 x22222 -1 x22223 -1 x22224 -1 x22225 -1 x22226 -1 x22227 >= 0 ;
+2 x22327 +2 x22328 +2 x22329 -1 x22225 -1 x22226 -1 x22227 -1 x22228 -1 x22229 -1 x22230 >= 0 ;
+2 x22330 +2 x22331 +2 x22332 -1 x22228 -1 x22229 -1 x22230 -1 x22231 -1 x22232 -1 x22233 >= 0 ;
+2 x22333 +2 x22334 +2 x22335 -1 x22231 -1 x22232 -1 x22233 -1 x22234 -1 x22235 -1 x22236 >= 0 ;
+2 x22336 +2 x22337 +2 x22338 -1 x22234 -1 x22235 -1 x22236 -1 x22237 -1 x22238 -1 x22239 >= 0 ;
+2 x22339 +2 x22340 +2 x22341 -1 x22237 -1 x22238 -1 x22239 -1 x22240 -1 x22241 -1 x22242 >= 0 ;
+2 x22342 +2 x22343 +2 x22344 -1 x22240 -1 x22241 -1 x22242 -1 x22243 -1 x22244 -1 x22245 >= 0 ;
+2 x22345 +2 x22346 +2 x22347 -1 x22243 -1 x22244 -1 x22245 -1 x22246 -1 x22247 -1 x22248 >= 0 ;
+2 x22348 +2 x22349 +2 x22350 -1 x22246 -1 x22247 -1 x22248 -1 x22249 -1 x22250 -1 x22251 >= 0 ;
+2 x22351 +2 x22352 +2 x22353 -1 x22249 -1 x22250 -1 x22251 -1 x22252 -1 x22253 -1 x22254 >= 0 ;
+2 x22354 +2 x22355 +2 x22356 -1 x22252 -1 x22253 -1 x22254 -1 x22255 -1 x22256 -1 x22257 >= 0 ;
+2 x22357 +2 x22358 +2 x22359 -1 x22255 -1 x22256 -1 x22257 -1 x22258 -1 x22259 -1 x22260 >= 0 ;
+2 x22360 +2 x22361 +2 x22362 -1 x22258 -1 x22259 -1 x22260 -1 x22261 -1 x22262 -1 x22263 >= 0 ;
+2 x22363 +2 x22364 +2 x22365 -1 x22261 -1 x22262 -1 x22263 -1 x22264 -1 x22265 -1 x22266 >= 0 ;
+2 x22366 +2 x22367 +2 x22368 -1 x22264 -1 x22265 -1 x22266 -1 x22267 -1 x22268 -1 x22269 >= 0 ;
+2 x22369 +2 x22370 +2 x22371 -1 x22267 -1 x22268 -1 x22269 -1 x22270 -1 x22271 -1 x22272 >= 0 ;
+2 x22372 +2 x22373 +2 x22374 -1 x22270 -1 x22271 -1 x22272 -1 x22273 -1 x22274 -1 x22275 >= 0 ;
+2 x22375 +2 x22376 +2 x22377 -1 x22273 -1 x22274 -1 x22275 -1 x22276 -1 x22277 -1 x22278 >= 0 ;
+2 x22378 +2 x22379 +2 x22380 -1 x22276 -1 x22277 -1 x22278 -1 x22279 -1 x22280 -1 x22281 >= 0 ;
+2 x22381 +2 x22382 +2 x22383 -1 x22279 -1 x22280 -1 x22281 -1 x22282 -1 x22283 -1 x22284 >= 0 ;
+2 x22384 +2 x22385 +2 x22386 -1 x22282 -1 x22283 -1 x22284 -1 x22285 -1 x22286 -1 x22287 >= 0 ;
+2 x22387 +2 x22388 +2 x22389 -1 x22285 -1 x22286 -1 x22287 -1 x22288 -1 x22289 -1 x22290 >= 0 ;
+2 x22390 +2 x22391 +2 x22392 -1 x22288 -1 x22289 -1 x22290 -1 x22291 -1 x22292 -1 x22293 >= 0 ;
+2 x22393 +2 x22394 +2 x22395 -1 x22291 -1 x22292 -1 x22293 -1 x22294 -1 x22295 -1 x22296 >= 0 ;
+2 x22396 +2 x22397 +2 x22398 -1 x22294 -1 x22295 -1 x22296 -1 x22297 -1 x22298 -1 x22299 >= 0 ;
+2 x22399 +2 x22400 +2 x22401 -1 x22297 -1 x22298 -1 x22299 -1 x22300 -1 x22301 -1 x22302 >= 0 ;
+2 x22402 +2 x22403 +2 x22404 -1 x22300 -1 x22301 -1 x22302 -1 x22303 -1 x22304 -1 x22305 >= 0 ;
+2 x22405 +2 x22406 +2 x22407 -1 x22303 -1 x22304 -1 x22305 -1 x22306 -1 x22307 -1 x22308 >= 0 ;
+2 x22408 +2 x22409 +2 x22410 -1 x22306 -1 x22307 -1 x22308 -1 x22309 -1 x22310 -1 x22311 >= 0 ;
+2 x22411 +2 x22412 +2 x22413 -1 x22309 -1 x22310 -1 x22311 -1 x22312 -1 x22313 -1 x22314 >= 0 ;
+2 x22414 +2 x22415 +2 x22416 -1 x22312 -1 x22313 -1 x22314 -1 x22315 -1 x22316 -1 x22317 >= 0 ;
+2 x22417 +2 x22418 +2 x22419 -1 x22315 -1 x22316 -1 x22317 -1 x22318 -1 x22319 -1 x22320 >= 0 ;
+2 x22420 +2 x22421 +2 x22422 -1 x22321 -1 x22322 -1 x22323 -1 x22324 -1 x22325 -1 x22326 >= 0 ;
+2 x22423 +2 x22424 +2 x22425 -1 x22324 -1 x22325 -1 x22326 -1 x22327 -1 x22328 -1 x22329 >= 0 ;
+2 x22426 +2 x22427 +2 x22428 -1 x22327 -1 x22328 -1 x22329 -1 x22330 -1 x22331 -1 x22332 >= 0 ;
+2 x22429 +2 x22430 +2 x22431 -1 x22330 -1 x22331 -1 x22332 -1 x22333 -1 x22334 -1 x22335 >= 0 ;
+2 x22432 +2 x22433 +2 x22434 -1 x22333 -1 x22334 -1 x22335 -1 x22336 -1 x22337 -1 x22338 >= 0 ;
+2 x22435 +2 x22436 +2 x22437 -1 x22336 -1 x22337 -1 x22338 -1 x22339 -1 x22340 -1 x22341 >= 0 ;
+2 x22438 +2 x22439 +2 x22440 -1 x22339 -1 x22340 -1 x22341 -1 x22342 -1 x22343 -1 x22344 >= 0 ;
+2 x22441 +2 x22442 +2 x22443 -1 x22342 -1 x22343 -1 x22344 -1 x22345 -1 x22346 -1 x22347 >= 0 ;
+2 x22444 +2 x22445 +2 x22446 -1 x22345 -1 x22346 -1 x22347 -1 x22348 -1 x22349 -1 x22350 >= 0 ;
+2 x22447 +2 x22448 +2 x22449 -1 x22348 -1 x22349 -1 x22350 -1 x22351 -1 x22352 -1 x22353 >= 0 ;
+2 x22450 +2 x22451 +2 x22452 -1 x22351 -1 x22352 -1 x22353 -1 x22354 -1 x22355 -1 x22356 >= 0 ;
+2 x22453 +2 x22454 +2 x22455 -1 x22354 -1 x22355 -1 x22356 -1 x22357 -1 x22358 -1 x22359 >= 0 ;
+2 x22456 +2 x22457 +2 x22458 -1 x22357 -1 x22358 -1 x22359 -1 x22360 -1 x22361 -1 x22362 >= 0 ;
+2 x22459 +2 x22460 +2 x22461 -1 x22360 -1 x22361 -1 x22362 -1 x22363 -1 x22364 -1 x22365 >= 0 ;
+2 x22462 +2 x22463 +2 x22464 -1 x22363 -1 x22364 -1 x22365 -1 x22366 -1 x22367 -1 x22368 >= 0 ;
+2 x22465 +2 x22466 +2 x22467 -1 x22366 -1 x22367 -1 x22368 -1 x22369 -1 x22370 -1 x22371 >= 0 ;
+2 x22468 +2 x22469 +2 x22470 -1 x22369 -1 x22370 -1 x22371 -1 x22372 -1 x22373 -1 x22374 >= 0 ;
+2 x22471 +2 x22472 +2 x22473 -1 x22372 -1 x22373 -1 x22374 -1 x22375 -1 x22376 -1 x22377 >= 0 ;
+2 x22474 +2 x22475 +2 x22476 -1 x22375 -1 x22376 -1 x22377 -1 x22378 -1 x22379 -1 x22380 >= 0 ;
+2 x22477 +2 x22478 +2 x22479 -1 x22378 -1 x22379 -1 x22380 -1 x22381 -1 x22382 -1 x22383 >= 0 ;
+2 x22480 +2 x22481 +2 x22482 -1 x22381 -1 x22382 -1 x22383 -1 x22384 -1 x22385 -1 x22386 >= 0 ;
+2 x22483 +2 x22484 +2 x22485 -1 x22384 -1 x22385 -1 x22386 -1 x22387 -1 x22388 -1 x22389 >= 0 ;
+2 x22486 +2 x22487 +2 x22488 -1 x22387 -1 x22388 -1 x22389 -1 x22390 -1 x22391 -1 x22392 >= 0 ;
+2 x22489 +2 x22490 +2 x22491 -1 x22390 -1 x22391 -1 x22392 -1 x22393 -1 x22394 -1 x22395 >= 0 ;
+2 x22492 +2 x22493 +2 x22494 -1 x22393 -1 x22394 -1 x22395 -1 x22396 -1 x22397 -1 x22398 >= 0 ;
+2 x22495 +2 x22496 +2 x22497 -1 x22396 -1 x22397 -1 x22398 -1 x22399 -1 x22400 -1 x22401 >= 0 ;
+2 x22498 +2 x22499 +2 x22500 -1 x22399 -1 x22400 -1 x22401 -1 x22402 -1 x22403 -1 x22404 >= 0 ;
+2 x22501 +2 x22502 +2 x22503 -1 x22402 -1 x22403 -1 x22404 -1 x22405 -1 x22406 -1 x22407 >= 0 ;
+2 x22504 +2 x22505 +2 x22506 -1 x22405 -1 x22406 -1 x22407 -1 x22408 -1 x22409 -1 x22410 >= 0 ;
+2 x22507 +2 x22508 +2 x22509 -1 x22408 -1 x22409 -1 x22410 -1 x22411 -1 x22412 -1 x22413 >= 0 ;
+2 x22510 +2 x22511 +2 x22512 -1 x22411 -1 x22412 -1 x22413 -1 x22414 -1 x22415 -1 x22416 >= 0 ;
+2 x22513 +2 x22514 +2 x22515 -1 x22414 -1 x22415 -1 x22416 -1 x22417 -1 x22418 -1 x22419 >= 0 ;
+2 x22516 +2 x22517 +2 x22518 -1 x22420 -1 x22421 -1 x22422 -1 x22423 -1 x22424 -1 x22425 >= 0 ;
+2 x22519 +2 x22520 +2 x22521 -1 x22423 -1 x22424 -1 x22425 -1 x22426 -1 x22427 -1 x22428 >= 0 ;
+2 x22522 +2 x22523 +2 x22524 -1 x22426 -1 x22427 -1 x22428 -1 x22429 -1 x22430 -1 x22431 >= 0 ;
+2 x22525 +2 x22526 +2 x22527 -1 x22429 -1 x22430 -1 x22431 -1 x22432 -1 x22433 -1 x22434 >= 0 ;
+2 x22528 +2 x22529 +2 x22530 -1 x22432 -1 x22433 -1 x22434 -1 x22435 -1 x22436 -1 x22437 >= 0 ;
+2 x22531 +2 x22532 +2 x22533 -1 x22435 -1 x22436 -1 x22437 -1 x22438 -1 x22439 -1 x22440 >= 0 ;
+2 x22534 +2 x22535 +2 x22536 -1 x22438 -1 x22439 -1 x22440 -1 x22441 -1 x22442 -1 x22443 >= 0 ;
+2 x22537 +2 x22538 +2 x22539 -1 x22441 -1 x22442 -1 x22443 -1 x22444 -1 x22445 -1 x22446 >= 0 ;
+2 x22540 +2 x22541 +2 x22542 -1 x22444 -1 x22445 -1 x22446 -1 x22447 -1 x22448 -1 x22449 >= 0 ;
+2 x22543 +2 x22544 +2 x22545 -1 x22447 -1 x22448 -1 x22449 -1 x22450 -1 x22451 -1 x22452 >= 0 ;
+2 x22546 +2 x22547 +2 x22548 -1 x22450 -1 x22451 -1 x22452 -1 x22453 -1 x22454 -1 x22455 >= 0 ;
+2 x22549 +2 x22550 +2 x22551 -1 x22453 -1 x22454 -1 x22455 -1 x22456 -1 x22457 -1 x22458 >= 0 ;
+2 x22552 +2 x22553 +2 x22554 -1 x22456 -1 x22457 -1 x22458 -1 x22459 -1 x22460 -1 x22461 >= 0 ;
+2 x22555 +2 x22556 +2 x22557 -1 x22459 -1 x22460 -1 x22461 -1 x22462 -1 x22463 -1 x22464 >= 0 ;
+2 x22558 +2 x22559 +2 x22560 -1 x22462 -1 x22463 -1 x22464 -1 x22465 -1 x22466 -1 x22467 >= 0 ;
+2 x22561 +2 x22562 +2 x22563 -1 x22465 -1 x22466 -1 x22467 -1 x22468 -1 x22469 -1 x22470 >= 0 ;
+2 x22564 +2 x22565 +2 x22566 -1 x22468 -1 x22469 -1 x22470 -1 x22471 -1 x22472 -1 x22473 >= 0 ;
+2 x22567 +2 x22568 +2 x22569 -1 x22471 -1 x22472 -1 x22473 -1 x22474 -1 x22475 -1 x22476 >= 0 ;
+2 x22570 +2 x22571 +2 x22572 -1 x22474 -1 x22475 -1 x22476 -1 x22477 -1 x22478 -1 x22479 >= 0 ;
+2 x22573 +2 x22574 +2 x22575 -1 x22477 -1 x22478 -1 x22479 -1 x22480 -1 x22481 -1 x22482 >= 0 ;
+2 x22576 +2 x22577 +2 x22578 -1 x22480 -1 x22481 -1 x22482 -1 x22483 -1 x22484 -1 x22485 >= 0 ;
+2 x22579 +2 x22580 +2 x22581 -1 x22483 -1 x22484 -1 x22485 -1 x22486 -1 x22487 -1 x22488 >= 0 ;
+2 x22582 +2 x22583 +2 x22584 -1 x22486 -1 x22487 -1 x22488 -1 x22489 -1 x22490 -1 x22491 >= 0 ;
+2 x22585 +2 x22586 +2 x22587 -1 x22489 -1 x22490 -1 x22491 -1 x22492 -1 x22493 -1 x22494 >= 0 ;
+2 x22588 +2 x22589 +2 x22590 -1 x22492 -1 x22493 -1 x22494 -1 x22495 -1 x22496 -1 x22497 >= 0 ;
+2 x22591 +2 x22592 +2 x22593 -1 x22495 -1 x22496 -1 x22497 -1 x22498 -1 x22499 -1 x22500 >= 0 ;
+2 x22594 +2 x22595 +2 x22596 -1 x22498 -1 x22499 -1 x22500 -1 x22501 -1 x22502 -1 x22503 >= 0 ;
+2 x22597 +2 x22598 +2 x22599 -1 x22501 -1 x22502 -1 x22503 -1 x22504 -1 x22505 -1 x22506 >= 0 ;
+2 x22600 +2 x22601 +2 x22602 -1 x22504 -1 x22505 -1 x22506 -1 x22507 -1 x22508 -1 x22509 >= 0 ;
+2 x22603 +2 x22604 +2 x22605 -1 x22507 -1 x22508 -1 x22509 -1 x22510 -1 x22511 -1 x22512 >= 0 ;
+2 x22606 +2 x22607 +2 x22608 -1 x22510 -1 x22511 -1 x22512 -1 x22513 -1 x22514 -1 x22515 >= 0 ;
+2 x22609 +2 x22610 +2 x22611 -1 x22516 -1 x22517 -1 x22518 -1 x22519 -1 x22520 -1 x22521 >= 0 ;
+2 x22612 +2 x22613 +2 x22614 -1 x22519 -1 x22520 -1 x22521 -1 x22522 -1 x22523 -1 x22524 >= 0 ;
+2 x22615 +2 x22616 +2 x22617 -1 x22522 -1 x22523 -1 x22524 -1 x22525 -1 x22526 -1 x22527 >= 0 ;
+2 x22618 +2 x22619 +2 x22620 -1 x22525 -1 x22526 -1 x22527 -1 x22528 -1 x22529 -1 x22530 >= 0 ;
+2 x22621 +2 x22622 +2 x22623 -1 x22528 -1 x22529 -1 x22530 -1 x22531 -1 x22532 -1 x22533 >= 0 ;
+2 x22624 +2 x22625 +2 x22626 -1 x22531 -1 x22532 -1 x22533 -1 x22534 -1 x22535 -1 x22536 >= 0 ;
+2 x22627 +2 x22628 +2 x22629 -1 x22534 -1 x22535 -1 x22536 -1 x22537 -1 x22538 -1 x22539 >= 0 ;
+2 x22630 +2 x22631 +2 x22632 -1 x22537 -1 x22538 -1 x22539 -1 x22540 -1 x22541 -1 x22542 >= 0 ;
+2 x22633 +2 x22634 +2 x22635 -1 x22540 -1 x22541 -1 x22542 -1 x22543 -1 x22544 -1 x22545 >= 0 ;
+2 x22636 +2 x22637 +2 x22638 -1 x22543 -1 x22544 -1 x22545 -1 x22546 -1 x22547 -1 x22548 >= 0 ;
+2 x22639 +2 x22640 +2 x22641 -1 x22546 -1 x22547 -1 x22548 -1 x22549 -1 x22550 -1 x22551 >= 0 ;
+2 x22642 +2 x22643 +2 x22644 -1 x22549 -1 x22550 -1 x22551 -1 x22552 -1 x22553 -1 x22554 >= 0 ;
+2 x22645 +2 x22646 +2 x22647 -1 x22552 -1 x22553 -1 x22554 -1 x22555 -1 x22556 -1 x22557 >= 0 ;
+2 x22648 +2 x22649 +2 x22650 -1 x22555 -1 x22556 -1 x22557 -1 x22558 -1 x22559 -1 x22560 >= 0 ;
+2 x22651 +2 x22652 +2 x22653 -1 x22558 -1 x22559 -1 x22560 -1 x22561 -1 x22562 -1 x22563 >= 0 ;
+2 x22654 +2 x22655 +2 x22656 -1 x22561 -1 x22562 -1 x22563 -1 x22564 -1 x22565 -1 x22566 >= 0 ;
+2 x22657 +2 x22658 +2 x22659 -1 x22564 -1 x22565 -1 x22566 -1 x22567 -1 x22568 -1 x22569 >= 0 ;
+2 x22660 +2 x22661 +2 x22662 -1 x22567 -1 x22568 -1 x22569 -1 x22570 -1 x22571 -1 x22572 >= 0 ;
+2 x22663 +2 x22664 +2 x22665 -1 x22570 -1 x22571 -1 x22572 -1 x22573 -1 x22574 -1 x22575 >= 0 ;
+2 x22666 +2 x22667 +2 x22668 -1 x22573 -1 x22574 -1 x22575 -1 x22576 -1 x22577 -1 x22578 >= 0 ;
+2 x22669 +2 x22670 +2 x22671 -1 x22576 -1 x22577 -1 x22578 -1 x22579 -1 x22580 -1 x22581 >= 0 ;
+2 x22672 +2 x22673 +2 x22674 -1 x22579 -1 x22580 -1 x22581 -1 x22582 -1 x22583 -1 x22584 >= 0 ;
+2 x22675 +2 x22676 +2 x22677 -1 x22582 -1 x22583 -1 x22584 -1 x22585 -1 x22586 -1 x22587 >= 0 ;
+2 x22678 +2 x22679 +2 x22680 -1 x22585 -1 x22586 -1 x22587 -1 x22588 -1 x22589 -1 x22590 >= 0 ;
+2 x22681 +2 x22682 +2 x22683 -1 x22588 -1 x22589 -1 x22590 -1 x22591 -1 x22592 -1 x22593 >= 0 ;
+2 x22684 +2 x22685 +2 x22686 -1 x22591 -1 x22592 -1 x22593 -1 x22594 -1 x22595 -1 x22596 >= 0 ;
+2 x22687 +2 x22688 +2 x22689 -1 x22594 -1 x22595 -1 x22596 -1 x22597 -1 x22598 -1 x22599 >= 0 ;
+2 x22690 +2 x22691 +2 x22692 -1 x22597 -1 x22598 -1 x22599 -1 x22600 -1 x22601 -1 x22602 >= 0 ;
+2 x22693 +2 x22694 +2 x22695 -1 x22600 -1 x22601 -1 x22602 -1 x22603 -1 x22604 -1 x22605 >= 0 ;
+2 x22696 +2 x22697 +2 x22698 -1 x22603 -1 x22604 -1 x22605 -1 x22606 -1 x22607 -1 x22608 >= 0 ;
+2 x22699 +2 x22700 +2 x22701 -1 x22609 -1 x22610 -1 x22611 -1 x22612 -1 x22613 -1 x22614 >= 0 ;
+2 x22702 +2 x22703 +2 x22704 -1 x22612 -1 x22613 -1 x22614 -1 x22615 -1 x22616 -1 x22617 >= 0 ;
+2 x22705 +2 x22706 +2 x22707 -1 x22615 -1 x22616 -1 x22617 -1 x22618 -1 x22619 -1 x22620 >= 0 ;
+2 x22708 +2 x22709 +2 x22710 -1 x22618 -1 x22619 -1 x22620 -1 x22621 -1 x22622 -1 x22623 >= 0 ;
+2 x22711 +2 x22712 +2 x22713 -1 x22621 -1 x22622 -1 x22623 -1 x22624 -1 x22625 -1 x22626 >= 0 ;
+2 x22714 +2 x22715 +2 x22716 -1 x22624 -1 x22625 -1 x22626 -1 x22627 -1 x22628 -1 x22629 >= 0 ;
+2 x22717 +2 x22718 +2 x22719 -1 x22627 -1 x22628 -1 x22629 -1 x22630 -1 x22631 -1 x22632 >= 0 ;
+2 x22720 +2 x22721 +2 x22722 -1 x22630 -1 x22631 -1 x22632 -1 x22633 -1 x22634 -1 x22635 >= 0 ;
+2 x22723 +2 x22724 +2 x22725 -1 x22633 -1 x22634 -1 x22635 -1 x22636 -1 x22637 -1 x22638 >= 0 ;
+2 x22726 +2 x22727 +2 x22728 -1 x22636 -1 x22637 -1 x22638 -1 x22639 -1 x22640 -1 x22641 >= 0 ;
+2 x22729 +2 x22730 +2 x22731 -1 x22639 -1 x22640 -1 x22641 -1 x22642 -1 x22643 -1 x22644 >= 0 ;
+2 x22732 +2 x22733 +2 x22734 -1 x22642 -1 x22643 -1 x22644 -1 x22645 -1 x22646 -1 x22647 >= 0 ;
+2 x22735 +2 x22736 +2 x22737 -1 x22645 -1 x22646 -1 x22647 -1 x22648 -1 x22649 -1 x22650 >= 0 ;
+2 x22738 +2 x22739 +2 x22740 -1 x22648 -1 x22649 -1 x22650 -1 x22651 -1 x22652 -1 x22653 >= 0 ;
+2 x22741 +2 x22742 +2 x22743 -1 x22651 -1 x22652 -1 x22653 -1 x22654 -1 x22655 -1 x22656 >= 0 ;
+2 x22744 +2 x22745 +2 x22746 -1 x22654 -1 x22655 -1 x22656 -1 x22657 -1 x22658 -1 x22659 >= 0 ;
+2 x22747 +2 x22748 +2 x22749 -1 x22657 -1 x22658 -1 x22659 -1 x22660 -1 x22661 -1 x22662 >= 0 ;
+2 x22750 +2 x22751 +2 x22752 -1 x22660 -1 x22661 -1 x22662 -1 x22663 -1 x22664 -1 x22665 >= 0 ;
+2 x22753 +2 x22754 +2 x22755 -1 x22663 -1 x22664 -1 x22665 -1 x22666 -1 x22667 -1 x22668 >= 0 ;
+2 x22756 +2 x22757 +2 x22758 -1 x22666 -1 x22667 -1 x22668 -1 x22669 -1 x22670 -1 x22671 >= 0 ;
+2 x22759 +2 x22760 +2 x22761 -1 x22669 -1 x22670 -1 x22671 -1 x22672 -1 x22673 -1 x22674 >= 0 ;
+2 x22762 +2 x22763 +2 x22764 -1 x22672 -1 x22673 -1 x22674 -1 x22675 -1 x22676 -1 x22677 >= 0 ;
+2 x22765 +2 x22766 +2 x22767 -1 x22675 -1 x22676 -1 x22677 -1 x22678 -1 x22679 -1 x22680 >= 0 ;
+2 x22768 +2 x22769 +2 x22770 -1 x22678 -1 x22679 -1 x22680 -1 x22681 -1 x22682 -1 x22683 >= 0 ;
+2 x22771 +2 x22772 +2 x22773 -1 x22681 -1 x22682 -1 x22683 -1 x22684 -1 x22685 -1 x22686 >= 0 ;
+2 x22774 +2 x22775 +2 x22776 -1 x22684 -1 x22685 -1 x22686 -1 x22687 -1 x22688 -1 x22689 >= 0 ;
+2 x22777 +2 x22778 +2 x22779 -1 x22687 -1 x22688 -1 x22689 -1 x22690 -1 x22691 -1 x22692 >= 0 ;
+2 x22780 +2 x22781 +2 x22782 -1 x22690 -1 x22691 -1 x22692 -1 x22693 -1 x22694 -1 x22695 >= 0 ;
+2 x22783 +2 x22784 +2 x22785 -1 x22693 -1 x22694 -1 x22695 -1 x22696 -1 x22697 -1 x22698 >= 0 ;
+2 x22786 +2 x22787 +2 x22788 -1 x22699 -1 x22700 -1 x22701 -1 x22702 -1 x22703 -1 x22704 >= 0 ;
+2 x22789 +2 x22790 +2 x22791 -1 x22702 -1 x22703 -1 x22704 -1 x22705 -1 x22706 -1 x22707 >= 0 ;
+2 x22792 +2 x22793 +2 x22794 -1 x22705 -1 x22706 -1 x22707 -1 x22708 -1 x22709 -1 x22710 >= 0 ;
+2 x22795 +2 x22796 +2 x22797 -1 x22708 -1 x22709 -1 x22710 -1 x22711 -1 x22712 -1 x22713 >= 0 ;
+2 x22798 +2 x22799 +2 x22800 -1 x22711 -1 x22712 -1 x22713 -1 x22714 -1 x22715 -1 x22716 >= 0 ;
+2 x22801 +2 x22802 +2 x22803 -1 x22714 -1 x22715 -1 x22716 -1 x22717 -1 x22718 -1 x22719 >= 0 ;
+2 x22804 +2 x22805 +2 x22806 -1 x22717 -1 x22718 -1 x22719 -1 x22720 -1 x22721 -1 x22722 >= 0 ;
+2 x22807 +2 x22808 +2 x22809 -1 x22720 -1 x22721 -1 x22722 -1 x22723 -1 x22724 -1 x22725 >= 0 ;
+2 x22810 +2 x22811 +2 x22812 -1 x22723 -1 x22724 -1 x22725 -1 x22726 -1 x22727 -1 x22728 >= 0 ;
+2 x22813 +2 x22814 +2 x22815 -1 x22726 -1 x22727 -1 x22728 -1 x22729 -1 x22730 -1 x22731 >= 0 ;
+2 x22816 +2 x22817 +2 x22818 -1 x22729 -1 x22730 -1 x22731 -1 x22732 -1 x22733 -1 x22734 >= 0 ;
+2 x22819 +2 x22820 +2 x22821 -1 x22732 -1 x22733 -1 x22734 -1 x22735 -1 x22736 -1 x22737 >= 0 ;
+2 x22822 +2 x22823 +2 x22824 -1 x22735 -1 x22736 -1 x22737 -1 x22738 -1 x22739 -1 x22740 >= 0 ;
+2 x22825 +2 x22826 +2 x22827 -1 x22738 -1 x22739 -1 x22740 -1 x22741 -1 x22742 -1 x22743 >= 0 ;
+2 x22828 +2 x22829 +2 x22830 -1 x22741 -1 x22742 -1 x22743 -1 x22744 -1 x22745 -1 x22746 >= 0 ;
+2 x22831 +2 x22832 +2 x22833 -1 x22744 -1 x22745 -1 x22746 -1 x22747 -1 x22748 -1 x22749 >= 0 ;
+2 x22834 +2 x22835 +2 x22836 -1 x22747 -1 x22748 -1 x22749 -1 x22750 -1 x22751 -1 x22752 >= 0 ;
+2 x22837 +2 x22838 +2 x22839 -1 x22750 -1 x22751 -1 x22752 -1 x22753 -1 x22754 -1 x22755 >= 0 ;
+2 x22840 +2 x22841 +2 x22842 -1 x22753 -1 x22754 -1 x22755 -1 x22756 -1 x22757 -1 x22758 >= 0 ;
+2 x22843 +2 x22844 +2 x22845 -1 x22756 -1 x22757 -1 x22758 -1 x22759 -1 x22760 -1 x22761 >= 0 ;
+2 x22846 +2 x22847 +2 x22848 -1 x22759 -1 x22760 -1 x22761 -1 x22762 -1 x22763 -1 x22764 >= 0 ;
+2 x22849 +2 x22850 +2 x22851 -1 x22762 -1 x22763 -1 x22764 -1 x22765 -1 x22766 -1 x22767 >= 0 ;
+2 x22852 +2 x22853 +2 x22854 -1 x22765 -1 x22766 -1 x22767 -1 x22768 -1 x22769 -1 x22770 >= 0 ;
+2 x22855 +2 x22856 +2 x22857 -1 x22768 -1 x22769 -1 x22770 -1 x22771 -1 x22772 -1 x22773 >= 0 ;
+2 x22858 +2 x22859 +2 x22860 -1 x22771 -1 x22772 -1 x22773 -1 x22774 -1 x22775 -1 x22776 >= 0 ;
+2 x22861 +2 x22862 +2 x22863 -1 x22774 -1 x22775 -1 x22776 -1 x22777 -1 x22778 -1 x22779 >= 0 ;
+2 x22864 +2 x22865 +2 x22866 -1 x22777 -1 x22778 -1 x22779 -1 x22780 -1 x22781 -1 x22782 >= 0 ;
+2 x22867 +2 x22868 +2 x22869 -1 x22780 -1 x22781 -1 x22782 -1 x22783 -1 x22784 -1 x22785 >= 0 ;
+2 x22870 +2 x22871 +2 x22872 -1 x22786 -1 x22787 -1 x22788 -1 x22789 -1 x22790 -1 x22791 >= 0 ;
+2 x22873 +2 x22874 +2 x22875 -1 x22789 -1 x22790 -1 x22791 -1 x22792 -1 x22793 -1 x22794 >= 0 ;
+2 x22876 +2 x22877 +2 x22878 -1 x22792 -1 x22793 -1 x22794 -1 x22795 -1 x22796 -1 x22797 >= 0 ;
+2 x22879 +2 x22880 +2 x22881 -1 x22795 -1 x22796 -1 x22797 -1 x22798 -1 x22799 -1 x22800 >= 0 ;
+2 x22882 +2 x22883 +2 x22884 -1 x22798 -1 x22799 -1 x22800 -1 x22801 -1 x22802 -1 x22803 >= 0 ;
+2 x22885 +2 x22886 +2 x22887 -1 x22801 -1 x22802 -1 x22803 -1 x22804 -1 x22805 -1 x22806 >= 0 ;
+2 x22888 +2 x22889 +2 x22890 -1 x22804 -1 x22805 -1 x22806 -1 x22807 -1 x22808 -1 x22809 >= 0 ;
+2 x22891 +2 x22892 +2 x22893 -1 x22807 -1 x22808 -1 x22809 -1 x22810 -1 x22811 -1 x22812 >= 0 ;
+2 x22894 +2 x22895 +2 x22896 -1 x22810 -1 x22811 -1 x22812 -1 x22813 -1 x22814 -1 x22815 >= 0 ;
+2 x22897 +2 x22898 +2 x22899 -1 x22813 -1 x22814 -1 x22815 -1 x22816 -1 x22817 -1 x22818 >= 0 ;
+2 x22900 +2 x22901 +2 x22902 -1 x22816 -1 x22817 -1 x22818 -1 x22819 -1 x22820 -1 x22821 >= 0 ;
+2 x22903 +2 x22904 +2 x22905 -1 x22819 -1 x22820 -1 x22821 -1 x22822 -1 x22823 -1 x22824 >= 0 ;
+2 x22906 +2 x22907 +2 x22908 -1 x22822 -1 x22823 -1 x22824 -1 x22825 -1 x22826 -1 x22827 >= 0 ;
+2 x22909 +2 x22910 +2 x22911 -1 x22825 -1 x22826 -1 x22827 -1 x22828 -1 x22829 -1 x22830 >= 0 ;
+2 x22912 +2 x22913 +2 x22914 -1 x22828 -1 x22829 -1 x22830 -1 x22831 -1 x22832 -1 x22833 >= 0 ;
+2 x22915 +2 x22916 +2 x22917 -1 x22831 -1 x22832 -1 x22833 -1 x22834 -1 x22835 -1 x22836 >= 0 ;
+2 x22918 +2 x22919 +2 x22920 -1 x22834 -1 x22835 -1 x22836 -1 x22837 -1 x22838 -1 x22839 >= 0 ;
+2 x22921 +2 x22922 +2 x22923 -1 x22837 -1 x22838 -1 x22839 -1 x22840 -1 x22841 -1 x22842 >= 0 ;
+2 x22924 +2 x22925 +2 x22926 -1 x22840 -1 x22841 -1 x22842 -1 x22843 -1 x22844 -1 x22845 >= 0 ;
+2 x22927 +2 x22928 +2 x22929 -1 x22843 -1 x22844 -1 x22845 -1 x22846 -1 x22847 -1 x22848 >= 0 ;
+2 x22930 +2 x22931 +2 x22932 -1 x22846 -1 x22847 -1 x22848 -1 x22849 -1 x22850 -1 x22851 >= 0 ;
+2 x22933 +2 x22934 +2 x22935 -1 x22849 -1 x22850 -1 x22851 -1 x22852 -1 x22853 -1 x22854 >= 0 ;
+2 x22936 +2 x22937 +2 x22938 -1 x22852 -1 x22853 -1 x22854 -1 x22855 -1 x22856 -1 x22857 >= 0 ;
+2 x22939 +2 x22940 +2 x22941 -1 x22855 -1 x22856 -1 x22857 -1 x22858 -1 x22859 -1 x22860 >= 0 ;
+2 x22942 +2 x22943 +2 x22944 -1 x22858 -1 x22859 -1 x22860 -1 x22861 -1 x22862 -1 x22863 >= 0 ;
+2 x22945 +2 x22946 +2 x22947 -1 x22861 -1 x22862 -1 x22863 -1 x22864 -1 x22865 -1 x22866 >= 0 ;
+2 x22948 +2 x22949 +2 x22950 -1 x22864 -1 x22865 -1 x22866 -1 x22867 -1 x22868 -1 x22869 >= 0 ;
+2 x22951 +2 x22952 +2 x22953 -1 x22870 -1 x22871 -1 x22872 -1 x22873 -1 x22874 -1 x22875 >= 0 ;
+2 x22954 +2 x22955 +2 x22956 -1 x22873 -1 x22874 -1 x22875 -1 x22876 -1 x22877 -1 x22878 >= 0 ;
+2 x22957 +2 x22958 +2 x22959 -1 x22876 -1 x22877 -1 x22878 -1 x22879 -1 x22880 -1 x22881 >= 0 ;
+2 x22960 +2 x22961 +2 x22962 -1 x22879 -1 x22880 -1 x22881 -1 x22882 -1 x22883 -1 x22884 >= 0 ;
+2 x22963 +2 x22964 +2 x22965 -1 x22882 -1 x22883 -1 x22884 -1 x22885 -1 x22886 -1 x22887 >= 0 ;
+2 x22966 +2 x22967 +2 x22968 -1 x22885 -1 x22886 -1 x22887 -1 x22888 -1 x22889 -1 x22890 >= 0 ;
+2 x22969 +2 x22970 +2 x22971 -1 x22888 -1 x22889 -1 x22890 -1 x22891 -1 x22892 -1 x22893 >= 0 ;
+2 x22972 +2 x22973 +2 x22974 -1 x22891 -1 x22892 -1 x22893 -1 x22894 -1 x22895 -1 x22896 >= 0 ;
+2 x22975 +2 x22976 +2 x22977 -1 x22894 -1 x22895 -1 x22896 -1 x22897 -1 x22898 -1 x22899 >= 0 ;
+2 x22978 +2 x22979 +2 x22980 -1 x22897 -1 x22898 -1 x22899 -1 x22900 -1 x22901 -1 x22902 >= 0 ;
+2 x22981 +2 x22982 +2 x22983 -1 x22900 -1 x22901 -1 x22902 -1 x22903 -1 x22904 -1 x22905 >= 0 ;
+2 x22984 +2 x22985 +2 x22986 -1 x22903 -1 x22904 -1 x22905 -1 x22906 -1 x22907 -1 x22908 >= 0 ;
+2 x22987 +2 x22988 +2 x22989 -1 x22906 -1 x22907 -1 x22908 -1 x22909 -1 x22910 -1 x22911 >= 0 ;
+2 x22990 +2 x22991 +2 x22992 -1 x22909 -1 x22910 -1 x22911 -1 x22912 -1 x22913 -1 x22914 >= 0 ;
+2 x22993 +2 x22994 +2 x22995 -1 x22912 -1 x22913 -1 x22914 -1 x22915 -1 x22916 -1 x22917 >= 0 ;
+2 x22996 +2 x22997 +2 x22998 -1 x22915 -1 x22916 -1 x22917 -1 x22918 -1 x22919 -1 x22920 >= 0 ;
+2 x22999 +2 x23000 +2 x23001 -1 x22918 -1 x22919 -1 x22920 -1 x22921 -1 x22922 -1 x22923 >= 0 ;
+2 x23002 +2 x23003 +2 x23004 -1 x22921 -1 x22922 -1 x22923 -1 x22924 -1 x22925 -1 x22926 >= 0 ;
+2 x23005 +2 x23006 +2 x23007 -1 x22924 -1 x22925 -1 x22926 -1 x22927 -1 x22928 -1 x22929 >= 0 ;
+2 x23008 +2 x23009 +2 x23010 -1 x22927 -1 x22928 -1 x22929 -1 x22930 -1 x22931 -1 x22932 >= 0 ;
+2 x23011 +2 x23012 +2 x23013 -1 x22930 -1 x22931 -1 x22932 -1 x22933 -1 x22934 -1 x22935 >= 0 ;
+2 x23014 +2 x23015 +2 x23016 -1 x22933 -1 x22934 -1 x22935 -1 x22936 -1 x22937 -1 x22938 >= 0 ;
+2 x23017 +2 x23018 +2 x23019 -1 x22936 -1 x22937 -1 x22938 -1 x22939 -1 x22940 -1 x22941 >= 0 ;
+2 x23020 +2 x23021 +2 x23022 -1 x22939 -1 x22940 -1 x22941 -1 x22942 -1 x22943 -1 x22944 >= 0 ;
+2 x23023 +2 x23024 +2 x23025 -1 x22942 -1 x22943 -1 x22944 -1 x22945 -1 x22946 -1 x22947 >= 0 ;
+2 x23026 +2 x23027 +2 x23028 -1 x22945 -1 x22946 -1 x22947 -1 x22948 -1 x22949 -1 x22950 >= 0 ;
+2 x23029 +2 x23030 +2 x23031 -1 x22951 -1 x22952 -1 x22953 -1 x22954 -1 x22955 -1 x22956 >= 0 ;
+2 x23032 +2 x23033 +2 x23034 -1 x22954 -1 x22955 -1 x22956 -1 x22957 -1 x22958 -1 x22959 >= 0 ;
+2 x23035 +2 x23036 +2 x23037 -1 x22957 -1 x22958 -1 x22959 -1 x22960 -1 x22961 -1 x22962 >= 0 ;
+2 x23038 +2 x23039 +2 x23040 -1 x22960 -1 x22961 -1 x22962 -1 x22963 -1 x22964 -1 x22965 >= 0 ;
+2 x23041 +2 x23042 +2 x23043 -1 x22963 -1 x22964 -1 x22965 -1 x22966 -1 x22967 -1 x22968 >= 0 ;
+2 x23044 +2 x23045 +2 x23046 -1 x22966 -1 x22967 -1 x22968 -1 x22969 -1 x22970 -1 x22971 >= 0 ;
+2 x23047 +2 x23048 +2 x23049 -1 x22969 -1 x22970 -1 x22971 -1 x22972 -1 x22973 -1 x22974 >= 0 ;
+2 x23050 +2 x23051 +2 x23052 -1 x22972 -1 x22973 -1 x22974 -1 x22975 -1 x22976 -1 x22977 >= 0 ;
+2 x23053 +2 x23054 +2 x23055 -1 x22975 -1 x22976 -1 x22977 -1 x22978 -1 x22979 -1 x22980 >= 0 ;
+2 x23056 +2 x23057 +2 x23058 -1 x22978 -1 x22979 -1 x22980 -1 x22981 -1 x22982 -1 x22983 >= 0 ;
+2 x23059 +2 x23060 +2 x23061 -1 x22981 -1 x22982 -1 x22983 -1 x22984 -1 x22985 -1 x22986 >= 0 ;
+2 x23062 +2 x23063 +2 x23064 -1 x22984 -1 x22985 -1 x22986 -1 x22987 -1 x22988 -1 x22989 >= 0 ;
+2 x23065 +2 x23066 +2 x23067 -1 x22987 -1 x22988 -1 x22989 -1 x22990 -1 x22991 -1 x22992 >= 0 ;
+2 x23068 +2 x23069 +2 x23070 -1 x22990 -1 x22991 -1 x22992 -1 x22993 -1 x22994 -1 x22995 >= 0 ;
+2 x23071 +2 x23072 +2 x23073 -1 x22993 -1 x22994 -1 x22995 -1 x22996 -1 x22997 -1 x22998 >= 0 ;
+2 x23074 +2 x23075 +2 x23076 -1 x22996 -1 x22997 -1 x22998 -1 x22999 -1 x23000 -1 x23001 >= 0 ;
+2 x23077 +2 x23078 +2 x23079 -1 x22999 -1 x23000 -1 x23001 -1 x23002 -1 x23003 -1 x23004 >= 0 ;
+2 x23080 +2 x23081 +2 x23082 -1 x23002 -1 x23003 -1 x23004 -1 x23005 -1 x23006 -1 x23007 >= 0 ;
+2 x23083 +2 x23084 +2 x23085 -1 x23005 -1 x23006 -1 x23007 -1 x23008 -1 x23009 -1 x23010 >= 0 ;
+2 x23086 +2 x23087 +2 x23088 -1 x23008 -1 x23009 -1 x23010 -1 x23011 -1 x23012 -1 x23013 >= 0 ;
+2 x23089 +2 x23090 +2 x23091 -1 x23011 -1 x23012 -1 x23013 -1 x23014 -1 x23015 -1 x23016 >= 0 ;
+2 x23092 +2 x23093 +2 x23094 -1 x23014 -1 x23015 -1 x23016 -1 x23017 -1 x23018 -1 x23019 >= 0 ;
+2 x23095 +2 x23096 +2 x23097 -1 x23017 -1 x23018 -1 x23019 -1 x23020 -1 x23021 -1 x23022 >= 0 ;
+2 x23098 +2 x23099 +2 x23100 -1 x23020 -1 x23021 -1 x23022 -1 x23023 -1 x23024 -1 x23025 >= 0 ;
+2 x23101 +2 x23102 +2 x23103 -1 x23023 -1 x23024 -1 x23025 -1 x23026 -1 x23027 -1 x23028 >= 0 ;
+2 x23104 +2 x23105 +2 x23106 -1 x23029 -1 x23030 -1 x23031 -1 x23032 -1 x23033 -1 x23034 >= 0 ;
+2 x23107 +2 x23108 +2 x23109 -1 x23032 -1 x23033 -1 x23034 -1 x23035 -1 x23036 -1 x23037 >= 0 ;
+2 x23110 +2 x23111 +2 x23112 -1 x23035 -1 x23036 -1 x23037 -1 x23038 -1 x23039 -1 x23040 >= 0 ;
+2 x23113 +2 x23114 +2 x23115 -1 x23038 -1 x23039 -1 x23040 -1 x23041 -1 x23042 -1 x23043 >= 0 ;
+2 x23116 +2 x23117 +2 x23118 -1 x23041 -1 x23042 -1 x23043 -1 x23044 -1 x23045 -1 x23046 >= 0 ;
+2 x23119 +2 x23120 +2 x23121 -1 x23044 -1 x23045 -1 x23046 -1 x23047 -1 x23048 -1 x23049 >= 0 ;
+2 x23122 +2 x23123 +2 x23124 -1 x23047 -1 x23048 -1 x23049 -1 x23050 -1 x23051 -1 x23052 >= 0 ;
+2 x23125 +2 x23126 +2 x23127 -1 x23050 -1 x23051 -1 x23052 -1 x23053 -1 x23054 -1 x23055 >= 0 ;
+2 x23128 +2 x23129 +2 x23130 -1 x23053 -1 x23054 -1 x23055 -1 x23056 -1 x23057 -1 x23058 >= 0 ;
+2 x23131 +2 x23132 +2 x23133 -1 x23056 -1 x23057 -1 x23058 -1 x23059 -1 x23060 -1 x23061 >= 0 ;
+2 x23134 +2 x23135 +2 x23136 -1 x23059 -1 x23060 -1 x23061 -1 x23062 -1 x23063 -1 x23064 >= 0 ;
+2 x23137 +2 x23138 +2 x23139 -1 x23062 -1 x23063 -1 x23064 -1 x23065 -1 x23066 -1 x23067 >= 0 ;
+2 x23140 +2 x23141 +2 x23142 -1 x23065 -1 x23066 -1 x23067 -1 x23068 -1 x23069 -1 x23070 >= 0 ;
+2 x23143 +2 x23144 +2 x23145 -1 x23068 -1 x23069 -1 x23070 -1 x23071 -1 x23072 -1 x23073 >= 0 ;
+2 x23146 +2 x23147 +2 x23148 -1 x23071 -1 x23072 -1 x23073 -1 x23074 -1 x23075 -1 x23076 >= 0 ;
+2 x23149 +2 x23150 +2 x23151 -1 x23074 -1 x23075 -1 x23076 -1 x23077 -1 x23078 -1 x23079 >= 0 ;
+2 x23152 +2 x23153 +2 x23154 -1 x23077 -1 x23078 -1 x23079 -1 x23080 -1 x23081 -1 x23082 >= 0 ;
+2 x23155 +2 x23156 +2 x23157 -1 x23080 -1 x23081 -1 x23082 -1 x23083 -1 x23084 -1 x23085 >= 0 ;
+2 x23158 +2 x23159 +2 x23160 -1 x23083 -1 x23084 -1 x23085 -1 x23086 -1 x23087 -1 x23088 >= 0 ;
+2 x23161 +2 x23162 +2 x23163 -1 x23086 -1 x23087 -1 x23088 -1 x23089 -1 x23090 -1 x23091 >= 0 ;
+2 x23164 +2 x23165 +2 x23166 -1 x23089 -1 x23090 -1 x23091 -1 x23092 -1 x23093 -1 x23094 >= 0 ;
+2 x23167 +2 x23168 +2 x23169 -1 x23092 -1 x23093 -1 x23094 -1 x23095 -1 x23096 -1 x23097 >= 0 ;
+2 x23170 +2 x23171 +2 x23172 -1 x23095 -1 x23096 -1 x23097 -1 x23098 -1 x23099 -1 x23100 >= 0 ;
+2 x23173 +2 x23174 +2 x23175 -1 x23098 -1 x23099 -1 x23100 -1 x23101 -1 x23102 -1 x23103 >= 0 ;
+2 x23176 +2 x23177 +2 x23178 -1 x23104 -1 x23105 -1 x23106 -1 x23107 -1 x23108 -1 x23109 >= 0 ;
+2 x23179 +2 x23180 +2 x23181 -1 x23107 -1 x23108 -1 x23109 -1 x23110 -1 x23111 -1 x23112 >= 0 ;
+2 x23182 +2 x23183 +2 x23184 -1 x23110 -1 x23111 -1 x23112 -1 x23113 -1 x23114 -1 x23115 >= 0 ;
+2 x23185 +2 x23186 +2 x23187 -1 x23113 -1 x23114 -1 x23115 -1 x23116 -1 x23117 -1 x23118 >= 0 ;
+2 x23188 +2 x23189 +2 x23190 -1 x23116 -1 x23117 -1 x23118 -1 x23119 -1 x23120 -1 x23121 >= 0 ;
+2 x23191 +2 x23192 +2 x23193 -1 x23119 -1 x23120 -1 x23121 -1 x23122 -1 x23123 -1 x23124 >= 0 ;
+2 x23194 +2 x23195 +2 x23196 -1 x23122 -1 x23123 -1 x23124 -1 x23125 -1 x23126 -1 x23127 >= 0 ;
+2 x23197 +2 x23198 +2 x23199 -1 x23125 -1 x23126 -1 x23127 -1 x23128 -1 x23129 -1 x23130 >= 0 ;
+2 x23200 +2 x23201 +2 x23202 -1 x23128 -1 x23129 -1 x23130 -1 x23131 -1 x23132 -1 x23133 >= 0 ;
+2 x23203 +2 x23204 +2 x23205 -1 x23131 -1 x23132 -1 x23133 -1 x23134 -1 x23135 -1 x23136 >= 0 ;
+2 x23206 +2 x23207 +2 x23208 -1 x23134 -1 x23135 -1 x23136 -1 x23137 -1 x23138 -1 x23139 >= 0 ;
+2 x23209 +2 x23210 +2 x23211 -1 x23137 -1 x23138 -1 x23139 -1 x23140 -1 x23141 -1 x23142 >= 0 ;
+2 x23212 +2 x23213 +2 x23214 -1 x23140 -1 x23141 -1 x23142 -1 x23143 -1 x23144 -1 x23145 >= 0 ;
+2 x23215 +2 x23216 +2 x23217 -1 x23143 -1 x23144 -1 x23145 -1 x23146 -1 x23147 -1 x23148 >= 0 ;
+2 x23218 +2 x23219 +2 x23220 -1 x23146 -1 x23147 -1 x23148 -1 x23149 -1 x23150 -1 x23151 >= 0 ;
+2 x23221 +2 x23222 +2 x23223 -1 x23149 -1 x23150 -1 x23151 -1 x23152 -1 x23153 -1 x23154 >= 0 ;
+2 x23224 +2 x23225 +2 x23226 -1 x23152 -1 x23153 -1 x23154 -1 x23155 -1 x23156 -1 x23157 >= 0 ;
+2 x23227 +2 x23228 +2 x23229 -1 x23155 -1 x23156 -1 x23157 -1 x23158 -1 x23159 -1 x23160 >= 0 ;
+2 x23230 +2 x23231 +2 x23232 -1 x23158 -1 x23159 -1 x23160 -1 x23161 -1 x23162 -1 x23163 >= 0 ;
+2 x23233 +2 x23234 +2 x23235 -1 x23161 -1 x23162 -1 x23163 -1 x23164 -1 x23165 -1 x23166 >= 0 ;
+2 x23236 +2 x23237 +2 x23238 -1 x23164 -1 x23165 -1 x23166 -1 x23167 -1 x23168 -1 x23169 >= 0 ;
+2 x23239 +2 x23240 +2 x23241 -1 x23167 -1 x23168 -1 x23169 -1 x23170 -1 x23171 -1 x23172 >= 0 ;
+2 x23242 +2 x23243 +2 x23244 -1 x23170 -1 x23171 -1 x23172 -1 x23173 -1 x23174 -1 x23175 >= 0 ;
+2 x23245 +2 x23246 +2 x23247 -1 x23176 -1 x23177 -1 x23178 -1 x23179 -1 x23180 -1 x23181 >= 0 ;
+2 x23248 +2 x23249 +2 x23250 -1 x23179 -1 x23180 -1 x23181 -1 x23182 -1 x23183 -1 x23184 >= 0 ;
+2 x23251 +2 x23252 +2 x23253 -1 x23182 -1 x23183 -1 x23184 -1 x23185 -1 x23186 -1 x23187 >= 0 ;
+2 x23254 +2 x23255 +2 x23256 -1 x23185 -1 x23186 -1 x23187 -1 x23188 -1 x23189 -1 x23190 >= 0 ;
+2 x23257 +2 x23258 +2 x23259 -1 x23188 -1 x23189 -1 x23190 -1 x23191 -1 x23192 -1 x23193 >= 0 ;
+2 x23260 +2 x23261 +2 x23262 -1 x23191 -1 x23192 -1 x23193 -1 x23194 -1 x23195 -1 x23196 >= 0 ;
+2 x23263 +2 x23264 +2 x23265 -1 x23194 -1 x23195 -1 x23196 -1 x23197 -1 x23198 -1 x23199 >= 0 ;
+2 x23266 +2 x23267 +2 x23268 -1 x23197 -1 x23198 -1 x23199 -1 x23200 -1 x23201 -1 x23202 >= 0 ;
+2 x23269 +2 x23270 +2 x23271 -1 x23200 -1 x23201 -1 x23202 -1 x23203 -1 x23204 -1 x23205 >= 0 ;
+2 x23272 +2 x23273 +2 x23274 -1 x23203 -1 x23204 -1 x23205 -1 x23206 -1 x23207 -1 x23208 >= 0 ;
+2 x23275 +2 x23276 +2 x23277 -1 x23206 -1 x23207 -1 x23208 -1 x23209 -1 x23210 -1 x23211 >= 0 ;
+2 x23278 +2 x23279 +2 x23280 -1 x23209 -1 x23210 -1 x23211 -1 x23212 -1 x23213 -1 x23214 >= 0 ;
+2 x23281 +2 x23282 +2 x23283 -1 x23212 -1 x23213 -1 x23214 -1 x23215 -1 x23216 -1 x23217 >= 0 ;
+2 x23284 +2 x23285 +2 x23286 -1 x23215 -1 x23216 -1 x23217 -1 x23218 -1 x23219 -1 x23220 >= 0 ;
+2 x23287 +2 x23288 +2 x23289 -1 x23218 -1 x23219 -1 x23220 -1 x23221 -1 x23222 -1 x23223 >= 0 ;
+2 x23290 +2 x23291 +2 x23292 -1 x23221 -1 x23222 -1 x23223 -1 x23224 -1 x23225 -1 x23226 >= 0 ;
+2 x23293 +2 x23294 +2 x23295 -1 x23224 -1 x23225 -1 x23226 -1 x23227 -1 x23228 -1 x23229 >= 0 ;
+2 x23296 +2 x23297 +2 x23298 -1 x23227 -1 x23228 -1 x23229 -1 x23230 -1 x23231 -1 x23232 >= 0 ;
+2 x23299 +2 x23300 +2 x23301 -1 x23230 -1 x23231 -1 x23232 -1 x23233 -1 x23234 -1 x23235 >= 0 ;
+2 x23302 +2 x23303 +2 x23304 -1 x23233 -1 x23234 -1 x23235 -1 x23236 -1 x23237 -1 x23238 >= 0 ;
+2 x23305 +2 x23306 +2 x23307 -1 x23236 -1 x23237 -1 x23238 -1 x23239 -1 x23240 -1 x23241 >= 0 ;
+2 x23308 +2 x23309 +2 x23310 -1 x23239 -1 x23240 -1 x23241 -1 x23242 -1 x23243 -1 x23244 >= 0 ;
+2 x23311 +2 x23312 +2 x23313 -1 x23245 -1 x23246 -1 x23247 -1 x23248 -1 x23249 -1 x23250 >= 0 ;
+2 x23314 +2 x23315 +2 x23316 -1 x23248 -1 x23249 -1 x23250 -1 x23251 -1 x23252 -1 x23253 >= 0 ;
+2 x23317 +2 x23318 +2 x23319 -1 x23251 -1 x23252 -1 x23253 -1 x23254 -1 x23255 -1 x23256 >= 0 ;
+2 x23320 +2 x23321 +2 x23322 -1 x23254 -1 x23255 -1 x23256 -1 x23257 -1 x23258 -1 x23259 >= 0 ;
+2 x23323 +2 x23324 +2 x23325 -1 x23257 -1 x23258 -1 x23259 -1 x23260 -1 x23261 -1 x23262 >= 0 ;
+2 x23326 +2 x23327 +2 x23328 -1 x23260 -1 x23261 -1 x23262 -1 x23263 -1 x23264 -1 x23265 >= 0 ;
+2 x23329 +2 x23330 +2 x23331 -1 x23263 -1 x23264 -1 x23265 -1 x23266 -1 x23267 -1 x23268 >= 0 ;
+2 x23332 +2 x23333 +2 x23334 -1 x23266 -1 x23267 -1 x23268 -1 x23269 -1 x23270 -1 x23271 >= 0 ;
+2 x23335 +2 x23336 +2 x23337 -1 x23269 -1 x23270 -1 x23271 -1 x23272 -1 x23273 -1 x23274 >= 0 ;
+2 x23338 +2 x23339 +2 x23340 -1 x23272 -1 x23273 -1 x23274 -1 x23275 -1 x23276 -1 x23277 >= 0 ;
+2 x23341 +2 x23342 +2 x23343 -1 x23275 -1 x23276 -1 x23277 -1 x23278 -1 x23279 -1 x23280 >= 0 ;
+2 x23344 +2 x23345 +2 x23346 -1 x23278 -1 x23279 -1 x23280 -1 x23281 -1 x23282 -1 x23283 >= 0 ;
+2 x23347 +2 x23348 +2 x23349 -1 x23281 -1 x23282 -1 x23283 -1 x23284 -1 x23285 -1 x23286 >= 0 ;
+2 x23350 +2 x23351 +2 x23352 -1 x23284 -1 x23285 -1 x23286 -1 x23287 -1 x23288 -1 x23289 >= 0 ;
+2 x23353 +2 x23354 +2 x23355 -1 x23287 -1 x23288 -1 x23289 -1 x23290 -1 x23291 -1 x23292 >= 0 ;
+2 x23356 +2 x23357 +2 x23358 -1 x23290 -1 x23291 -1 x23292 -1 x23293 -1 x23294 -1 x23295 >= 0 ;
+2 x23359 +2 x23360 +2 x23361 -1 x23293 -1 x23294 -1 x23295 -1 x23296 -1 x23297 -1 x23298 >= 0 ;
+2 x23362 +2 x23363 +2 x23364 -1 x23296 -1 x23297 -1 x23298 -1 x23299 -1 x23300 -1 x23301 >= 0 ;
+2 x23365 +2 x23366 +2 x23367 -1 x23299 -1 x23300 -1 x23301 -1 x23302 -1 x23303 -1 x23304 >= 0 ;
+2 x23368 +2 x23369 +2 x23370 -1 x23302 -1 x23303 -1 x23304 -1 x23305 -1 x23306 -1 x23307 >= 0 ;
+2 x23371 +2 x23372 +2 x23373 -1 x23305 -1 x23306 -1 x23307 -1 x23308 -1 x23309 -1 x23310 >= 0 ;
+2 x23374 +2 x23375 +2 x23376 -1 x23311 -1 x23312 -1 x23313 -1 x23314 -1 x23315 -1 x23316 >= 0 ;
+2 x23377 +2 x23378 +2 x23379 -1 x23314 -1 x23315 -1 x23316 -1 x23317 -1 x23318 -1 x23319 >= 0 ;
+2 x23380 +2 x23381 +2 x23382 -1 x23317 -1 x23318 -1 x23319 -1 x23320 -1 x23321 -1 x23322 >= 0 ;
+2 x23383 +2 x23384 +2 x23385 -1 x23320 -1 x23321 -1 x23322 -1 x23323 -1 x23324 -1 x23325 >= 0 ;
+2 x23386 +2 x23387 +2 x23388 -1 x23323 -1 x23324 -1 x23325 -1 x23326 -1 x23327 -1 x23328 >= 0 ;
+2 x23389 +2 x23390 +2 x23391 -1 x23326 -1 x23327 -1 x23328 -1 x23329 -1 x23330 -1 x23331 >= 0 ;
+2 x23392 +2 x23393 +2 x23394 -1 x23329 -1 x23330 -1 x23331 -1 x23332 -1 x23333 -1 x23334 >= 0 ;
+2 x23395 +2 x23396 +2 x23397 -1 x23332 -1 x23333 -1 x23334 -1 x23335 -1 x23336 -1 x23337 >= 0 ;
+2 x23398 +2 x23399 +2 x23400 -1 x23335 -1 x23336 -1 x23337 -1 x23338 -1 x23339 -1 x23340 >= 0 ;
+2 x23401 +2 x23402 +2 x23403 -1 x23338 -1 x23339 -1 x23340 -1 x23341 -1 x23342 -1 x23343 >= 0 ;
+2 x23404 +2 x23405 +2 x23406 -1 x23341 -1 x23342 -1 x23343 -1 x23344 -1 x23345 -1 x23346 >= 0 ;
+2 x23407 +2 x23408 +2 x23409 -1 x23344 -1 x23345 -1 x23346 -1 x23347 -1 x23348 -1 x23349 >= 0 ;
+2 x23410 +2 x23411 +2 x23412 -1 x23347 -1 x23348 -1 x23349 -1 x23350 -1 x23351 -1 x23352 >= 0 ;
+2 x23413 +2 x23414 +2 x23415 -1 x23350 -1 x23351 -1 x23352 -1 x23353 -1 x23354 -1 x23355 >= 0 ;
+2 x23416 +2 x23417 +2 x23418 -1 x23353 -1 x23354 -1 x23355 -1 x23356 -1 x23357 -1 x23358 >= 0 ;
+2 x23419 +2 x23420 +2 x23421 -1 x23356 -1 x23357 -1 x23358 -1 x23359 -1 x23360 -1 x23361 >= 0 ;
+2 x23422 +2 x23423 +2 x23424 -1 x23359 -1 x23360 -1 x23361 -1 x23362 -1 x23363 -1 x23364 >= 0 ;
+2 x23425 +2 x23426 +2 x23427 -1 x23362 -1 x23363 -1 x23364 -1 x23365 -1 x23366 -1 x23367 >= 0 ;
+2 x23428 +2 x23429 +2 x23430 -1 x23365 -1 x23366 -1 x23367 -1 x23368 -1 x23369 -1 x23370 >= 0 ;
+2 x23431 +2 x23432 +2 x23433 -1 x23368 -1 x23369 -1 x23370 -1 x23371 -1 x23372 -1 x23373 >= 0 ;
+2 x23434 +2 x23435 +2 x23436 -1 x23374 -1 x23375 -1 x23376 -1 x23377 -1 x23378 -1 x23379 >= 0 ;
+2 x23437 +2 x23438 +2 x23439 -1 x23377 -1 x23378 -1 x23379 -1 x23380 -1 x23381 -1 x23382 >= 0 ;
+2 x23440 +2 x23441 +2 x23442 -1 x23380 -1 x23381 -1 x23382 -1 x23383 -1 x23384 -1 x23385 >= 0 ;
+2 x23443 +2 x23444 +2 x23445 -1 x23383 -1 x23384 -1 x23385 -1 x23386 -1 x23387 -1 x23388 >= 0 ;
+2 x23446 +2 x23447 +2 x23448 -1 x23386 -1 x23387 -1 x23388 -1 x23389 -1 x23390 -1 x23391 >= 0 ;
+2 x23449 +2 x23450 +2 x23451 -1 x23389 -1 x23390 -1 x23391 -1 x23392 -1 x23393 -1 x23394 >= 0 ;
+2 x23452 +2 x23453 +2 x23454 -1 x23392 -1 x23393 -1 x23394 -1 x23395 -1 x23396 -1 x23397 >= 0 ;
+2 x23455 +2 x23456 +2 x23457 -1 x23395 -1 x23396 -1 x23397 -1 x23398 -1 x23399 -1 x23400 >= 0 ;
+2 x23458 +2 x23459 +2 x23460 -1 x23398 -1 x23399 -1 x23400 -1 x23401 -1 x23402 -1 x23403 >= 0 ;
+2 x23461 +2 x23462 +2 x23463 -1 x23401 -1 x23402 -1 x23403 -1 x23404 -1 x23405 -1 x23406 >= 0 ;
+2 x23464 +2 x23465 +2 x23466 -1 x23404 -1 x23405 -1 x23406 -1 x23407 -1 x23408 -1 x23409 >= 0 ;
+2 x23467 +2 x23468 +2 x23469 -1 x23407 -1 x23408 -1 x23409 -1 x23410 -1 x23411 -1 x23412 >= 0 ;
+2 x23470 +2 x23471 +2 x23472 -1 x23410 -1 x23411 -1 x23412 -1 x23413 -1 x23414 -1 x23415 >= 0 ;
+2 x23473 +2 x23474 +2 x23475 -1 x23413 -1 x23414 -1 x23415 -1 x23416 -1 x23417 -1 x23418 >= 0 ;
+2 x23476 +2 x23477 +2 x23478 -1 x23416 -1 x23417 -1 x23418 -1 x23419 -1 x23420 -1 x23421 >= 0 ;
+2 x23479 +2 x23480 +2 x23481 -1 x23419 -1 x23420 -1 x23421 -1 x23422 -1 x23423 -1 x23424 >= 0 ;
+2 x23482 +2 x23483 +2 x23484 -1 x23422 -1 x23423 -1 x23424 -1 x23425 -1 x23426 -1 x23427 >= 0 ;
+2 x23485 +2 x23486 +2 x23487 -1 x23425 -1 x23426 -1 x23427 -1 x23428 -1 x23429 -1 x23430 >= 0 ;
+2 x23488 +2 x23489 +2 x23490 -1 x23428 -1 x23429 -1 x23430 -1 x23431 -1 x23432 -1 x23433 >= 0 ;
+2 x23491 +2 x23492 +2 x23493 -1 x23434 -1 x23435 -1 x23436 -1 x23437 -1 x23438 -1 x23439 >= 0 ;
+2 x23494 +2 x23495 +2 x23496 -1 x23437 -1 x23438 -1 x23439 -1 x23440 -1 x23441 -1 x23442 >= 0 ;
+2 x23497 +2 x23498 +2 x23499 -1 x23440 -1 x23441 -1 x23442 -1 x23443 -1 x23444 -1 x23445 >= 0 ;
+2 x23500 +2 x23501 +2 x23502 -1 x23443 -1 x23444 -1 x23445 -1 x23446 -1 x23447 -1 x23448 >= 0 ;
+2 x23503 +2 x23504 +2 x23505 -1 x23446 -1 x23447 -1 x23448 -1 x23449 -1 x23450 -1 x23451 >= 0 ;
+2 x23506 +2 x23507 +2 x23508 -1 x23449 -1 x23450 -1 x23451 -1 x23452 -1 x23453 -1 x23454 >= 0 ;
+2 x23509 +2 x23510 +2 x23511 -1 x23452 -1 x23453 -1 x23454 -1 x23455 -1 x23456 -1 x23457 >= 0 ;
+2 x23512 +2 x23513 +2 x23514 -1 x23455 -1 x23456 -1 x23457 -1 x23458 -1 x23459 -1 x23460 >= 0 ;
+2 x23515 +2 x23516 +2 x23517 -1 x23458 -1 x23459 -1 x23460 -1 x23461 -1 x23462 -1 x23463 >= 0 ;
+2 x23518 +2 x23519 +2 x23520 -1 x23461 -1 x23462 -1 x23463 -1 x23464 -1 x23465 -1 x23466 >= 0 ;
+2 x23521 +2 x23522 +2 x23523 -1 x23464 -1 x23465 -1 x23466 -1 x23467 -1 x23468 -1 x23469 >= 0 ;
+2 x23524 +2 x23525 +2 x23526 -1 x23467 -1 x23468 -1 x23469 -1 x23470 -1 x23471 -1 x23472 >= 0 ;
+2 x23527 +2 x23528 +2 x23529 -1 x23470 -1 x23471 -1 x23472 -1 x23473 -1 x23474 -1 x23475 >= 0 ;
+2 x23530 +2 x23531 +2 x23532 -1 x23473 -1 x23474 -1 x23475 -1 x23476 -1 x23477 -1 x23478 >= 0 ;
+2 x23533 +2 x23534 +2 x23535 -1 x23476 -1 x23477 -1 x23478 -1 x23479 -1 x23480 -1 x23481 >= 0 ;
+2 x23536 +2 x23537 +2 x23538 -1 x23479 -1 x23480 -1 x23481 -1 x23482 -1 x23483 -1 x23484 >= 0 ;
+2 x23539 +2 x23540 +2 x23541 -1 x23482 -1 x23483 -1 x23484 -1 x23485 -1 x23486 -1 x23487 >= 0 ;
+2 x23542 +2 x23543 +2 x23544 -1 x23485 -1 x23486 -1 x23487 -1 x23488 -1 x23489 -1 x23490 >= 0 ;
+2 x23545 +2 x23546 +2 x23547 -1 x23491 -1 x23492 -1 x23493 -1 x23494 -1 x23495 -1 x23496 >= 0 ;
+2 x23548 +2 x23549 +2 x23550 -1 x23494 -1 x23495 -1 x23496 -1 x23497 -1 x23498 -1 x23499 >= 0 ;
+2 x23551 +2 x23552 +2 x23553 -1 x23497 -1 x23498 -1 x23499 -1 x23500 -1 x23501 -1 x23502 >= 0 ;
+2 x23554 +2 x23555 +2 x23556 -1 x23500 -1 x23501 -1 x23502 -1 x23503 -1 x23504 -1 x23505 >= 0 ;
+2 x23557 +2 x23558 +2 x23559 -1 x23503 -1 x23504 -1 x23505 -1 x23506 -1 x23507 -1 x23508 >= 0 ;
+2 x23560 +2 x23561 +2 x23562 -1 x23506 -1 x23507 -1 x23508 -1 x23509 -1 x23510 -1 x23511 >= 0 ;
+2 x23563 +2 x23564 +2 x23565 -1 x23509 -1 x23510 -1 x23511 -1 x23512 -1 x23513 -1 x23514 >= 0 ;
+2 x23566 +2 x23567 +2 x23568 -1 x23512 -1 x23513 -1 x23514 -1 x23515 -1 x23516 -1 x23517 >= 0 ;
+2 x23569 +2 x23570 +2 x23571 -1 x23515 -1 x23516 -1 x23517 -1 x23518 -1 x23519 -1 x23520 >= 0 ;
+2 x23572 +2 x23573 +2 x23574 -1 x23518 -1 x23519 -1 x23520 -1 x23521 -1 x23522 -1 x23523 >= 0 ;
+2 x23575 +2 x23576 +2 x23577 -1 x23521 -1 x23522 -1 x23523 -1 x23524 -1 x23525 -1 x23526 >= 0 ;
+2 x23578 +2 x23579 +2 x23580 -1 x23524 -1 x23525 -1 x23526 -1 x23527 -1 x23528 -1 x23529 >= 0 ;
+2 x23581 +2 x23582 +2 x23583 -1 x23527 -1 x23528 -1 x23529 -1 x23530 -1 x23531 -1 x23532 >= 0 ;
+2 x23584 +2 x23585 +2 x23586 -1 x23530 -1 x23531 -1 x23532 -1 x23533 -1 x23534 -1 x23535 >= 0 ;
+2 x23587 +2 x23588 +2 x23589 -1 x23533 -1 x23534 -1 x23535 -1 x23536 -1 x23537 -1 x23538 >= 0 ;
+2 x23590 +2 x23591 +2 x23592 -1 x23536 -1 x23537 -1 x23538 -1 x23539 -1 x23540 -1 x23541 >= 0 ;
+2 x23593 +2 x23594 +2 x23595 -1 x23539 -1 x23540 -1 x23541 -1 x23542 -1 x23543 -1 x23544 >= 0 ;
+2 x23596 +2 x23597 +2 x23598 -1 x23545 -1 x23546 -1 x23547 -1 x23548 -1 x23549 -1 x23550 >= 0 ;
+2 x23599 +2 x23600 +2 x23601 -1 x23548 -1 x23549 -1 x23550 -1 x23551 -1 x23552 -1 x23553 >= 0 ;
+2 x23602 +2 x23603 +2 x23604 -1 x23551 -1 x23552 -1 x23553 -1 x23554 -1 x23555 -1 x23556 >= 0 ;
+2 x23605 +2 x23606 +2 x23607 -1 x23554 -1 x23555 -1 x23556 -1 x23557 -1 x23558 -1 x23559 >= 0 ;
+2 x23608 +2 x23609 +2 x23610 -1 x23557 -1 x23558 -1 x23559 -1 x23560 -1 x23561 -1 x23562 >= 0 ;
+2 x23611 +2 x23612 +2 x23613 -1 x23560 -1 x23561 -1 x23562 -1 x23563 -1 x23564 -1 x23565 >= 0 ;
+2 x23614 +2 x23615 +2 x23616 -1 x23563 -1 x23564 -1 x23565 -1 x23566 -1 x23567 -1 x23568 >= 0 ;
+2 x23617 +2 x23618 +2 x23619 -1 x23566 -1 x23567 -1 x23568 -1 x23569 -1 x23570 -1 x23571 >= 0 ;
+2 x23620 +2 x23621 +2 x23622 -1 x23569 -1 x23570 -1 x23571 -1 x23572 -1 x23573 -1 x23574 >= 0 ;
+2 x23623 +2 x23624 +2 x23625 -1 x23572 -1 x23573 -1 x23574 -1 x23575 -1 x23576 -1 x23577 >= 0 ;
+2 x23626 +2 x23627 +2 x23628 -1 x23575 -1 x23576 -1 x23577 -1 x23578 -1 x23579 -1 x23580 >= 0 ;
+2 x23629 +2 x23630 +2 x23631 -1 x23578 -1 x23579 -1 x23580 -1 x23581 -1 x23582 -1 x23583 >= 0 ;
+2 x23632 +2 x23633 +2 x23634 -1 x23581 -1 x23582 -1 x23583 -1 x23584 -1 x23585 -1 x23586 >= 0 ;
+2 x23635 +2 x23636 +2 x23637 -1 x23584 -1 x23585 -1 x23586 -1 x23587 -1 x23588 -1 x23589 >= 0 ;
+2 x23638 +2 x23639 +2 x23640 -1 x23587 -1 x23588 -1 x23589 -1 x23590 -1 x23591 -1 x23592 >= 0 ;
+2 x23641 +2 x23642 +2 x23643 -1 x23590 -1 x23591 -1 x23592 -1 x23593 -1 x23594 -1 x23595 >= 0 ;
+2 x23644 +2 x23645 +2 x23646 -1 x23596 -1 x23597 -1 x23598 -1 x23599 -1 x23600 -1 x23601 >= 0 ;
+2 x23647 +2 x23648 +2 x23649 -1 x23599 -1 x23600 -1 x23601 -1 x23602 -1 x23603 -1 x23604 >= 0 ;
+2 x23650 +2 x23651 +2 x23652 -1 x23602 -1 x23603 -1 x23604 -1 x23605 -1 x23606 -1 x23607 >= 0 ;
+2 x23653 +2 x23654 +2 x23655 -1 x23605 -1 x23606 -1 x23607 -1 x23608 -1 x23609 -1 x23610 >= 0 ;
+2 x23656 +2 x23657 +2 x23658 -1 x23608 -1 x23609 -1 x23610 -1 x23611 -1 x23612 -1 x23613 >= 0 ;
+2 x23659 +2 x23660 +2 x23661 -1 x23611 -1 x23612 -1 x23613 -1 x23614 -1 x23615 -1 x23616 >= 0 ;
+2 x23662 +2 x23663 +2 x23664 -1 x23614 -1 x23615 -1 x23616 -1 x23617 -1 x23618 -1 x23619 >= 0 ;
+2 x23665 +2 x23666 +2 x23667 -1 x23617 -1 x23618 -1 x23619 -1 x23620 -1 x23621 -1 x23622 >= 0 ;
+2 x23668 +2 x23669 +2 x23670 -1 x23620 -1 x23621 -1 x23622 -1 x23623 -1 x23624 -1 x23625 >= 0 ;
+2 x23671 +2 x23672 +2 x23673 -1 x23623 -1 x23624 -1 x23625 -1 x23626 -1 x23627 -1 x23628 >= 0 ;
+2 x23674 +2 x23675 +2 x23676 -1 x23626 -1 x23627 -1 x23628 -1 x23629 -1 x23630 -1 x23631 >= 0 ;
+2 x23677 +2 x23678 +2 x23679 -1 x23629 -1 x23630 -1 x23631 -1 x23632 -1 x23633 -1 x23634 >= 0 ;
+2 x23680 +2 x23681 +2 x23682 -1 x23632 -1 x23633 -1 x23634 -1 x23635 -1 x23636 -1 x23637 >= 0 ;
+2 x23683 +2 x23684 +2 x23685 -1 x23635 -1 x23636 -1 x23637 -1 x23638 -1 x23639 -1 x23640 >= 0 ;
+2 x23686 +2 x23687 +2 x23688 -1 x23638 -1 x23639 -1 x23640 -1 x23641 -1 x23642 -1 x23643 >= 0 ;
+2 x23689 +2 x23690 +2 x23691 -1 x23644 -1 x23645 -1 x23646 -1 x23647 -1 x23648 -1 x23649 >= 0 ;
+2 x23692 +2 x23693 +2 x23694 -1 x23647 -1 x23648 -1 x23649 -1 x23650 -1 x23651 -1 x23652 >= 0 ;
+2 x23695 +2 x23696 +2 x23697 -1 x23650 -1 x23651 -1 x23652 -1 x23653 -1 x23654 -1 x23655 >= 0 ;
+2 x23698 +2 x23699 +2 x23700 -1 x23653 -1 x23654 -1 x23655 -1 x23656 -1 x23657 -1 x23658 >= 0 ;
+2 x23701 +2 x23702 +2 x23703 -1 x23656 -1 x23657 -1 x23658 -1 x23659 -1 x23660 -1 x23661 >= 0 ;
+2 x23704 +2 x23705 +2 x23706 -1 x23659 -1 x23660 -1 x23661 -1 x23662 -1 x23663 -1 x23664 >= 0 ;
+2 x23707 +2 x23708 +2 x23709 -1 x23662 -1 x23663 -1 x23664 -1 x23665 -1 x23666 -1 x23667 >= 0 ;
+2 x23710 +2 x23711 +2 x23712 -1 x23665 -1 x23666 -1 x23667 -1 x23668 -1 x23669 -1 x23670 >= 0 ;
+2 x23713 +2 x23714 +2 x23715 -1 x23668 -1 x23669 -1 x23670 -1 x23671 -1 x23672 -1 x23673 >= 0 ;
+2 x23716 +2 x23717 +2 x23718 -1 x23671 -1 x23672 -1 x23673 -1 x23674 -1 x23675 -1 x23676 >= 0 ;
+2 x23719 +2 x23720 +2 x23721 -1 x23674 -1 x23675 -1 x23676 -1 x23677 -1 x23678 -1 x23679 >= 0 ;
+2 x23722 +2 x23723 +2 x23724 -1 x23677 -1 x23678 -1 x23679 -1 x23680 -1 x23681 -1 x23682 >= 0 ;
+2 x23725 +2 x23726 +2 x23727 -1 x23680 -1 x23681 -1 x23682 -1 x23683 -1 x23684 -1 x23685 >= 0 ;
+2 x23728 +2 x23729 +2 x23730 -1 x23683 -1 x23684 -1 x23685 -1 x23686 -1 x23687 -1 x23688 >= 0 ;
+2 x23731 +2 x23732 +2 x23733 -1 x23689 -1 x23690 -1 x23691 -1 x23692 -1 x23693 -1 x23694 >= 0 ;
+2 x23734 +2 x23735 +2 x23736 -1 x23692 -1 x23693 -1 x23694 -1 x23695 -1 x23696 -1 x23697 >= 0 ;
+2 x23737 +2 x23738 +2 x23739 -1 x23695 -1 x23696 -1 x23697 -1 x23698 -1 x23699 -1 x23700 >= 0 ;
+2 x23740 +2 x23741 +2 x23742 -1 x23698 -1 x23699 -1 x23700 -1 x23701 -1 x23702 -1 x23703 >= 0 ;
+2 x23743 +2 x23744 +2 x23745 -1 x23701 -1 x23702 -1 x23703 -1 x23704 -1 x23705 -1 x23706 >= 0 ;
+2 x23746 +2 x23747 +2 x23748 -1 x23704 -1 x23705 -1 x23706 -1 x23707 -1 x23708 -1 x23709 >= 0 ;
+2 x23749 +2 x23750 +2 x23751 -1 x23707 -1 x23708 -1 x23709 -1 x23710 -1 x23711 -1 x23712 >= 0 ;
+2 x23752 +2 x23753 +2 x23754 -1 x23710 -1 x23711 -1 x23712 -1 x23713 -1 x23714 -1 x23715 >= 0 ;
+2 x23755 +2 x23756 +2 x23757 -1 x23713 -1 x23714 -1 x23715 -1 x23716 -1 x23717 -1 x23718 >= 0 ;
+2 x23758 +2 x23759 +2 x23760 -1 x23716 -1 x23717 -1 x23718 -1 x23719 -1 x23720 -1 x23721 >= 0 ;
+2 x23761 +2 x23762 +2 x23763 -1 x23719 -1 x23720 -1 x23721 -1 x23722 -1 x23723 -1 x23724 >= 0 ;
+2 x23764 +2 x23765 +2 x23766 -1 x23722 -1 x23723 -1 x23724 -1 x23725 -1 x23726 -1 x23727 >= 0 ;
+2 x23767 +2 x23768 +2 x23769 -1 x23725 -1 x23726 -1 x23727 -1 x23728 -1 x23729 -1 x23730 >= 0 ;
+2 x23770 +2 x23771 +2 x23772 -1 x23731 -1 x23732 -1 x23733 -1 x23734 -1 x23735 -1 x23736 >= 0 ;
+2 x23773 +2 x23774 +2 x23775 -1 x23734 -1 x23735 -1 x23736 -1 x23737 -1 x23738 -1 x23739 >= 0 ;
+2 x23776 +2 x23777 +2 x23778 -1 x23737 -1 x23738 -1 x23739 -1 x23740 -1 x23741 -1 x23742 >= 0 ;
+2 x23779 +2 x23780 +2 x23781 -1 x23740 -1 x23741 -1 x23742 -1 x23743 -1 x23744 -1 x23745 >= 0 ;
+2 x23782 +2 x23783 +2 x23784 -1 x23743 -1 x23744 -1 x23745 -1 x23746 -1 x23747 -1 x23748 >= 0 ;
+2 x23785 +2 x23786 +2 x23787 -1 x23746 -1 x23747 -1 x23748 -1 x23749 -1 x23750 -1 x23751 >= 0 ;
+2 x23788 +2 x23789 +2 x23790 -1 x23749 -1 x23750 -1 x23751 -1 x23752 -1 x23753 -1 x23754 >= 0 ;
+2 x23791 +2 x23792 +2 x23793 -1 x23752 -1 x23753 -1 x23754 -1 x23755 -1 x23756 -1 x23757 >= 0 ;
+2 x23794 +2 x23795 +2 x23796 -1 x23755 -1 x23756 -1 x23757 -1 x23758 -1 x23759 -1 x23760 >= 0 ;
+2 x23797 +2 x23798 +2 x23799 -1 x23758 -1 x23759 -1 x23760 -1 x23761 -1 x23762 -1 x23763 >= 0 ;
+2 x23800 +2 x23801 +2 x23802 -1 x23761 -1 x23762 -1 x23763 -1 x23764 -1 x23765 -1 x23766 >= 0 ;
+2 x23803 +2 x23804 +2 x23805 -1 x23764 -1 x23765 -1 x23766 -1 x23767 -1 x23768 -1 x23769 >= 0 ;
+2 x23806 +2 x23807 +2 x23808 -1 x23770 -1 x23771 -1 x23772 -1 x23773 -1 x23774 -1 x23775 >= 0 ;
+2 x23809 +2 x23810 +2 x23811 -1 x23773 -1 x23774 -1 x23775 -1 x23776 -1 x23777 -1 x23778 >= 0 ;
+2 x23812 +2 x23813 +2 x23814 -1 x23776 -1 x23777 -1 x23778 -1 x23779 -1 x23780 -1 x23781 >= 0 ;
+2 x23815 +2 x23816 +2 x23817 -1 x23779 -1 x23780 -1 x23781 -1 x23782 -1 x23783 -1 x23784 >= 0 ;
+2 x23818 +2 x23819 +2 x23820 -1 x23782 -1 x23783 -1 x23784 -1 x23785 -1 x23786 -1 x23787 >= 0 ;
+2 x23821 +2 x23822 +2 x23823 -1 x23785 -1 x23786 -1 x23787 -1 x23788 -1 x23789 -1 x23790 >= 0 ;
+2 x23824 +2 x23825 +2 x23826 -1 x23788 -1 x23789 -1 x23790 -1 x23791 -1 x23792 -1 x23793 >= 0 ;
+2 x23827 +2 x23828 +2 x23829 -1 x23791 -1 x23792 -1 x23793 -1 x23794 -1 x23795 -1 x23796 >= 0 ;
+2 x23830 +2 x23831 +2 x23832 -1 x23794 -1 x23795 -1 x23796 -1 x23797 -1 x23798 -1 x23799 >= 0 ;
+2 x23833 +2 x23834 +2 x23835 -1 x23797 -1 x23798 -1 x23799 -1 x23800 -1 x23801 -1 x23802 >= 0 ;
+2 x23836 +2 x23837 +2 x23838 -1 x23800 -1 x23801 -1 x23802 -1 x23803 -1 x23804 -1 x23805 >= 0 ;
+2 x23839 +2 x23840 +2 x23841 -1 x23806 -1 x23807 -1 x23808 -1 x23809 -1 x23810 -1 x23811 >= 0 ;
+2 x23842 +2 x23843 +2 x23844 -1 x23809 -1 x23810 -1 x23811 -1 x23812 -1 x23813 -1 x23814 >= 0 ;
+2 x23845 +2 x23846 +2 x23847 -1 x23812 -1 x23813 -1 x23814 -1 x23815 -1 x23816 -1 x23817 >= 0 ;
+2 x23848 +2 x23849 +2 x23850 -1 x23815 -1 x23816 -1 x23817 -1 x23818 -1 x23819 -1 x23820 >= 0 ;
+2 x23851 +2 x23852 +2 x23853 -1 x23818 -1 x23819 -1 x23820 -1 x23821 -1 x23822 -1 x23823 >= 0 ;
+2 x23854 +2 x23855 +2 x23856 -1 x23821 -1 x23822 -1 x23823 -1 x23824 -1 x23825 -1 x23826 >= 0 ;
+2 x23857 +2 x23858 +2 x23859 -1 x23824 -1 x23825 -1 x23826 -1 x23827 -1 x23828 -1 x23829 >= 0 ;
+2 x23860 +2 x23861 +2 x23862 -1 x23827 -1 x23828 -1 x23829 -1 x23830 -1 x23831 -1 x23832 >= 0 ;
+2 x23863 +2 x23864 +2 x23865 -1 x23830 -1 x23831 -1 x23832 -1 x23833 -1 x23834 -1 x23835 >= 0 ;
+2 x23866 +2 x23867 +2 x23868 -1 x23833 -1 x23834 -1 x23835 -1 x23836 -1 x23837 -1 x23838 >= 0 ;
+2 x23869 +2 x23870 +2 x23871 -1 x23839 -1 x23840 -1 x23841 -1 x23842 -1 x23843 -1 x23844 >= 0 ;
+2 x23872 +2 x23873 +2 x23874 -1 x23842 -1 x23843 -1 x23844 -1 x23845 -1 x23846 -1 x23847 >= 0 ;
+2 x23875 +2 x23876 +2 x23877 -1 x23845 -1 x23846 -1 x23847 -1 x23848 -1 x23849 -1 x23850 >= 0 ;
+2 x23878 +2 x23879 +2 x23880 -1 x23848 -1 x23849 -1 x23850 -1 x23851 -1 x23852 -1 x23853 >= 0 ;
+2 x23881 +2 x23882 +2 x23883 -1 x23851 -1 x23852 -1 x23853 -1 x23854 -1 x23855 -1 x23856 >= 0 ;
+2 x23884 +2 x23885 +2 x23886 -1 x23854 -1 x23855 -1 x23856 -1 x23857 -1 x23858 -1 x23859 >= 0 ;
+2 x23887 +2 x23888 +2 x23889 -1 x23857 -1 x23858 -1 x23859 -1 x23860 -1 x23861 -1 x23862 >= 0 ;
+2 x23890 +2 x23891 +2 x23892 -1 x23860 -1 x23861 -1 x23862 -1 x23863 -1 x23864 -1 x23865 >= 0 ;
+2 x23893 +2 x23894 +2 x23895 -1 x23863 -1 x23864 -1 x23865 -1 x23866 -1 x23867 -1 x23868 >= 0 ;
+2 x23896 +2 x23897 +2 x23898 -1 x23869 -1 x23870 -1 x23871 -1 x23872 -1 x23873 -1 x23874 >= 0 ;
+2 x23899 +2 x23900 +2 x23901 -1 x23872 -1 x23873 -1 x23874 -1 x23875 -1 x23876 -1 x23877 >= 0 ;
+2 x23902 +2 x23903 +2 x23904 -1 x23875 -1 x23876 -1 x23877 -1 x23878 -1 x23879 -1 x23880 >= 0 ;
+2 x23905 +2 x23906 +2 x23907 -1 x23878 -1 x23879 -1 x23880 -1 x23881 -1 x23882 -1 x23883 >= 0 ;
+2 x23908 +2 x23909 +2 x23910 -1 x23881 -1 x23882 -1 x23883 -1 x23884 -1 x23885 -1 x23886 >= 0 ;
+2 x23911 +2 x23912 +2 x23913 -1 x23884 -1 x23885 -1 x23886 -1 x23887 -1 x23888 -1 x23889 >= 0 ;
+2 x23914 +2 x23915 +2 x23916 -1 x23887 -1 x23888 -1 x23889 -1 x23890 -1 x23891 -1 x23892 >= 0 ;
+2 x23917 +2 x23918 +2 x23919 -1 x23890 -1 x23891 -1 x23892 -1 x23893 -1 x23894 -1 x23895 >= 0 ;
+2 x23920 +2 x23921 +2 x23922 -1 x23896 -1 x23897 -1 x23898 -1 x23899 -1 x23900 -1 x23901 >= 0 ;
+2 x23923 +2 x23924 +2 x23925 -1 x23899 -1 x23900 -1 x23901 -1 x23902 -1 x23903 -1 x23904 >= 0 ;
+2 x23926 +2 x23927 +2 x23928 -1 x23902 -1 x23903 -1 x23904 -1 x23905 -1 x23906 -1 x23907 >= 0 ;
+2 x23929 +2 x23930 +2 x23931 -1 x23905 -1 x23906 -1 x23907 -1 x23908 -1 x23909 -1 x23910 >= 0 ;
+2 x23932 +2 x23933 +2 x23934 -1 x23908 -1 x23909 -1 x23910 -1 x23911 -1 x23912 -1 x23913 >= 0 ;
+2 x23935 +2 x23936 +2 x23937 -1 x23911 -1 x23912 -1 x23913 -1 x23914 -1 x23915 -1 x23916 >= 0 ;
+2 x23938 +2 x23939 +2 x23940 -1 x23914 -1 x23915 -1 x23916 -1 x23917 -1 x23918 -1 x23919 >= 0 ;
+2 x23941 +2 x23942 +2 x23943 -1 x23920 -1 x23921 -1 x23922 -1 x23923 -1 x23924 -1 x23925 >= 0 ;
+2 x23944 +2 x23945 +2 x23946 -1 x23923 -1 x23924 -1 x23925 -1 x23926 -1 x23927 -1 x23928 >= 0 ;
+2 x23947 +2 x23948 +2 x23949 -1 x23926 -1 x23927 -1 x23928 -1 x23929 -1 x23930 -1 x23931 >= 0 ;
+2 x23950 +2 x23951 +2 x23952 -1 x23929 -1 x23930 -1 x23931 -1 x23932 -1 x23933 -1 x23934 >= 0 ;
+2 x23953 +2 x23954 +2 x23955 -1 x23932 -1 x23933 -1 x23934 -1 x23935 -1 x23936 -1 x23937 >= 0 ;
+2 x23956 +2 x23957 +2 x23958 -1 x23935 -1 x23936 -1 x23937 -1 x23938 -1 x23939 -1 x23940 >= 0 ;
+2 x23959 +2 x23960 +2 x23961 -1 x23941 -1 x23942 -1 x23943 -1 x23944 -1 x23945 -1 x23946 >= 0 ;
+2 x23962 +2 x23963 +2 x23964 -1 x23944 -1 x23945 -1 x23946 -1 x23947 -1 x23948 -1 x23949 >= 0 ;
+2 x23965 +2 x23966 +2 x23967 -1 x23947 -1 x23948 -1 x23949 -1 x23950 -1 x23951 -1 x23952 >= 0 ;
+2 x23968 +2 x23969 +2 x23970 -1 x23950 -1 x23951 -1 x23952 -1 x23953 -1 x23954 -1 x23955 >= 0 ;
+2 x23971 +2 x23972 +2 x23973 -1 x23953 -1 x23954 -1 x23955 -1 x23956 -1 x23957 -1 x23958 >= 0 ;
+2 x23974 +2 x23975 +2 x23976 -1 x23959 -1 x23960 -1 x23961 -1 x23962 -1 x23963 -1 x23964 >= 0 ;
+2 x23977 +2 x23978 +2 x23979 -1 x23962 -1 x23963 -1 x23964 -1 x23965 -1 x23966 -1 x23967 >= 0 ;
+2 x23980 +2 x23981 +2 x23982 -1 x23965 -1 x23966 -1 x23967 -1 x23968 -1 x23969 -1 x23970 >= 0 ;
+2 x23983 +2 x23984 +2 x23985 -1 x23968 -1 x23969 -1 x23970 -1 x23971 -1 x23972 -1 x23973 >= 0 ;
+2 x23986 +2 x23987 +2 x23988 -1 x23974 -1 x23975 -1 x23976 -1 x23977 -1 x23978 -1 x23979 >= 0 ;
+2 x23989 +2 x23990 +2 x23991 -1 x23977 -1 x23978 -1 x23979 -1 x23980 -1 x23981 -1 x23982 >= 0 ;
+2 x23992 +2 x23993 +2 x23994 -1 x23980 -1 x23981 -1 x23982 -1 x23983 -1 x23984 -1 x23985 >= 0 ;
+2 x23995 +2 x23996 +2 x23997 -1 x23986 -1 x23987 -1 x23988 -1 x23989 -1 x23990 -1 x23991 >= 0 ;
+2 x23998 +2 x23999 +2 x24000 -1 x23989 -1 x23990 -1 x23991 -1 x23992 -1 x23993 -1 x23994 >= 0 ;
+2 x24001 +2 x24002 +2 x24003 -1 x23995 -1 x23996 -1 x23997 -1 x23998 -1 x23999 -1 x24000 >= 0 ;
-2 x24001 -2 x24002 -2 x24003 >= -3 ;
