* #variable= 20 #constraint= 69
****************************************
* begin normalizer comments
* category= DEC-SMALLINT-LIN
* end normalizer comments
****************************************
+1 x1 +1 x2 +1 x3 +1 x4 = 2 ;
+2 x9 +2 x12 +1 x15 +1 x18 >= 1 ;
+2 x10 +2 x13 +1 x16 +1 x19 >= 1 ;
+2 x11 +2 x14 +1 x17 +1 x20 >= 1 ;
+2 x12 +2 x15 +1 x18 +1 x9 >= 1 ;
+2 x13 +2 x16 +1 x19 +1 x10 >= 1 ;
+2 x14 +2 x17 +1 x20 +1 x11 >= 1 ;
+2 x15 +2 x18 +1 x9 +1 x12 >= 1 ;
+2 x16 +2 x19 +1 x10 +1 x13 >= 1 ;
+2 x17 +2 x20 +1 x11 +1 x14 >= 1 ;
+2 x18 +2 x9 +1 x12 +1 x15 >= 1 ;
+2 x19 +2 x10 +1 x13 +1 x16 >= 1 ;
+2 x20 +2 x11 +1 x14 +1 x17 >= 1 ;
-1 x9 +1 x1 >= 0 ;
-1 x9 +1 x2 >= 0 ;
-1 x10 +1 x1 >= 0 ;
-1 x10 +1 x3 >= 0 ;
-1 x11 +1 x1 >= 0 ;
-1 x11 +1 x4 >= 0 ;
-1 x12 +1 x2 >= 0 ;
-1 x12 +1 x3 >= 0 ;
-1 x13 +1 x2 >= 0 ;
-1 x13 +1 x4 >= 0 ;
-1 x14 +1 x2 >= 0 ;
-1 x14 +1 x1 >= 0 ;
-1 x15 +1 x3 >= 0 ;
-1 x15 +1 x4 >= 0 ;
-1 x16 +1 x3 >= 0 ;
-1 x16 +1 x1 >= 0 ;
-1 x17 +1 x3 >= 0 ;
-1 x17 +1 x2 >= 0 ;
-1 x18 +1 x4 >= 0 ;
-1 x18 +1 x1 >= 0 ;
-1 x19 +1 x4 >= 0 ;
-1 x19 +1 x2 >= 0 ;
-1 x20 +1 x4 >= 0 ;
-1 x20 +1 x3 >= 0 ;
-1 x9 -1 x5 -1 x6 >= -2 ;
-1 x9 +1 x5 +1 x6 >= 0 ;
-1 x10 -1 x5 -1 x7 >= -2 ;
-1 x10 +1 x5 +1 x7 >= 0 ;
-1 x11 -1 x5 -1 x8 >= -2 ;
-1 x11 +1 x5 +1 x8 >= 0 ;
-1 x12 -1 x6 -1 x7 >= -2 ;
-1 x12 +1 x6 +1 x7 >= 0 ;
-1 x13 -1 x6 -1 x8 >= -2 ;
-1 x13 +1 x6 +1 x8 >= 0 ;
-1 x14 -1 x6 -1 x5 >= -2 ;
-1 x14 +1 x6 +1 x5 >= 0 ;
-1 x15 -1 x7 -1 x8 >= -2 ;
-1 x15 +1 x7 +1 x8 >= 0 ;
-1 x16 -1 x7 -1 x5 >= -2 ;
-1 x16 +1 x7 +1 x5 >= 0 ;
-1 x17 -1 x7 -1 x6 >= -2 ;
-1 x17 +1 x7 +1 x6 >= 0 ;
-1 x18 -1 x8 -1 x5 >= -2 ;
-1 x18 +1 x8 +1 x5 >= 0 ;
-1 x19 -1 x8 -1 x6 >= -2 ;
-1 x19 +1 x8 +1 x6 >= 0 ;
-1 x20 -1 x8 -1 x7 >= -2 ;
-1 x20 +1 x8 +1 x7 >= 0 ;
+1 x1 = 1 ;
+1 x5 = 1 ;
+1 x9 = 1 ;
+1 x1 -1 x5 >= 0 ;
+1 x2 -1 x6 >= 0 ;
+1 x3 -1 x7 >= 0 ;
+1 x4 -1 x8 >= 0 ;
-1 x5 -1 x6 -1 x7 -1 x8 >= -1 ;
