* #variable= 459 #constraint= 154
****************************************
* begin normalizer comments
* category= DEC-SMALLINT-LIN
* end normalizer comments
****************************************
+2 x1 +2 x2 +2 x3 >= 3 ;
+2 x4 +2 x5 +2 x6 >= 3 ;
+2 x7 +2 x8 +2 x9 >= 3 ;
+2 x10 +2 x11 +2 x12 >= 3 ;
+2 x13 +2 x14 +2 x15 >= 3 ;
+2 x16 +2 x17 +2 x18 >= 3 ;
+2 x19 +2 x20 +2 x21 >= 3 ;
+2 x22 +2 x23 +2 x24 >= 3 ;
+2 x25 +2 x26 +2 x27 >= 3 ;
+2 x28 +2 x29 +2 x30 >= 3 ;
+2 x31 +2 x32 +2 x33 >= 3 ;
+2 x34 +2 x35 +2 x36 >= 3 ;
+2 x37 +2 x38 +2 x39 >= 3 ;
+2 x40 +2 x41 +2 x42 >= 3 ;
+2 x43 +2 x44 +2 x45 >= 3 ;
+2 x46 +2 x47 +2 x48 >= 3 ;
+2 x49 +2 x50 +2 x51 >= 3 ;
+2 x52 +2 x53 +2 x54 -1 x1 -1 x2 -1 x3 -1 x4 -1 x5 -1 x6 >= 0 ;
+2 x55 +2 x56 +2 x57 -1 x4 -1 x5 -1 x6 -1 x7 -1 x8 -1 x9 >= 0 ;
+2 x58 +2 x59 +2 x60 -1 x7 -1 x8 -1 x9 -1 x10 -1 x11 -1 x12 >= 0 ;
+2 x61 +2 x62 +2 x63 -1 x10 -1 x11 -1 x12 -1 x13 -1 x14 -1 x15 >= 0 ;
+2 x64 +2 x65 +2 x66 -1 x13 -1 x14 -1 x15 -1 x16 -1 x17 -1 x18 >= 0 ;
+2 x67 +2 x68 +2 x69 -1 x16 -1 x17 -1 x18 -1 x19 -1 x20 -1 x21 >= 0 ;
+2 x70 +2 x71 +2 x72 -1 x19 -1 x20 -1 x21 -1 x22 -1 x23 -1 x24 >= 0 ;
+2 x73 +2 x74 +2 x75 -1 x22 -1 x23 -1 x24 -1 x25 -1 x26 -1 x27 >= 0 ;
+2 x76 +2 x77 +2 x78 -1 x25 -1 x26 -1 x27 -1 x28 -1 x29 -1 x30 >= 0 ;
+2 x79 +2 x80 +2 x81 -1 x28 -1 x29 -1 x30 -1 x31 -1 x32 -1 x33 >= 0 ;
+2 x82 +2 x83 +2 x84 -1 x31 -1 x32 -1 x33 -1 x34 -1 x35 -1 x36 >= 0 ;
+2 x85 +2 x86 +2 x87 -1 x34 -1 x35 -1 x36 -1 x37 -1 x38 -1 x39 >= 0 ;
+2 x88 +2 x89 +2 x90 -1 x37 -1 x38 -1 x39 -1 x40 -1 x41 -1 x42 >= 0 ;
+2 x91 +2 x92 +2 x93 -1 x40 -1 x41 -1 x42 -1 x43 -1 x44 -1 x45 >= 0 ;
+2 x94 +2 x95 +2 x96 -1 x43 -1 x44 -1 x45 -1 x46 -1 x47 -1 x48 >= 0 ;
+2 x97 +2 x98 +2 x99 -1 x46 -1 x47 -1 x48 -1 x49 -1 x50 -1 x51 >= 0 ;
+2 x100 +2 x101 +2 x102 -1 x52 -1 x53 -1 x54 -1 x55 -1 x56 -1 x57 >= 0 ;
+2 x103 +2 x104 +2 x105 -1 x55 -1 x56 -1 x57 -1 x58 -1 x59 -1 x60 >= 0 ;
+2 x106 +2 x107 +2 x108 -1 x58 -1 x59 -1 x60 -1 x61 -1 x62 -1 x63 >= 0 ;
+2 x109 +2 x110 +2 x111 -1 x61 -1 x62 -1 x63 -1 x64 -1 x65 -1 x66 >= 0 ;
+2 x112 +2 x113 +2 x114 -1 x64 -1 x65 -1 x66 -1 x67 -1 x68 -1 x69 >= 0 ;
+2 x115 +2 x116 +2 x117 -1 x67 -1 x68 -1 x69 -1 x70 -1 x71 -1 x72 >= 0 ;
+2 x118 +2 x119 +2 x120 -1 x70 -1 x71 -1 x72 -1 x73 -1 x74 -1 x75 >= 0 ;
+2 x121 +2 x122 +2 x123 -1 x73 -1 x74 -1 x75 -1 x76 -1 x77 -1 x78 >= 0 ;
+2 x124 +2 x125 +2 x126 -1 x76 -1 x77 -1 x78 -1 x79 -1 x80 -1 x81 >= 0 ;
+2 x127 +2 x128 +2 x129 -1 x79 -1 x80 -1 x81 -1 x82 -1 x83 -1 x84 >= 0 ;
+2 x130 +2 x131 +2 x132 -1 x82 -1 x83 -1 x84 -1 x85 -1 x86 -1 x87 >= 0 ;
+2 x133 +2 x134 +2 x135 -1 x85 -1 x86 -1 x87 -1 x88 -1 x89 -1 x90 >= 0 ;
+2 x136 +2 x137 +2 x138 -1 x88 -1 x89 -1 x90 -1 x91 -1 x92 -1 x93 >= 0 ;
+2 x139 +2 x140 +2 x141 -1 x91 -1 x92 -1 x93 -1 x94 -1 x95 -1 x96 >= 0 ;
+2 x142 +2 x143 +2 x144 -1 x94 -1 x95 -1 x96 -1 x97 -1 x98 -1 x99 >= 0 ;
+2 x145 +2 x146 +2 x147 -1 x100 -1 x101 -1 x102 -1 x103 -1 x104 -1 x105 >= 0 ;
+2 x148 +2 x149 +2 x150 -1 x103 -1 x104 -1 x105 -1 x106 -1 x107 -1 x108 >= 0 ;
+2 x151 +2 x152 +2 x153 -1 x106 -1 x107 -1 x108 -1 x109 -1 x110 -1 x111 >= 0 ;
+2 x154 +2 x155 +2 x156 -1 x109 -1 x110 -1 x111 -1 x112 -1 x113 -1 x114 >= 0 ;
+2 x157 +2 x158 +2 x159 -1 x112 -1 x113 -1 x114 -1 x115 -1 x116 -1 x117 >= 0 ;
+2 x160 +2 x161 +2 x162 -1 x115 -1 x116 -1 x117 -1 x118 -1 x119 -1 x120 >= 0 ;
+2 x163 +2 x164 +2 x165 -1 x118 -1 x119 -1 x120 -1 x121 -1 x122 -1 x123 >= 0 ;
+2 x166 +2 x167 +2 x168 -1 x121 -1 x122 -1 x123 -1 x124 -1 x125 -1 x126 >= 0 ;
+2 x169 +2 x170 +2 x171 -1 x124 -1 x125 -1 x126 -1 x127 -1 x128 -1 x129 >= 0 ;
+2 x172 +2 x173 +2 x174 -1 x127 -1 x128 -1 x129 -1 x130 -1 x131 -1 x132 >= 0 ;
+2 x175 +2 x176 +2 x177 -1 x130 -1 x131 -1 x132 -1 x133 -1 x134 -1 x135 >= 0 ;
+2 x178 +2 x179 +2 x180 -1 x133 -1 x134 -1 x135 -1 x136 -1 x137 -1 x138 >= 0 ;
+2 x181 +2 x182 +2 x183 -1 x136 -1 x137 -1 x138 -1 x139 -1 x140 -1 x141 >= 0 ;
+2 x184 +2 x185 +2 x186 -1 x139 -1 x140 -1 x141 -1 x142 -1 x143 -1 x144 >= 0 ;
+2 x187 +2 x188 +2 x189 -1 x145 -1 x146 -1 x147 -1 x148 -1 x149 -1 x150 >= 0 ;
+2 x190 +2 x191 +2 x192 -1 x148 -1 x149 -1 x150 -1 x151 -1 x152 -1 x153 >= 0 ;
+2 x193 +2 x194 +2 x195 -1 x151 -1 x152 -1 x153 -1 x154 -1 x155 -1 x156 >= 0 ;
+2 x196 +2 x197 +2 x198 -1 x154 -1 x155 -1 x156 -1 x157 -1 x158 -1 x159 >= 0 ;
+2 x199 +2 x200 +2 x201 -1 x157 -1 x158 -1 x159 -1 x160 -1 x161 -1 x162 >= 0 ;
+2 x202 +2 x203 +2 x204 -1 x160 -1 x161 -1 x162 -1 x163 -1 x164 -1 x165 >= 0 ;
+2 x205 +2 x206 +2 x207 -1 x163 -1 x164 -1 x165 -1 x166 -1 x167 -1 x168 >= 0 ;
+2 x208 +2 x209 +2 x210 -1 x166 -1 x167 -1 x168 -1 x169 -1 x170 -1 x171 >= 0 ;
+2 x211 +2 x212 +2 x213 -1 x169 -1 x170 -1 x171 -1 x172 -1 x173 -1 x174 >= 0 ;
+2 x214 +2 x215 +2 x216 -1 x172 -1 x173 -1 x174 -1 x175 -1 x176 -1 x177 >= 0 ;
+2 x217 +2 x218 +2 x219 -1 x175 -1 x176 -1 x177 -1 x178 -1 x179 -1 x180 >= 0 ;
+2 x220 +2 x221 +2 x222 -1 x178 -1 x179 -1 x180 -1 x181 -1 x182 -1 x183 >= 0 ;
+2 x223 +2 x224 +2 x225 -1 x181 -1 x182 -1 x183 -1 x184 -1 x185 -1 x186 >= 0 ;
+2 x226 +2 x227 +2 x228 -1 x187 -1 x188 -1 x189 -1 x190 -1 x191 -1 x192 >= 0 ;
+2 x229 +2 x230 +2 x231 -1 x190 -1 x191 -1 x192 -1 x193 -1 x194 -1 x195 >= 0 ;
+2 x232 +2 x233 +2 x234 -1 x193 -1 x194 -1 x195 -1 x196 -1 x197 -1 x198 >= 0 ;
+2 x235 +2 x236 +2 x237 -1 x196 -1 x197 -1 x198 -1 x199 -1 x200 -1 x201 >= 0 ;
+2 x238 +2 x239 +2 x240 -1 x199 -1 x200 -1 x201 -1 x202 -1 x203 -1 x204 >= 0 ;
+2 x241 +2 x242 +2 x243 -1 x202 -1 x203 -1 x204 -1 x205 -1 x206 -1 x207 >= 0 ;
+2 x244 +2 x245 +2 x246 -1 x205 -1 x206 -1 x207 -1 x208 -1 x209 -1 x210 >= 0 ;
+2 x247 +2 x248 +2 x249 -1 x208 -1 x209 -1 x210 -1 x211 -1 x212 -1 x213 >= 0 ;
+2 x250 +2 x251 +2 x252 -1 x211 -1 x212 -1 x213 -1 x214 -1 x215 -1 x216 >= 0 ;
+2 x253 +2 x254 +2 x255 -1 x214 -1 x215 -1 x216 -1 x217 -1 x218 -1 x219 >= 0 ;
+2 x256 +2 x257 +2 x258 -1 x217 -1 x218 -1 x219 -1 x220 -1 x221 -1 x222 >= 0 ;
+2 x259 +2 x260 +2 x261 -1 x220 -1 x221 -1 x222 -1 x223 -1 x224 -1 x225 >= 0 ;
+2 x262 +2 x263 +2 x264 -1 x226 -1 x227 -1 x228 -1 x229 -1 x230 -1 x231 >= 0 ;
+2 x265 +2 x266 +2 x267 -1 x229 -1 x230 -1 x231 -1 x232 -1 x233 -1 x234 >= 0 ;
+2 x268 +2 x269 +2 x270 -1 x232 -1 x233 -1 x234 -1 x235 -1 x236 -1 x237 >= 0 ;
+2 x271 +2 x272 +2 x273 -1 x235 -1 x236 -1 x237 -1 x238 -1 x239 -1 x240 >= 0 ;
+2 x274 +2 x275 +2 x276 -1 x238 -1 x239 -1 x240 -1 x241 -1 x242 -1 x243 >= 0 ;
+2 x277 +2 x278 +2 x279 -1 x241 -1 x242 -1 x243 -1 x244 -1 x245 -1 x246 >= 0 ;
+2 x280 +2 x281 +2 x282 -1 x244 -1 x245 -1 x246 -1 x247 -1 x248 -1 x249 >= 0 ;
+2 x283 +2 x284 +2 x285 -1 x247 -1 x248 -1 x249 -1 x250 -1 x251 -1 x252 >= 0 ;
+2 x286 +2 x287 +2 x288 -1 x250 -1 x251 -1 x252 -1 x253 -1 x254 -1 x255 >= 0 ;
+2 x289 +2 x290 +2 x291 -1 x253 -1 x254 -1 x255 -1 x256 -1 x257 -1 x258 >= 0 ;
+2 x292 +2 x293 +2 x294 -1 x256 -1 x257 -1 x258 -1 x259 -1 x260 -1 x261 >= 0 ;
+2 x295 +2 x296 +2 x297 -1 x262 -1 x263 -1 x264 -1 x265 -1 x266 -1 x267 >= 0 ;
+2 x298 +2 x299 +2 x300 -1 x265 -1 x266 -1 x267 -1 x268 -1 x269 -1 x270 >= 0 ;
+2 x301 +2 x302 +2 x303 -1 x268 -1 x269 -1 x270 -1 x271 -1 x272 -1 x273 >= 0 ;
+2 x304 +2 x305 +2 x306 -1 x271 -1 x272 -1 x273 -1 x274 -1 x275 -1 x276 >= 0 ;
+2 x307 +2 x308 +2 x309 -1 x274 -1 x275 -1 x276 -1 x277 -1 x278 -1 x279 >= 0 ;
+2 x310 +2 x311 +2 x312 -1 x277 -1 x278 -1 x279 -1 x280 -1 x281 -1 x282 >= 0 ;
+2 x313 +2 x314 +2 x315 -1 x280 -1 x281 -1 x282 -1 x283 -1 x284 -1 x285 >= 0 ;
+2 x316 +2 x317 +2 x318 -1 x283 -1 x284 -1 x285 -1 x286 -1 x287 -1 x288 >= 0 ;
+2 x319 +2 x320 +2 x321 -1 x286 -1 x287 -1 x288 -1 x289 -1 x290 -1 x291 >= 0 ;
+2 x322 +2 x323 +2 x324 -1 x289 -1 x290 -1 x291 -1 x292 -1 x293 -1 x294 >= 0 ;
+2 x325 +2 x326 +2 x327 -1 x295 -1 x296 -1 x297 -1 x298 -1 x299 -1 x300 >= 0 ;
+2 x328 +2 x329 +2 x330 -1 x298 -1 x299 -1 x300 -1 x301 -1 x302 -1 x303 >= 0 ;
+2 x331 +2 x332 +2 x333 -1 x301 -1 x302 -1 x303 -1 x304 -1 x305 -1 x306 >= 0 ;
+2 x334 +2 x335 +2 x336 -1 x304 -1 x305 -1 x306 -1 x307 -1 x308 -1 x309 >= 0 ;
+2 x337 +2 x338 +2 x339 -1 x307 -1 x308 -1 x309 -1 x310 -1 x311 -1 x312 >= 0 ;
+2 x340 +2 x341 +2 x342 -1 x310 -1 x311 -1 x312 -1 x313 -1 x314 -1 x315 >= 0 ;
+2 x343 +2 x344 +2 x345 -1 x313 -1 x314 -1 x315 -1 x316 -1 x317 -1 x318 >= 0 ;
+2 x346 +2 x347 +2 x348 -1 x316 -1 x317 -1 x318 -1 x319 -1 x320 -1 x321 >= 0 ;
+2 x349 +2 x350 +2 x351 -1 x319 -1 x320 -1 x321 -1 x322 -1 x323 -1 x324 >= 0 ;
+2 x352 +2 x353 +2 x354 -1 x325 -1 x326 -1 x327 -1 x328 -1 x329 -1 x330 >= 0 ;
+2 x355 +2 x356 +2 x357 -1 x328 -1 x329 -1 x330 -1 x331 -1 x332 -1 x333 >= 0 ;
+2 x358 +2 x359 +2 x360 -1 x331 -1 x332 -1 x333 -1 x334 -1 x335 -1 x336 >= 0 ;
+2 x361 +2 x362 +2 x363 -1 x334 -1 x335 -1 x336 -1 x337 -1 x338 -1 x339 >= 0 ;
+2 x364 +2 x365 +2 x366 -1 x337 -1 x338 -1 x339 -1 x340 -1 x341 -1 x342 >= 0 ;
+2 x367 +2 x368 +2 x369 -1 x340 -1 x341 -1 x342 -1 x343 -1 x344 -1 x345 >= 0 ;
+2 x370 +2 x371 +2 x372 -1 x343 -1 x344 -1 x345 -1 x346 -1 x347 -1 x348 >= 0 ;
+2 x373 +2 x374 +2 x375 -1 x346 -1 x347 -1 x348 -1 x349 -1 x350 -1 x351 >= 0 ;
+2 x376 +2 x377 +2 x378 -1 x352 -1 x353 -1 x354 -1 x355 -1 x356 -1 x357 >= 0 ;
+2 x379 +2 x380 +2 x381 -1 x355 -1 x356 -1 x357 -1 x358 -1 x359 -1 x360 >= 0 ;
+2 x382 +2 x383 +2 x384 -1 x358 -1 x359 -1 x360 -1 x361 -1 x362 -1 x363 >= 0 ;
+2 x385 +2 x386 +2 x387 -1 x361 -1 x362 -1 x363 -1 x364 -1 x365 -1 x366 >= 0 ;
+2 x388 +2 x389 +2 x390 -1 x364 -1 x365 -1 x366 -1 x367 -1 x368 -1 x369 >= 0 ;
+2 x391 +2 x392 +2 x393 -1 x367 -1 x368 -1 x369 -1 x370 -1 x371 -1 x372 >= 0 ;
+2 x394 +2 x395 +2 x396 -1 x370 -1 x371 -1 x372 -1 x373 -1 x374 -1 x375 >= 0 ;
+2 x397 +2 x398 +2 x399 -1 x376 -1 x377 -1 x378 -1 x379 -1 x380 -1 x381 >= 0 ;
+2 x400 +2 x401 +2 x402 -1 x379 -1 x380 -1 x381 -1 x382 -1 x383 -1 x384 >= 0 ;
+2 x403 +2 x404 +2 x405 -1 x382 -1 x383 -1 x384 -1 x385 -1 x386 -1 x387 >= 0 ;
+2 x406 +2 x407 +2 x408 -1 x385 -1 x386 -1 x387 -1 x388 -1 x389 -1 x390 >= 0 ;
+2 x409 +2 x410 +2 x411 -1 x388 -1 x389 -1 x390 -1 x391 -1 x392 -1 x393 >= 0 ;
+2 x412 +2 x413 +2 x414 -1 x391 -1 x392 -1 x393 -1 x394 -1 x395 -1 x396 >= 0 ;
+2 x415 +2 x416 +2 x417 -1 x397 -1 x398 -1 x399 -1 x400 -1 x401 -1 x402 >= 0 ;
+2 x418 +2 x419 +2 x420 -1 x400 -1 x401 -1 x402 -1 x403 -1 x404 -1 x405 >= 0 ;
+2 x421 +2 x422 +2 x423 -1 x403 -1 x404 -1 x405 -1 x406 -1 x407 -1 x408 >= 0 ;
+2 x424 +2 x425 +2 x426 -1 x406 -1 x407 -1 x408 -1 x409 -1 x410 -1 x411 >= 0 ;
+2 x427 +2 x428 +2 x429 -1 x409 -1 x410 -1 x411 -1 x412 -1 x413 -1 x414 >= 0 ;
+2 x430 +2 x431 +2 x432 -1 x415 -1 x416 -1 x417 -1 x418 -1 x419 -1 x420 >= 0 ;
+2 x433 +2 x434 +2 x435 -1 x418 -1 x419 -1 x420 -1 x421 -1 x422 -1 x423 >= 0 ;
+2 x436 +2 x437 +2 x438 -1 x421 -1 x422 -1 x423 -1 x424 -1 x425 -1 x426 >= 0 ;
+2 x439 +2 x440 +2 x441 -1 x424 -1 x425 -1 x426 -1 x427 -1 x428 -1 x429 >= 0 ;
+2 x442 +2 x443 +2 x444 -1 x430 -1 x431 -1 x432 -1 x433 -1 x434 -1 x435 >= 0 ;
+2 x445 +2 x446 +2 x447 -1 x433 -1 x434 -1 x435 -1 x436 -1 x437 -1 x438 >= 0 ;
+2 x448 +2 x449 +2 x450 -1 x436 -1 x437 -1 x438 -1 x439 -1 x440 -1 x441 >= 0 ;
+2 x451 +2 x452 +2 x453 -1 x442 -1 x443 -1 x444 -1 x445 -1 x446 -1 x447 >= 0 ;
+2 x454 +2 x455 +2 x456 -1 x445 -1 x446 -1 x447 -1 x448 -1 x449 -1 x450 >= 0 ;
+2 x457 +2 x458 +2 x459 -1 x451 -1 x452 -1 x453 -1 x454 -1 x455 -1 x456 >= 0 ;
-2 x457 -2 x458 -2 x459 >= -3 ;
