* #variable= 813 #constraint= 272
****************************************
* begin normalizer comments
* category= DEC-SMALLINT-LIN
* end normalizer comments
****************************************
+2 x1 +2 x2 +2 x3 >= 3 ;
+2 x4 +2 x5 +2 x6 >= 3 ;
+2 x7 +2 x8 +2 x9 >= 3 ;
+2 x10 +2 x11 +2 x12 >= 3 ;
+2 x13 +2 x14 +2 x15 >= 3 ;
+2 x16 +2 x17 +2 x18 >= 3 ;
+2 x19 +2 x20 +2 x21 >= 3 ;
+2 x22 +2 x23 +2 x24 >= 3 ;
+2 x25 +2 x26 +2 x27 >= 3 ;
+2 x28 +2 x29 +2 x30 >= 3 ;
+2 x31 +2 x32 +2 x33 >= 3 ;
+2 x34 +2 x35 +2 x36 >= 3 ;
+2 x37 +2 x38 +2 x39 >= 3 ;
+2 x40 +2 x41 +2 x42 >= 3 ;
+2 x43 +2 x44 +2 x45 >= 3 ;
+2 x46 +2 x47 +2 x48 >= 3 ;
+2 x49 +2 x50 +2 x51 -1 x1 -1 x2 -1 x3 -1 x46 -1 x47 -1 x48 >= 0 ;
+2 x52 +2 x53 +2 x54 -1 x1 -1 x2 -1 x3 -1 x4 -1 x5 -1 x6 >= 0 ;
+2 x55 +2 x56 +2 x57 -1 x4 -1 x5 -1 x6 -1 x7 -1 x8 -1 x9 >= 0 ;
+2 x58 +2 x59 +2 x60 -1 x7 -1 x8 -1 x9 -1 x10 -1 x11 -1 x12 >= 0 ;
+2 x61 +2 x62 +2 x63 -1 x10 -1 x11 -1 x12 -1 x13 -1 x14 -1 x15 >= 0 ;
+2 x64 +2 x65 +2 x66 -1 x13 -1 x14 -1 x15 -1 x16 -1 x17 -1 x18 >= 0 ;
+2 x67 +2 x68 +2 x69 -1 x16 -1 x17 -1 x18 -1 x19 -1 x20 -1 x21 >= 0 ;
+2 x70 +2 x71 +2 x72 -1 x19 -1 x20 -1 x21 -1 x22 -1 x23 -1 x24 >= 0 ;
+2 x73 +2 x74 +2 x75 -1 x22 -1 x23 -1 x24 -1 x25 -1 x26 -1 x27 >= 0 ;
+2 x76 +2 x77 +2 x78 -1 x25 -1 x26 -1 x27 -1 x28 -1 x29 -1 x30 >= 0 ;
+2 x79 +2 x80 +2 x81 -1 x28 -1 x29 -1 x30 -1 x31 -1 x32 -1 x33 >= 0 ;
+2 x82 +2 x83 +2 x84 -1 x31 -1 x32 -1 x33 -1 x34 -1 x35 -1 x36 >= 0 ;
+2 x85 +2 x86 +2 x87 -1 x34 -1 x35 -1 x36 -1 x37 -1 x38 -1 x39 >= 0 ;
+2 x88 +2 x89 +2 x90 -1 x37 -1 x38 -1 x39 -1 x40 -1 x41 -1 x42 >= 0 ;
+2 x91 +2 x92 +2 x93 -1 x40 -1 x41 -1 x42 -1 x43 -1 x44 -1 x45 >= 0 ;
+2 x94 +2 x95 +2 x96 -1 x43 -1 x44 -1 x45 -1 x46 -1 x47 -1 x48 >= 0 ;
+2 x97 +2 x98 +2 x99 -1 x49 -1 x50 -1 x51 -1 x94 -1 x95 -1 x96 >= 0 ;
+2 x100 +2 x101 +2 x102 -1 x49 -1 x50 -1 x51 -1 x52 -1 x53 -1 x54 >= 0 ;
+2 x103 +2 x104 +2 x105 -1 x52 -1 x53 -1 x54 -1 x55 -1 x56 -1 x57 >= 0 ;
+2 x106 +2 x107 +2 x108 -1 x55 -1 x56 -1 x57 -1 x58 -1 x59 -1 x60 >= 0 ;
+2 x109 +2 x110 +2 x111 -1 x58 -1 x59 -1 x60 -1 x61 -1 x62 -1 x63 >= 0 ;
+2 x112 +2 x113 +2 x114 -1 x61 -1 x62 -1 x63 -1 x64 -1 x65 -1 x66 >= 0 ;
+2 x115 +2 x116 +2 x117 -1 x64 -1 x65 -1 x66 -1 x67 -1 x68 -1 x69 >= 0 ;
+2 x118 +2 x119 +2 x120 -1 x67 -1 x68 -1 x69 -1 x70 -1 x71 -1 x72 >= 0 ;
+2 x121 +2 x122 +2 x123 -1 x70 -1 x71 -1 x72 -1 x73 -1 x74 -1 x75 >= 0 ;
+2 x124 +2 x125 +2 x126 -1 x73 -1 x74 -1 x75 -1 x76 -1 x77 -1 x78 >= 0 ;
+2 x127 +2 x128 +2 x129 -1 x76 -1 x77 -1 x78 -1 x79 -1 x80 -1 x81 >= 0 ;
+2 x130 +2 x131 +2 x132 -1 x79 -1 x80 -1 x81 -1 x82 -1 x83 -1 x84 >= 0 ;
+2 x133 +2 x134 +2 x135 -1 x82 -1 x83 -1 x84 -1 x85 -1 x86 -1 x87 >= 0 ;
+2 x136 +2 x137 +2 x138 -1 x85 -1 x86 -1 x87 -1 x88 -1 x89 -1 x90 >= 0 ;
+2 x139 +2 x140 +2 x141 -1 x88 -1 x89 -1 x90 -1 x91 -1 x92 -1 x93 >= 0 ;
+2 x142 +2 x143 +2 x144 -1 x91 -1 x92 -1 x93 -1 x94 -1 x95 -1 x96 >= 0 ;
+2 x145 +2 x146 +2 x147 -1 x97 -1 x98 -1 x99 -1 x142 -1 x143 -1 x144 >= 0 ;
+2 x148 +2 x149 +2 x150 -1 x97 -1 x98 -1 x99 -1 x100 -1 x101 -1 x102 >= 0 ;
+2 x151 +2 x152 +2 x153 -1 x100 -1 x101 -1 x102 -1 x103 -1 x104 -1 x105 >= 0 ;
+2 x154 +2 x155 +2 x156 -1 x103 -1 x104 -1 x105 -1 x106 -1 x107 -1 x108 >= 0 ;
+2 x157 +2 x158 +2 x159 -1 x106 -1 x107 -1 x108 -1 x109 -1 x110 -1 x111 >= 0 ;
+2 x160 +2 x161 +2 x162 -1 x109 -1 x110 -1 x111 -1 x112 -1 x113 -1 x114 >= 0 ;
+2 x163 +2 x164 +2 x165 -1 x112 -1 x113 -1 x114 -1 x115 -1 x116 -1 x117 >= 0 ;
+2 x166 +2 x167 +2 x168 -1 x115 -1 x116 -1 x117 -1 x118 -1 x119 -1 x120 >= 0 ;
+2 x169 +2 x170 +2 x171 -1 x118 -1 x119 -1 x120 -1 x121 -1 x122 -1 x123 >= 0 ;
+2 x172 +2 x173 +2 x174 -1 x121 -1 x122 -1 x123 -1 x124 -1 x125 -1 x126 >= 0 ;
+2 x175 +2 x176 +2 x177 -1 x124 -1 x125 -1 x126 -1 x127 -1 x128 -1 x129 >= 0 ;
+2 x178 +2 x179 +2 x180 -1 x127 -1 x128 -1 x129 -1 x130 -1 x131 -1 x132 >= 0 ;
+2 x181 +2 x182 +2 x183 -1 x130 -1 x131 -1 x132 -1 x133 -1 x134 -1 x135 >= 0 ;
+2 x184 +2 x185 +2 x186 -1 x133 -1 x134 -1 x135 -1 x136 -1 x137 -1 x138 >= 0 ;
+2 x187 +2 x188 +2 x189 -1 x136 -1 x137 -1 x138 -1 x139 -1 x140 -1 x141 >= 0 ;
+2 x190 +2 x191 +2 x192 -1 x139 -1 x140 -1 x141 -1 x142 -1 x143 -1 x144 >= 0 ;
+2 x193 +2 x194 +2 x195 -1 x145 -1 x146 -1 x147 -1 x190 -1 x191 -1 x192 >= 0 ;
+2 x196 +2 x197 +2 x198 -1 x145 -1 x146 -1 x147 -1 x148 -1 x149 -1 x150 >= 0 ;
+2 x199 +2 x200 +2 x201 -1 x148 -1 x149 -1 x150 -1 x151 -1 x152 -1 x153 >= 0 ;
+2 x202 +2 x203 +2 x204 -1 x151 -1 x152 -1 x153 -1 x154 -1 x155 -1 x156 >= 0 ;
+2 x205 +2 x206 +2 x207 -1 x154 -1 x155 -1 x156 -1 x157 -1 x158 -1 x159 >= 0 ;
+2 x208 +2 x209 +2 x210 -1 x157 -1 x158 -1 x159 -1 x160 -1 x161 -1 x162 >= 0 ;
+2 x211 +2 x212 +2 x213 -1 x160 -1 x161 -1 x162 -1 x163 -1 x164 -1 x165 >= 0 ;
+2 x214 +2 x215 +2 x216 -1 x163 -1 x164 -1 x165 -1 x166 -1 x167 -1 x168 >= 0 ;
+2 x217 +2 x218 +2 x219 -1 x166 -1 x167 -1 x168 -1 x169 -1 x170 -1 x171 >= 0 ;
+2 x220 +2 x221 +2 x222 -1 x169 -1 x170 -1 x171 -1 x172 -1 x173 -1 x174 >= 0 ;
+2 x223 +2 x224 +2 x225 -1 x172 -1 x173 -1 x174 -1 x175 -1 x176 -1 x177 >= 0 ;
+2 x226 +2 x227 +2 x228 -1 x175 -1 x176 -1 x177 -1 x178 -1 x179 -1 x180 >= 0 ;
+2 x229 +2 x230 +2 x231 -1 x178 -1 x179 -1 x180 -1 x181 -1 x182 -1 x183 >= 0 ;
+2 x232 +2 x233 +2 x234 -1 x181 -1 x182 -1 x183 -1 x184 -1 x185 -1 x186 >= 0 ;
+2 x235 +2 x236 +2 x237 -1 x184 -1 x185 -1 x186 -1 x187 -1 x188 -1 x189 >= 0 ;
+2 x238 +2 x239 +2 x240 -1 x187 -1 x188 -1 x189 -1 x190 -1 x191 -1 x192 >= 0 ;
+2 x241 +2 x242 +2 x243 -1 x193 -1 x194 -1 x195 -1 x238 -1 x239 -1 x240 >= 0 ;
+2 x244 +2 x245 +2 x246 -1 x193 -1 x194 -1 x195 -1 x196 -1 x197 -1 x198 >= 0 ;
+2 x247 +2 x248 +2 x249 -1 x196 -1 x197 -1 x198 -1 x199 -1 x200 -1 x201 >= 0 ;
+2 x250 +2 x251 +2 x252 -1 x199 -1 x200 -1 x201 -1 x202 -1 x203 -1 x204 >= 0 ;
+2 x253 +2 x254 +2 x255 -1 x202 -1 x203 -1 x204 -1 x205 -1 x206 -1 x207 >= 0 ;
+2 x256 +2 x257 +2 x258 -1 x205 -1 x206 -1 x207 -1 x208 -1 x209 -1 x210 >= 0 ;
+2 x259 +2 x260 +2 x261 -1 x208 -1 x209 -1 x210 -1 x211 -1 x212 -1 x213 >= 0 ;
+2 x262 +2 x263 +2 x264 -1 x211 -1 x212 -1 x213 -1 x214 -1 x215 -1 x216 >= 0 ;
+2 x265 +2 x266 +2 x267 -1 x214 -1 x215 -1 x216 -1 x217 -1 x218 -1 x219 >= 0 ;
+2 x268 +2 x269 +2 x270 -1 x217 -1 x218 -1 x219 -1 x220 -1 x221 -1 x222 >= 0 ;
+2 x271 +2 x272 +2 x273 -1 x220 -1 x221 -1 x222 -1 x223 -1 x224 -1 x225 >= 0 ;
+2 x274 +2 x275 +2 x276 -1 x223 -1 x224 -1 x225 -1 x226 -1 x227 -1 x228 >= 0 ;
+2 x277 +2 x278 +2 x279 -1 x226 -1 x227 -1 x228 -1 x229 -1 x230 -1 x231 >= 0 ;
+2 x280 +2 x281 +2 x282 -1 x229 -1 x230 -1 x231 -1 x232 -1 x233 -1 x234 >= 0 ;
+2 x283 +2 x284 +2 x285 -1 x232 -1 x233 -1 x234 -1 x235 -1 x236 -1 x237 >= 0 ;
+2 x286 +2 x287 +2 x288 -1 x235 -1 x236 -1 x237 -1 x238 -1 x239 -1 x240 >= 0 ;
+2 x289 +2 x290 +2 x291 -1 x241 -1 x242 -1 x243 -1 x286 -1 x287 -1 x288 >= 0 ;
+2 x292 +2 x293 +2 x294 -1 x241 -1 x242 -1 x243 -1 x244 -1 x245 -1 x246 >= 0 ;
+2 x295 +2 x296 +2 x297 -1 x244 -1 x245 -1 x246 -1 x247 -1 x248 -1 x249 >= 0 ;
+2 x298 +2 x299 +2 x300 -1 x247 -1 x248 -1 x249 -1 x250 -1 x251 -1 x252 >= 0 ;
+2 x301 +2 x302 +2 x303 -1 x250 -1 x251 -1 x252 -1 x253 -1 x254 -1 x255 >= 0 ;
+2 x304 +2 x305 +2 x306 -1 x253 -1 x254 -1 x255 -1 x256 -1 x257 -1 x258 >= 0 ;
+2 x307 +2 x308 +2 x309 -1 x256 -1 x257 -1 x258 -1 x259 -1 x260 -1 x261 >= 0 ;
+2 x310 +2 x311 +2 x312 -1 x259 -1 x260 -1 x261 -1 x262 -1 x263 -1 x264 >= 0 ;
+2 x313 +2 x314 +2 x315 -1 x262 -1 x263 -1 x264 -1 x265 -1 x266 -1 x267 >= 0 ;
+2 x316 +2 x317 +2 x318 -1 x265 -1 x266 -1 x267 -1 x268 -1 x269 -1 x270 >= 0 ;
+2 x319 +2 x320 +2 x321 -1 x268 -1 x269 -1 x270 -1 x271 -1 x272 -1 x273 >= 0 ;
+2 x322 +2 x323 +2 x324 -1 x271 -1 x272 -1 x273 -1 x274 -1 x275 -1 x276 >= 0 ;
+2 x325 +2 x326 +2 x327 -1 x274 -1 x275 -1 x276 -1 x277 -1 x278 -1 x279 >= 0 ;
+2 x328 +2 x329 +2 x330 -1 x277 -1 x278 -1 x279 -1 x280 -1 x281 -1 x282 >= 0 ;
+2 x331 +2 x332 +2 x333 -1 x280 -1 x281 -1 x282 -1 x283 -1 x284 -1 x285 >= 0 ;
+2 x334 +2 x335 +2 x336 -1 x283 -1 x284 -1 x285 -1 x286 -1 x287 -1 x288 >= 0 ;
+2 x337 +2 x338 +2 x339 -1 x289 -1 x290 -1 x291 -1 x334 -1 x335 -1 x336 >= 0 ;
+2 x340 +2 x341 +2 x342 -1 x289 -1 x290 -1 x291 -1 x292 -1 x293 -1 x294 >= 0 ;
+2 x343 +2 x344 +2 x345 -1 x292 -1 x293 -1 x294 -1 x295 -1 x296 -1 x297 >= 0 ;
+2 x346 +2 x347 +2 x348 -1 x295 -1 x296 -1 x297 -1 x298 -1 x299 -1 x300 >= 0 ;
+2 x349 +2 x350 +2 x351 -1 x298 -1 x299 -1 x300 -1 x301 -1 x302 -1 x303 >= 0 ;
+2 x352 +2 x353 +2 x354 -1 x301 -1 x302 -1 x303 -1 x304 -1 x305 -1 x306 >= 0 ;
+2 x355 +2 x356 +2 x357 -1 x304 -1 x305 -1 x306 -1 x307 -1 x308 -1 x309 >= 0 ;
+2 x358 +2 x359 +2 x360 -1 x307 -1 x308 -1 x309 -1 x310 -1 x311 -1 x312 >= 0 ;
+2 x361 +2 x362 +2 x363 -1 x310 -1 x311 -1 x312 -1 x313 -1 x314 -1 x315 >= 0 ;
+2 x364 +2 x365 +2 x366 -1 x313 -1 x314 -1 x315 -1 x316 -1 x317 -1 x318 >= 0 ;
+2 x367 +2 x368 +2 x369 -1 x316 -1 x317 -1 x318 -1 x319 -1 x320 -1 x321 >= 0 ;
+2 x370 +2 x371 +2 x372 -1 x319 -1 x320 -1 x321 -1 x322 -1 x323 -1 x324 >= 0 ;
+2 x373 +2 x374 +2 x375 -1 x322 -1 x323 -1 x324 -1 x325 -1 x326 -1 x327 >= 0 ;
+2 x376 +2 x377 +2 x378 -1 x325 -1 x326 -1 x327 -1 x328 -1 x329 -1 x330 >= 0 ;
+2 x379 +2 x380 +2 x381 -1 x328 -1 x329 -1 x330 -1 x331 -1 x332 -1 x333 >= 0 ;
+2 x382 +2 x383 +2 x384 -1 x331 -1 x332 -1 x333 -1 x334 -1 x335 -1 x336 >= 0 ;
+2 x385 +2 x386 +2 x387 -1 x337 -1 x338 -1 x339 -1 x382 -1 x383 -1 x384 >= 0 ;
+2 x388 +2 x389 +2 x390 -1 x337 -1 x338 -1 x339 -1 x340 -1 x341 -1 x342 >= 0 ;
+2 x391 +2 x392 +2 x393 -1 x340 -1 x341 -1 x342 -1 x343 -1 x344 -1 x345 >= 0 ;
+2 x394 +2 x395 +2 x396 -1 x343 -1 x344 -1 x345 -1 x346 -1 x347 -1 x348 >= 0 ;
+2 x397 +2 x398 +2 x399 -1 x346 -1 x347 -1 x348 -1 x349 -1 x350 -1 x351 >= 0 ;
+2 x400 +2 x401 +2 x402 -1 x349 -1 x350 -1 x351 -1 x352 -1 x353 -1 x354 >= 0 ;
+2 x403 +2 x404 +2 x405 -1 x352 -1 x353 -1 x354 -1 x355 -1 x356 -1 x357 >= 0 ;
+2 x406 +2 x407 +2 x408 -1 x355 -1 x356 -1 x357 -1 x358 -1 x359 -1 x360 >= 0 ;
+2 x409 +2 x410 +2 x411 -1 x358 -1 x359 -1 x360 -1 x361 -1 x362 -1 x363 >= 0 ;
+2 x412 +2 x413 +2 x414 -1 x361 -1 x362 -1 x363 -1 x364 -1 x365 -1 x366 >= 0 ;
+2 x415 +2 x416 +2 x417 -1 x364 -1 x365 -1 x366 -1 x367 -1 x368 -1 x369 >= 0 ;
+2 x418 +2 x419 +2 x420 -1 x367 -1 x368 -1 x369 -1 x370 -1 x371 -1 x372 >= 0 ;
+2 x421 +2 x422 +2 x423 -1 x370 -1 x371 -1 x372 -1 x373 -1 x374 -1 x375 >= 0 ;
+2 x424 +2 x425 +2 x426 -1 x373 -1 x374 -1 x375 -1 x376 -1 x377 -1 x378 >= 0 ;
+2 x427 +2 x428 +2 x429 -1 x376 -1 x377 -1 x378 -1 x379 -1 x380 -1 x381 >= 0 ;
+2 x430 +2 x431 +2 x432 -1 x379 -1 x380 -1 x381 -1 x382 -1 x383 -1 x384 >= 0 ;
+2 x433 +2 x434 +2 x435 -1 x385 -1 x386 -1 x387 -1 x430 -1 x431 -1 x432 >= 0 ;
+2 x436 +2 x437 +2 x438 -1 x385 -1 x386 -1 x387 -1 x388 -1 x389 -1 x390 >= 0 ;
+2 x439 +2 x440 +2 x441 -1 x388 -1 x389 -1 x390 -1 x391 -1 x392 -1 x393 >= 0 ;
+2 x442 +2 x443 +2 x444 -1 x391 -1 x392 -1 x393 -1 x394 -1 x395 -1 x396 >= 0 ;
+2 x445 +2 x446 +2 x447 -1 x394 -1 x395 -1 x396 -1 x397 -1 x398 -1 x399 >= 0 ;
+2 x448 +2 x449 +2 x450 -1 x397 -1 x398 -1 x399 -1 x400 -1 x401 -1 x402 >= 0 ;
+2 x451 +2 x452 +2 x453 -1 x400 -1 x401 -1 x402 -1 x403 -1 x404 -1 x405 >= 0 ;
+2 x454 +2 x455 +2 x456 -1 x403 -1 x404 -1 x405 -1 x406 -1 x407 -1 x408 >= 0 ;
+2 x457 +2 x458 +2 x459 -1 x406 -1 x407 -1 x408 -1 x409 -1 x410 -1 x411 >= 0 ;
+2 x460 +2 x461 +2 x462 -1 x409 -1 x410 -1 x411 -1 x412 -1 x413 -1 x414 >= 0 ;
+2 x463 +2 x464 +2 x465 -1 x412 -1 x413 -1 x414 -1 x415 -1 x416 -1 x417 >= 0 ;
+2 x466 +2 x467 +2 x468 -1 x415 -1 x416 -1 x417 -1 x418 -1 x419 -1 x420 >= 0 ;
+2 x469 +2 x470 +2 x471 -1 x418 -1 x419 -1 x420 -1 x421 -1 x422 -1 x423 >= 0 ;
+2 x472 +2 x473 +2 x474 -1 x421 -1 x422 -1 x423 -1 x424 -1 x425 -1 x426 >= 0 ;
+2 x475 +2 x476 +2 x477 -1 x424 -1 x425 -1 x426 -1 x427 -1 x428 -1 x429 >= 0 ;
+2 x478 +2 x479 +2 x480 -1 x427 -1 x428 -1 x429 -1 x430 -1 x431 -1 x432 >= 0 ;
+2 x481 +2 x482 +2 x483 -1 x433 -1 x434 -1 x435 -1 x478 -1 x479 -1 x480 >= 0 ;
+2 x484 +2 x485 +2 x486 -1 x433 -1 x434 -1 x435 -1 x436 -1 x437 -1 x438 >= 0 ;
+2 x487 +2 x488 +2 x489 -1 x436 -1 x437 -1 x438 -1 x439 -1 x440 -1 x441 >= 0 ;
+2 x490 +2 x491 +2 x492 -1 x439 -1 x440 -1 x441 -1 x442 -1 x443 -1 x444 >= 0 ;
+2 x493 +2 x494 +2 x495 -1 x442 -1 x443 -1 x444 -1 x445 -1 x446 -1 x447 >= 0 ;
+2 x496 +2 x497 +2 x498 -1 x445 -1 x446 -1 x447 -1 x448 -1 x449 -1 x450 >= 0 ;
+2 x499 +2 x500 +2 x501 -1 x448 -1 x449 -1 x450 -1 x451 -1 x452 -1 x453 >= 0 ;
+2 x502 +2 x503 +2 x504 -1 x451 -1 x452 -1 x453 -1 x454 -1 x455 -1 x456 >= 0 ;
+2 x505 +2 x506 +2 x507 -1 x454 -1 x455 -1 x456 -1 x457 -1 x458 -1 x459 >= 0 ;
+2 x508 +2 x509 +2 x510 -1 x457 -1 x458 -1 x459 -1 x460 -1 x461 -1 x462 >= 0 ;
+2 x511 +2 x512 +2 x513 -1 x460 -1 x461 -1 x462 -1 x463 -1 x464 -1 x465 >= 0 ;
+2 x514 +2 x515 +2 x516 -1 x463 -1 x464 -1 x465 -1 x466 -1 x467 -1 x468 >= 0 ;
+2 x517 +2 x518 +2 x519 -1 x466 -1 x467 -1 x468 -1 x469 -1 x470 -1 x471 >= 0 ;
+2 x520 +2 x521 +2 x522 -1 x469 -1 x470 -1 x471 -1 x472 -1 x473 -1 x474 >= 0 ;
+2 x523 +2 x524 +2 x525 -1 x472 -1 x473 -1 x474 -1 x475 -1 x476 -1 x477 >= 0 ;
+2 x526 +2 x527 +2 x528 -1 x475 -1 x476 -1 x477 -1 x478 -1 x479 -1 x480 >= 0 ;
+2 x529 +2 x530 +2 x531 -1 x481 -1 x482 -1 x483 -1 x526 -1 x527 -1 x528 >= 0 ;
+2 x532 +2 x533 +2 x534 -1 x481 -1 x482 -1 x483 -1 x484 -1 x485 -1 x486 >= 0 ;
+2 x535 +2 x536 +2 x537 -1 x484 -1 x485 -1 x486 -1 x487 -1 x488 -1 x489 >= 0 ;
+2 x538 +2 x539 +2 x540 -1 x487 -1 x488 -1 x489 -1 x490 -1 x491 -1 x492 >= 0 ;
+2 x541 +2 x542 +2 x543 -1 x490 -1 x491 -1 x492 -1 x493 -1 x494 -1 x495 >= 0 ;
+2 x544 +2 x545 +2 x546 -1 x493 -1 x494 -1 x495 -1 x496 -1 x497 -1 x498 >= 0 ;
+2 x547 +2 x548 +2 x549 -1 x496 -1 x497 -1 x498 -1 x499 -1 x500 -1 x501 >= 0 ;
+2 x550 +2 x551 +2 x552 -1 x499 -1 x500 -1 x501 -1 x502 -1 x503 -1 x504 >= 0 ;
+2 x553 +2 x554 +2 x555 -1 x502 -1 x503 -1 x504 -1 x505 -1 x506 -1 x507 >= 0 ;
+2 x556 +2 x557 +2 x558 -1 x505 -1 x506 -1 x507 -1 x508 -1 x509 -1 x510 >= 0 ;
+2 x559 +2 x560 +2 x561 -1 x508 -1 x509 -1 x510 -1 x511 -1 x512 -1 x513 >= 0 ;
+2 x562 +2 x563 +2 x564 -1 x511 -1 x512 -1 x513 -1 x514 -1 x515 -1 x516 >= 0 ;
+2 x565 +2 x566 +2 x567 -1 x514 -1 x515 -1 x516 -1 x517 -1 x518 -1 x519 >= 0 ;
+2 x568 +2 x569 +2 x570 -1 x517 -1 x518 -1 x519 -1 x520 -1 x521 -1 x522 >= 0 ;
+2 x571 +2 x572 +2 x573 -1 x520 -1 x521 -1 x522 -1 x523 -1 x524 -1 x525 >= 0 ;
+2 x574 +2 x575 +2 x576 -1 x523 -1 x524 -1 x525 -1 x526 -1 x527 -1 x528 >= 0 ;
+2 x577 +2 x578 +2 x579 -1 x529 -1 x530 -1 x531 -1 x574 -1 x575 -1 x576 >= 0 ;
+2 x580 +2 x581 +2 x582 -1 x529 -1 x530 -1 x531 -1 x532 -1 x533 -1 x534 >= 0 ;
+2 x583 +2 x584 +2 x585 -1 x532 -1 x533 -1 x534 -1 x535 -1 x536 -1 x537 >= 0 ;
+2 x586 +2 x587 +2 x588 -1 x535 -1 x536 -1 x537 -1 x538 -1 x539 -1 x540 >= 0 ;
+2 x589 +2 x590 +2 x591 -1 x538 -1 x539 -1 x540 -1 x541 -1 x542 -1 x543 >= 0 ;
+2 x592 +2 x593 +2 x594 -1 x541 -1 x542 -1 x543 -1 x544 -1 x545 -1 x546 >= 0 ;
+2 x595 +2 x596 +2 x597 -1 x544 -1 x545 -1 x546 -1 x547 -1 x548 -1 x549 >= 0 ;
+2 x598 +2 x599 +2 x600 -1 x547 -1 x548 -1 x549 -1 x550 -1 x551 -1 x552 >= 0 ;
+2 x601 +2 x602 +2 x603 -1 x550 -1 x551 -1 x552 -1 x553 -1 x554 -1 x555 >= 0 ;
+2 x604 +2 x605 +2 x606 -1 x553 -1 x554 -1 x555 -1 x556 -1 x557 -1 x558 >= 0 ;
+2 x607 +2 x608 +2 x609 -1 x556 -1 x557 -1 x558 -1 x559 -1 x560 -1 x561 >= 0 ;
+2 x610 +2 x611 +2 x612 -1 x559 -1 x560 -1 x561 -1 x562 -1 x563 -1 x564 >= 0 ;
+2 x613 +2 x614 +2 x615 -1 x562 -1 x563 -1 x564 -1 x565 -1 x566 -1 x567 >= 0 ;
+2 x616 +2 x617 +2 x618 -1 x565 -1 x566 -1 x567 -1 x568 -1 x569 -1 x570 >= 0 ;
+2 x619 +2 x620 +2 x621 -1 x568 -1 x569 -1 x570 -1 x571 -1 x572 -1 x573 >= 0 ;
+2 x622 +2 x623 +2 x624 -1 x571 -1 x572 -1 x573 -1 x574 -1 x575 -1 x576 >= 0 ;
+2 x625 +2 x626 +2 x627 -1 x577 -1 x578 -1 x579 -1 x622 -1 x623 -1 x624 >= 0 ;
+2 x628 +2 x629 +2 x630 -1 x577 -1 x578 -1 x579 -1 x580 -1 x581 -1 x582 >= 0 ;
+2 x631 +2 x632 +2 x633 -1 x580 -1 x581 -1 x582 -1 x583 -1 x584 -1 x585 >= 0 ;
+2 x634 +2 x635 +2 x636 -1 x583 -1 x584 -1 x585 -1 x586 -1 x587 -1 x588 >= 0 ;
+2 x637 +2 x638 +2 x639 -1 x586 -1 x587 -1 x588 -1 x589 -1 x590 -1 x591 >= 0 ;
+2 x640 +2 x641 +2 x642 -1 x589 -1 x590 -1 x591 -1 x592 -1 x593 -1 x594 >= 0 ;
+2 x643 +2 x644 +2 x645 -1 x592 -1 x593 -1 x594 -1 x595 -1 x596 -1 x597 >= 0 ;
+2 x646 +2 x647 +2 x648 -1 x595 -1 x596 -1 x597 -1 x598 -1 x599 -1 x600 >= 0 ;
+2 x649 +2 x650 +2 x651 -1 x598 -1 x599 -1 x600 -1 x601 -1 x602 -1 x603 >= 0 ;
+2 x652 +2 x653 +2 x654 -1 x601 -1 x602 -1 x603 -1 x604 -1 x605 -1 x606 >= 0 ;
+2 x655 +2 x656 +2 x657 -1 x604 -1 x605 -1 x606 -1 x607 -1 x608 -1 x609 >= 0 ;
+2 x658 +2 x659 +2 x660 -1 x607 -1 x608 -1 x609 -1 x610 -1 x611 -1 x612 >= 0 ;
+2 x661 +2 x662 +2 x663 -1 x610 -1 x611 -1 x612 -1 x613 -1 x614 -1 x615 >= 0 ;
+2 x664 +2 x665 +2 x666 -1 x613 -1 x614 -1 x615 -1 x616 -1 x617 -1 x618 >= 0 ;
+2 x667 +2 x668 +2 x669 -1 x616 -1 x617 -1 x618 -1 x619 -1 x620 -1 x621 >= 0 ;
+2 x670 +2 x671 +2 x672 -1 x619 -1 x620 -1 x621 -1 x622 -1 x623 -1 x624 >= 0 ;
+2 x673 +2 x674 +2 x675 -1 x625 -1 x626 -1 x627 -1 x670 -1 x671 -1 x672 >= 0 ;
+2 x676 +2 x677 +2 x678 -1 x625 -1 x626 -1 x627 -1 x628 -1 x629 -1 x630 >= 0 ;
+2 x679 +2 x680 +2 x681 -1 x628 -1 x629 -1 x630 -1 x631 -1 x632 -1 x633 >= 0 ;
+2 x682 +2 x683 +2 x684 -1 x631 -1 x632 -1 x633 -1 x634 -1 x635 -1 x636 >= 0 ;
+2 x685 +2 x686 +2 x687 -1 x634 -1 x635 -1 x636 -1 x637 -1 x638 -1 x639 >= 0 ;
+2 x688 +2 x689 +2 x690 -1 x637 -1 x638 -1 x639 -1 x640 -1 x641 -1 x642 >= 0 ;
+2 x691 +2 x692 +2 x693 -1 x640 -1 x641 -1 x642 -1 x643 -1 x644 -1 x645 >= 0 ;
+2 x694 +2 x695 +2 x696 -1 x643 -1 x644 -1 x645 -1 x646 -1 x647 -1 x648 >= 0 ;
+2 x697 +2 x698 +2 x699 -1 x646 -1 x647 -1 x648 -1 x649 -1 x650 -1 x651 >= 0 ;
+2 x700 +2 x701 +2 x702 -1 x649 -1 x650 -1 x651 -1 x652 -1 x653 -1 x654 >= 0 ;
+2 x703 +2 x704 +2 x705 -1 x652 -1 x653 -1 x654 -1 x655 -1 x656 -1 x657 >= 0 ;
+2 x706 +2 x707 +2 x708 -1 x655 -1 x656 -1 x657 -1 x658 -1 x659 -1 x660 >= 0 ;
+2 x709 +2 x710 +2 x711 -1 x658 -1 x659 -1 x660 -1 x661 -1 x662 -1 x663 >= 0 ;
+2 x712 +2 x713 +2 x714 -1 x661 -1 x662 -1 x663 -1 x664 -1 x665 -1 x666 >= 0 ;
+2 x715 +2 x716 +2 x717 -1 x664 -1 x665 -1 x666 -1 x667 -1 x668 -1 x669 >= 0 ;
+2 x718 +2 x719 +2 x720 -1 x667 -1 x668 -1 x669 -1 x670 -1 x671 -1 x672 >= 0 ;
+2 x721 +2 x722 +2 x723 -1 x673 -1 x674 -1 x675 -1 x718 -1 x719 -1 x720 >= 0 ;
+2 x724 +2 x725 +2 x726 -1 x673 -1 x674 -1 x675 -1 x676 -1 x677 -1 x678 >= 0 ;
+2 x727 +2 x728 +2 x729 -1 x676 -1 x677 -1 x678 -1 x679 -1 x680 -1 x681 >= 0 ;
+2 x730 +2 x731 +2 x732 -1 x679 -1 x680 -1 x681 -1 x682 -1 x683 -1 x684 >= 0 ;
+2 x733 +2 x734 +2 x735 -1 x682 -1 x683 -1 x684 -1 x685 -1 x686 -1 x687 >= 0 ;
+2 x736 +2 x737 +2 x738 -1 x685 -1 x686 -1 x687 -1 x688 -1 x689 -1 x690 >= 0 ;
+2 x739 +2 x740 +2 x741 -1 x688 -1 x689 -1 x690 -1 x691 -1 x692 -1 x693 >= 0 ;
+2 x742 +2 x743 +2 x744 -1 x691 -1 x692 -1 x693 -1 x694 -1 x695 -1 x696 >= 0 ;
+2 x745 +2 x746 +2 x747 -1 x694 -1 x695 -1 x696 -1 x697 -1 x698 -1 x699 >= 0 ;
+2 x748 +2 x749 +2 x750 -1 x697 -1 x698 -1 x699 -1 x700 -1 x701 -1 x702 >= 0 ;
+2 x751 +2 x752 +2 x753 -1 x700 -1 x701 -1 x702 -1 x703 -1 x704 -1 x705 >= 0 ;
+2 x754 +2 x755 +2 x756 -1 x703 -1 x704 -1 x705 -1 x706 -1 x707 -1 x708 >= 0 ;
+2 x757 +2 x758 +2 x759 -1 x706 -1 x707 -1 x708 -1 x709 -1 x710 -1 x711 >= 0 ;
+2 x760 +2 x761 +2 x762 -1 x709 -1 x710 -1 x711 -1 x712 -1 x713 -1 x714 >= 0 ;
+2 x763 +2 x764 +2 x765 -1 x712 -1 x713 -1 x714 -1 x715 -1 x716 -1 x717 >= 0 ;
+2 x766 +2 x767 +2 x768 -1 x715 -1 x716 -1 x717 -1 x718 -1 x719 -1 x720 >= 0 ;
+2 x769 +2 x770 +2 x771 -1 x721 -1 x722 -1 x723 -1 x724 -1 x725 -1 x726 >= 0 ;
+2 x772 +2 x773 +2 x774 -1 x727 -1 x728 -1 x729 -1 x730 -1 x731 -1 x732 >= 0 ;
+2 x775 +2 x776 +2 x777 -1 x733 -1 x734 -1 x735 -1 x736 -1 x737 -1 x738 >= 0 ;
+2 x778 +2 x779 +2 x780 -1 x739 -1 x740 -1 x741 -1 x742 -1 x743 -1 x744 >= 0 ;
+2 x781 +2 x782 +2 x783 -1 x745 -1 x746 -1 x747 -1 x748 -1 x749 -1 x750 >= 0 ;
+2 x784 +2 x785 +2 x786 -1 x751 -1 x752 -1 x753 -1 x754 -1 x755 -1 x756 >= 0 ;
+2 x787 +2 x788 +2 x789 -1 x757 -1 x758 -1 x759 -1 x760 -1 x761 -1 x762 >= 0 ;
+2 x790 +2 x791 +2 x792 -1 x763 -1 x764 -1 x765 -1 x766 -1 x767 -1 x768 >= 0 ;
+2 x793 +2 x794 +2 x795 -1 x769 -1 x770 -1 x771 -1 x772 -1 x773 -1 x774 >= 0 ;
+2 x796 +2 x797 +2 x798 -1 x775 -1 x776 -1 x777 -1 x778 -1 x779 -1 x780 >= 0 ;
+2 x799 +2 x800 +2 x801 -1 x781 -1 x782 -1 x783 -1 x784 -1 x785 -1 x786 >= 0 ;
+2 x802 +2 x803 +2 x804 -1 x787 -1 x788 -1 x789 -1 x790 -1 x791 -1 x792 >= 0 ;
+2 x805 +2 x806 +2 x807 -1 x793 -1 x794 -1 x795 -1 x796 -1 x797 -1 x798 >= 0 ;
+2 x808 +2 x809 +2 x810 -1 x799 -1 x800 -1 x801 -1 x802 -1 x803 -1 x804 >= 0 ;
+2 x811 +2 x812 +2 x813 -1 x805 -1 x806 -1 x807 -1 x808 -1 x809 -1 x810 >= 0 ;
-2 x811 -2 x812 -2 x813 >= -3 ;
