* #variable= 1301 #constraint= 651
****************************************
* begin normalizer comments
* category= DEC-SMALLINT-LIN
* end normalizer comments
****************************************
+1 x1 +1 x2 +1 x3 +1 x4 = 2 ;
+1 x5 +1 x6 +1 x7 +1 x2 = 2 ;
+1 x8 +1 x9 +1 x10 +1 x6 = 2 ;
+1 x11 +1 x12 +1 x13 +1 x9 = 2 ;
+1 x14 +1 x4 +1 x15 +1 x12 = 2 ;
+1 x16 +1 x17 +1 x1 +1 x18 = 2 ;
+1 x19 +1 x20 +1 x5 +1 x17 = 2 ;
+1 x21 +1 x22 +1 x8 +1 x20 = 2 ;
+1 x23 +1 x24 +1 x11 +1 x22 = 2 ;
+1 x25 +1 x18 +1 x14 +1 x24 = 2 ;
+1 x26 +1 x27 +1 x16 +1 x28 = 2 ;
+1 x29 +1 x30 +1 x19 +1 x27 = 2 ;
+1 x31 +1 x32 +1 x21 +1 x30 = 2 ;
+1 x33 +1 x34 +1 x23 +1 x32 = 2 ;
+1 x35 +1 x28 +1 x25 +1 x34 = 2 ;
+1 x36 +1 x37 +1 x26 +1 x38 = 2 ;
+1 x39 +1 x40 +1 x29 +1 x37 = 2 ;
+1 x41 +1 x42 +1 x31 +1 x40 = 2 ;
+1 x43 +1 x44 +1 x33 +1 x42 = 2 ;
+1 x45 +1 x38 +1 x35 +1 x44 = 2 ;
+1 x46 +1 x47 +1 x36 +1 x48 = 2 ;
+1 x49 +1 x50 +1 x39 +1 x47 = 2 ;
+1 x51 +1 x52 +1 x41 +1 x50 = 2 ;
+1 x53 +1 x54 +1 x43 +1 x52 = 2 ;
+1 x55 +1 x48 +1 x45 +1 x54 = 2 ;
+1 x56 +1 x57 +1 x46 +1 x58 = 2 ;
+1 x59 +1 x60 +1 x49 +1 x57 = 2 ;
+1 x61 +1 x62 +1 x51 +1 x60 = 2 ;
+1 x63 +1 x64 +1 x53 +1 x62 = 2 ;
+1 x65 +1 x58 +1 x55 +1 x64 = 2 ;
+1 x66 +1 x67 +1 x56 +1 x68 = 2 ;
+1 x69 +1 x70 +1 x59 +1 x67 = 2 ;
+1 x71 +1 x72 +1 x61 +1 x70 = 2 ;
+1 x73 +1 x74 +1 x63 +1 x72 = 2 ;
+1 x75 +1 x68 +1 x65 +1 x74 = 2 ;
+1 x76 +1 x77 +1 x66 +1 x78 = 2 ;
+1 x79 +1 x80 +1 x69 +1 x77 = 2 ;
+1 x81 +1 x82 +1 x71 +1 x80 = 2 ;
+1 x83 +1 x84 +1 x73 +1 x82 = 2 ;
+1 x85 +1 x78 +1 x75 +1 x84 = 2 ;
+1 x86 +1 x87 +1 x76 +1 x88 = 2 ;
+1 x89 +1 x90 +1 x79 +1 x87 = 2 ;
+1 x91 +1 x92 +1 x81 +1 x90 = 2 ;
+1 x93 +1 x94 +1 x83 +1 x92 = 2 ;
+1 x95 +1 x88 +1 x85 +1 x94 = 2 ;
+1 x96 +1 x97 +1 x86 +1 x98 = 2 ;
+1 x99 +1 x100 +1 x89 +1 x97 = 2 ;
+1 x101 +1 x102 +1 x91 +1 x100 = 2 ;
+1 x103 +1 x104 +1 x93 +1 x102 = 2 ;
+1 x105 +1 x98 +1 x95 +1 x104 = 2 ;
+1 x106 +1 x107 +1 x96 +1 x108 = 2 ;
+1 x109 +1 x110 +1 x99 +1 x107 = 2 ;
+1 x111 +1 x112 +1 x101 +1 x110 = 2 ;
+1 x113 +1 x114 +1 x103 +1 x112 = 2 ;
+1 x115 +1 x108 +1 x105 +1 x114 = 2 ;
+1 x116 +1 x117 +1 x106 +1 x118 = 2 ;
+1 x119 +1 x120 +1 x109 +1 x117 = 2 ;
+1 x121 +1 x122 +1 x111 +1 x120 = 2 ;
+1 x123 +1 x124 +1 x113 +1 x122 = 2 ;
+1 x125 +1 x118 +1 x115 +1 x124 = 2 ;
+1 x126 +1 x127 +1 x116 +1 x128 = 2 ;
+1 x129 +1 x130 +1 x119 +1 x127 = 2 ;
+1 x131 +1 x132 +1 x121 +1 x130 = 2 ;
+1 x133 +1 x134 +1 x123 +1 x132 = 2 ;
+1 x135 +1 x128 +1 x125 +1 x134 = 2 ;
+1 x136 +1 x137 +1 x126 +1 x138 = 2 ;
+1 x139 +1 x140 +1 x129 +1 x137 = 2 ;
+1 x141 +1 x142 +1 x131 +1 x140 = 2 ;
+1 x143 +1 x144 +1 x133 +1 x142 = 2 ;
+1 x145 +1 x138 +1 x135 +1 x144 = 2 ;
+1 x146 +1 x147 +1 x136 +1 x148 = 2 ;
+1 x149 +1 x150 +1 x139 +1 x147 = 2 ;
+1 x151 +1 x152 +1 x141 +1 x150 = 2 ;
+1 x153 +1 x154 +1 x143 +1 x152 = 2 ;
+1 x155 +1 x148 +1 x145 +1 x154 = 2 ;
+1 x156 +1 x157 +1 x146 +1 x158 = 2 ;
+1 x159 +1 x160 +1 x149 +1 x157 = 2 ;
+1 x161 +1 x162 +1 x151 +1 x160 = 2 ;
+1 x163 +1 x164 +1 x153 +1 x162 = 2 ;
+1 x165 +1 x158 +1 x155 +1 x164 = 2 ;
+1 x166 +1 x167 +1 x156 +1 x168 = 2 ;
+1 x169 +1 x170 +1 x159 +1 x167 = 2 ;
+1 x171 +1 x172 +1 x161 +1 x170 = 2 ;
+1 x173 +1 x174 +1 x163 +1 x172 = 2 ;
+1 x175 +1 x168 +1 x165 +1 x174 = 2 ;
+1 x176 +1 x177 +1 x166 +1 x178 = 2 ;
+1 x179 +1 x180 +1 x169 +1 x177 = 2 ;
+1 x181 +1 x182 +1 x171 +1 x180 = 2 ;
+1 x183 +1 x184 +1 x173 +1 x182 = 2 ;
+1 x185 +1 x178 +1 x175 +1 x184 = 2 ;
+1 x186 +1 x187 +1 x176 +1 x188 = 2 ;
+1 x189 +1 x190 +1 x179 +1 x187 = 2 ;
+1 x191 +1 x192 +1 x181 +1 x190 = 2 ;
+1 x193 +1 x194 +1 x183 +1 x192 = 2 ;
+1 x195 +1 x188 +1 x185 +1 x194 = 2 ;
+1 x196 +1 x197 +1 x186 +1 x198 = 2 ;
+1 x199 +1 x200 +1 x189 +1 x197 = 2 ;
+1 x201 +1 x202 +1 x191 +1 x200 = 2 ;
+1 x203 +1 x204 +1 x193 +1 x202 = 2 ;
+1 x205 +1 x198 +1 x195 +1 x204 = 2 ;
+1 x206 +1 x207 +1 x196 +1 x208 = 2 ;
+1 x209 +1 x210 +1 x199 +1 x207 = 2 ;
+1 x211 +1 x212 +1 x201 +1 x210 = 2 ;
+1 x213 +1 x214 +1 x203 +1 x212 = 2 ;
+1 x215 +1 x208 +1 x205 +1 x214 = 2 ;
+1 x216 +1 x217 +1 x206 +1 x218 = 2 ;
+1 x219 +1 x220 +1 x209 +1 x217 = 2 ;
+1 x221 +1 x222 +1 x211 +1 x220 = 2 ;
+1 x223 +1 x224 +1 x213 +1 x222 = 2 ;
+1 x225 +1 x218 +1 x215 +1 x224 = 2 ;
+1 x226 +1 x227 +1 x216 +1 x228 = 2 ;
+1 x229 +1 x230 +1 x219 +1 x227 = 2 ;
+1 x231 +1 x232 +1 x221 +1 x230 = 2 ;
+1 x233 +1 x234 +1 x223 +1 x232 = 2 ;
+1 x235 +1 x228 +1 x225 +1 x234 = 2 ;
+1 x236 +1 x237 +1 x226 +1 x238 = 2 ;
+1 x239 +1 x240 +1 x229 +1 x237 = 2 ;
+1 x241 +1 x242 +1 x231 +1 x240 = 2 ;
+1 x243 +1 x244 +1 x233 +1 x242 = 2 ;
+1 x245 +1 x238 +1 x235 +1 x244 = 2 ;
+1 x246 +1 x247 +1 x236 +1 x248 = 2 ;
+1 x249 +1 x250 +1 x239 +1 x247 = 2 ;
+1 x251 +1 x252 +1 x241 +1 x250 = 2 ;
+1 x253 +1 x254 +1 x243 +1 x252 = 2 ;
+1 x255 +1 x248 +1 x245 +1 x254 = 2 ;
+1 x256 +1 x257 +1 x246 +1 x258 = 2 ;
+1 x259 +1 x260 +1 x249 +1 x257 = 2 ;
+1 x261 +1 x262 +1 x251 +1 x260 = 2 ;
+1 x263 +1 x264 +1 x253 +1 x262 = 2 ;
+1 x265 +1 x258 +1 x255 +1 x264 = 2 ;
+1 x266 +1 x267 +1 x256 +1 x268 = 2 ;
+1 x269 +1 x270 +1 x259 +1 x267 = 2 ;
+1 x271 +1 x272 +1 x261 +1 x270 = 2 ;
+1 x273 +1 x274 +1 x263 +1 x272 = 2 ;
+1 x275 +1 x268 +1 x265 +1 x274 = 2 ;
+1 x276 +1 x277 +1 x266 +1 x278 = 2 ;
+1 x279 +1 x280 +1 x269 +1 x277 = 2 ;
+1 x281 +1 x282 +1 x271 +1 x280 = 2 ;
+1 x283 +1 x284 +1 x273 +1 x282 = 2 ;
+1 x285 +1 x278 +1 x275 +1 x284 = 2 ;
+1 x286 +1 x287 +1 x276 +1 x288 = 2 ;
+1 x289 +1 x290 +1 x279 +1 x287 = 2 ;
+1 x291 +1 x292 +1 x281 +1 x290 = 2 ;
+1 x293 +1 x294 +1 x283 +1 x292 = 2 ;
+1 x295 +1 x288 +1 x285 +1 x294 = 2 ;
+1 x296 +1 x297 +1 x286 +1 x298 = 2 ;
+1 x299 +1 x300 +1 x289 +1 x297 = 2 ;
+1 x301 +1 x302 +1 x291 +1 x300 = 2 ;
+1 x303 +1 x304 +1 x293 +1 x302 = 2 ;
+1 x305 +1 x298 +1 x295 +1 x304 = 2 ;
+1 x306 +1 x307 +1 x296 +1 x308 = 2 ;
+1 x309 +1 x310 +1 x299 +1 x307 = 2 ;
+1 x311 +1 x312 +1 x301 +1 x310 = 2 ;
+1 x313 +1 x314 +1 x303 +1 x312 = 2 ;
+1 x315 +1 x308 +1 x305 +1 x314 = 2 ;
+1 x316 +1 x317 +1 x306 +1 x318 = 2 ;
+1 x319 +1 x320 +1 x309 +1 x317 = 2 ;
+1 x321 +1 x322 +1 x311 +1 x320 = 2 ;
+1 x323 +1 x324 +1 x313 +1 x322 = 2 ;
+1 x325 +1 x318 +1 x315 +1 x324 = 2 ;
+1 x326 +1 x327 +1 x316 +1 x328 = 2 ;
+1 x329 +1 x330 +1 x319 +1 x327 = 2 ;
+1 x331 +1 x332 +1 x321 +1 x330 = 2 ;
+1 x333 +1 x334 +1 x323 +1 x332 = 2 ;
+1 x335 +1 x328 +1 x325 +1 x334 = 2 ;
+1 x336 +1 x337 +1 x326 +1 x338 = 2 ;
+1 x339 +1 x340 +1 x329 +1 x337 = 2 ;
+1 x341 +1 x342 +1 x331 +1 x340 = 2 ;
+1 x343 +1 x344 +1 x333 +1 x342 = 2 ;
+1 x345 +1 x338 +1 x335 +1 x344 = 2 ;
+1 x346 +1 x347 +1 x336 +1 x348 = 2 ;
+1 x349 +1 x350 +1 x339 +1 x347 = 2 ;
+1 x351 +1 x352 +1 x341 +1 x350 = 2 ;
+1 x353 +1 x354 +1 x343 +1 x352 = 2 ;
+1 x355 +1 x348 +1 x345 +1 x354 = 2 ;
+1 x356 +1 x357 +1 x346 +1 x358 = 2 ;
+1 x359 +1 x360 +1 x349 +1 x357 = 2 ;
+1 x361 +1 x362 +1 x351 +1 x360 = 2 ;
+1 x363 +1 x364 +1 x353 +1 x362 = 2 ;
+1 x365 +1 x358 +1 x355 +1 x364 = 2 ;
+1 x366 +1 x367 +1 x356 +1 x368 = 2 ;
+1 x369 +1 x370 +1 x359 +1 x367 = 2 ;
+1 x371 +1 x372 +1 x361 +1 x370 = 2 ;
+1 x373 +1 x374 +1 x363 +1 x372 = 2 ;
+1 x375 +1 x368 +1 x365 +1 x374 = 2 ;
+1 x376 +1 x377 +1 x366 +1 x378 = 2 ;
+1 x379 +1 x380 +1 x369 +1 x377 = 2 ;
+1 x381 +1 x382 +1 x371 +1 x380 = 2 ;
+1 x383 +1 x384 +1 x373 +1 x382 = 2 ;
+1 x385 +1 x378 +1 x375 +1 x384 = 2 ;
+1 x386 +1 x387 +1 x376 +1 x388 = 2 ;
+1 x389 +1 x390 +1 x379 +1 x387 = 2 ;
+1 x391 +1 x392 +1 x381 +1 x390 = 2 ;
+1 x393 +1 x394 +1 x383 +1 x392 = 2 ;
+1 x395 +1 x388 +1 x385 +1 x394 = 2 ;
+1 x396 +1 x397 +1 x386 +1 x398 = 2 ;
+1 x399 +1 x400 +1 x389 +1 x397 = 2 ;
+1 x401 +1 x402 +1 x391 +1 x400 = 2 ;
+1 x403 +1 x404 +1 x393 +1 x402 = 2 ;
+1 x405 +1 x398 +1 x395 +1 x404 = 2 ;
+1 x406 +1 x407 +1 x396 +1 x408 = 2 ;
+1 x409 +1 x410 +1 x399 +1 x407 = 2 ;
+1 x411 +1 x412 +1 x401 +1 x410 = 2 ;
+1 x413 +1 x414 +1 x403 +1 x412 = 2 ;
+1 x415 +1 x408 +1 x405 +1 x414 = 2 ;
+1 x416 +1 x417 +1 x406 +1 x418 = 2 ;
+1 x419 +1 x420 +1 x409 +1 x417 = 2 ;
+1 x421 +1 x422 +1 x411 +1 x420 = 2 ;
+1 x423 +1 x424 +1 x413 +1 x422 = 2 ;
+1 x425 +1 x418 +1 x415 +1 x424 = 2 ;
+1 x426 +1 x427 +1 x416 +1 x428 = 2 ;
+1 x429 +1 x430 +1 x419 +1 x427 = 2 ;
+1 x431 +1 x432 +1 x421 +1 x430 = 2 ;
+1 x433 +1 x434 +1 x423 +1 x432 = 2 ;
+1 x435 +1 x428 +1 x425 +1 x434 = 2 ;
+1 x436 +1 x437 +1 x426 +1 x438 = 2 ;
+1 x439 +1 x440 +1 x429 +1 x437 = 2 ;
+1 x441 +1 x442 +1 x431 +1 x440 = 2 ;
+1 x443 +1 x444 +1 x433 +1 x442 = 2 ;
+1 x445 +1 x438 +1 x435 +1 x444 = 2 ;
+1 x446 +1 x447 +1 x436 +1 x448 = 2 ;
+1 x449 +1 x450 +1 x439 +1 x447 = 2 ;
+1 x451 +1 x452 +1 x441 +1 x450 = 2 ;
+1 x453 +1 x454 +1 x443 +1 x452 = 2 ;
+1 x455 +1 x448 +1 x445 +1 x454 = 2 ;
+1 x456 +1 x457 +1 x446 +1 x458 = 2 ;
+1 x459 +1 x460 +1 x449 +1 x457 = 2 ;
+1 x461 +1 x462 +1 x451 +1 x460 = 2 ;
+1 x463 +1 x464 +1 x453 +1 x462 = 2 ;
+1 x465 +1 x458 +1 x455 +1 x464 = 2 ;
+1 x466 +1 x467 +1 x456 +1 x468 = 2 ;
+1 x469 +1 x470 +1 x459 +1 x467 = 2 ;
+1 x471 +1 x472 +1 x461 +1 x470 = 2 ;
+1 x473 +1 x474 +1 x463 +1 x472 = 2 ;
+1 x475 +1 x468 +1 x465 +1 x474 = 2 ;
+1 x476 +1 x477 +1 x466 +1 x478 = 2 ;
+1 x479 +1 x480 +1 x469 +1 x477 = 2 ;
+1 x481 +1 x482 +1 x471 +1 x480 = 2 ;
+1 x483 +1 x484 +1 x473 +1 x482 = 2 ;
+1 x485 +1 x478 +1 x475 +1 x484 = 2 ;
+1 x486 +1 x487 +1 x476 +1 x488 = 2 ;
+1 x489 +1 x490 +1 x479 +1 x487 = 2 ;
+1 x491 +1 x492 +1 x481 +1 x490 = 2 ;
+1 x493 +1 x494 +1 x483 +1 x492 = 2 ;
+1 x495 +1 x488 +1 x485 +1 x494 = 2 ;
+1 x496 +1 x497 +1 x486 +1 x498 = 2 ;
+1 x499 +1 x500 +1 x489 +1 x497 = 2 ;
+1 x501 +1 x502 +1 x491 +1 x500 = 2 ;
+1 x503 +1 x504 +1 x493 +1 x502 = 2 ;
+1 x505 +1 x498 +1 x495 +1 x504 = 2 ;
+1 x506 +1 x507 +1 x496 +1 x508 = 2 ;
+1 x509 +1 x510 +1 x499 +1 x507 = 2 ;
+1 x511 +1 x512 +1 x501 +1 x510 = 2 ;
+1 x513 +1 x514 +1 x503 +1 x512 = 2 ;
+1 x515 +1 x508 +1 x505 +1 x514 = 2 ;
+1 x516 +1 x517 +1 x506 +1 x518 = 2 ;
+1 x519 +1 x520 +1 x509 +1 x517 = 2 ;
+1 x521 +1 x522 +1 x511 +1 x520 = 2 ;
+1 x523 +1 x524 +1 x513 +1 x522 = 2 ;
+1 x525 +1 x518 +1 x515 +1 x524 = 2 ;
+1 x526 +1 x527 +1 x516 +1 x528 = 2 ;
+1 x529 +1 x530 +1 x519 +1 x527 = 2 ;
+1 x531 +1 x532 +1 x521 +1 x530 = 2 ;
+1 x533 +1 x534 +1 x523 +1 x532 = 2 ;
+1 x535 +1 x528 +1 x525 +1 x534 = 2 ;
+1 x536 +1 x537 +1 x526 +1 x538 = 2 ;
+1 x539 +1 x540 +1 x529 +1 x537 = 2 ;
+1 x541 +1 x542 +1 x531 +1 x540 = 2 ;
+1 x543 +1 x544 +1 x533 +1 x542 = 2 ;
+1 x545 +1 x538 +1 x535 +1 x544 = 2 ;
+1 x546 +1 x547 +1 x536 +1 x548 = 2 ;
+1 x549 +1 x550 +1 x539 +1 x547 = 2 ;
+1 x551 +1 x552 +1 x541 +1 x550 = 2 ;
+1 x553 +1 x554 +1 x543 +1 x552 = 2 ;
+1 x555 +1 x548 +1 x545 +1 x554 = 2 ;
+1 x556 +1 x557 +1 x546 +1 x558 = 2 ;
+1 x559 +1 x560 +1 x549 +1 x557 = 2 ;
+1 x561 +1 x562 +1 x551 +1 x560 = 2 ;
+1 x563 +1 x564 +1 x553 +1 x562 = 2 ;
+1 x565 +1 x558 +1 x555 +1 x564 = 2 ;
+1 x566 +1 x567 +1 x556 +1 x568 = 2 ;
+1 x569 +1 x570 +1 x559 +1 x567 = 2 ;
+1 x571 +1 x572 +1 x561 +1 x570 = 2 ;
+1 x573 +1 x574 +1 x563 +1 x572 = 2 ;
+1 x575 +1 x568 +1 x565 +1 x574 = 2 ;
+1 x576 +1 x577 +1 x566 +1 x578 = 2 ;
+1 x579 +1 x580 +1 x569 +1 x577 = 2 ;
+1 x581 +1 x582 +1 x571 +1 x580 = 2 ;
+1 x583 +1 x584 +1 x573 +1 x582 = 2 ;
+1 x585 +1 x578 +1 x575 +1 x584 = 2 ;
+1 x586 +1 x587 +1 x576 +1 x588 = 2 ;
+1 x589 +1 x590 +1 x579 +1 x587 = 2 ;
+1 x591 +1 x592 +1 x581 +1 x590 = 2 ;
+1 x593 +1 x594 +1 x583 +1 x592 = 2 ;
+1 x595 +1 x588 +1 x585 +1 x594 = 2 ;
+1 x596 +1 x597 +1 x586 +1 x598 = 2 ;
+1 x599 +1 x600 +1 x589 +1 x597 = 2 ;
+1 x601 +1 x602 +1 x591 +1 x600 = 2 ;
+1 x603 +1 x604 +1 x593 +1 x602 = 2 ;
+1 x605 +1 x598 +1 x595 +1 x604 = 2 ;
+1 x606 +1 x607 +1 x596 +1 x608 = 2 ;
+1 x609 +1 x610 +1 x599 +1 x607 = 2 ;
+1 x611 +1 x612 +1 x601 +1 x610 = 2 ;
+1 x613 +1 x614 +1 x603 +1 x612 = 2 ;
+1 x615 +1 x608 +1 x605 +1 x614 = 2 ;
+1 x616 +1 x617 +1 x606 +1 x618 = 2 ;
+1 x619 +1 x620 +1 x609 +1 x617 = 2 ;
+1 x621 +1 x622 +1 x611 +1 x620 = 2 ;
+1 x623 +1 x624 +1 x613 +1 x622 = 2 ;
+1 x625 +1 x618 +1 x615 +1 x624 = 2 ;
+1 x626 +1 x627 +1 x616 +1 x628 = 2 ;
+1 x629 +1 x630 +1 x619 +1 x627 = 2 ;
+1 x631 +1 x632 +1 x621 +1 x630 = 2 ;
+1 x633 +1 x634 +1 x623 +1 x632 = 2 ;
+1 x635 +1 x628 +1 x625 +1 x634 = 2 ;
+1 x636 +1 x637 +1 x626 +1 x638 = 2 ;
+1 x639 +1 x640 +1 x629 +1 x637 = 2 ;
+1 x641 +1 x642 +1 x631 +1 x640 = 2 ;
+1 x643 +1 x644 +1 x633 +1 x642 = 2 ;
+1 x645 +1 x638 +1 x635 +1 x644 = 2 ;
+1 x646 +1 x647 +1 x636 +1 x648 = 2 ;
+1 x649 +1 x650 +1 x639 +1 x647 = 2 ;
+1 x651 +1 x652 +1 x641 +1 x650 = 2 ;
+1 x653 +1 x654 +1 x643 +1 x652 = 2 ;
+1 x655 +1 x648 +1 x645 +1 x654 = 2 ;
+1 x656 +1 x657 +1 x646 +1 x658 = 2 ;
+1 x659 +1 x660 +1 x649 +1 x657 = 2 ;
+1 x661 +1 x662 +1 x651 +1 x660 = 2 ;
+1 x663 +1 x664 +1 x653 +1 x662 = 2 ;
+1 x665 +1 x658 +1 x655 +1 x664 = 2 ;
+1 x666 +1 x667 +1 x656 +1 x668 = 2 ;
+1 x669 +1 x670 +1 x659 +1 x667 = 2 ;
+1 x671 +1 x672 +1 x661 +1 x670 = 2 ;
+1 x673 +1 x674 +1 x663 +1 x672 = 2 ;
+1 x675 +1 x668 +1 x665 +1 x674 = 2 ;
+1 x676 +1 x677 +1 x666 +1 x678 = 2 ;
+1 x679 +1 x680 +1 x669 +1 x677 = 2 ;
+1 x681 +1 x682 +1 x671 +1 x680 = 2 ;
+1 x683 +1 x684 +1 x673 +1 x682 = 2 ;
+1 x685 +1 x678 +1 x675 +1 x684 = 2 ;
+1 x686 +1 x687 +1 x676 +1 x688 = 2 ;
+1 x689 +1 x690 +1 x679 +1 x687 = 2 ;
+1 x691 +1 x692 +1 x681 +1 x690 = 2 ;
+1 x693 +1 x694 +1 x683 +1 x692 = 2 ;
+1 x695 +1 x688 +1 x685 +1 x694 = 2 ;
+1 x696 +1 x697 +1 x686 +1 x698 = 2 ;
+1 x699 +1 x700 +1 x689 +1 x697 = 2 ;
+1 x701 +1 x702 +1 x691 +1 x700 = 2 ;
+1 x703 +1 x704 +1 x693 +1 x702 = 2 ;
+1 x705 +1 x698 +1 x695 +1 x704 = 2 ;
+1 x706 +1 x707 +1 x696 +1 x708 = 2 ;
+1 x709 +1 x710 +1 x699 +1 x707 = 2 ;
+1 x711 +1 x712 +1 x701 +1 x710 = 2 ;
+1 x713 +1 x714 +1 x703 +1 x712 = 2 ;
+1 x715 +1 x708 +1 x705 +1 x714 = 2 ;
+1 x716 +1 x717 +1 x706 +1 x718 = 2 ;
+1 x719 +1 x720 +1 x709 +1 x717 = 2 ;
+1 x721 +1 x722 +1 x711 +1 x720 = 2 ;
+1 x723 +1 x724 +1 x713 +1 x722 = 2 ;
+1 x725 +1 x718 +1 x715 +1 x724 = 2 ;
+1 x726 +1 x727 +1 x716 +1 x728 = 2 ;
+1 x729 +1 x730 +1 x719 +1 x727 = 2 ;
+1 x731 +1 x732 +1 x721 +1 x730 = 2 ;
+1 x733 +1 x734 +1 x723 +1 x732 = 2 ;
+1 x735 +1 x728 +1 x725 +1 x734 = 2 ;
+1 x736 +1 x737 +1 x726 +1 x738 = 2 ;
+1 x739 +1 x740 +1 x729 +1 x737 = 2 ;
+1 x741 +1 x742 +1 x731 +1 x740 = 2 ;
+1 x743 +1 x744 +1 x733 +1 x742 = 2 ;
+1 x745 +1 x738 +1 x735 +1 x744 = 2 ;
+1 x746 +1 x747 +1 x736 +1 x748 = 2 ;
+1 x749 +1 x750 +1 x739 +1 x747 = 2 ;
+1 x751 +1 x752 +1 x741 +1 x750 = 2 ;
+1 x753 +1 x754 +1 x743 +1 x752 = 2 ;
+1 x755 +1 x748 +1 x745 +1 x754 = 2 ;
+1 x756 +1 x757 +1 x746 +1 x758 = 2 ;
+1 x759 +1 x760 +1 x749 +1 x757 = 2 ;
+1 x761 +1 x762 +1 x751 +1 x760 = 2 ;
+1 x763 +1 x764 +1 x753 +1 x762 = 2 ;
+1 x765 +1 x758 +1 x755 +1 x764 = 2 ;
+1 x766 +1 x767 +1 x756 +1 x768 = 2 ;
+1 x769 +1 x770 +1 x759 +1 x767 = 2 ;
+1 x771 +1 x772 +1 x761 +1 x770 = 2 ;
+1 x773 +1 x774 +1 x763 +1 x772 = 2 ;
+1 x775 +1 x768 +1 x765 +1 x774 = 2 ;
+1 x776 +1 x777 +1 x766 +1 x778 = 2 ;
+1 x779 +1 x780 +1 x769 +1 x777 = 2 ;
+1 x781 +1 x782 +1 x771 +1 x780 = 2 ;
+1 x783 +1 x784 +1 x773 +1 x782 = 2 ;
+1 x785 +1 x778 +1 x775 +1 x784 = 2 ;
+1 x786 +1 x787 +1 x776 +1 x788 = 2 ;
+1 x789 +1 x790 +1 x779 +1 x787 = 2 ;
+1 x791 +1 x792 +1 x781 +1 x790 = 2 ;
+1 x793 +1 x794 +1 x783 +1 x792 = 2 ;
+1 x795 +1 x788 +1 x785 +1 x794 = 2 ;
+1 x796 +1 x797 +1 x786 +1 x798 = 2 ;
+1 x799 +1 x800 +1 x789 +1 x797 = 2 ;
+1 x801 +1 x802 +1 x791 +1 x800 = 2 ;
+1 x803 +1 x804 +1 x793 +1 x802 = 2 ;
+1 x805 +1 x798 +1 x795 +1 x804 = 2 ;
+1 x806 +1 x807 +1 x796 +1 x808 = 2 ;
+1 x809 +1 x810 +1 x799 +1 x807 = 2 ;
+1 x811 +1 x812 +1 x801 +1 x810 = 2 ;
+1 x813 +1 x814 +1 x803 +1 x812 = 2 ;
+1 x815 +1 x808 +1 x805 +1 x814 = 2 ;
+1 x816 +1 x817 +1 x806 +1 x818 = 2 ;
+1 x819 +1 x820 +1 x809 +1 x817 = 2 ;
+1 x821 +1 x822 +1 x811 +1 x820 = 2 ;
+1 x823 +1 x824 +1 x813 +1 x822 = 2 ;
+1 x825 +1 x818 +1 x815 +1 x824 = 2 ;
+1 x826 +1 x827 +1 x816 +1 x828 = 2 ;
+1 x829 +1 x830 +1 x819 +1 x827 = 2 ;
+1 x831 +1 x832 +1 x821 +1 x830 = 2 ;
+1 x833 +1 x834 +1 x823 +1 x832 = 2 ;
+1 x835 +1 x828 +1 x825 +1 x834 = 2 ;
+1 x836 +1 x837 +1 x826 +1 x838 = 2 ;
+1 x839 +1 x840 +1 x829 +1 x837 = 2 ;
+1 x841 +1 x842 +1 x831 +1 x840 = 2 ;
+1 x843 +1 x844 +1 x833 +1 x842 = 2 ;
+1 x845 +1 x838 +1 x835 +1 x844 = 2 ;
+1 x846 +1 x847 +1 x836 +1 x848 = 2 ;
+1 x849 +1 x850 +1 x839 +1 x847 = 2 ;
+1 x851 +1 x852 +1 x841 +1 x850 = 2 ;
+1 x853 +1 x854 +1 x843 +1 x852 = 2 ;
+1 x855 +1 x848 +1 x845 +1 x854 = 2 ;
+1 x856 +1 x857 +1 x846 +1 x858 = 2 ;
+1 x859 +1 x860 +1 x849 +1 x857 = 2 ;
+1 x861 +1 x862 +1 x851 +1 x860 = 2 ;
+1 x863 +1 x864 +1 x853 +1 x862 = 2 ;
+1 x865 +1 x858 +1 x855 +1 x864 = 2 ;
+1 x866 +1 x867 +1 x856 +1 x868 = 2 ;
+1 x869 +1 x870 +1 x859 +1 x867 = 2 ;
+1 x871 +1 x872 +1 x861 +1 x870 = 2 ;
+1 x873 +1 x874 +1 x863 +1 x872 = 2 ;
+1 x875 +1 x868 +1 x865 +1 x874 = 2 ;
+1 x876 +1 x877 +1 x866 +1 x878 = 2 ;
+1 x879 +1 x880 +1 x869 +1 x877 = 2 ;
+1 x881 +1 x882 +1 x871 +1 x880 = 2 ;
+1 x883 +1 x884 +1 x873 +1 x882 = 2 ;
+1 x885 +1 x878 +1 x875 +1 x884 = 2 ;
+1 x886 +1 x887 +1 x876 +1 x888 = 2 ;
+1 x889 +1 x890 +1 x879 +1 x887 = 2 ;
+1 x891 +1 x892 +1 x881 +1 x890 = 2 ;
+1 x893 +1 x894 +1 x883 +1 x892 = 2 ;
+1 x895 +1 x888 +1 x885 +1 x894 = 2 ;
+1 x896 +1 x897 +1 x886 +1 x898 = 2 ;
+1 x899 +1 x900 +1 x889 +1 x897 = 2 ;
+1 x901 +1 x902 +1 x891 +1 x900 = 2 ;
+1 x903 +1 x904 +1 x893 +1 x902 = 2 ;
+1 x905 +1 x898 +1 x895 +1 x904 = 2 ;
+1 x906 +1 x907 +1 x896 +1 x908 = 2 ;
+1 x909 +1 x910 +1 x899 +1 x907 = 2 ;
+1 x911 +1 x912 +1 x901 +1 x910 = 2 ;
+1 x913 +1 x914 +1 x903 +1 x912 = 2 ;
+1 x915 +1 x908 +1 x905 +1 x914 = 2 ;
+1 x916 +1 x917 +1 x906 +1 x918 = 2 ;
+1 x919 +1 x920 +1 x909 +1 x917 = 2 ;
+1 x921 +1 x922 +1 x911 +1 x920 = 2 ;
+1 x923 +1 x924 +1 x913 +1 x922 = 2 ;
+1 x925 +1 x918 +1 x915 +1 x924 = 2 ;
+1 x926 +1 x927 +1 x916 +1 x928 = 2 ;
+1 x929 +1 x930 +1 x919 +1 x927 = 2 ;
+1 x931 +1 x932 +1 x921 +1 x930 = 2 ;
+1 x933 +1 x934 +1 x923 +1 x932 = 2 ;
+1 x935 +1 x928 +1 x925 +1 x934 = 2 ;
+1 x936 +1 x937 +1 x926 +1 x938 = 2 ;
+1 x939 +1 x940 +1 x929 +1 x937 = 2 ;
+1 x941 +1 x942 +1 x931 +1 x940 = 2 ;
+1 x943 +1 x944 +1 x933 +1 x942 = 2 ;
+1 x945 +1 x938 +1 x935 +1 x944 = 2 ;
+1 x946 +1 x947 +1 x936 +1 x948 = 2 ;
+1 x949 +1 x950 +1 x939 +1 x947 = 2 ;
+1 x951 +1 x952 +1 x941 +1 x950 = 2 ;
+1 x953 +1 x954 +1 x943 +1 x952 = 2 ;
+1 x955 +1 x948 +1 x945 +1 x954 = 2 ;
+1 x956 +1 x957 +1 x946 +1 x958 = 2 ;
+1 x959 +1 x960 +1 x949 +1 x957 = 2 ;
+1 x961 +1 x962 +1 x951 +1 x960 = 2 ;
+1 x963 +1 x964 +1 x953 +1 x962 = 2 ;
+1 x965 +1 x958 +1 x955 +1 x964 = 2 ;
+1 x966 +1 x967 +1 x956 +1 x968 = 2 ;
+1 x969 +1 x970 +1 x959 +1 x967 = 2 ;
+1 x971 +1 x972 +1 x961 +1 x970 = 2 ;
+1 x973 +1 x974 +1 x963 +1 x972 = 2 ;
+1 x975 +1 x968 +1 x965 +1 x974 = 2 ;
+1 x976 +1 x977 +1 x966 +1 x978 = 2 ;
+1 x979 +1 x980 +1 x969 +1 x977 = 2 ;
+1 x981 +1 x982 +1 x971 +1 x980 = 2 ;
+1 x983 +1 x984 +1 x973 +1 x982 = 2 ;
+1 x985 +1 x978 +1 x975 +1 x984 = 2 ;
+1 x986 +1 x987 +1 x976 +1 x988 = 2 ;
+1 x989 +1 x990 +1 x979 +1 x987 = 2 ;
+1 x991 +1 x992 +1 x981 +1 x990 = 2 ;
+1 x993 +1 x994 +1 x983 +1 x992 = 2 ;
+1 x995 +1 x988 +1 x985 +1 x994 = 2 ;
+1 x996 +1 x997 +1 x986 +1 x998 = 2 ;
+1 x999 +1 x1000 +1 x989 +1 x997 = 2 ;
+1 x1001 +1 x1002 +1 x991 +1 x1000 = 2 ;
+1 x1003 +1 x1004 +1 x993 +1 x1002 = 2 ;
+1 x1005 +1 x998 +1 x995 +1 x1004 = 2 ;
+1 x1006 +1 x1007 +1 x996 +1 x1008 = 2 ;
+1 x1009 +1 x1010 +1 x999 +1 x1007 = 2 ;
+1 x1011 +1 x1012 +1 x1001 +1 x1010 = 2 ;
+1 x1013 +1 x1014 +1 x1003 +1 x1012 = 2 ;
+1 x1015 +1 x1008 +1 x1005 +1 x1014 = 2 ;
+1 x1016 +1 x1017 +1 x1006 +1 x1018 = 2 ;
+1 x1019 +1 x1020 +1 x1009 +1 x1017 = 2 ;
+1 x1021 +1 x1022 +1 x1011 +1 x1020 = 2 ;
+1 x1023 +1 x1024 +1 x1013 +1 x1022 = 2 ;
+1 x1025 +1 x1018 +1 x1015 +1 x1024 = 2 ;
+1 x1026 +1 x1027 +1 x1016 +1 x1028 = 2 ;
+1 x1029 +1 x1030 +1 x1019 +1 x1027 = 2 ;
+1 x1031 +1 x1032 +1 x1021 +1 x1030 = 2 ;
+1 x1033 +1 x1034 +1 x1023 +1 x1032 = 2 ;
+1 x1035 +1 x1028 +1 x1025 +1 x1034 = 2 ;
+1 x1036 +1 x1037 +1 x1026 +1 x1038 = 2 ;
+1 x1039 +1 x1040 +1 x1029 +1 x1037 = 2 ;
+1 x1041 +1 x1042 +1 x1031 +1 x1040 = 2 ;
+1 x1043 +1 x1044 +1 x1033 +1 x1042 = 2 ;
+1 x1045 +1 x1038 +1 x1035 +1 x1044 = 2 ;
+1 x1046 +1 x1047 +1 x1036 +1 x1048 = 2 ;
+1 x1049 +1 x1050 +1 x1039 +1 x1047 = 2 ;
+1 x1051 +1 x1052 +1 x1041 +1 x1050 = 2 ;
+1 x1053 +1 x1054 +1 x1043 +1 x1052 = 2 ;
+1 x1055 +1 x1048 +1 x1045 +1 x1054 = 2 ;
+1 x1056 +1 x1057 +1 x1046 +1 x1058 = 2 ;
+1 x1059 +1 x1060 +1 x1049 +1 x1057 = 2 ;
+1 x1061 +1 x1062 +1 x1051 +1 x1060 = 2 ;
+1 x1063 +1 x1064 +1 x1053 +1 x1062 = 2 ;
+1 x1065 +1 x1058 +1 x1055 +1 x1064 = 2 ;
+1 x1066 +1 x1067 +1 x1056 +1 x1068 = 2 ;
+1 x1069 +1 x1070 +1 x1059 +1 x1067 = 2 ;
+1 x1071 +1 x1072 +1 x1061 +1 x1070 = 2 ;
+1 x1073 +1 x1074 +1 x1063 +1 x1072 = 2 ;
+1 x1075 +1 x1068 +1 x1065 +1 x1074 = 2 ;
+1 x1076 +1 x1077 +1 x1066 +1 x1078 = 2 ;
+1 x1079 +1 x1080 +1 x1069 +1 x1077 = 2 ;
+1 x1081 +1 x1082 +1 x1071 +1 x1080 = 2 ;
+1 x1083 +1 x1084 +1 x1073 +1 x1082 = 2 ;
+1 x1085 +1 x1078 +1 x1075 +1 x1084 = 2 ;
+1 x1086 +1 x1087 +1 x1076 +1 x1088 = 2 ;
+1 x1089 +1 x1090 +1 x1079 +1 x1087 = 2 ;
+1 x1091 +1 x1092 +1 x1081 +1 x1090 = 2 ;
+1 x1093 +1 x1094 +1 x1083 +1 x1092 = 2 ;
+1 x1095 +1 x1088 +1 x1085 +1 x1094 = 2 ;
+1 x1096 +1 x1097 +1 x1086 +1 x1098 = 2 ;
+1 x1099 +1 x1100 +1 x1089 +1 x1097 = 2 ;
+1 x1101 +1 x1102 +1 x1091 +1 x1100 = 2 ;
+1 x1103 +1 x1104 +1 x1093 +1 x1102 = 2 ;
+1 x1105 +1 x1098 +1 x1095 +1 x1104 = 2 ;
+1 x1106 +1 x1107 +1 x1096 +1 x1108 = 2 ;
+1 x1109 +1 x1110 +1 x1099 +1 x1107 = 2 ;
+1 x1111 +1 x1112 +1 x1101 +1 x1110 = 2 ;
+1 x1113 +1 x1114 +1 x1103 +1 x1112 = 2 ;
+1 x1115 +1 x1108 +1 x1105 +1 x1114 = 2 ;
+1 x1116 +1 x1117 +1 x1106 +1 x1118 = 2 ;
+1 x1119 +1 x1120 +1 x1109 +1 x1117 = 2 ;
+1 x1121 +1 x1122 +1 x1111 +1 x1120 = 2 ;
+1 x1123 +1 x1124 +1 x1113 +1 x1122 = 2 ;
+1 x1125 +1 x1118 +1 x1115 +1 x1124 = 2 ;
+1 x1126 +1 x1127 +1 x1116 +1 x1128 = 2 ;
+1 x1129 +1 x1130 +1 x1119 +1 x1127 = 2 ;
+1 x1131 +1 x1132 +1 x1121 +1 x1130 = 2 ;
+1 x1133 +1 x1134 +1 x1123 +1 x1132 = 2 ;
+1 x1135 +1 x1128 +1 x1125 +1 x1134 = 2 ;
+1 x1136 +1 x1137 +1 x1126 +1 x1138 = 2 ;
+1 x1139 +1 x1140 +1 x1129 +1 x1137 = 2 ;
+1 x1141 +1 x1142 +1 x1131 +1 x1140 = 2 ;
+1 x1143 +1 x1144 +1 x1133 +1 x1142 = 2 ;
+1 x1145 +1 x1138 +1 x1135 +1 x1144 = 2 ;
+1 x1146 +1 x1147 +1 x1136 +1 x1148 = 2 ;
+1 x1149 +1 x1150 +1 x1139 +1 x1147 = 2 ;
+1 x1151 +1 x1152 +1 x1141 +1 x1150 = 2 ;
+1 x1153 +1 x1154 +1 x1143 +1 x1152 = 2 ;
+1 x1155 +1 x1148 +1 x1145 +1 x1154 = 2 ;
+1 x1156 +1 x1157 +1 x1146 +1 x1158 = 2 ;
+1 x1159 +1 x1160 +1 x1149 +1 x1157 = 2 ;
+1 x1161 +1 x1162 +1 x1151 +1 x1160 = 2 ;
+1 x1163 +1 x1164 +1 x1153 +1 x1162 = 2 ;
+1 x1165 +1 x1158 +1 x1155 +1 x1164 = 2 ;
+1 x1166 +1 x1167 +1 x1156 +1 x1168 = 2 ;
+1 x1169 +1 x1170 +1 x1159 +1 x1167 = 2 ;
+1 x1171 +1 x1172 +1 x1161 +1 x1170 = 2 ;
+1 x1173 +1 x1174 +1 x1163 +1 x1172 = 2 ;
+1 x1175 +1 x1168 +1 x1165 +1 x1174 = 2 ;
+1 x1176 +1 x1177 +1 x1166 +1 x1178 = 2 ;
+1 x1179 +1 x1180 +1 x1169 +1 x1177 = 2 ;
+1 x1181 +1 x1182 +1 x1171 +1 x1180 = 2 ;
+1 x1183 +1 x1184 +1 x1173 +1 x1182 = 2 ;
+1 x1185 +1 x1178 +1 x1175 +1 x1184 = 2 ;
+1 x1186 +1 x1187 +1 x1176 +1 x1188 = 2 ;
+1 x1189 +1 x1190 +1 x1179 +1 x1187 = 2 ;
+1 x1191 +1 x1192 +1 x1181 +1 x1190 = 2 ;
+1 x1193 +1 x1194 +1 x1183 +1 x1192 = 2 ;
+1 x1195 +1 x1188 +1 x1185 +1 x1194 = 2 ;
+1 x1196 +1 x1197 +1 x1186 +1 x1198 = 2 ;
+1 x1199 +1 x1200 +1 x1189 +1 x1197 = 2 ;
+1 x1201 +1 x1202 +1 x1191 +1 x1200 = 2 ;
+1 x1203 +1 x1204 +1 x1193 +1 x1202 = 2 ;
+1 x1205 +1 x1198 +1 x1195 +1 x1204 = 2 ;
+1 x1206 +1 x1207 +1 x1196 +1 x1208 = 2 ;
+1 x1209 +1 x1210 +1 x1199 +1 x1207 = 2 ;
+1 x1211 +1 x1212 +1 x1201 +1 x1210 = 2 ;
+1 x1213 +1 x1214 +1 x1203 +1 x1212 = 2 ;
+1 x1215 +1 x1208 +1 x1205 +1 x1214 = 2 ;
+1 x1216 +1 x1217 +1 x1206 +1 x1218 = 2 ;
+1 x1219 +1 x1220 +1 x1209 +1 x1217 = 2 ;
+1 x1221 +1 x1222 +1 x1211 +1 x1220 = 2 ;
+1 x1223 +1 x1224 +1 x1213 +1 x1222 = 2 ;
+1 x1225 +1 x1218 +1 x1215 +1 x1224 = 2 ;
+1 x1226 +1 x1227 +1 x1216 +1 x1228 = 2 ;
+1 x1229 +1 x1230 +1 x1219 +1 x1227 = 2 ;
+1 x1231 +1 x1232 +1 x1221 +1 x1230 = 2 ;
+1 x1233 +1 x1234 +1 x1223 +1 x1232 = 2 ;
+1 x1235 +1 x1228 +1 x1225 +1 x1234 = 2 ;
+1 x1236 +1 x1237 +1 x1226 +1 x1238 = 2 ;
+1 x1239 +1 x1240 +1 x1229 +1 x1237 = 2 ;
+1 x1241 +1 x1242 +1 x1231 +1 x1240 = 2 ;
+1 x1243 +1 x1244 +1 x1233 +1 x1242 = 2 ;
+1 x1245 +1 x1238 +1 x1235 +1 x1244 = 2 ;
+1 x1246 +1 x1247 +1 x1236 +1 x1248 = 2 ;
+1 x1249 +1 x1250 +1 x1239 +1 x1247 = 2 ;
+1 x1251 +1 x1252 +1 x1241 +1 x1250 = 2 ;
+1 x1253 +1 x1254 +1 x1243 +1 x1252 = 2 ;
+1 x1255 +1 x1248 +1 x1245 +1 x1254 = 2 ;
+1 x1256 +1 x1257 +1 x1246 +1 x1258 = 2 ;
+1 x1259 +1 x1260 +1 x1249 +1 x1257 = 2 ;
+1 x1261 +1 x1262 +1 x1251 +1 x1260 = 2 ;
+1 x1263 +1 x1264 +1 x1253 +1 x1262 = 2 ;
+1 x1265 +1 x1258 +1 x1255 +1 x1264 = 2 ;
+1 x1266 +1 x1267 +1 x1256 +1 x1268 = 2 ;
+1 x1269 +1 x1270 +1 x1259 +1 x1267 = 2 ;
+1 x1271 +1 x1272 +1 x1261 +1 x1270 = 2 ;
+1 x1273 +1 x1274 +1 x1263 +1 x1272 = 2 ;
+1 x1275 +1 x1268 +1 x1265 +1 x1274 = 2 ;
+1 x1276 +1 x1277 +1 x1266 +1 x1278 = 2 ;
+1 x1279 +1 x1280 +1 x1269 +1 x1277 = 2 ;
+1 x1281 +1 x1282 +1 x1271 +1 x1280 = 2 ;
+1 x1283 +1 x1284 +1 x1273 +1 x1282 = 2 ;
+1 x1285 +1 x1278 +1 x1275 +1 x1284 = 2 ;
+1 x1286 +1 x1287 +1 x1276 +1 x1288 = 2 ;
+1 x1289 +1 x1290 +1 x1279 +1 x1287 = 2 ;
+1 x1291 +1 x1292 +1 x1281 +1 x1290 = 2 ;
+1 x1293 +1 x1294 +1 x1283 +1 x1292 = 2 ;
+1 x3 +1 x1295 +1 x1286 +1 x1296 = 2 ;
+1 x7 +1 x1297 +1 x1289 +1 x1295 = 2 ;
+1 x10 +1 x1298 +1 x1291 +1 x1297 = 2 ;
+1 x13 +1 x1299 +1 x1293 +1 x1298 = 2 ;
+1 x1300 +1 x1288 +1 x1285 +1 x1294 = 2 ;
+1 x15 +1 x1296 +1 x1301 +1 x1299 = 2 ;
+1 x1300 +1 x1301 = 1 ;
