* #variable= 2244 #constraint= 562
****************************************
* begin normalizer comments
* category= DEC-SMALLINT-LIN
* end normalizer comments
****************************************
+2 x1 +2 x2 +2 x3 +2 x4 >= 3 ;
+2 x5 +2 x6 +2 x7 +2 x8 >= 3 ;
+2 x9 +2 x10 +2 x11 +2 x12 >= 3 ;
+2 x13 +2 x14 +2 x15 +2 x16 >= 3 ;
+2 x17 +2 x18 +2 x19 +2 x20 >= 3 ;
+2 x21 +2 x22 +2 x23 +2 x24 >= 3 ;
+2 x25 +2 x26 +2 x27 +2 x28 >= 3 ;
+2 x29 +2 x30 +2 x31 +2 x32 >= 3 ;
+2 x33 +2 x34 +2 x35 +2 x36 >= 3 ;
+2 x37 +2 x38 +2 x39 +2 x40 >= 3 ;
+2 x41 +2 x42 +2 x43 +2 x44 >= 3 ;
+2 x45 +2 x46 +2 x47 +2 x48 >= 3 ;
+2 x49 +2 x50 +2 x51 +2 x52 >= 3 ;
+2 x53 +2 x54 +2 x55 +2 x56 >= 3 ;
+2 x57 +2 x58 +2 x59 +2 x60 >= 3 ;
+2 x61 +2 x62 +2 x63 +2 x64 >= 3 ;
+2 x65 +2 x66 +2 x67 +2 x68 >= 3 ;
+2 x69 +2 x70 +2 x71 +2 x72 >= 3 ;
+2 x73 +2 x74 +2 x75 +2 x76 >= 3 ;
+2 x77 +2 x78 +2 x79 +2 x80 >= 3 ;
+2 x81 +2 x82 +2 x83 +2 x84 >= 3 ;
+2 x85 +2 x86 +2 x87 +2 x88 >= 3 ;
+2 x89 +2 x90 +2 x91 +2 x92 >= 3 ;
+2 x93 +2 x94 +2 x95 +2 x96 >= 3 ;
+2 x97 +2 x98 +2 x99 +2 x100 >= 3 ;
+2 x101 +2 x102 +2 x103 +2 x104 >= 3 ;
+2 x105 +2 x106 +2 x107 +2 x108 >= 3 ;
+2 x109 +2 x110 +2 x111 +2 x112 >= 3 ;
+2 x113 +2 x114 +2 x115 +2 x116 >= 3 ;
+2 x117 +2 x118 +2 x119 +2 x120 >= 3 ;
+2 x121 +2 x122 +2 x123 +2 x124 >= 3 ;
+2 x125 +2 x126 +2 x127 +2 x128 >= 3 ;
+2 x129 +2 x130 +2 x131 +2 x132 >= 3 ;
+2 x133 +2 x134 +2 x135 +2 x136 -1 x1 -1 x2 -1 x3 -1 x4 -1 x5 -1 x6 -1 x7 -1 x8 >= 0 ;
+2 x137 +2 x138 +2 x139 +2 x140 -1 x5 -1 x6 -1 x7 -1 x8 -1 x9 -1 x10 -1 x11 -1 x12 >= 0 ;
+2 x141 +2 x142 +2 x143 +2 x144 -1 x9 -1 x10 -1 x11 -1 x12 -1 x13 -1 x14 -1 x15 -1 x16 >= 0 ;
+2 x145 +2 x146 +2 x147 +2 x148 -1 x13 -1 x14 -1 x15 -1 x16 -1 x17 -1 x18 -1 x19 -1 x20 >= 0 ;
+2 x149 +2 x150 +2 x151 +2 x152 -1 x17 -1 x18 -1 x19 -1 x20 -1 x21 -1 x22 -1 x23 -1 x24 >= 0 ;
+2 x153 +2 x154 +2 x155 +2 x156 -1 x21 -1 x22 -1 x23 -1 x24 -1 x25 -1 x26 -1 x27 -1 x28 >= 0 ;
+2 x157 +2 x158 +2 x159 +2 x160 -1 x25 -1 x26 -1 x27 -1 x28 -1 x29 -1 x30 -1 x31 -1 x32 >= 0 ;
+2 x161 +2 x162 +2 x163 +2 x164 -1 x29 -1 x30 -1 x31 -1 x32 -1 x33 -1 x34 -1 x35 -1 x36 >= 0 ;
+2 x165 +2 x166 +2 x167 +2 x168 -1 x33 -1 x34 -1 x35 -1 x36 -1 x37 -1 x38 -1 x39 -1 x40 >= 0 ;
+2 x169 +2 x170 +2 x171 +2 x172 -1 x37 -1 x38 -1 x39 -1 x40 -1 x41 -1 x42 -1 x43 -1 x44 >= 0 ;
+2 x173 +2 x174 +2 x175 +2 x176 -1 x41 -1 x42 -1 x43 -1 x44 -1 x45 -1 x46 -1 x47 -1 x48 >= 0 ;
+2 x177 +2 x178 +2 x179 +2 x180 -1 x45 -1 x46 -1 x47 -1 x48 -1 x49 -1 x50 -1 x51 -1 x52 >= 0 ;
+2 x181 +2 x182 +2 x183 +2 x184 -1 x49 -1 x50 -1 x51 -1 x52 -1 x53 -1 x54 -1 x55 -1 x56 >= 0 ;
+2 x185 +2 x186 +2 x187 +2 x188 -1 x53 -1 x54 -1 x55 -1 x56 -1 x57 -1 x58 -1 x59 -1 x60 >= 0 ;
+2 x189 +2 x190 +2 x191 +2 x192 -1 x57 -1 x58 -1 x59 -1 x60 -1 x61 -1 x62 -1 x63 -1 x64 >= 0 ;
+2 x193 +2 x194 +2 x195 +2 x196 -1 x61 -1 x62 -1 x63 -1 x64 -1 x65 -1 x66 -1 x67 -1 x68 >= 0 ;
+2 x197 +2 x198 +2 x199 +2 x200 -1 x65 -1 x66 -1 x67 -1 x68 -1 x69 -1 x70 -1 x71 -1 x72 >= 0 ;
+2 x201 +2 x202 +2 x203 +2 x204 -1 x69 -1 x70 -1 x71 -1 x72 -1 x73 -1 x74 -1 x75 -1 x76 >= 0 ;
+2 x205 +2 x206 +2 x207 +2 x208 -1 x73 -1 x74 -1 x75 -1 x76 -1 x77 -1 x78 -1 x79 -1 x80 >= 0 ;
+2 x209 +2 x210 +2 x211 +2 x212 -1 x77 -1 x78 -1 x79 -1 x80 -1 x81 -1 x82 -1 x83 -1 x84 >= 0 ;
+2 x213 +2 x214 +2 x215 +2 x216 -1 x81 -1 x82 -1 x83 -1 x84 -1 x85 -1 x86 -1 x87 -1 x88 >= 0 ;
+2 x217 +2 x218 +2 x219 +2 x220 -1 x85 -1 x86 -1 x87 -1 x88 -1 x89 -1 x90 -1 x91 -1 x92 >= 0 ;
+2 x221 +2 x222 +2 x223 +2 x224 -1 x89 -1 x90 -1 x91 -1 x92 -1 x93 -1 x94 -1 x95 -1 x96 >= 0 ;
+2 x225 +2 x226 +2 x227 +2 x228 -1 x93 -1 x94 -1 x95 -1 x96 -1 x97 -1 x98 -1 x99 -1 x100 >= 0 ;
+2 x229 +2 x230 +2 x231 +2 x232 -1 x97 -1 x98 -1 x99 -1 x100 -1 x101 -1 x102 -1 x103 -1 x104 >= 0 ;
+2 x233 +2 x234 +2 x235 +2 x236 -1 x101 -1 x102 -1 x103 -1 x104 -1 x105 -1 x106 -1 x107 -1 x108 >= 0 ;
+2 x237 +2 x238 +2 x239 +2 x240 -1 x105 -1 x106 -1 x107 -1 x108 -1 x109 -1 x110 -1 x111 -1 x112 >= 0 ;
+2 x241 +2 x242 +2 x243 +2 x244 -1 x109 -1 x110 -1 x111 -1 x112 -1 x113 -1 x114 -1 x115 -1 x116 >= 0 ;
+2 x245 +2 x246 +2 x247 +2 x248 -1 x113 -1 x114 -1 x115 -1 x116 -1 x117 -1 x118 -1 x119 -1 x120 >= 0 ;
+2 x249 +2 x250 +2 x251 +2 x252 -1 x117 -1 x118 -1 x119 -1 x120 -1 x121 -1 x122 -1 x123 -1 x124 >= 0 ;
+2 x253 +2 x254 +2 x255 +2 x256 -1 x121 -1 x122 -1 x123 -1 x124 -1 x125 -1 x126 -1 x127 -1 x128 >= 0 ;
+2 x257 +2 x258 +2 x259 +2 x260 -1 x125 -1 x126 -1 x127 -1 x128 -1 x129 -1 x130 -1 x131 -1 x132 >= 0 ;
+2 x261 +2 x262 +2 x263 +2 x264 -1 x133 -1 x134 -1 x135 -1 x136 -1 x137 -1 x138 -1 x139 -1 x140 >= 0 ;
+2 x265 +2 x266 +2 x267 +2 x268 -1 x137 -1 x138 -1 x139 -1 x140 -1 x141 -1 x142 -1 x143 -1 x144 >= 0 ;
+2 x269 +2 x270 +2 x271 +2 x272 -1 x141 -1 x142 -1 x143 -1 x144 -1 x145 -1 x146 -1 x147 -1 x148 >= 0 ;
+2 x273 +2 x274 +2 x275 +2 x276 -1 x145 -1 x146 -1 x147 -1 x148 -1 x149 -1 x150 -1 x151 -1 x152 >= 0 ;
+2 x277 +2 x278 +2 x279 +2 x280 -1 x149 -1 x150 -1 x151 -1 x152 -1 x153 -1 x154 -1 x155 -1 x156 >= 0 ;
+2 x281 +2 x282 +2 x283 +2 x284 -1 x153 -1 x154 -1 x155 -1 x156 -1 x157 -1 x158 -1 x159 -1 x160 >= 0 ;
+2 x285 +2 x286 +2 x287 +2 x288 -1 x157 -1 x158 -1 x159 -1 x160 -1 x161 -1 x162 -1 x163 -1 x164 >= 0 ;
+2 x289 +2 x290 +2 x291 +2 x292 -1 x161 -1 x162 -1 x163 -1 x164 -1 x165 -1 x166 -1 x167 -1 x168 >= 0 ;
+2 x293 +2 x294 +2 x295 +2 x296 -1 x165 -1 x166 -1 x167 -1 x168 -1 x169 -1 x170 -1 x171 -1 x172 >= 0 ;
+2 x297 +2 x298 +2 x299 +2 x300 -1 x169 -1 x170 -1 x171 -1 x172 -1 x173 -1 x174 -1 x175 -1 x176 >= 0 ;
+2 x301 +2 x302 +2 x303 +2 x304 -1 x173 -1 x174 -1 x175 -1 x176 -1 x177 -1 x178 -1 x179 -1 x180 >= 0 ;
+2 x305 +2 x306 +2 x307 +2 x308 -1 x177 -1 x178 -1 x179 -1 x180 -1 x181 -1 x182 -1 x183 -1 x184 >= 0 ;
+2 x309 +2 x310 +2 x311 +2 x312 -1 x181 -1 x182 -1 x183 -1 x184 -1 x185 -1 x186 -1 x187 -1 x188 >= 0 ;
+2 x313 +2 x314 +2 x315 +2 x316 -1 x185 -1 x186 -1 x187 -1 x188 -1 x189 -1 x190 -1 x191 -1 x192 >= 0 ;
+2 x317 +2 x318 +2 x319 +2 x320 -1 x189 -1 x190 -1 x191 -1 x192 -1 x193 -1 x194 -1 x195 -1 x196 >= 0 ;
+2 x321 +2 x322 +2 x323 +2 x324 -1 x193 -1 x194 -1 x195 -1 x196 -1 x197 -1 x198 -1 x199 -1 x200 >= 0 ;
+2 x325 +2 x326 +2 x327 +2 x328 -1 x197 -1 x198 -1 x199 -1 x200 -1 x201 -1 x202 -1 x203 -1 x204 >= 0 ;
+2 x329 +2 x330 +2 x331 +2 x332 -1 x201 -1 x202 -1 x203 -1 x204 -1 x205 -1 x206 -1 x207 -1 x208 >= 0 ;
+2 x333 +2 x334 +2 x335 +2 x336 -1 x205 -1 x206 -1 x207 -1 x208 -1 x209 -1 x210 -1 x211 -1 x212 >= 0 ;
+2 x337 +2 x338 +2 x339 +2 x340 -1 x209 -1 x210 -1 x211 -1 x212 -1 x213 -1 x214 -1 x215 -1 x216 >= 0 ;
+2 x341 +2 x342 +2 x343 +2 x344 -1 x213 -1 x214 -1 x215 -1 x216 -1 x217 -1 x218 -1 x219 -1 x220 >= 0 ;
+2 x345 +2 x346 +2 x347 +2 x348 -1 x217 -1 x218 -1 x219 -1 x220 -1 x221 -1 x222 -1 x223 -1 x224 >= 0 ;
+2 x349 +2 x350 +2 x351 +2 x352 -1 x221 -1 x222 -1 x223 -1 x224 -1 x225 -1 x226 -1 x227 -1 x228 >= 0 ;
+2 x353 +2 x354 +2 x355 +2 x356 -1 x225 -1 x226 -1 x227 -1 x228 -1 x229 -1 x230 -1 x231 -1 x232 >= 0 ;
+2 x357 +2 x358 +2 x359 +2 x360 -1 x229 -1 x230 -1 x231 -1 x232 -1 x233 -1 x234 -1 x235 -1 x236 >= 0 ;
+2 x361 +2 x362 +2 x363 +2 x364 -1 x233 -1 x234 -1 x235 -1 x236 -1 x237 -1 x238 -1 x239 -1 x240 >= 0 ;
+2 x365 +2 x366 +2 x367 +2 x368 -1 x237 -1 x238 -1 x239 -1 x240 -1 x241 -1 x242 -1 x243 -1 x244 >= 0 ;
+2 x369 +2 x370 +2 x371 +2 x372 -1 x241 -1 x242 -1 x243 -1 x244 -1 x245 -1 x246 -1 x247 -1 x248 >= 0 ;
+2 x373 +2 x374 +2 x375 +2 x376 -1 x245 -1 x246 -1 x247 -1 x248 -1 x249 -1 x250 -1 x251 -1 x252 >= 0 ;
+2 x377 +2 x378 +2 x379 +2 x380 -1 x249 -1 x250 -1 x251 -1 x252 -1 x253 -1 x254 -1 x255 -1 x256 >= 0 ;
+2 x381 +2 x382 +2 x383 +2 x384 -1 x253 -1 x254 -1 x255 -1 x256 -1 x257 -1 x258 -1 x259 -1 x260 >= 0 ;
+2 x385 +2 x386 +2 x387 +2 x388 -1 x261 -1 x262 -1 x263 -1 x264 -1 x265 -1 x266 -1 x267 -1 x268 >= 0 ;
+2 x389 +2 x390 +2 x391 +2 x392 -1 x265 -1 x266 -1 x267 -1 x268 -1 x269 -1 x270 -1 x271 -1 x272 >= 0 ;
+2 x393 +2 x394 +2 x395 +2 x396 -1 x269 -1 x270 -1 x271 -1 x272 -1 x273 -1 x274 -1 x275 -1 x276 >= 0 ;
+2 x397 +2 x398 +2 x399 +2 x400 -1 x273 -1 x274 -1 x275 -1 x276 -1 x277 -1 x278 -1 x279 -1 x280 >= 0 ;
+2 x401 +2 x402 +2 x403 +2 x404 -1 x277 -1 x278 -1 x279 -1 x280 -1 x281 -1 x282 -1 x283 -1 x284 >= 0 ;
+2 x405 +2 x406 +2 x407 +2 x408 -1 x281 -1 x282 -1 x283 -1 x284 -1 x285 -1 x286 -1 x287 -1 x288 >= 0 ;
+2 x409 +2 x410 +2 x411 +2 x412 -1 x285 -1 x286 -1 x287 -1 x288 -1 x289 -1 x290 -1 x291 -1 x292 >= 0 ;
+2 x413 +2 x414 +2 x415 +2 x416 -1 x289 -1 x290 -1 x291 -1 x292 -1 x293 -1 x294 -1 x295 -1 x296 >= 0 ;
+2 x417 +2 x418 +2 x419 +2 x420 -1 x293 -1 x294 -1 x295 -1 x296 -1 x297 -1 x298 -1 x299 -1 x300 >= 0 ;
+2 x421 +2 x422 +2 x423 +2 x424 -1 x297 -1 x298 -1 x299 -1 x300 -1 x301 -1 x302 -1 x303 -1 x304 >= 0 ;
+2 x425 +2 x426 +2 x427 +2 x428 -1 x301 -1 x302 -1 x303 -1 x304 -1 x305 -1 x306 -1 x307 -1 x308 >= 0 ;
+2 x429 +2 x430 +2 x431 +2 x432 -1 x305 -1 x306 -1 x307 -1 x308 -1 x309 -1 x310 -1 x311 -1 x312 >= 0 ;
+2 x433 +2 x434 +2 x435 +2 x436 -1 x309 -1 x310 -1 x311 -1 x312 -1 x313 -1 x314 -1 x315 -1 x316 >= 0 ;
+2 x437 +2 x438 +2 x439 +2 x440 -1 x313 -1 x314 -1 x315 -1 x316 -1 x317 -1 x318 -1 x319 -1 x320 >= 0 ;
+2 x441 +2 x442 +2 x443 +2 x444 -1 x317 -1 x318 -1 x319 -1 x320 -1 x321 -1 x322 -1 x323 -1 x324 >= 0 ;
+2 x445 +2 x446 +2 x447 +2 x448 -1 x321 -1 x322 -1 x323 -1 x324 -1 x325 -1 x326 -1 x327 -1 x328 >= 0 ;
+2 x449 +2 x450 +2 x451 +2 x452 -1 x325 -1 x326 -1 x327 -1 x328 -1 x329 -1 x330 -1 x331 -1 x332 >= 0 ;
+2 x453 +2 x454 +2 x455 +2 x456 -1 x329 -1 x330 -1 x331 -1 x332 -1 x333 -1 x334 -1 x335 -1 x336 >= 0 ;
+2 x457 +2 x458 +2 x459 +2 x460 -1 x333 -1 x334 -1 x335 -1 x336 -1 x337 -1 x338 -1 x339 -1 x340 >= 0 ;
+2 x461 +2 x462 +2 x463 +2 x464 -1 x337 -1 x338 -1 x339 -1 x340 -1 x341 -1 x342 -1 x343 -1 x344 >= 0 ;
+2 x465 +2 x466 +2 x467 +2 x468 -1 x341 -1 x342 -1 x343 -1 x344 -1 x345 -1 x346 -1 x347 -1 x348 >= 0 ;
+2 x469 +2 x470 +2 x471 +2 x472 -1 x345 -1 x346 -1 x347 -1 x348 -1 x349 -1 x350 -1 x351 -1 x352 >= 0 ;
+2 x473 +2 x474 +2 x475 +2 x476 -1 x349 -1 x350 -1 x351 -1 x352 -1 x353 -1 x354 -1 x355 -1 x356 >= 0 ;
+2 x477 +2 x478 +2 x479 +2 x480 -1 x353 -1 x354 -1 x355 -1 x356 -1 x357 -1 x358 -1 x359 -1 x360 >= 0 ;
+2 x481 +2 x482 +2 x483 +2 x484 -1 x357 -1 x358 -1 x359 -1 x360 -1 x361 -1 x362 -1 x363 -1 x364 >= 0 ;
+2 x485 +2 x486 +2 x487 +2 x488 -1 x361 -1 x362 -1 x363 -1 x364 -1 x365 -1 x366 -1 x367 -1 x368 >= 0 ;
+2 x489 +2 x490 +2 x491 +2 x492 -1 x365 -1 x366 -1 x367 -1 x368 -1 x369 -1 x370 -1 x371 -1 x372 >= 0 ;
+2 x493 +2 x494 +2 x495 +2 x496 -1 x369 -1 x370 -1 x371 -1 x372 -1 x373 -1 x374 -1 x375 -1 x376 >= 0 ;
+2 x497 +2 x498 +2 x499 +2 x500 -1 x373 -1 x374 -1 x375 -1 x376 -1 x377 -1 x378 -1 x379 -1 x380 >= 0 ;
+2 x501 +2 x502 +2 x503 +2 x504 -1 x377 -1 x378 -1 x379 -1 x380 -1 x381 -1 x382 -1 x383 -1 x384 >= 0 ;
+2 x505 +2 x506 +2 x507 +2 x508 -1 x385 -1 x386 -1 x387 -1 x388 -1 x389 -1 x390 -1 x391 -1 x392 >= 0 ;
+2 x509 +2 x510 +2 x511 +2 x512 -1 x389 -1 x390 -1 x391 -1 x392 -1 x393 -1 x394 -1 x395 -1 x396 >= 0 ;
+2 x513 +2 x514 +2 x515 +2 x516 -1 x393 -1 x394 -1 x395 -1 x396 -1 x397 -1 x398 -1 x399 -1 x400 >= 0 ;
+2 x517 +2 x518 +2 x519 +2 x520 -1 x397 -1 x398 -1 x399 -1 x400 -1 x401 -1 x402 -1 x403 -1 x404 >= 0 ;
+2 x521 +2 x522 +2 x523 +2 x524 -1 x401 -1 x402 -1 x403 -1 x404 -1 x405 -1 x406 -1 x407 -1 x408 >= 0 ;
+2 x525 +2 x526 +2 x527 +2 x528 -1 x405 -1 x406 -1 x407 -1 x408 -1 x409 -1 x410 -1 x411 -1 x412 >= 0 ;
+2 x529 +2 x530 +2 x531 +2 x532 -1 x409 -1 x410 -1 x411 -1 x412 -1 x413 -1 x414 -1 x415 -1 x416 >= 0 ;
+2 x533 +2 x534 +2 x535 +2 x536 -1 x413 -1 x414 -1 x415 -1 x416 -1 x417 -1 x418 -1 x419 -1 x420 >= 0 ;
+2 x537 +2 x538 +2 x539 +2 x540 -1 x417 -1 x418 -1 x419 -1 x420 -1 x421 -1 x422 -1 x423 -1 x424 >= 0 ;
+2 x541 +2 x542 +2 x543 +2 x544 -1 x421 -1 x422 -1 x423 -1 x424 -1 x425 -1 x426 -1 x427 -1 x428 >= 0 ;
+2 x545 +2 x546 +2 x547 +2 x548 -1 x425 -1 x426 -1 x427 -1 x428 -1 x429 -1 x430 -1 x431 -1 x432 >= 0 ;
+2 x549 +2 x550 +2 x551 +2 x552 -1 x429 -1 x430 -1 x431 -1 x432 -1 x433 -1 x434 -1 x435 -1 x436 >= 0 ;
+2 x553 +2 x554 +2 x555 +2 x556 -1 x433 -1 x434 -1 x435 -1 x436 -1 x437 -1 x438 -1 x439 -1 x440 >= 0 ;
+2 x557 +2 x558 +2 x559 +2 x560 -1 x437 -1 x438 -1 x439 -1 x440 -1 x441 -1 x442 -1 x443 -1 x444 >= 0 ;
+2 x561 +2 x562 +2 x563 +2 x564 -1 x441 -1 x442 -1 x443 -1 x444 -1 x445 -1 x446 -1 x447 -1 x448 >= 0 ;
+2 x565 +2 x566 +2 x567 +2 x568 -1 x445 -1 x446 -1 x447 -1 x448 -1 x449 -1 x450 -1 x451 -1 x452 >= 0 ;
+2 x569 +2 x570 +2 x571 +2 x572 -1 x449 -1 x450 -1 x451 -1 x452 -1 x453 -1 x454 -1 x455 -1 x456 >= 0 ;
+2 x573 +2 x574 +2 x575 +2 x576 -1 x453 -1 x454 -1 x455 -1 x456 -1 x457 -1 x458 -1 x459 -1 x460 >= 0 ;
+2 x577 +2 x578 +2 x579 +2 x580 -1 x457 -1 x458 -1 x459 -1 x460 -1 x461 -1 x462 -1 x463 -1 x464 >= 0 ;
+2 x581 +2 x582 +2 x583 +2 x584 -1 x461 -1 x462 -1 x463 -1 x464 -1 x465 -1 x466 -1 x467 -1 x468 >= 0 ;
+2 x585 +2 x586 +2 x587 +2 x588 -1 x465 -1 x466 -1 x467 -1 x468 -1 x469 -1 x470 -1 x471 -1 x472 >= 0 ;
+2 x589 +2 x590 +2 x591 +2 x592 -1 x469 -1 x470 -1 x471 -1 x472 -1 x473 -1 x474 -1 x475 -1 x476 >= 0 ;
+2 x593 +2 x594 +2 x595 +2 x596 -1 x473 -1 x474 -1 x475 -1 x476 -1 x477 -1 x478 -1 x479 -1 x480 >= 0 ;
+2 x597 +2 x598 +2 x599 +2 x600 -1 x477 -1 x478 -1 x479 -1 x480 -1 x481 -1 x482 -1 x483 -1 x484 >= 0 ;
+2 x601 +2 x602 +2 x603 +2 x604 -1 x481 -1 x482 -1 x483 -1 x484 -1 x485 -1 x486 -1 x487 -1 x488 >= 0 ;
+2 x605 +2 x606 +2 x607 +2 x608 -1 x485 -1 x486 -1 x487 -1 x488 -1 x489 -1 x490 -1 x491 -1 x492 >= 0 ;
+2 x609 +2 x610 +2 x611 +2 x612 -1 x489 -1 x490 -1 x491 -1 x492 -1 x493 -1 x494 -1 x495 -1 x496 >= 0 ;
+2 x613 +2 x614 +2 x615 +2 x616 -1 x493 -1 x494 -1 x495 -1 x496 -1 x497 -1 x498 -1 x499 -1 x500 >= 0 ;
+2 x617 +2 x618 +2 x619 +2 x620 -1 x497 -1 x498 -1 x499 -1 x500 -1 x501 -1 x502 -1 x503 -1 x504 >= 0 ;
+2 x621 +2 x622 +2 x623 +2 x624 -1 x505 -1 x506 -1 x507 -1 x508 -1 x509 -1 x510 -1 x511 -1 x512 >= 0 ;
+2 x625 +2 x626 +2 x627 +2 x628 -1 x509 -1 x510 -1 x511 -1 x512 -1 x513 -1 x514 -1 x515 -1 x516 >= 0 ;
+2 x629 +2 x630 +2 x631 +2 x632 -1 x513 -1 x514 -1 x515 -1 x516 -1 x517 -1 x518 -1 x519 -1 x520 >= 0 ;
+2 x633 +2 x634 +2 x635 +2 x636 -1 x517 -1 x518 -1 x519 -1 x520 -1 x521 -1 x522 -1 x523 -1 x524 >= 0 ;
+2 x637 +2 x638 +2 x639 +2 x640 -1 x521 -1 x522 -1 x523 -1 x524 -1 x525 -1 x526 -1 x527 -1 x528 >= 0 ;
+2 x641 +2 x642 +2 x643 +2 x644 -1 x525 -1 x526 -1 x527 -1 x528 -1 x529 -1 x530 -1 x531 -1 x532 >= 0 ;
+2 x645 +2 x646 +2 x647 +2 x648 -1 x529 -1 x530 -1 x531 -1 x532 -1 x533 -1 x534 -1 x535 -1 x536 >= 0 ;
+2 x649 +2 x650 +2 x651 +2 x652 -1 x533 -1 x534 -1 x535 -1 x536 -1 x537 -1 x538 -1 x539 -1 x540 >= 0 ;
+2 x653 +2 x654 +2 x655 +2 x656 -1 x537 -1 x538 -1 x539 -1 x540 -1 x541 -1 x542 -1 x543 -1 x544 >= 0 ;
+2 x657 +2 x658 +2 x659 +2 x660 -1 x541 -1 x542 -1 x543 -1 x544 -1 x545 -1 x546 -1 x547 -1 x548 >= 0 ;
+2 x661 +2 x662 +2 x663 +2 x664 -1 x545 -1 x546 -1 x547 -1 x548 -1 x549 -1 x550 -1 x551 -1 x552 >= 0 ;
+2 x665 +2 x666 +2 x667 +2 x668 -1 x549 -1 x550 -1 x551 -1 x552 -1 x553 -1 x554 -1 x555 -1 x556 >= 0 ;
+2 x669 +2 x670 +2 x671 +2 x672 -1 x553 -1 x554 -1 x555 -1 x556 -1 x557 -1 x558 -1 x559 -1 x560 >= 0 ;
+2 x673 +2 x674 +2 x675 +2 x676 -1 x557 -1 x558 -1 x559 -1 x560 -1 x561 -1 x562 -1 x563 -1 x564 >= 0 ;
+2 x677 +2 x678 +2 x679 +2 x680 -1 x561 -1 x562 -1 x563 -1 x564 -1 x565 -1 x566 -1 x567 -1 x568 >= 0 ;
+2 x681 +2 x682 +2 x683 +2 x684 -1 x565 -1 x566 -1 x567 -1 x568 -1 x569 -1 x570 -1 x571 -1 x572 >= 0 ;
+2 x685 +2 x686 +2 x687 +2 x688 -1 x569 -1 x570 -1 x571 -1 x572 -1 x573 -1 x574 -1 x575 -1 x576 >= 0 ;
+2 x689 +2 x690 +2 x691 +2 x692 -1 x573 -1 x574 -1 x575 -1 x576 -1 x577 -1 x578 -1 x579 -1 x580 >= 0 ;
+2 x693 +2 x694 +2 x695 +2 x696 -1 x577 -1 x578 -1 x579 -1 x580 -1 x581 -1 x582 -1 x583 -1 x584 >= 0 ;
+2 x697 +2 x698 +2 x699 +2 x700 -1 x581 -1 x582 -1 x583 -1 x584 -1 x585 -1 x586 -1 x587 -1 x588 >= 0 ;
+2 x701 +2 x702 +2 x703 +2 x704 -1 x585 -1 x586 -1 x587 -1 x588 -1 x589 -1 x590 -1 x591 -1 x592 >= 0 ;
+2 x705 +2 x706 +2 x707 +2 x708 -1 x589 -1 x590 -1 x591 -1 x592 -1 x593 -1 x594 -1 x595 -1 x596 >= 0 ;
+2 x709 +2 x710 +2 x711 +2 x712 -1 x593 -1 x594 -1 x595 -1 x596 -1 x597 -1 x598 -1 x599 -1 x600 >= 0 ;
+2 x713 +2 x714 +2 x715 +2 x716 -1 x597 -1 x598 -1 x599 -1 x600 -1 x601 -1 x602 -1 x603 -1 x604 >= 0 ;
+2 x717 +2 x718 +2 x719 +2 x720 -1 x601 -1 x602 -1 x603 -1 x604 -1 x605 -1 x606 -1 x607 -1 x608 >= 0 ;
+2 x721 +2 x722 +2 x723 +2 x724 -1 x605 -1 x606 -1 x607 -1 x608 -1 x609 -1 x610 -1 x611 -1 x612 >= 0 ;
+2 x725 +2 x726 +2 x727 +2 x728 -1 x609 -1 x610 -1 x611 -1 x612 -1 x613 -1 x614 -1 x615 -1 x616 >= 0 ;
+2 x729 +2 x730 +2 x731 +2 x732 -1 x613 -1 x614 -1 x615 -1 x616 -1 x617 -1 x618 -1 x619 -1 x620 >= 0 ;
+2 x733 +2 x734 +2 x735 +2 x736 -1 x621 -1 x622 -1 x623 -1 x624 -1 x625 -1 x626 -1 x627 -1 x628 >= 0 ;
+2 x737 +2 x738 +2 x739 +2 x740 -1 x625 -1 x626 -1 x627 -1 x628 -1 x629 -1 x630 -1 x631 -1 x632 >= 0 ;
+2 x741 +2 x742 +2 x743 +2 x744 -1 x629 -1 x630 -1 x631 -1 x632 -1 x633 -1 x634 -1 x635 -1 x636 >= 0 ;
+2 x745 +2 x746 +2 x747 +2 x748 -1 x633 -1 x634 -1 x635 -1 x636 -1 x637 -1 x638 -1 x639 -1 x640 >= 0 ;
+2 x749 +2 x750 +2 x751 +2 x752 -1 x637 -1 x638 -1 x639 -1 x640 -1 x641 -1 x642 -1 x643 -1 x644 >= 0 ;
+2 x753 +2 x754 +2 x755 +2 x756 -1 x641 -1 x642 -1 x643 -1 x644 -1 x645 -1 x646 -1 x647 -1 x648 >= 0 ;
+2 x757 +2 x758 +2 x759 +2 x760 -1 x645 -1 x646 -1 x647 -1 x648 -1 x649 -1 x650 -1 x651 -1 x652 >= 0 ;
+2 x761 +2 x762 +2 x763 +2 x764 -1 x649 -1 x650 -1 x651 -1 x652 -1 x653 -1 x654 -1 x655 -1 x656 >= 0 ;
+2 x765 +2 x766 +2 x767 +2 x768 -1 x653 -1 x654 -1 x655 -1 x656 -1 x657 -1 x658 -1 x659 -1 x660 >= 0 ;
+2 x769 +2 x770 +2 x771 +2 x772 -1 x657 -1 x658 -1 x659 -1 x660 -1 x661 -1 x662 -1 x663 -1 x664 >= 0 ;
+2 x773 +2 x774 +2 x775 +2 x776 -1 x661 -1 x662 -1 x663 -1 x664 -1 x665 -1 x666 -1 x667 -1 x668 >= 0 ;
+2 x777 +2 x778 +2 x779 +2 x780 -1 x665 -1 x666 -1 x667 -1 x668 -1 x669 -1 x670 -1 x671 -1 x672 >= 0 ;
+2 x781 +2 x782 +2 x783 +2 x784 -1 x669 -1 x670 -1 x671 -1 x672 -1 x673 -1 x674 -1 x675 -1 x676 >= 0 ;
+2 x785 +2 x786 +2 x787 +2 x788 -1 x673 -1 x674 -1 x675 -1 x676 -1 x677 -1 x678 -1 x679 -1 x680 >= 0 ;
+2 x789 +2 x790 +2 x791 +2 x792 -1 x677 -1 x678 -1 x679 -1 x680 -1 x681 -1 x682 -1 x683 -1 x684 >= 0 ;
+2 x793 +2 x794 +2 x795 +2 x796 -1 x681 -1 x682 -1 x683 -1 x684 -1 x685 -1 x686 -1 x687 -1 x688 >= 0 ;
+2 x797 +2 x798 +2 x799 +2 x800 -1 x685 -1 x686 -1 x687 -1 x688 -1 x689 -1 x690 -1 x691 -1 x692 >= 0 ;
+2 x801 +2 x802 +2 x803 +2 x804 -1 x689 -1 x690 -1 x691 -1 x692 -1 x693 -1 x694 -1 x695 -1 x696 >= 0 ;
+2 x805 +2 x806 +2 x807 +2 x808 -1 x693 -1 x694 -1 x695 -1 x696 -1 x697 -1 x698 -1 x699 -1 x700 >= 0 ;
+2 x809 +2 x810 +2 x811 +2 x812 -1 x697 -1 x698 -1 x699 -1 x700 -1 x701 -1 x702 -1 x703 -1 x704 >= 0 ;
+2 x813 +2 x814 +2 x815 +2 x816 -1 x701 -1 x702 -1 x703 -1 x704 -1 x705 -1 x706 -1 x707 -1 x708 >= 0 ;
+2 x817 +2 x818 +2 x819 +2 x820 -1 x705 -1 x706 -1 x707 -1 x708 -1 x709 -1 x710 -1 x711 -1 x712 >= 0 ;
+2 x821 +2 x822 +2 x823 +2 x824 -1 x709 -1 x710 -1 x711 -1 x712 -1 x713 -1 x714 -1 x715 -1 x716 >= 0 ;
+2 x825 +2 x826 +2 x827 +2 x828 -1 x713 -1 x714 -1 x715 -1 x716 -1 x717 -1 x718 -1 x719 -1 x720 >= 0 ;
+2 x829 +2 x830 +2 x831 +2 x832 -1 x717 -1 x718 -1 x719 -1 x720 -1 x721 -1 x722 -1 x723 -1 x724 >= 0 ;
+2 x833 +2 x834 +2 x835 +2 x836 -1 x721 -1 x722 -1 x723 -1 x724 -1 x725 -1 x726 -1 x727 -1 x728 >= 0 ;
+2 x837 +2 x838 +2 x839 +2 x840 -1 x725 -1 x726 -1 x727 -1 x728 -1 x729 -1 x730 -1 x731 -1 x732 >= 0 ;
+2 x841 +2 x842 +2 x843 +2 x844 -1 x733 -1 x734 -1 x735 -1 x736 -1 x737 -1 x738 -1 x739 -1 x740 >= 0 ;
+2 x845 +2 x846 +2 x847 +2 x848 -1 x737 -1 x738 -1 x739 -1 x740 -1 x741 -1 x742 -1 x743 -1 x744 >= 0 ;
+2 x849 +2 x850 +2 x851 +2 x852 -1 x741 -1 x742 -1 x743 -1 x744 -1 x745 -1 x746 -1 x747 -1 x748 >= 0 ;
+2 x853 +2 x854 +2 x855 +2 x856 -1 x745 -1 x746 -1 x747 -1 x748 -1 x749 -1 x750 -1 x751 -1 x752 >= 0 ;
+2 x857 +2 x858 +2 x859 +2 x860 -1 x749 -1 x750 -1 x751 -1 x752 -1 x753 -1 x754 -1 x755 -1 x756 >= 0 ;
+2 x861 +2 x862 +2 x863 +2 x864 -1 x753 -1 x754 -1 x755 -1 x756 -1 x757 -1 x758 -1 x759 -1 x760 >= 0 ;
+2 x865 +2 x866 +2 x867 +2 x868 -1 x757 -1 x758 -1 x759 -1 x760 -1 x761 -1 x762 -1 x763 -1 x764 >= 0 ;
+2 x869 +2 x870 +2 x871 +2 x872 -1 x761 -1 x762 -1 x763 -1 x764 -1 x765 -1 x766 -1 x767 -1 x768 >= 0 ;
+2 x873 +2 x874 +2 x875 +2 x876 -1 x765 -1 x766 -1 x767 -1 x768 -1 x769 -1 x770 -1 x771 -1 x772 >= 0 ;
+2 x877 +2 x878 +2 x879 +2 x880 -1 x769 -1 x770 -1 x771 -1 x772 -1 x773 -1 x774 -1 x775 -1 x776 >= 0 ;
+2 x881 +2 x882 +2 x883 +2 x884 -1 x773 -1 x774 -1 x775 -1 x776 -1 x777 -1 x778 -1 x779 -1 x780 >= 0 ;
+2 x885 +2 x886 +2 x887 +2 x888 -1 x777 -1 x778 -1 x779 -1 x780 -1 x781 -1 x782 -1 x783 -1 x784 >= 0 ;
+2 x889 +2 x890 +2 x891 +2 x892 -1 x781 -1 x782 -1 x783 -1 x784 -1 x785 -1 x786 -1 x787 -1 x788 >= 0 ;
+2 x893 +2 x894 +2 x895 +2 x896 -1 x785 -1 x786 -1 x787 -1 x788 -1 x789 -1 x790 -1 x791 -1 x792 >= 0 ;
+2 x897 +2 x898 +2 x899 +2 x900 -1 x789 -1 x790 -1 x791 -1 x792 -1 x793 -1 x794 -1 x795 -1 x796 >= 0 ;
+2 x901 +2 x902 +2 x903 +2 x904 -1 x793 -1 x794 -1 x795 -1 x796 -1 x797 -1 x798 -1 x799 -1 x800 >= 0 ;
+2 x905 +2 x906 +2 x907 +2 x908 -1 x797 -1 x798 -1 x799 -1 x800 -1 x801 -1 x802 -1 x803 -1 x804 >= 0 ;
+2 x909 +2 x910 +2 x911 +2 x912 -1 x801 -1 x802 -1 x803 -1 x804 -1 x805 -1 x806 -1 x807 -1 x808 >= 0 ;
+2 x913 +2 x914 +2 x915 +2 x916 -1 x805 -1 x806 -1 x807 -1 x808 -1 x809 -1 x810 -1 x811 -1 x812 >= 0 ;
+2 x917 +2 x918 +2 x919 +2 x920 -1 x809 -1 x810 -1 x811 -1 x812 -1 x813 -1 x814 -1 x815 -1 x816 >= 0 ;
+2 x921 +2 x922 +2 x923 +2 x924 -1 x813 -1 x814 -1 x815 -1 x816 -1 x817 -1 x818 -1 x819 -1 x820 >= 0 ;
+2 x925 +2 x926 +2 x927 +2 x928 -1 x817 -1 x818 -1 x819 -1 x820 -1 x821 -1 x822 -1 x823 -1 x824 >= 0 ;
+2 x929 +2 x930 +2 x931 +2 x932 -1 x821 -1 x822 -1 x823 -1 x824 -1 x825 -1 x826 -1 x827 -1 x828 >= 0 ;
+2 x933 +2 x934 +2 x935 +2 x936 -1 x825 -1 x826 -1 x827 -1 x828 -1 x829 -1 x830 -1 x831 -1 x832 >= 0 ;
+2 x937 +2 x938 +2 x939 +2 x940 -1 x829 -1 x830 -1 x831 -1 x832 -1 x833 -1 x834 -1 x835 -1 x836 >= 0 ;
+2 x941 +2 x942 +2 x943 +2 x944 -1 x833 -1 x834 -1 x835 -1 x836 -1 x837 -1 x838 -1 x839 -1 x840 >= 0 ;
+2 x945 +2 x946 +2 x947 +2 x948 -1 x841 -1 x842 -1 x843 -1 x844 -1 x845 -1 x846 -1 x847 -1 x848 >= 0 ;
+2 x949 +2 x950 +2 x951 +2 x952 -1 x845 -1 x846 -1 x847 -1 x848 -1 x849 -1 x850 -1 x851 -1 x852 >= 0 ;
+2 x953 +2 x954 +2 x955 +2 x956 -1 x849 -1 x850 -1 x851 -1 x852 -1 x853 -1 x854 -1 x855 -1 x856 >= 0 ;
+2 x957 +2 x958 +2 x959 +2 x960 -1 x853 -1 x854 -1 x855 -1 x856 -1 x857 -1 x858 -1 x859 -1 x860 >= 0 ;
+2 x961 +2 x962 +2 x963 +2 x964 -1 x857 -1 x858 -1 x859 -1 x860 -1 x861 -1 x862 -1 x863 -1 x864 >= 0 ;
+2 x965 +2 x966 +2 x967 +2 x968 -1 x861 -1 x862 -1 x863 -1 x864 -1 x865 -1 x866 -1 x867 -1 x868 >= 0 ;
+2 x969 +2 x970 +2 x971 +2 x972 -1 x865 -1 x866 -1 x867 -1 x868 -1 x869 -1 x870 -1 x871 -1 x872 >= 0 ;
+2 x973 +2 x974 +2 x975 +2 x976 -1 x869 -1 x870 -1 x871 -1 x872 -1 x873 -1 x874 -1 x875 -1 x876 >= 0 ;
+2 x977 +2 x978 +2 x979 +2 x980 -1 x873 -1 x874 -1 x875 -1 x876 -1 x877 -1 x878 -1 x879 -1 x880 >= 0 ;
+2 x981 +2 x982 +2 x983 +2 x984 -1 x877 -1 x878 -1 x879 -1 x880 -1 x881 -1 x882 -1 x883 -1 x884 >= 0 ;
+2 x985 +2 x986 +2 x987 +2 x988 -1 x881 -1 x882 -1 x883 -1 x884 -1 x885 -1 x886 -1 x887 -1 x888 >= 0 ;
+2 x989 +2 x990 +2 x991 +2 x992 -1 x885 -1 x886 -1 x887 -1 x888 -1 x889 -1 x890 -1 x891 -1 x892 >= 0 ;
+2 x993 +2 x994 +2 x995 +2 x996 -1 x889 -1 x890 -1 x891 -1 x892 -1 x893 -1 x894 -1 x895 -1 x896 >= 0 ;
+2 x997 +2 x998 +2 x999 +2 x1000 -1 x893 -1 x894 -1 x895 -1 x896 -1 x897 -1 x898 -1 x899 -1 x900 >= 0 ;
+2 x1001 +2 x1002 +2 x1003 +2 x1004 -1 x897 -1 x898 -1 x899 -1 x900 -1 x901 -1 x902 -1 x903 -1 x904 >= 0 ;
+2 x1005 +2 x1006 +2 x1007 +2 x1008 -1 x901 -1 x902 -1 x903 -1 x904 -1 x905 -1 x906 -1 x907 -1 x908 >= 0 ;
+2 x1009 +2 x1010 +2 x1011 +2 x1012 -1 x905 -1 x906 -1 x907 -1 x908 -1 x909 -1 x910 -1 x911 -1 x912 >= 0 ;
+2 x1013 +2 x1014 +2 x1015 +2 x1016 -1 x909 -1 x910 -1 x911 -1 x912 -1 x913 -1 x914 -1 x915 -1 x916 >= 0 ;
+2 x1017 +2 x1018 +2 x1019 +2 x1020 -1 x913 -1 x914 -1 x915 -1 x916 -1 x917 -1 x918 -1 x919 -1 x920 >= 0 ;
+2 x1021 +2 x1022 +2 x1023 +2 x1024 -1 x917 -1 x918 -1 x919 -1 x920 -1 x921 -1 x922 -1 x923 -1 x924 >= 0 ;
+2 x1025 +2 x1026 +2 x1027 +2 x1028 -1 x921 -1 x922 -1 x923 -1 x924 -1 x925 -1 x926 -1 x927 -1 x928 >= 0 ;
+2 x1029 +2 x1030 +2 x1031 +2 x1032 -1 x925 -1 x926 -1 x927 -1 x928 -1 x929 -1 x930 -1 x931 -1 x932 >= 0 ;
+2 x1033 +2 x1034 +2 x1035 +2 x1036 -1 x929 -1 x930 -1 x931 -1 x932 -1 x933 -1 x934 -1 x935 -1 x936 >= 0 ;
+2 x1037 +2 x1038 +2 x1039 +2 x1040 -1 x933 -1 x934 -1 x935 -1 x936 -1 x937 -1 x938 -1 x939 -1 x940 >= 0 ;
+2 x1041 +2 x1042 +2 x1043 +2 x1044 -1 x937 -1 x938 -1 x939 -1 x940 -1 x941 -1 x942 -1 x943 -1 x944 >= 0 ;
+2 x1045 +2 x1046 +2 x1047 +2 x1048 -1 x945 -1 x946 -1 x947 -1 x948 -1 x949 -1 x950 -1 x951 -1 x952 >= 0 ;
+2 x1049 +2 x1050 +2 x1051 +2 x1052 -1 x949 -1 x950 -1 x951 -1 x952 -1 x953 -1 x954 -1 x955 -1 x956 >= 0 ;
+2 x1053 +2 x1054 +2 x1055 +2 x1056 -1 x953 -1 x954 -1 x955 -1 x956 -1 x957 -1 x958 -1 x959 -1 x960 >= 0 ;
+2 x1057 +2 x1058 +2 x1059 +2 x1060 -1 x957 -1 x958 -1 x959 -1 x960 -1 x961 -1 x962 -1 x963 -1 x964 >= 0 ;
+2 x1061 +2 x1062 +2 x1063 +2 x1064 -1 x961 -1 x962 -1 x963 -1 x964 -1 x965 -1 x966 -1 x967 -1 x968 >= 0 ;
+2 x1065 +2 x1066 +2 x1067 +2 x1068 -1 x965 -1 x966 -1 x967 -1 x968 -1 x969 -1 x970 -1 x971 -1 x972 >= 0 ;
+2 x1069 +2 x1070 +2 x1071 +2 x1072 -1 x969 -1 x970 -1 x971 -1 x972 -1 x973 -1 x974 -1 x975 -1 x976 >= 0 ;
+2 x1073 +2 x1074 +2 x1075 +2 x1076 -1 x973 -1 x974 -1 x975 -1 x976 -1 x977 -1 x978 -1 x979 -1 x980 >= 0 ;
+2 x1077 +2 x1078 +2 x1079 +2 x1080 -1 x977 -1 x978 -1 x979 -1 x980 -1 x981 -1 x982 -1 x983 -1 x984 >= 0 ;
+2 x1081 +2 x1082 +2 x1083 +2 x1084 -1 x981 -1 x982 -1 x983 -1 x984 -1 x985 -1 x986 -1 x987 -1 x988 >= 0 ;
+2 x1085 +2 x1086 +2 x1087 +2 x1088 -1 x985 -1 x986 -1 x987 -1 x988 -1 x989 -1 x990 -1 x991 -1 x992 >= 0 ;
+2 x1089 +2 x1090 +2 x1091 +2 x1092 -1 x989 -1 x990 -1 x991 -1 x992 -1 x993 -1 x994 -1 x995 -1 x996 >= 0 ;
+2 x1093 +2 x1094 +2 x1095 +2 x1096 -1 x993 -1 x994 -1 x995 -1 x996 -1 x997 -1 x998 -1 x999 -1 x1000 >= 0 ;
+2 x1097 +2 x1098 +2 x1099 +2 x1100 -1 x997 -1 x998 -1 x999 -1 x1000 -1 x1001 -1 x1002 -1 x1003 -1 x1004 >= 0 ;
+2 x1101 +2 x1102 +2 x1103 +2 x1104 -1 x1001 -1 x1002 -1 x1003 -1 x1004 -1 x1005 -1 x1006 -1 x1007 -1 x1008 >= 0 ;
+2 x1105 +2 x1106 +2 x1107 +2 x1108 -1 x1005 -1 x1006 -1 x1007 -1 x1008 -1 x1009 -1 x1010 -1 x1011 -1 x1012 >= 0 ;
+2 x1109 +2 x1110 +2 x1111 +2 x1112 -1 x1009 -1 x1010 -1 x1011 -1 x1012 -1 x1013 -1 x1014 -1 x1015 -1 x1016 >= 0 ;
+2 x1113 +2 x1114 +2 x1115 +2 x1116 -1 x1013 -1 x1014 -1 x1015 -1 x1016 -1 x1017 -1 x1018 -1 x1019 -1 x1020 >= 0 ;
+2 x1117 +2 x1118 +2 x1119 +2 x1120 -1 x1017 -1 x1018 -1 x1019 -1 x1020 -1 x1021 -1 x1022 -1 x1023 -1 x1024 >= 0 ;
+2 x1121 +2 x1122 +2 x1123 +2 x1124 -1 x1021 -1 x1022 -1 x1023 -1 x1024 -1 x1025 -1 x1026 -1 x1027 -1 x1028 >= 0 ;
+2 x1125 +2 x1126 +2 x1127 +2 x1128 -1 x1025 -1 x1026 -1 x1027 -1 x1028 -1 x1029 -1 x1030 -1 x1031 -1 x1032 >= 0 ;
+2 x1129 +2 x1130 +2 x1131 +2 x1132 -1 x1029 -1 x1030 -1 x1031 -1 x1032 -1 x1033 -1 x1034 -1 x1035 -1 x1036 >= 0 ;
+2 x1133 +2 x1134 +2 x1135 +2 x1136 -1 x1033 -1 x1034 -1 x1035 -1 x1036 -1 x1037 -1 x1038 -1 x1039 -1 x1040 >= 0 ;
+2 x1137 +2 x1138 +2 x1139 +2 x1140 -1 x1037 -1 x1038 -1 x1039 -1 x1040 -1 x1041 -1 x1042 -1 x1043 -1 x1044 >= 0 ;
+2 x1141 +2 x1142 +2 x1143 +2 x1144 -1 x1045 -1 x1046 -1 x1047 -1 x1048 -1 x1049 -1 x1050 -1 x1051 -1 x1052 >= 0 ;
+2 x1145 +2 x1146 +2 x1147 +2 x1148 -1 x1049 -1 x1050 -1 x1051 -1 x1052 -1 x1053 -1 x1054 -1 x1055 -1 x1056 >= 0 ;
+2 x1149 +2 x1150 +2 x1151 +2 x1152 -1 x1053 -1 x1054 -1 x1055 -1 x1056 -1 x1057 -1 x1058 -1 x1059 -1 x1060 >= 0 ;
+2 x1153 +2 x1154 +2 x1155 +2 x1156 -1 x1057 -1 x1058 -1 x1059 -1 x1060 -1 x1061 -1 x1062 -1 x1063 -1 x1064 >= 0 ;
+2 x1157 +2 x1158 +2 x1159 +2 x1160 -1 x1061 -1 x1062 -1 x1063 -1 x1064 -1 x1065 -1 x1066 -1 x1067 -1 x1068 >= 0 ;
+2 x1161 +2 x1162 +2 x1163 +2 x1164 -1 x1065 -1 x1066 -1 x1067 -1 x1068 -1 x1069 -1 x1070 -1 x1071 -1 x1072 >= 0 ;
+2 x1165 +2 x1166 +2 x1167 +2 x1168 -1 x1069 -1 x1070 -1 x1071 -1 x1072 -1 x1073 -1 x1074 -1 x1075 -1 x1076 >= 0 ;
+2 x1169 +2 x1170 +2 x1171 +2 x1172 -1 x1073 -1 x1074 -1 x1075 -1 x1076 -1 x1077 -1 x1078 -1 x1079 -1 x1080 >= 0 ;
+2 x1173 +2 x1174 +2 x1175 +2 x1176 -1 x1077 -1 x1078 -1 x1079 -1 x1080 -1 x1081 -1 x1082 -1 x1083 -1 x1084 >= 0 ;
+2 x1177 +2 x1178 +2 x1179 +2 x1180 -1 x1081 -1 x1082 -1 x1083 -1 x1084 -1 x1085 -1 x1086 -1 x1087 -1 x1088 >= 0 ;
+2 x1181 +2 x1182 +2 x1183 +2 x1184 -1 x1085 -1 x1086 -1 x1087 -1 x1088 -1 x1089 -1 x1090 -1 x1091 -1 x1092 >= 0 ;
+2 x1185 +2 x1186 +2 x1187 +2 x1188 -1 x1089 -1 x1090 -1 x1091 -1 x1092 -1 x1093 -1 x1094 -1 x1095 -1 x1096 >= 0 ;
+2 x1189 +2 x1190 +2 x1191 +2 x1192 -1 x1093 -1 x1094 -1 x1095 -1 x1096 -1 x1097 -1 x1098 -1 x1099 -1 x1100 >= 0 ;
+2 x1193 +2 x1194 +2 x1195 +2 x1196 -1 x1097 -1 x1098 -1 x1099 -1 x1100 -1 x1101 -1 x1102 -1 x1103 -1 x1104 >= 0 ;
+2 x1197 +2 x1198 +2 x1199 +2 x1200 -1 x1101 -1 x1102 -1 x1103 -1 x1104 -1 x1105 -1 x1106 -1 x1107 -1 x1108 >= 0 ;
+2 x1201 +2 x1202 +2 x1203 +2 x1204 -1 x1105 -1 x1106 -1 x1107 -1 x1108 -1 x1109 -1 x1110 -1 x1111 -1 x1112 >= 0 ;
+2 x1205 +2 x1206 +2 x1207 +2 x1208 -1 x1109 -1 x1110 -1 x1111 -1 x1112 -1 x1113 -1 x1114 -1 x1115 -1 x1116 >= 0 ;
+2 x1209 +2 x1210 +2 x1211 +2 x1212 -1 x1113 -1 x1114 -1 x1115 -1 x1116 -1 x1117 -1 x1118 -1 x1119 -1 x1120 >= 0 ;
+2 x1213 +2 x1214 +2 x1215 +2 x1216 -1 x1117 -1 x1118 -1 x1119 -1 x1120 -1 x1121 -1 x1122 -1 x1123 -1 x1124 >= 0 ;
+2 x1217 +2 x1218 +2 x1219 +2 x1220 -1 x1121 -1 x1122 -1 x1123 -1 x1124 -1 x1125 -1 x1126 -1 x1127 -1 x1128 >= 0 ;
+2 x1221 +2 x1222 +2 x1223 +2 x1224 -1 x1125 -1 x1126 -1 x1127 -1 x1128 -1 x1129 -1 x1130 -1 x1131 -1 x1132 >= 0 ;
+2 x1225 +2 x1226 +2 x1227 +2 x1228 -1 x1129 -1 x1130 -1 x1131 -1 x1132 -1 x1133 -1 x1134 -1 x1135 -1 x1136 >= 0 ;
+2 x1229 +2 x1230 +2 x1231 +2 x1232 -1 x1133 -1 x1134 -1 x1135 -1 x1136 -1 x1137 -1 x1138 -1 x1139 -1 x1140 >= 0 ;
+2 x1233 +2 x1234 +2 x1235 +2 x1236 -1 x1141 -1 x1142 -1 x1143 -1 x1144 -1 x1145 -1 x1146 -1 x1147 -1 x1148 >= 0 ;
+2 x1237 +2 x1238 +2 x1239 +2 x1240 -1 x1145 -1 x1146 -1 x1147 -1 x1148 -1 x1149 -1 x1150 -1 x1151 -1 x1152 >= 0 ;
+2 x1241 +2 x1242 +2 x1243 +2 x1244 -1 x1149 -1 x1150 -1 x1151 -1 x1152 -1 x1153 -1 x1154 -1 x1155 -1 x1156 >= 0 ;
+2 x1245 +2 x1246 +2 x1247 +2 x1248 -1 x1153 -1 x1154 -1 x1155 -1 x1156 -1 x1157 -1 x1158 -1 x1159 -1 x1160 >= 0 ;
+2 x1249 +2 x1250 +2 x1251 +2 x1252 -1 x1157 -1 x1158 -1 x1159 -1 x1160 -1 x1161 -1 x1162 -1 x1163 -1 x1164 >= 0 ;
+2 x1253 +2 x1254 +2 x1255 +2 x1256 -1 x1161 -1 x1162 -1 x1163 -1 x1164 -1 x1165 -1 x1166 -1 x1167 -1 x1168 >= 0 ;
+2 x1257 +2 x1258 +2 x1259 +2 x1260 -1 x1165 -1 x1166 -1 x1167 -1 x1168 -1 x1169 -1 x1170 -1 x1171 -1 x1172 >= 0 ;
+2 x1261 +2 x1262 +2 x1263 +2 x1264 -1 x1169 -1 x1170 -1 x1171 -1 x1172 -1 x1173 -1 x1174 -1 x1175 -1 x1176 >= 0 ;
+2 x1265 +2 x1266 +2 x1267 +2 x1268 -1 x1173 -1 x1174 -1 x1175 -1 x1176 -1 x1177 -1 x1178 -1 x1179 -1 x1180 >= 0 ;
+2 x1269 +2 x1270 +2 x1271 +2 x1272 -1 x1177 -1 x1178 -1 x1179 -1 x1180 -1 x1181 -1 x1182 -1 x1183 -1 x1184 >= 0 ;
+2 x1273 +2 x1274 +2 x1275 +2 x1276 -1 x1181 -1 x1182 -1 x1183 -1 x1184 -1 x1185 -1 x1186 -1 x1187 -1 x1188 >= 0 ;
+2 x1277 +2 x1278 +2 x1279 +2 x1280 -1 x1185 -1 x1186 -1 x1187 -1 x1188 -1 x1189 -1 x1190 -1 x1191 -1 x1192 >= 0 ;
+2 x1281 +2 x1282 +2 x1283 +2 x1284 -1 x1189 -1 x1190 -1 x1191 -1 x1192 -1 x1193 -1 x1194 -1 x1195 -1 x1196 >= 0 ;
+2 x1285 +2 x1286 +2 x1287 +2 x1288 -1 x1193 -1 x1194 -1 x1195 -1 x1196 -1 x1197 -1 x1198 -1 x1199 -1 x1200 >= 0 ;
+2 x1289 +2 x1290 +2 x1291 +2 x1292 -1 x1197 -1 x1198 -1 x1199 -1 x1200 -1 x1201 -1 x1202 -1 x1203 -1 x1204 >= 0 ;
+2 x1293 +2 x1294 +2 x1295 +2 x1296 -1 x1201 -1 x1202 -1 x1203 -1 x1204 -1 x1205 -1 x1206 -1 x1207 -1 x1208 >= 0 ;
+2 x1297 +2 x1298 +2 x1299 +2 x1300 -1 x1205 -1 x1206 -1 x1207 -1 x1208 -1 x1209 -1 x1210 -1 x1211 -1 x1212 >= 0 ;
+2 x1301 +2 x1302 +2 x1303 +2 x1304 -1 x1209 -1 x1210 -1 x1211 -1 x1212 -1 x1213 -1 x1214 -1 x1215 -1 x1216 >= 0 ;
+2 x1305 +2 x1306 +2 x1307 +2 x1308 -1 x1213 -1 x1214 -1 x1215 -1 x1216 -1 x1217 -1 x1218 -1 x1219 -1 x1220 >= 0 ;
+2 x1309 +2 x1310 +2 x1311 +2 x1312 -1 x1217 -1 x1218 -1 x1219 -1 x1220 -1 x1221 -1 x1222 -1 x1223 -1 x1224 >= 0 ;
+2 x1313 +2 x1314 +2 x1315 +2 x1316 -1 x1221 -1 x1222 -1 x1223 -1 x1224 -1 x1225 -1 x1226 -1 x1227 -1 x1228 >= 0 ;
+2 x1317 +2 x1318 +2 x1319 +2 x1320 -1 x1225 -1 x1226 -1 x1227 -1 x1228 -1 x1229 -1 x1230 -1 x1231 -1 x1232 >= 0 ;
+2 x1321 +2 x1322 +2 x1323 +2 x1324 -1 x1233 -1 x1234 -1 x1235 -1 x1236 -1 x1237 -1 x1238 -1 x1239 -1 x1240 >= 0 ;
+2 x1325 +2 x1326 +2 x1327 +2 x1328 -1 x1237 -1 x1238 -1 x1239 -1 x1240 -1 x1241 -1 x1242 -1 x1243 -1 x1244 >= 0 ;
+2 x1329 +2 x1330 +2 x1331 +2 x1332 -1 x1241 -1 x1242 -1 x1243 -1 x1244 -1 x1245 -1 x1246 -1 x1247 -1 x1248 >= 0 ;
+2 x1333 +2 x1334 +2 x1335 +2 x1336 -1 x1245 -1 x1246 -1 x1247 -1 x1248 -1 x1249 -1 x1250 -1 x1251 -1 x1252 >= 0 ;
+2 x1337 +2 x1338 +2 x1339 +2 x1340 -1 x1249 -1 x1250 -1 x1251 -1 x1252 -1 x1253 -1 x1254 -1 x1255 -1 x1256 >= 0 ;
+2 x1341 +2 x1342 +2 x1343 +2 x1344 -1 x1253 -1 x1254 -1 x1255 -1 x1256 -1 x1257 -1 x1258 -1 x1259 -1 x1260 >= 0 ;
+2 x1345 +2 x1346 +2 x1347 +2 x1348 -1 x1257 -1 x1258 -1 x1259 -1 x1260 -1 x1261 -1 x1262 -1 x1263 -1 x1264 >= 0 ;
+2 x1349 +2 x1350 +2 x1351 +2 x1352 -1 x1261 -1 x1262 -1 x1263 -1 x1264 -1 x1265 -1 x1266 -1 x1267 -1 x1268 >= 0 ;
+2 x1353 +2 x1354 +2 x1355 +2 x1356 -1 x1265 -1 x1266 -1 x1267 -1 x1268 -1 x1269 -1 x1270 -1 x1271 -1 x1272 >= 0 ;
+2 x1357 +2 x1358 +2 x1359 +2 x1360 -1 x1269 -1 x1270 -1 x1271 -1 x1272 -1 x1273 -1 x1274 -1 x1275 -1 x1276 >= 0 ;
+2 x1361 +2 x1362 +2 x1363 +2 x1364 -1 x1273 -1 x1274 -1 x1275 -1 x1276 -1 x1277 -1 x1278 -1 x1279 -1 x1280 >= 0 ;
+2 x1365 +2 x1366 +2 x1367 +2 x1368 -1 x1277 -1 x1278 -1 x1279 -1 x1280 -1 x1281 -1 x1282 -1 x1283 -1 x1284 >= 0 ;
+2 x1369 +2 x1370 +2 x1371 +2 x1372 -1 x1281 -1 x1282 -1 x1283 -1 x1284 -1 x1285 -1 x1286 -1 x1287 -1 x1288 >= 0 ;
+2 x1373 +2 x1374 +2 x1375 +2 x1376 -1 x1285 -1 x1286 -1 x1287 -1 x1288 -1 x1289 -1 x1290 -1 x1291 -1 x1292 >= 0 ;
+2 x1377 +2 x1378 +2 x1379 +2 x1380 -1 x1289 -1 x1290 -1 x1291 -1 x1292 -1 x1293 -1 x1294 -1 x1295 -1 x1296 >= 0 ;
+2 x1381 +2 x1382 +2 x1383 +2 x1384 -1 x1293 -1 x1294 -1 x1295 -1 x1296 -1 x1297 -1 x1298 -1 x1299 -1 x1300 >= 0 ;
+2 x1385 +2 x1386 +2 x1387 +2 x1388 -1 x1297 -1 x1298 -1 x1299 -1 x1300 -1 x1301 -1 x1302 -1 x1303 -1 x1304 >= 0 ;
+2 x1389 +2 x1390 +2 x1391 +2 x1392 -1 x1301 -1 x1302 -1 x1303 -1 x1304 -1 x1305 -1 x1306 -1 x1307 -1 x1308 >= 0 ;
+2 x1393 +2 x1394 +2 x1395 +2 x1396 -1 x1305 -1 x1306 -1 x1307 -1 x1308 -1 x1309 -1 x1310 -1 x1311 -1 x1312 >= 0 ;
+2 x1397 +2 x1398 +2 x1399 +2 x1400 -1 x1309 -1 x1310 -1 x1311 -1 x1312 -1 x1313 -1 x1314 -1 x1315 -1 x1316 >= 0 ;
+2 x1401 +2 x1402 +2 x1403 +2 x1404 -1 x1313 -1 x1314 -1 x1315 -1 x1316 -1 x1317 -1 x1318 -1 x1319 -1 x1320 >= 0 ;
+2 x1405 +2 x1406 +2 x1407 +2 x1408 -1 x1321 -1 x1322 -1 x1323 -1 x1324 -1 x1325 -1 x1326 -1 x1327 -1 x1328 >= 0 ;
+2 x1409 +2 x1410 +2 x1411 +2 x1412 -1 x1325 -1 x1326 -1 x1327 -1 x1328 -1 x1329 -1 x1330 -1 x1331 -1 x1332 >= 0 ;
+2 x1413 +2 x1414 +2 x1415 +2 x1416 -1 x1329 -1 x1330 -1 x1331 -1 x1332 -1 x1333 -1 x1334 -1 x1335 -1 x1336 >= 0 ;
+2 x1417 +2 x1418 +2 x1419 +2 x1420 -1 x1333 -1 x1334 -1 x1335 -1 x1336 -1 x1337 -1 x1338 -1 x1339 -1 x1340 >= 0 ;
+2 x1421 +2 x1422 +2 x1423 +2 x1424 -1 x1337 -1 x1338 -1 x1339 -1 x1340 -1 x1341 -1 x1342 -1 x1343 -1 x1344 >= 0 ;
+2 x1425 +2 x1426 +2 x1427 +2 x1428 -1 x1341 -1 x1342 -1 x1343 -1 x1344 -1 x1345 -1 x1346 -1 x1347 -1 x1348 >= 0 ;
+2 x1429 +2 x1430 +2 x1431 +2 x1432 -1 x1345 -1 x1346 -1 x1347 -1 x1348 -1 x1349 -1 x1350 -1 x1351 -1 x1352 >= 0 ;
+2 x1433 +2 x1434 +2 x1435 +2 x1436 -1 x1349 -1 x1350 -1 x1351 -1 x1352 -1 x1353 -1 x1354 -1 x1355 -1 x1356 >= 0 ;
+2 x1437 +2 x1438 +2 x1439 +2 x1440 -1 x1353 -1 x1354 -1 x1355 -1 x1356 -1 x1357 -1 x1358 -1 x1359 -1 x1360 >= 0 ;
+2 x1441 +2 x1442 +2 x1443 +2 x1444 -1 x1357 -1 x1358 -1 x1359 -1 x1360 -1 x1361 -1 x1362 -1 x1363 -1 x1364 >= 0 ;
+2 x1445 +2 x1446 +2 x1447 +2 x1448 -1 x1361 -1 x1362 -1 x1363 -1 x1364 -1 x1365 -1 x1366 -1 x1367 -1 x1368 >= 0 ;
+2 x1449 +2 x1450 +2 x1451 +2 x1452 -1 x1365 -1 x1366 -1 x1367 -1 x1368 -1 x1369 -1 x1370 -1 x1371 -1 x1372 >= 0 ;
+2 x1453 +2 x1454 +2 x1455 +2 x1456 -1 x1369 -1 x1370 -1 x1371 -1 x1372 -1 x1373 -1 x1374 -1 x1375 -1 x1376 >= 0 ;
+2 x1457 +2 x1458 +2 x1459 +2 x1460 -1 x1373 -1 x1374 -1 x1375 -1 x1376 -1 x1377 -1 x1378 -1 x1379 -1 x1380 >= 0 ;
+2 x1461 +2 x1462 +2 x1463 +2 x1464 -1 x1377 -1 x1378 -1 x1379 -1 x1380 -1 x1381 -1 x1382 -1 x1383 -1 x1384 >= 0 ;
+2 x1465 +2 x1466 +2 x1467 +2 x1468 -1 x1381 -1 x1382 -1 x1383 -1 x1384 -1 x1385 -1 x1386 -1 x1387 -1 x1388 >= 0 ;
+2 x1469 +2 x1470 +2 x1471 +2 x1472 -1 x1385 -1 x1386 -1 x1387 -1 x1388 -1 x1389 -1 x1390 -1 x1391 -1 x1392 >= 0 ;
+2 x1473 +2 x1474 +2 x1475 +2 x1476 -1 x1389 -1 x1390 -1 x1391 -1 x1392 -1 x1393 -1 x1394 -1 x1395 -1 x1396 >= 0 ;
+2 x1477 +2 x1478 +2 x1479 +2 x1480 -1 x1393 -1 x1394 -1 x1395 -1 x1396 -1 x1397 -1 x1398 -1 x1399 -1 x1400 >= 0 ;
+2 x1481 +2 x1482 +2 x1483 +2 x1484 -1 x1397 -1 x1398 -1 x1399 -1 x1400 -1 x1401 -1 x1402 -1 x1403 -1 x1404 >= 0 ;
+2 x1485 +2 x1486 +2 x1487 +2 x1488 -1 x1405 -1 x1406 -1 x1407 -1 x1408 -1 x1409 -1 x1410 -1 x1411 -1 x1412 >= 0 ;
+2 x1489 +2 x1490 +2 x1491 +2 x1492 -1 x1409 -1 x1410 -1 x1411 -1 x1412 -1 x1413 -1 x1414 -1 x1415 -1 x1416 >= 0 ;
+2 x1493 +2 x1494 +2 x1495 +2 x1496 -1 x1413 -1 x1414 -1 x1415 -1 x1416 -1 x1417 -1 x1418 -1 x1419 -1 x1420 >= 0 ;
+2 x1497 +2 x1498 +2 x1499 +2 x1500 -1 x1417 -1 x1418 -1 x1419 -1 x1420 -1 x1421 -1 x1422 -1 x1423 -1 x1424 >= 0 ;
+2 x1501 +2 x1502 +2 x1503 +2 x1504 -1 x1421 -1 x1422 -1 x1423 -1 x1424 -1 x1425 -1 x1426 -1 x1427 -1 x1428 >= 0 ;
+2 x1505 +2 x1506 +2 x1507 +2 x1508 -1 x1425 -1 x1426 -1 x1427 -1 x1428 -1 x1429 -1 x1430 -1 x1431 -1 x1432 >= 0 ;
+2 x1509 +2 x1510 +2 x1511 +2 x1512 -1 x1429 -1 x1430 -1 x1431 -1 x1432 -1 x1433 -1 x1434 -1 x1435 -1 x1436 >= 0 ;
+2 x1513 +2 x1514 +2 x1515 +2 x1516 -1 x1433 -1 x1434 -1 x1435 -1 x1436 -1 x1437 -1 x1438 -1 x1439 -1 x1440 >= 0 ;
+2 x1517 +2 x1518 +2 x1519 +2 x1520 -1 x1437 -1 x1438 -1 x1439 -1 x1440 -1 x1441 -1 x1442 -1 x1443 -1 x1444 >= 0 ;
+2 x1521 +2 x1522 +2 x1523 +2 x1524 -1 x1441 -1 x1442 -1 x1443 -1 x1444 -1 x1445 -1 x1446 -1 x1447 -1 x1448 >= 0 ;
+2 x1525 +2 x1526 +2 x1527 +2 x1528 -1 x1445 -1 x1446 -1 x1447 -1 x1448 -1 x1449 -1 x1450 -1 x1451 -1 x1452 >= 0 ;
+2 x1529 +2 x1530 +2 x1531 +2 x1532 -1 x1449 -1 x1450 -1 x1451 -1 x1452 -1 x1453 -1 x1454 -1 x1455 -1 x1456 >= 0 ;
+2 x1533 +2 x1534 +2 x1535 +2 x1536 -1 x1453 -1 x1454 -1 x1455 -1 x1456 -1 x1457 -1 x1458 -1 x1459 -1 x1460 >= 0 ;
+2 x1537 +2 x1538 +2 x1539 +2 x1540 -1 x1457 -1 x1458 -1 x1459 -1 x1460 -1 x1461 -1 x1462 -1 x1463 -1 x1464 >= 0 ;
+2 x1541 +2 x1542 +2 x1543 +2 x1544 -1 x1461 -1 x1462 -1 x1463 -1 x1464 -1 x1465 -1 x1466 -1 x1467 -1 x1468 >= 0 ;
+2 x1545 +2 x1546 +2 x1547 +2 x1548 -1 x1465 -1 x1466 -1 x1467 -1 x1468 -1 x1469 -1 x1470 -1 x1471 -1 x1472 >= 0 ;
+2 x1549 +2 x1550 +2 x1551 +2 x1552 -1 x1469 -1 x1470 -1 x1471 -1 x1472 -1 x1473 -1 x1474 -1 x1475 -1 x1476 >= 0 ;
+2 x1553 +2 x1554 +2 x1555 +2 x1556 -1 x1473 -1 x1474 -1 x1475 -1 x1476 -1 x1477 -1 x1478 -1 x1479 -1 x1480 >= 0 ;
+2 x1557 +2 x1558 +2 x1559 +2 x1560 -1 x1477 -1 x1478 -1 x1479 -1 x1480 -1 x1481 -1 x1482 -1 x1483 -1 x1484 >= 0 ;
+2 x1561 +2 x1562 +2 x1563 +2 x1564 -1 x1485 -1 x1486 -1 x1487 -1 x1488 -1 x1489 -1 x1490 -1 x1491 -1 x1492 >= 0 ;
+2 x1565 +2 x1566 +2 x1567 +2 x1568 -1 x1489 -1 x1490 -1 x1491 -1 x1492 -1 x1493 -1 x1494 -1 x1495 -1 x1496 >= 0 ;
+2 x1569 +2 x1570 +2 x1571 +2 x1572 -1 x1493 -1 x1494 -1 x1495 -1 x1496 -1 x1497 -1 x1498 -1 x1499 -1 x1500 >= 0 ;
+2 x1573 +2 x1574 +2 x1575 +2 x1576 -1 x1497 -1 x1498 -1 x1499 -1 x1500 -1 x1501 -1 x1502 -1 x1503 -1 x1504 >= 0 ;
+2 x1577 +2 x1578 +2 x1579 +2 x1580 -1 x1501 -1 x1502 -1 x1503 -1 x1504 -1 x1505 -1 x1506 -1 x1507 -1 x1508 >= 0 ;
+2 x1581 +2 x1582 +2 x1583 +2 x1584 -1 x1505 -1 x1506 -1 x1507 -1 x1508 -1 x1509 -1 x1510 -1 x1511 -1 x1512 >= 0 ;
+2 x1585 +2 x1586 +2 x1587 +2 x1588 -1 x1509 -1 x1510 -1 x1511 -1 x1512 -1 x1513 -1 x1514 -1 x1515 -1 x1516 >= 0 ;
+2 x1589 +2 x1590 +2 x1591 +2 x1592 -1 x1513 -1 x1514 -1 x1515 -1 x1516 -1 x1517 -1 x1518 -1 x1519 -1 x1520 >= 0 ;
+2 x1593 +2 x1594 +2 x1595 +2 x1596 -1 x1517 -1 x1518 -1 x1519 -1 x1520 -1 x1521 -1 x1522 -1 x1523 -1 x1524 >= 0 ;
+2 x1597 +2 x1598 +2 x1599 +2 x1600 -1 x1521 -1 x1522 -1 x1523 -1 x1524 -1 x1525 -1 x1526 -1 x1527 -1 x1528 >= 0 ;
+2 x1601 +2 x1602 +2 x1603 +2 x1604 -1 x1525 -1 x1526 -1 x1527 -1 x1528 -1 x1529 -1 x1530 -1 x1531 -1 x1532 >= 0 ;
+2 x1605 +2 x1606 +2 x1607 +2 x1608 -1 x1529 -1 x1530 -1 x1531 -1 x1532 -1 x1533 -1 x1534 -1 x1535 -1 x1536 >= 0 ;
+2 x1609 +2 x1610 +2 x1611 +2 x1612 -1 x1533 -1 x1534 -1 x1535 -1 x1536 -1 x1537 -1 x1538 -1 x1539 -1 x1540 >= 0 ;
+2 x1613 +2 x1614 +2 x1615 +2 x1616 -1 x1537 -1 x1538 -1 x1539 -1 x1540 -1 x1541 -1 x1542 -1 x1543 -1 x1544 >= 0 ;
+2 x1617 +2 x1618 +2 x1619 +2 x1620 -1 x1541 -1 x1542 -1 x1543 -1 x1544 -1 x1545 -1 x1546 -1 x1547 -1 x1548 >= 0 ;
+2 x1621 +2 x1622 +2 x1623 +2 x1624 -1 x1545 -1 x1546 -1 x1547 -1 x1548 -1 x1549 -1 x1550 -1 x1551 -1 x1552 >= 0 ;
+2 x1625 +2 x1626 +2 x1627 +2 x1628 -1 x1549 -1 x1550 -1 x1551 -1 x1552 -1 x1553 -1 x1554 -1 x1555 -1 x1556 >= 0 ;
+2 x1629 +2 x1630 +2 x1631 +2 x1632 -1 x1553 -1 x1554 -1 x1555 -1 x1556 -1 x1557 -1 x1558 -1 x1559 -1 x1560 >= 0 ;
+2 x1633 +2 x1634 +2 x1635 +2 x1636 -1 x1561 -1 x1562 -1 x1563 -1 x1564 -1 x1565 -1 x1566 -1 x1567 -1 x1568 >= 0 ;
+2 x1637 +2 x1638 +2 x1639 +2 x1640 -1 x1565 -1 x1566 -1 x1567 -1 x1568 -1 x1569 -1 x1570 -1 x1571 -1 x1572 >= 0 ;
+2 x1641 +2 x1642 +2 x1643 +2 x1644 -1 x1569 -1 x1570 -1 x1571 -1 x1572 -1 x1573 -1 x1574 -1 x1575 -1 x1576 >= 0 ;
+2 x1645 +2 x1646 +2 x1647 +2 x1648 -1 x1573 -1 x1574 -1 x1575 -1 x1576 -1 x1577 -1 x1578 -1 x1579 -1 x1580 >= 0 ;
+2 x1649 +2 x1650 +2 x1651 +2 x1652 -1 x1577 -1 x1578 -1 x1579 -1 x1580 -1 x1581 -1 x1582 -1 x1583 -1 x1584 >= 0 ;
+2 x1653 +2 x1654 +2 x1655 +2 x1656 -1 x1581 -1 x1582 -1 x1583 -1 x1584 -1 x1585 -1 x1586 -1 x1587 -1 x1588 >= 0 ;
+2 x1657 +2 x1658 +2 x1659 +2 x1660 -1 x1585 -1 x1586 -1 x1587 -1 x1588 -1 x1589 -1 x1590 -1 x1591 -1 x1592 >= 0 ;
+2 x1661 +2 x1662 +2 x1663 +2 x1664 -1 x1589 -1 x1590 -1 x1591 -1 x1592 -1 x1593 -1 x1594 -1 x1595 -1 x1596 >= 0 ;
+2 x1665 +2 x1666 +2 x1667 +2 x1668 -1 x1593 -1 x1594 -1 x1595 -1 x1596 -1 x1597 -1 x1598 -1 x1599 -1 x1600 >= 0 ;
+2 x1669 +2 x1670 +2 x1671 +2 x1672 -1 x1597 -1 x1598 -1 x1599 -1 x1600 -1 x1601 -1 x1602 -1 x1603 -1 x1604 >= 0 ;
+2 x1673 +2 x1674 +2 x1675 +2 x1676 -1 x1601 -1 x1602 -1 x1603 -1 x1604 -1 x1605 -1 x1606 -1 x1607 -1 x1608 >= 0 ;
+2 x1677 +2 x1678 +2 x1679 +2 x1680 -1 x1605 -1 x1606 -1 x1607 -1 x1608 -1 x1609 -1 x1610 -1 x1611 -1 x1612 >= 0 ;
+2 x1681 +2 x1682 +2 x1683 +2 x1684 -1 x1609 -1 x1610 -1 x1611 -1 x1612 -1 x1613 -1 x1614 -1 x1615 -1 x1616 >= 0 ;
+2 x1685 +2 x1686 +2 x1687 +2 x1688 -1 x1613 -1 x1614 -1 x1615 -1 x1616 -1 x1617 -1 x1618 -1 x1619 -1 x1620 >= 0 ;
+2 x1689 +2 x1690 +2 x1691 +2 x1692 -1 x1617 -1 x1618 -1 x1619 -1 x1620 -1 x1621 -1 x1622 -1 x1623 -1 x1624 >= 0 ;
+2 x1693 +2 x1694 +2 x1695 +2 x1696 -1 x1621 -1 x1622 -1 x1623 -1 x1624 -1 x1625 -1 x1626 -1 x1627 -1 x1628 >= 0 ;
+2 x1697 +2 x1698 +2 x1699 +2 x1700 -1 x1625 -1 x1626 -1 x1627 -1 x1628 -1 x1629 -1 x1630 -1 x1631 -1 x1632 >= 0 ;
+2 x1701 +2 x1702 +2 x1703 +2 x1704 -1 x1633 -1 x1634 -1 x1635 -1 x1636 -1 x1637 -1 x1638 -1 x1639 -1 x1640 >= 0 ;
+2 x1705 +2 x1706 +2 x1707 +2 x1708 -1 x1637 -1 x1638 -1 x1639 -1 x1640 -1 x1641 -1 x1642 -1 x1643 -1 x1644 >= 0 ;
+2 x1709 +2 x1710 +2 x1711 +2 x1712 -1 x1641 -1 x1642 -1 x1643 -1 x1644 -1 x1645 -1 x1646 -1 x1647 -1 x1648 >= 0 ;
+2 x1713 +2 x1714 +2 x1715 +2 x1716 -1 x1645 -1 x1646 -1 x1647 -1 x1648 -1 x1649 -1 x1650 -1 x1651 -1 x1652 >= 0 ;
+2 x1717 +2 x1718 +2 x1719 +2 x1720 -1 x1649 -1 x1650 -1 x1651 -1 x1652 -1 x1653 -1 x1654 -1 x1655 -1 x1656 >= 0 ;
+2 x1721 +2 x1722 +2 x1723 +2 x1724 -1 x1653 -1 x1654 -1 x1655 -1 x1656 -1 x1657 -1 x1658 -1 x1659 -1 x1660 >= 0 ;
+2 x1725 +2 x1726 +2 x1727 +2 x1728 -1 x1657 -1 x1658 -1 x1659 -1 x1660 -1 x1661 -1 x1662 -1 x1663 -1 x1664 >= 0 ;
+2 x1729 +2 x1730 +2 x1731 +2 x1732 -1 x1661 -1 x1662 -1 x1663 -1 x1664 -1 x1665 -1 x1666 -1 x1667 -1 x1668 >= 0 ;
+2 x1733 +2 x1734 +2 x1735 +2 x1736 -1 x1665 -1 x1666 -1 x1667 -1 x1668 -1 x1669 -1 x1670 -1 x1671 -1 x1672 >= 0 ;
+2 x1737 +2 x1738 +2 x1739 +2 x1740 -1 x1669 -1 x1670 -1 x1671 -1 x1672 -1 x1673 -1 x1674 -1 x1675 -1 x1676 >= 0 ;
+2 x1741 +2 x1742 +2 x1743 +2 x1744 -1 x1673 -1 x1674 -1 x1675 -1 x1676 -1 x1677 -1 x1678 -1 x1679 -1 x1680 >= 0 ;
+2 x1745 +2 x1746 +2 x1747 +2 x1748 -1 x1677 -1 x1678 -1 x1679 -1 x1680 -1 x1681 -1 x1682 -1 x1683 -1 x1684 >= 0 ;
+2 x1749 +2 x1750 +2 x1751 +2 x1752 -1 x1681 -1 x1682 -1 x1683 -1 x1684 -1 x1685 -1 x1686 -1 x1687 -1 x1688 >= 0 ;
+2 x1753 +2 x1754 +2 x1755 +2 x1756 -1 x1685 -1 x1686 -1 x1687 -1 x1688 -1 x1689 -1 x1690 -1 x1691 -1 x1692 >= 0 ;
+2 x1757 +2 x1758 +2 x1759 +2 x1760 -1 x1689 -1 x1690 -1 x1691 -1 x1692 -1 x1693 -1 x1694 -1 x1695 -1 x1696 >= 0 ;
+2 x1761 +2 x1762 +2 x1763 +2 x1764 -1 x1693 -1 x1694 -1 x1695 -1 x1696 -1 x1697 -1 x1698 -1 x1699 -1 x1700 >= 0 ;
+2 x1765 +2 x1766 +2 x1767 +2 x1768 -1 x1701 -1 x1702 -1 x1703 -1 x1704 -1 x1705 -1 x1706 -1 x1707 -1 x1708 >= 0 ;
+2 x1769 +2 x1770 +2 x1771 +2 x1772 -1 x1705 -1 x1706 -1 x1707 -1 x1708 -1 x1709 -1 x1710 -1 x1711 -1 x1712 >= 0 ;
+2 x1773 +2 x1774 +2 x1775 +2 x1776 -1 x1709 -1 x1710 -1 x1711 -1 x1712 -1 x1713 -1 x1714 -1 x1715 -1 x1716 >= 0 ;
+2 x1777 +2 x1778 +2 x1779 +2 x1780 -1 x1713 -1 x1714 -1 x1715 -1 x1716 -1 x1717 -1 x1718 -1 x1719 -1 x1720 >= 0 ;
+2 x1781 +2 x1782 +2 x1783 +2 x1784 -1 x1717 -1 x1718 -1 x1719 -1 x1720 -1 x1721 -1 x1722 -1 x1723 -1 x1724 >= 0 ;
+2 x1785 +2 x1786 +2 x1787 +2 x1788 -1 x1721 -1 x1722 -1 x1723 -1 x1724 -1 x1725 -1 x1726 -1 x1727 -1 x1728 >= 0 ;
+2 x1789 +2 x1790 +2 x1791 +2 x1792 -1 x1725 -1 x1726 -1 x1727 -1 x1728 -1 x1729 -1 x1730 -1 x1731 -1 x1732 >= 0 ;
+2 x1793 +2 x1794 +2 x1795 +2 x1796 -1 x1729 -1 x1730 -1 x1731 -1 x1732 -1 x1733 -1 x1734 -1 x1735 -1 x1736 >= 0 ;
+2 x1797 +2 x1798 +2 x1799 +2 x1800 -1 x1733 -1 x1734 -1 x1735 -1 x1736 -1 x1737 -1 x1738 -1 x1739 -1 x1740 >= 0 ;
+2 x1801 +2 x1802 +2 x1803 +2 x1804 -1 x1737 -1 x1738 -1 x1739 -1 x1740 -1 x1741 -1 x1742 -1 x1743 -1 x1744 >= 0 ;
+2 x1805 +2 x1806 +2 x1807 +2 x1808 -1 x1741 -1 x1742 -1 x1743 -1 x1744 -1 x1745 -1 x1746 -1 x1747 -1 x1748 >= 0 ;
+2 x1809 +2 x1810 +2 x1811 +2 x1812 -1 x1745 -1 x1746 -1 x1747 -1 x1748 -1 x1749 -1 x1750 -1 x1751 -1 x1752 >= 0 ;
+2 x1813 +2 x1814 +2 x1815 +2 x1816 -1 x1749 -1 x1750 -1 x1751 -1 x1752 -1 x1753 -1 x1754 -1 x1755 -1 x1756 >= 0 ;
+2 x1817 +2 x1818 +2 x1819 +2 x1820 -1 x1753 -1 x1754 -1 x1755 -1 x1756 -1 x1757 -1 x1758 -1 x1759 -1 x1760 >= 0 ;
+2 x1821 +2 x1822 +2 x1823 +2 x1824 -1 x1757 -1 x1758 -1 x1759 -1 x1760 -1 x1761 -1 x1762 -1 x1763 -1 x1764 >= 0 ;
+2 x1825 +2 x1826 +2 x1827 +2 x1828 -1 x1765 -1 x1766 -1 x1767 -1 x1768 -1 x1769 -1 x1770 -1 x1771 -1 x1772 >= 0 ;
+2 x1829 +2 x1830 +2 x1831 +2 x1832 -1 x1769 -1 x1770 -1 x1771 -1 x1772 -1 x1773 -1 x1774 -1 x1775 -1 x1776 >= 0 ;
+2 x1833 +2 x1834 +2 x1835 +2 x1836 -1 x1773 -1 x1774 -1 x1775 -1 x1776 -1 x1777 -1 x1778 -1 x1779 -1 x1780 >= 0 ;
+2 x1837 +2 x1838 +2 x1839 +2 x1840 -1 x1777 -1 x1778 -1 x1779 -1 x1780 -1 x1781 -1 x1782 -1 x1783 -1 x1784 >= 0 ;
+2 x1841 +2 x1842 +2 x1843 +2 x1844 -1 x1781 -1 x1782 -1 x1783 -1 x1784 -1 x1785 -1 x1786 -1 x1787 -1 x1788 >= 0 ;
+2 x1845 +2 x1846 +2 x1847 +2 x1848 -1 x1785 -1 x1786 -1 x1787 -1 x1788 -1 x1789 -1 x1790 -1 x1791 -1 x1792 >= 0 ;
+2 x1849 +2 x1850 +2 x1851 +2 x1852 -1 x1789 -1 x1790 -1 x1791 -1 x1792 -1 x1793 -1 x1794 -1 x1795 -1 x1796 >= 0 ;
+2 x1853 +2 x1854 +2 x1855 +2 x1856 -1 x1793 -1 x1794 -1 x1795 -1 x1796 -1 x1797 -1 x1798 -1 x1799 -1 x1800 >= 0 ;
+2 x1857 +2 x1858 +2 x1859 +2 x1860 -1 x1797 -1 x1798 -1 x1799 -1 x1800 -1 x1801 -1 x1802 -1 x1803 -1 x1804 >= 0 ;
+2 x1861 +2 x1862 +2 x1863 +2 x1864 -1 x1801 -1 x1802 -1 x1803 -1 x1804 -1 x1805 -1 x1806 -1 x1807 -1 x1808 >= 0 ;
+2 x1865 +2 x1866 +2 x1867 +2 x1868 -1 x1805 -1 x1806 -1 x1807 -1 x1808 -1 x1809 -1 x1810 -1 x1811 -1 x1812 >= 0 ;
+2 x1869 +2 x1870 +2 x1871 +2 x1872 -1 x1809 -1 x1810 -1 x1811 -1 x1812 -1 x1813 -1 x1814 -1 x1815 -1 x1816 >= 0 ;
+2 x1873 +2 x1874 +2 x1875 +2 x1876 -1 x1813 -1 x1814 -1 x1815 -1 x1816 -1 x1817 -1 x1818 -1 x1819 -1 x1820 >= 0 ;
+2 x1877 +2 x1878 +2 x1879 +2 x1880 -1 x1817 -1 x1818 -1 x1819 -1 x1820 -1 x1821 -1 x1822 -1 x1823 -1 x1824 >= 0 ;
+2 x1881 +2 x1882 +2 x1883 +2 x1884 -1 x1825 -1 x1826 -1 x1827 -1 x1828 -1 x1829 -1 x1830 -1 x1831 -1 x1832 >= 0 ;
+2 x1885 +2 x1886 +2 x1887 +2 x1888 -1 x1829 -1 x1830 -1 x1831 -1 x1832 -1 x1833 -1 x1834 -1 x1835 -1 x1836 >= 0 ;
+2 x1889 +2 x1890 +2 x1891 +2 x1892 -1 x1833 -1 x1834 -1 x1835 -1 x1836 -1 x1837 -1 x1838 -1 x1839 -1 x1840 >= 0 ;
+2 x1893 +2 x1894 +2 x1895 +2 x1896 -1 x1837 -1 x1838 -1 x1839 -1 x1840 -1 x1841 -1 x1842 -1 x1843 -1 x1844 >= 0 ;
+2 x1897 +2 x1898 +2 x1899 +2 x1900 -1 x1841 -1 x1842 -1 x1843 -1 x1844 -1 x1845 -1 x1846 -1 x1847 -1 x1848 >= 0 ;
+2 x1901 +2 x1902 +2 x1903 +2 x1904 -1 x1845 -1 x1846 -1 x1847 -1 x1848 -1 x1849 -1 x1850 -1 x1851 -1 x1852 >= 0 ;
+2 x1905 +2 x1906 +2 x1907 +2 x1908 -1 x1849 -1 x1850 -1 x1851 -1 x1852 -1 x1853 -1 x1854 -1 x1855 -1 x1856 >= 0 ;
+2 x1909 +2 x1910 +2 x1911 +2 x1912 -1 x1853 -1 x1854 -1 x1855 -1 x1856 -1 x1857 -1 x1858 -1 x1859 -1 x1860 >= 0 ;
+2 x1913 +2 x1914 +2 x1915 +2 x1916 -1 x1857 -1 x1858 -1 x1859 -1 x1860 -1 x1861 -1 x1862 -1 x1863 -1 x1864 >= 0 ;
+2 x1917 +2 x1918 +2 x1919 +2 x1920 -1 x1861 -1 x1862 -1 x1863 -1 x1864 -1 x1865 -1 x1866 -1 x1867 -1 x1868 >= 0 ;
+2 x1921 +2 x1922 +2 x1923 +2 x1924 -1 x1865 -1 x1866 -1 x1867 -1 x1868 -1 x1869 -1 x1870 -1 x1871 -1 x1872 >= 0 ;
+2 x1925 +2 x1926 +2 x1927 +2 x1928 -1 x1869 -1 x1870 -1 x1871 -1 x1872 -1 x1873 -1 x1874 -1 x1875 -1 x1876 >= 0 ;
+2 x1929 +2 x1930 +2 x1931 +2 x1932 -1 x1873 -1 x1874 -1 x1875 -1 x1876 -1 x1877 -1 x1878 -1 x1879 -1 x1880 >= 0 ;
+2 x1933 +2 x1934 +2 x1935 +2 x1936 -1 x1881 -1 x1882 -1 x1883 -1 x1884 -1 x1885 -1 x1886 -1 x1887 -1 x1888 >= 0 ;
+2 x1937 +2 x1938 +2 x1939 +2 x1940 -1 x1885 -1 x1886 -1 x1887 -1 x1888 -1 x1889 -1 x1890 -1 x1891 -1 x1892 >= 0 ;
+2 x1941 +2 x1942 +2 x1943 +2 x1944 -1 x1889 -1 x1890 -1 x1891 -1 x1892 -1 x1893 -1 x1894 -1 x1895 -1 x1896 >= 0 ;
+2 x1945 +2 x1946 +2 x1947 +2 x1948 -1 x1893 -1 x1894 -1 x1895 -1 x1896 -1 x1897 -1 x1898 -1 x1899 -1 x1900 >= 0 ;
+2 x1949 +2 x1950 +2 x1951 +2 x1952 -1 x1897 -1 x1898 -1 x1899 -1 x1900 -1 x1901 -1 x1902 -1 x1903 -1 x1904 >= 0 ;
+2 x1953 +2 x1954 +2 x1955 +2 x1956 -1 x1901 -1 x1902 -1 x1903 -1 x1904 -1 x1905 -1 x1906 -1 x1907 -1 x1908 >= 0 ;
+2 x1957 +2 x1958 +2 x1959 +2 x1960 -1 x1905 -1 x1906 -1 x1907 -1 x1908 -1 x1909 -1 x1910 -1 x1911 -1 x1912 >= 0 ;
+2 x1961 +2 x1962 +2 x1963 +2 x1964 -1 x1909 -1 x1910 -1 x1911 -1 x1912 -1 x1913 -1 x1914 -1 x1915 -1 x1916 >= 0 ;
+2 x1965 +2 x1966 +2 x1967 +2 x1968 -1 x1913 -1 x1914 -1 x1915 -1 x1916 -1 x1917 -1 x1918 -1 x1919 -1 x1920 >= 0 ;
+2 x1969 +2 x1970 +2 x1971 +2 x1972 -1 x1917 -1 x1918 -1 x1919 -1 x1920 -1 x1921 -1 x1922 -1 x1923 -1 x1924 >= 0 ;
+2 x1973 +2 x1974 +2 x1975 +2 x1976 -1 x1921 -1 x1922 -1 x1923 -1 x1924 -1 x1925 -1 x1926 -1 x1927 -1 x1928 >= 0 ;
+2 x1977 +2 x1978 +2 x1979 +2 x1980 -1 x1925 -1 x1926 -1 x1927 -1 x1928 -1 x1929 -1 x1930 -1 x1931 -1 x1932 >= 0 ;
+2 x1981 +2 x1982 +2 x1983 +2 x1984 -1 x1933 -1 x1934 -1 x1935 -1 x1936 -1 x1937 -1 x1938 -1 x1939 -1 x1940 >= 0 ;
+2 x1985 +2 x1986 +2 x1987 +2 x1988 -1 x1937 -1 x1938 -1 x1939 -1 x1940 -1 x1941 -1 x1942 -1 x1943 -1 x1944 >= 0 ;
+2 x1989 +2 x1990 +2 x1991 +2 x1992 -1 x1941 -1 x1942 -1 x1943 -1 x1944 -1 x1945 -1 x1946 -1 x1947 -1 x1948 >= 0 ;
+2 x1993 +2 x1994 +2 x1995 +2 x1996 -1 x1945 -1 x1946 -1 x1947 -1 x1948 -1 x1949 -1 x1950 -1 x1951 -1 x1952 >= 0 ;
+2 x1997 +2 x1998 +2 x1999 +2 x2000 -1 x1949 -1 x1950 -1 x1951 -1 x1952 -1 x1953 -1 x1954 -1 x1955 -1 x1956 >= 0 ;
+2 x2001 +2 x2002 +2 x2003 +2 x2004 -1 x1953 -1 x1954 -1 x1955 -1 x1956 -1 x1957 -1 x1958 -1 x1959 -1 x1960 >= 0 ;
+2 x2005 +2 x2006 +2 x2007 +2 x2008 -1 x1957 -1 x1958 -1 x1959 -1 x1960 -1 x1961 -1 x1962 -1 x1963 -1 x1964 >= 0 ;
+2 x2009 +2 x2010 +2 x2011 +2 x2012 -1 x1961 -1 x1962 -1 x1963 -1 x1964 -1 x1965 -1 x1966 -1 x1967 -1 x1968 >= 0 ;
+2 x2013 +2 x2014 +2 x2015 +2 x2016 -1 x1965 -1 x1966 -1 x1967 -1 x1968 -1 x1969 -1 x1970 -1 x1971 -1 x1972 >= 0 ;
+2 x2017 +2 x2018 +2 x2019 +2 x2020 -1 x1969 -1 x1970 -1 x1971 -1 x1972 -1 x1973 -1 x1974 -1 x1975 -1 x1976 >= 0 ;
+2 x2021 +2 x2022 +2 x2023 +2 x2024 -1 x1973 -1 x1974 -1 x1975 -1 x1976 -1 x1977 -1 x1978 -1 x1979 -1 x1980 >= 0 ;
+2 x2025 +2 x2026 +2 x2027 +2 x2028 -1 x1981 -1 x1982 -1 x1983 -1 x1984 -1 x1985 -1 x1986 -1 x1987 -1 x1988 >= 0 ;
+2 x2029 +2 x2030 +2 x2031 +2 x2032 -1 x1985 -1 x1986 -1 x1987 -1 x1988 -1 x1989 -1 x1990 -1 x1991 -1 x1992 >= 0 ;
+2 x2033 +2 x2034 +2 x2035 +2 x2036 -1 x1989 -1 x1990 -1 x1991 -1 x1992 -1 x1993 -1 x1994 -1 x1995 -1 x1996 >= 0 ;
+2 x2037 +2 x2038 +2 x2039 +2 x2040 -1 x1993 -1 x1994 -1 x1995 -1 x1996 -1 x1997 -1 x1998 -1 x1999 -1 x2000 >= 0 ;
+2 x2041 +2 x2042 +2 x2043 +2 x2044 -1 x1997 -1 x1998 -1 x1999 -1 x2000 -1 x2001 -1 x2002 -1 x2003 -1 x2004 >= 0 ;
+2 x2045 +2 x2046 +2 x2047 +2 x2048 -1 x2001 -1 x2002 -1 x2003 -1 x2004 -1 x2005 -1 x2006 -1 x2007 -1 x2008 >= 0 ;
+2 x2049 +2 x2050 +2 x2051 +2 x2052 -1 x2005 -1 x2006 -1 x2007 -1 x2008 -1 x2009 -1 x2010 -1 x2011 -1 x2012 >= 0 ;
+2 x2053 +2 x2054 +2 x2055 +2 x2056 -1 x2009 -1 x2010 -1 x2011 -1 x2012 -1 x2013 -1 x2014 -1 x2015 -1 x2016 >= 0 ;
+2 x2057 +2 x2058 +2 x2059 +2 x2060 -1 x2013 -1 x2014 -1 x2015 -1 x2016 -1 x2017 -1 x2018 -1 x2019 -1 x2020 >= 0 ;
+2 x2061 +2 x2062 +2 x2063 +2 x2064 -1 x2017 -1 x2018 -1 x2019 -1 x2020 -1 x2021 -1 x2022 -1 x2023 -1 x2024 >= 0 ;
+2 x2065 +2 x2066 +2 x2067 +2 x2068 -1 x2025 -1 x2026 -1 x2027 -1 x2028 -1 x2029 -1 x2030 -1 x2031 -1 x2032 >= 0 ;
+2 x2069 +2 x2070 +2 x2071 +2 x2072 -1 x2029 -1 x2030 -1 x2031 -1 x2032 -1 x2033 -1 x2034 -1 x2035 -1 x2036 >= 0 ;
+2 x2073 +2 x2074 +2 x2075 +2 x2076 -1 x2033 -1 x2034 -1 x2035 -1 x2036 -1 x2037 -1 x2038 -1 x2039 -1 x2040 >= 0 ;
+2 x2077 +2 x2078 +2 x2079 +2 x2080 -1 x2037 -1 x2038 -1 x2039 -1 x2040 -1 x2041 -1 x2042 -1 x2043 -1 x2044 >= 0 ;
+2 x2081 +2 x2082 +2 x2083 +2 x2084 -1 x2041 -1 x2042 -1 x2043 -1 x2044 -1 x2045 -1 x2046 -1 x2047 -1 x2048 >= 0 ;
+2 x2085 +2 x2086 +2 x2087 +2 x2088 -1 x2045 -1 x2046 -1 x2047 -1 x2048 -1 x2049 -1 x2050 -1 x2051 -1 x2052 >= 0 ;
+2 x2089 +2 x2090 +2 x2091 +2 x2092 -1 x2049 -1 x2050 -1 x2051 -1 x2052 -1 x2053 -1 x2054 -1 x2055 -1 x2056 >= 0 ;
+2 x2093 +2 x2094 +2 x2095 +2 x2096 -1 x2053 -1 x2054 -1 x2055 -1 x2056 -1 x2057 -1 x2058 -1 x2059 -1 x2060 >= 0 ;
+2 x2097 +2 x2098 +2 x2099 +2 x2100 -1 x2057 -1 x2058 -1 x2059 -1 x2060 -1 x2061 -1 x2062 -1 x2063 -1 x2064 >= 0 ;
+2 x2101 +2 x2102 +2 x2103 +2 x2104 -1 x2065 -1 x2066 -1 x2067 -1 x2068 -1 x2069 -1 x2070 -1 x2071 -1 x2072 >= 0 ;
+2 x2105 +2 x2106 +2 x2107 +2 x2108 -1 x2069 -1 x2070 -1 x2071 -1 x2072 -1 x2073 -1 x2074 -1 x2075 -1 x2076 >= 0 ;
+2 x2109 +2 x2110 +2 x2111 +2 x2112 -1 x2073 -1 x2074 -1 x2075 -1 x2076 -1 x2077 -1 x2078 -1 x2079 -1 x2080 >= 0 ;
+2 x2113 +2 x2114 +2 x2115 +2 x2116 -1 x2077 -1 x2078 -1 x2079 -1 x2080 -1 x2081 -1 x2082 -1 x2083 -1 x2084 >= 0 ;
+2 x2117 +2 x2118 +2 x2119 +2 x2120 -1 x2081 -1 x2082 -1 x2083 -1 x2084 -1 x2085 -1 x2086 -1 x2087 -1 x2088 >= 0 ;
+2 x2121 +2 x2122 +2 x2123 +2 x2124 -1 x2085 -1 x2086 -1 x2087 -1 x2088 -1 x2089 -1 x2090 -1 x2091 -1 x2092 >= 0 ;
+2 x2125 +2 x2126 +2 x2127 +2 x2128 -1 x2089 -1 x2090 -1 x2091 -1 x2092 -1 x2093 -1 x2094 -1 x2095 -1 x2096 >= 0 ;
+2 x2129 +2 x2130 +2 x2131 +2 x2132 -1 x2093 -1 x2094 -1 x2095 -1 x2096 -1 x2097 -1 x2098 -1 x2099 -1 x2100 >= 0 ;
+2 x2133 +2 x2134 +2 x2135 +2 x2136 -1 x2101 -1 x2102 -1 x2103 -1 x2104 -1 x2105 -1 x2106 -1 x2107 -1 x2108 >= 0 ;
+2 x2137 +2 x2138 +2 x2139 +2 x2140 -1 x2105 -1 x2106 -1 x2107 -1 x2108 -1 x2109 -1 x2110 -1 x2111 -1 x2112 >= 0 ;
+2 x2141 +2 x2142 +2 x2143 +2 x2144 -1 x2109 -1 x2110 -1 x2111 -1 x2112 -1 x2113 -1 x2114 -1 x2115 -1 x2116 >= 0 ;
+2 x2145 +2 x2146 +2 x2147 +2 x2148 -1 x2113 -1 x2114 -1 x2115 -1 x2116 -1 x2117 -1 x2118 -1 x2119 -1 x2120 >= 0 ;
+2 x2149 +2 x2150 +2 x2151 +2 x2152 -1 x2117 -1 x2118 -1 x2119 -1 x2120 -1 x2121 -1 x2122 -1 x2123 -1 x2124 >= 0 ;
+2 x2153 +2 x2154 +2 x2155 +2 x2156 -1 x2121 -1 x2122 -1 x2123 -1 x2124 -1 x2125 -1 x2126 -1 x2127 -1 x2128 >= 0 ;
+2 x2157 +2 x2158 +2 x2159 +2 x2160 -1 x2125 -1 x2126 -1 x2127 -1 x2128 -1 x2129 -1 x2130 -1 x2131 -1 x2132 >= 0 ;
+2 x2161 +2 x2162 +2 x2163 +2 x2164 -1 x2133 -1 x2134 -1 x2135 -1 x2136 -1 x2137 -1 x2138 -1 x2139 -1 x2140 >= 0 ;
+2 x2165 +2 x2166 +2 x2167 +2 x2168 -1 x2137 -1 x2138 -1 x2139 -1 x2140 -1 x2141 -1 x2142 -1 x2143 -1 x2144 >= 0 ;
+2 x2169 +2 x2170 +2 x2171 +2 x2172 -1 x2141 -1 x2142 -1 x2143 -1 x2144 -1 x2145 -1 x2146 -1 x2147 -1 x2148 >= 0 ;
+2 x2173 +2 x2174 +2 x2175 +2 x2176 -1 x2145 -1 x2146 -1 x2147 -1 x2148 -1 x2149 -1 x2150 -1 x2151 -1 x2152 >= 0 ;
+2 x2177 +2 x2178 +2 x2179 +2 x2180 -1 x2149 -1 x2150 -1 x2151 -1 x2152 -1 x2153 -1 x2154 -1 x2155 -1 x2156 >= 0 ;
+2 x2181 +2 x2182 +2 x2183 +2 x2184 -1 x2153 -1 x2154 -1 x2155 -1 x2156 -1 x2157 -1 x2158 -1 x2159 -1 x2160 >= 0 ;
+2 x2185 +2 x2186 +2 x2187 +2 x2188 -1 x2161 -1 x2162 -1 x2163 -1 x2164 -1 x2165 -1 x2166 -1 x2167 -1 x2168 >= 0 ;
+2 x2189 +2 x2190 +2 x2191 +2 x2192 -1 x2165 -1 x2166 -1 x2167 -1 x2168 -1 x2169 -1 x2170 -1 x2171 -1 x2172 >= 0 ;
+2 x2193 +2 x2194 +2 x2195 +2 x2196 -1 x2169 -1 x2170 -1 x2171 -1 x2172 -1 x2173 -1 x2174 -1 x2175 -1 x2176 >= 0 ;
+2 x2197 +2 x2198 +2 x2199 +2 x2200 -1 x2173 -1 x2174 -1 x2175 -1 x2176 -1 x2177 -1 x2178 -1 x2179 -1 x2180 >= 0 ;
+2 x2201 +2 x2202 +2 x2203 +2 x2204 -1 x2177 -1 x2178 -1 x2179 -1 x2180 -1 x2181 -1 x2182 -1 x2183 -1 x2184 >= 0 ;
+2 x2205 +2 x2206 +2 x2207 +2 x2208 -1 x2185 -1 x2186 -1 x2187 -1 x2188 -1 x2189 -1 x2190 -1 x2191 -1 x2192 >= 0 ;
+2 x2209 +2 x2210 +2 x2211 +2 x2212 -1 x2189 -1 x2190 -1 x2191 -1 x2192 -1 x2193 -1 x2194 -1 x2195 -1 x2196 >= 0 ;
+2 x2213 +2 x2214 +2 x2215 +2 x2216 -1 x2193 -1 x2194 -1 x2195 -1 x2196 -1 x2197 -1 x2198 -1 x2199 -1 x2200 >= 0 ;
+2 x2217 +2 x2218 +2 x2219 +2 x2220 -1 x2197 -1 x2198 -1 x2199 -1 x2200 -1 x2201 -1 x2202 -1 x2203 -1 x2204 >= 0 ;
+2 x2221 +2 x2222 +2 x2223 +2 x2224 -1 x2205 -1 x2206 -1 x2207 -1 x2208 -1 x2209 -1 x2210 -1 x2211 -1 x2212 >= 0 ;
+2 x2225 +2 x2226 +2 x2227 +2 x2228 -1 x2209 -1 x2210 -1 x2211 -1 x2212 -1 x2213 -1 x2214 -1 x2215 -1 x2216 >= 0 ;
+2 x2229 +2 x2230 +2 x2231 +2 x2232 -1 x2213 -1 x2214 -1 x2215 -1 x2216 -1 x2217 -1 x2218 -1 x2219 -1 x2220 >= 0 ;
+2 x2233 +2 x2234 +2 x2235 +2 x2236 -1 x2221 -1 x2222 -1 x2223 -1 x2224 -1 x2225 -1 x2226 -1 x2227 -1 x2228 >= 0 ;
+2 x2237 +2 x2238 +2 x2239 +2 x2240 -1 x2225 -1 x2226 -1 x2227 -1 x2228 -1 x2229 -1 x2230 -1 x2231 -1 x2232 >= 0 ;
+2 x2241 +2 x2242 +2 x2243 +2 x2244 -1 x2233 -1 x2234 -1 x2235 -1 x2236 -1 x2237 -1 x2238 -1 x2239 -1 x2240 >= 0 ;
-2 x2241 -2 x2242 -2 x2243 -2 x2244 >= -3 ;
