* #variable= 16636 #constraint= 4160
****************************************
* begin normalizer comments
* category= DEC-SMALLINT-LIN
* end normalizer comments
****************************************
+2 x1 +2 x2 +2 x3 +2 x4 >= 3 ;
+2 x5 +2 x6 +2 x7 +2 x8 >= 3 ;
+2 x9 +2 x10 +2 x11 +2 x12 >= 3 ;
+2 x13 +2 x14 +2 x15 +2 x16 >= 3 ;
+2 x17 +2 x18 +2 x19 +2 x20 >= 3 ;
+2 x21 +2 x22 +2 x23 +2 x24 >= 3 ;
+2 x25 +2 x26 +2 x27 +2 x28 >= 3 ;
+2 x29 +2 x30 +2 x31 +2 x32 >= 3 ;
+2 x33 +2 x34 +2 x35 +2 x36 >= 3 ;
+2 x37 +2 x38 +2 x39 +2 x40 >= 3 ;
+2 x41 +2 x42 +2 x43 +2 x44 >= 3 ;
+2 x45 +2 x46 +2 x47 +2 x48 >= 3 ;
+2 x49 +2 x50 +2 x51 +2 x52 >= 3 ;
+2 x53 +2 x54 +2 x55 +2 x56 >= 3 ;
+2 x57 +2 x58 +2 x59 +2 x60 >= 3 ;
+2 x61 +2 x62 +2 x63 +2 x64 >= 3 ;
+2 x65 +2 x66 +2 x67 +2 x68 >= 3 ;
+2 x69 +2 x70 +2 x71 +2 x72 >= 3 ;
+2 x73 +2 x74 +2 x75 +2 x76 >= 3 ;
+2 x77 +2 x78 +2 x79 +2 x80 >= 3 ;
+2 x81 +2 x82 +2 x83 +2 x84 >= 3 ;
+2 x85 +2 x86 +2 x87 +2 x88 >= 3 ;
+2 x89 +2 x90 +2 x91 +2 x92 >= 3 ;
+2 x93 +2 x94 +2 x95 +2 x96 >= 3 ;
+2 x97 +2 x98 +2 x99 +2 x100 >= 3 ;
+2 x101 +2 x102 +2 x103 +2 x104 >= 3 ;
+2 x105 +2 x106 +2 x107 +2 x108 >= 3 ;
+2 x109 +2 x110 +2 x111 +2 x112 >= 3 ;
+2 x113 +2 x114 +2 x115 +2 x116 >= 3 ;
+2 x117 +2 x118 +2 x119 +2 x120 >= 3 ;
+2 x121 +2 x122 +2 x123 +2 x124 >= 3 ;
+2 x125 +2 x126 +2 x127 +2 x128 >= 3 ;
+2 x129 +2 x130 +2 x131 +2 x132 >= 3 ;
+2 x133 +2 x134 +2 x135 +2 x136 >= 3 ;
+2 x137 +2 x138 +2 x139 +2 x140 >= 3 ;
+2 x141 +2 x142 +2 x143 +2 x144 >= 3 ;
+2 x145 +2 x146 +2 x147 +2 x148 >= 3 ;
+2 x149 +2 x150 +2 x151 +2 x152 >= 3 ;
+2 x153 +2 x154 +2 x155 +2 x156 >= 3 ;
+2 x157 +2 x158 +2 x159 +2 x160 >= 3 ;
+2 x161 +2 x162 +2 x163 +2 x164 >= 3 ;
+2 x165 +2 x166 +2 x167 +2 x168 >= 3 ;
+2 x169 +2 x170 +2 x171 +2 x172 >= 3 ;
+2 x173 +2 x174 +2 x175 +2 x176 >= 3 ;
+2 x177 +2 x178 +2 x179 +2 x180 >= 3 ;
+2 x181 +2 x182 +2 x183 +2 x184 >= 3 ;
+2 x185 +2 x186 +2 x187 +2 x188 >= 3 ;
+2 x189 +2 x190 +2 x191 +2 x192 >= 3 ;
+2 x193 +2 x194 +2 x195 +2 x196 >= 3 ;
+2 x197 +2 x198 +2 x199 +2 x200 >= 3 ;
+2 x201 +2 x202 +2 x203 +2 x204 >= 3 ;
+2 x205 +2 x206 +2 x207 +2 x208 >= 3 ;
+2 x209 +2 x210 +2 x211 +2 x212 >= 3 ;
+2 x213 +2 x214 +2 x215 +2 x216 >= 3 ;
+2 x217 +2 x218 +2 x219 +2 x220 >= 3 ;
+2 x221 +2 x222 +2 x223 +2 x224 >= 3 ;
+2 x225 +2 x226 +2 x227 +2 x228 >= 3 ;
+2 x229 +2 x230 +2 x231 +2 x232 >= 3 ;
+2 x233 +2 x234 +2 x235 +2 x236 >= 3 ;
+2 x237 +2 x238 +2 x239 +2 x240 >= 3 ;
+2 x241 +2 x242 +2 x243 +2 x244 >= 3 ;
+2 x245 +2 x246 +2 x247 +2 x248 >= 3 ;
+2 x249 +2 x250 +2 x251 +2 x252 >= 3 ;
+2 x253 +2 x254 +2 x255 +2 x256 >= 3 ;
+2 x257 +2 x258 +2 x259 +2 x260 -1 x1 -1 x2 -1 x3 -1 x4 -1 x253 -1 x254 -1 x255 -1 x256 >= 0 ;
+2 x261 +2 x262 +2 x263 +2 x264 -1 x1 -1 x2 -1 x3 -1 x4 -1 x5 -1 x6 -1 x7 -1 x8 >= 0 ;
+2 x265 +2 x266 +2 x267 +2 x268 -1 x5 -1 x6 -1 x7 -1 x8 -1 x9 -1 x10 -1 x11 -1 x12 >= 0 ;
+2 x269 +2 x270 +2 x271 +2 x272 -1 x9 -1 x10 -1 x11 -1 x12 -1 x13 -1 x14 -1 x15 -1 x16 >= 0 ;
+2 x273 +2 x274 +2 x275 +2 x276 -1 x13 -1 x14 -1 x15 -1 x16 -1 x17 -1 x18 -1 x19 -1 x20 >= 0 ;
+2 x277 +2 x278 +2 x279 +2 x280 -1 x17 -1 x18 -1 x19 -1 x20 -1 x21 -1 x22 -1 x23 -1 x24 >= 0 ;
+2 x281 +2 x282 +2 x283 +2 x284 -1 x21 -1 x22 -1 x23 -1 x24 -1 x25 -1 x26 -1 x27 -1 x28 >= 0 ;
+2 x285 +2 x286 +2 x287 +2 x288 -1 x25 -1 x26 -1 x27 -1 x28 -1 x29 -1 x30 -1 x31 -1 x32 >= 0 ;
+2 x289 +2 x290 +2 x291 +2 x292 -1 x29 -1 x30 -1 x31 -1 x32 -1 x33 -1 x34 -1 x35 -1 x36 >= 0 ;
+2 x293 +2 x294 +2 x295 +2 x296 -1 x33 -1 x34 -1 x35 -1 x36 -1 x37 -1 x38 -1 x39 -1 x40 >= 0 ;
+2 x297 +2 x298 +2 x299 +2 x300 -1 x37 -1 x38 -1 x39 -1 x40 -1 x41 -1 x42 -1 x43 -1 x44 >= 0 ;
+2 x301 +2 x302 +2 x303 +2 x304 -1 x41 -1 x42 -1 x43 -1 x44 -1 x45 -1 x46 -1 x47 -1 x48 >= 0 ;
+2 x305 +2 x306 +2 x307 +2 x308 -1 x45 -1 x46 -1 x47 -1 x48 -1 x49 -1 x50 -1 x51 -1 x52 >= 0 ;
+2 x309 +2 x310 +2 x311 +2 x312 -1 x49 -1 x50 -1 x51 -1 x52 -1 x53 -1 x54 -1 x55 -1 x56 >= 0 ;
+2 x313 +2 x314 +2 x315 +2 x316 -1 x53 -1 x54 -1 x55 -1 x56 -1 x57 -1 x58 -1 x59 -1 x60 >= 0 ;
+2 x317 +2 x318 +2 x319 +2 x320 -1 x57 -1 x58 -1 x59 -1 x60 -1 x61 -1 x62 -1 x63 -1 x64 >= 0 ;
+2 x321 +2 x322 +2 x323 +2 x324 -1 x61 -1 x62 -1 x63 -1 x64 -1 x65 -1 x66 -1 x67 -1 x68 >= 0 ;
+2 x325 +2 x326 +2 x327 +2 x328 -1 x65 -1 x66 -1 x67 -1 x68 -1 x69 -1 x70 -1 x71 -1 x72 >= 0 ;
+2 x329 +2 x330 +2 x331 +2 x332 -1 x69 -1 x70 -1 x71 -1 x72 -1 x73 -1 x74 -1 x75 -1 x76 >= 0 ;
+2 x333 +2 x334 +2 x335 +2 x336 -1 x73 -1 x74 -1 x75 -1 x76 -1 x77 -1 x78 -1 x79 -1 x80 >= 0 ;
+2 x337 +2 x338 +2 x339 +2 x340 -1 x77 -1 x78 -1 x79 -1 x80 -1 x81 -1 x82 -1 x83 -1 x84 >= 0 ;
+2 x341 +2 x342 +2 x343 +2 x344 -1 x81 -1 x82 -1 x83 -1 x84 -1 x85 -1 x86 -1 x87 -1 x88 >= 0 ;
+2 x345 +2 x346 +2 x347 +2 x348 -1 x85 -1 x86 -1 x87 -1 x88 -1 x89 -1 x90 -1 x91 -1 x92 >= 0 ;
+2 x349 +2 x350 +2 x351 +2 x352 -1 x89 -1 x90 -1 x91 -1 x92 -1 x93 -1 x94 -1 x95 -1 x96 >= 0 ;
+2 x353 +2 x354 +2 x355 +2 x356 -1 x93 -1 x94 -1 x95 -1 x96 -1 x97 -1 x98 -1 x99 -1 x100 >= 0 ;
+2 x357 +2 x358 +2 x359 +2 x360 -1 x97 -1 x98 -1 x99 -1 x100 -1 x101 -1 x102 -1 x103 -1 x104 >= 0 ;
+2 x361 +2 x362 +2 x363 +2 x364 -1 x101 -1 x102 -1 x103 -1 x104 -1 x105 -1 x106 -1 x107 -1 x108 >= 0 ;
+2 x365 +2 x366 +2 x367 +2 x368 -1 x105 -1 x106 -1 x107 -1 x108 -1 x109 -1 x110 -1 x111 -1 x112 >= 0 ;
+2 x369 +2 x370 +2 x371 +2 x372 -1 x109 -1 x110 -1 x111 -1 x112 -1 x113 -1 x114 -1 x115 -1 x116 >= 0 ;
+2 x373 +2 x374 +2 x375 +2 x376 -1 x113 -1 x114 -1 x115 -1 x116 -1 x117 -1 x118 -1 x119 -1 x120 >= 0 ;
+2 x377 +2 x378 +2 x379 +2 x380 -1 x117 -1 x118 -1 x119 -1 x120 -1 x121 -1 x122 -1 x123 -1 x124 >= 0 ;
+2 x381 +2 x382 +2 x383 +2 x384 -1 x121 -1 x122 -1 x123 -1 x124 -1 x125 -1 x126 -1 x127 -1 x128 >= 0 ;
+2 x385 +2 x386 +2 x387 +2 x388 -1 x125 -1 x126 -1 x127 -1 x128 -1 x129 -1 x130 -1 x131 -1 x132 >= 0 ;
+2 x389 +2 x390 +2 x391 +2 x392 -1 x129 -1 x130 -1 x131 -1 x132 -1 x133 -1 x134 -1 x135 -1 x136 >= 0 ;
+2 x393 +2 x394 +2 x395 +2 x396 -1 x133 -1 x134 -1 x135 -1 x136 -1 x137 -1 x138 -1 x139 -1 x140 >= 0 ;
+2 x397 +2 x398 +2 x399 +2 x400 -1 x137 -1 x138 -1 x139 -1 x140 -1 x141 -1 x142 -1 x143 -1 x144 >= 0 ;
+2 x401 +2 x402 +2 x403 +2 x404 -1 x141 -1 x142 -1 x143 -1 x144 -1 x145 -1 x146 -1 x147 -1 x148 >= 0 ;
+2 x405 +2 x406 +2 x407 +2 x408 -1 x145 -1 x146 -1 x147 -1 x148 -1 x149 -1 x150 -1 x151 -1 x152 >= 0 ;
+2 x409 +2 x410 +2 x411 +2 x412 -1 x149 -1 x150 -1 x151 -1 x152 -1 x153 -1 x154 -1 x155 -1 x156 >= 0 ;
+2 x413 +2 x414 +2 x415 +2 x416 -1 x153 -1 x154 -1 x155 -1 x156 -1 x157 -1 x158 -1 x159 -1 x160 >= 0 ;
+2 x417 +2 x418 +2 x419 +2 x420 -1 x157 -1 x158 -1 x159 -1 x160 -1 x161 -1 x162 -1 x163 -1 x164 >= 0 ;
+2 x421 +2 x422 +2 x423 +2 x424 -1 x161 -1 x162 -1 x163 -1 x164 -1 x165 -1 x166 -1 x167 -1 x168 >= 0 ;
+2 x425 +2 x426 +2 x427 +2 x428 -1 x165 -1 x166 -1 x167 -1 x168 -1 x169 -1 x170 -1 x171 -1 x172 >= 0 ;
+2 x429 +2 x430 +2 x431 +2 x432 -1 x169 -1 x170 -1 x171 -1 x172 -1 x173 -1 x174 -1 x175 -1 x176 >= 0 ;
+2 x433 +2 x434 +2 x435 +2 x436 -1 x173 -1 x174 -1 x175 -1 x176 -1 x177 -1 x178 -1 x179 -1 x180 >= 0 ;
+2 x437 +2 x438 +2 x439 +2 x440 -1 x177 -1 x178 -1 x179 -1 x180 -1 x181 -1 x182 -1 x183 -1 x184 >= 0 ;
+2 x441 +2 x442 +2 x443 +2 x444 -1 x181 -1 x182 -1 x183 -1 x184 -1 x185 -1 x186 -1 x187 -1 x188 >= 0 ;
+2 x445 +2 x446 +2 x447 +2 x448 -1 x185 -1 x186 -1 x187 -1 x188 -1 x189 -1 x190 -1 x191 -1 x192 >= 0 ;
+2 x449 +2 x450 +2 x451 +2 x452 -1 x189 -1 x190 -1 x191 -1 x192 -1 x193 -1 x194 -1 x195 -1 x196 >= 0 ;
+2 x453 +2 x454 +2 x455 +2 x456 -1 x193 -1 x194 -1 x195 -1 x196 -1 x197 -1 x198 -1 x199 -1 x200 >= 0 ;
+2 x457 +2 x458 +2 x459 +2 x460 -1 x197 -1 x198 -1 x199 -1 x200 -1 x201 -1 x202 -1 x203 -1 x204 >= 0 ;
+2 x461 +2 x462 +2 x463 +2 x464 -1 x201 -1 x202 -1 x203 -1 x204 -1 x205 -1 x206 -1 x207 -1 x208 >= 0 ;
+2 x465 +2 x466 +2 x467 +2 x468 -1 x205 -1 x206 -1 x207 -1 x208 -1 x209 -1 x210 -1 x211 -1 x212 >= 0 ;
+2 x469 +2 x470 +2 x471 +2 x472 -1 x209 -1 x210 -1 x211 -1 x212 -1 x213 -1 x214 -1 x215 -1 x216 >= 0 ;
+2 x473 +2 x474 +2 x475 +2 x476 -1 x213 -1 x214 -1 x215 -1 x216 -1 x217 -1 x218 -1 x219 -1 x220 >= 0 ;
+2 x477 +2 x478 +2 x479 +2 x480 -1 x217 -1 x218 -1 x219 -1 x220 -1 x221 -1 x222 -1 x223 -1 x224 >= 0 ;
+2 x481 +2 x482 +2 x483 +2 x484 -1 x221 -1 x222 -1 x223 -1 x224 -1 x225 -1 x226 -1 x227 -1 x228 >= 0 ;
+2 x485 +2 x486 +2 x487 +2 x488 -1 x225 -1 x226 -1 x227 -1 x228 -1 x229 -1 x230 -1 x231 -1 x232 >= 0 ;
+2 x489 +2 x490 +2 x491 +2 x492 -1 x229 -1 x230 -1 x231 -1 x232 -1 x233 -1 x234 -1 x235 -1 x236 >= 0 ;
+2 x493 +2 x494 +2 x495 +2 x496 -1 x233 -1 x234 -1 x235 -1 x236 -1 x237 -1 x238 -1 x239 -1 x240 >= 0 ;
+2 x497 +2 x498 +2 x499 +2 x500 -1 x237 -1 x238 -1 x239 -1 x240 -1 x241 -1 x242 -1 x243 -1 x244 >= 0 ;
+2 x501 +2 x502 +2 x503 +2 x504 -1 x241 -1 x242 -1 x243 -1 x244 -1 x245 -1 x246 -1 x247 -1 x248 >= 0 ;
+2 x505 +2 x506 +2 x507 +2 x508 -1 x245 -1 x246 -1 x247 -1 x248 -1 x249 -1 x250 -1 x251 -1 x252 >= 0 ;
+2 x509 +2 x510 +2 x511 +2 x512 -1 x249 -1 x250 -1 x251 -1 x252 -1 x253 -1 x254 -1 x255 -1 x256 >= 0 ;
+2 x513 +2 x514 +2 x515 +2 x516 -1 x257 -1 x258 -1 x259 -1 x260 -1 x509 -1 x510 -1 x511 -1 x512 >= 0 ;
+2 x517 +2 x518 +2 x519 +2 x520 -1 x257 -1 x258 -1 x259 -1 x260 -1 x261 -1 x262 -1 x263 -1 x264 >= 0 ;
+2 x521 +2 x522 +2 x523 +2 x524 -1 x261 -1 x262 -1 x263 -1 x264 -1 x265 -1 x266 -1 x267 -1 x268 >= 0 ;
+2 x525 +2 x526 +2 x527 +2 x528 -1 x265 -1 x266 -1 x267 -1 x268 -1 x269 -1 x270 -1 x271 -1 x272 >= 0 ;
+2 x529 +2 x530 +2 x531 +2 x532 -1 x269 -1 x270 -1 x271 -1 x272 -1 x273 -1 x274 -1 x275 -1 x276 >= 0 ;
+2 x533 +2 x534 +2 x535 +2 x536 -1 x273 -1 x274 -1 x275 -1 x276 -1 x277 -1 x278 -1 x279 -1 x280 >= 0 ;
+2 x537 +2 x538 +2 x539 +2 x540 -1 x277 -1 x278 -1 x279 -1 x280 -1 x281 -1 x282 -1 x283 -1 x284 >= 0 ;
+2 x541 +2 x542 +2 x543 +2 x544 -1 x281 -1 x282 -1 x283 -1 x284 -1 x285 -1 x286 -1 x287 -1 x288 >= 0 ;
+2 x545 +2 x546 +2 x547 +2 x548 -1 x285 -1 x286 -1 x287 -1 x288 -1 x289 -1 x290 -1 x291 -1 x292 >= 0 ;
+2 x549 +2 x550 +2 x551 +2 x552 -1 x289 -1 x290 -1 x291 -1 x292 -1 x293 -1 x294 -1 x295 -1 x296 >= 0 ;
+2 x553 +2 x554 +2 x555 +2 x556 -1 x293 -1 x294 -1 x295 -1 x296 -1 x297 -1 x298 -1 x299 -1 x300 >= 0 ;
+2 x557 +2 x558 +2 x559 +2 x560 -1 x297 -1 x298 -1 x299 -1 x300 -1 x301 -1 x302 -1 x303 -1 x304 >= 0 ;
+2 x561 +2 x562 +2 x563 +2 x564 -1 x301 -1 x302 -1 x303 -1 x304 -1 x305 -1 x306 -1 x307 -1 x308 >= 0 ;
+2 x565 +2 x566 +2 x567 +2 x568 -1 x305 -1 x306 -1 x307 -1 x308 -1 x309 -1 x310 -1 x311 -1 x312 >= 0 ;
+2 x569 +2 x570 +2 x571 +2 x572 -1 x309 -1 x310 -1 x311 -1 x312 -1 x313 -1 x314 -1 x315 -1 x316 >= 0 ;
+2 x573 +2 x574 +2 x575 +2 x576 -1 x313 -1 x314 -1 x315 -1 x316 -1 x317 -1 x318 -1 x319 -1 x320 >= 0 ;
+2 x577 +2 x578 +2 x579 +2 x580 -1 x317 -1 x318 -1 x319 -1 x320 -1 x321 -1 x322 -1 x323 -1 x324 >= 0 ;
+2 x581 +2 x582 +2 x583 +2 x584 -1 x321 -1 x322 -1 x323 -1 x324 -1 x325 -1 x326 -1 x327 -1 x328 >= 0 ;
+2 x585 +2 x586 +2 x587 +2 x588 -1 x325 -1 x326 -1 x327 -1 x328 -1 x329 -1 x330 -1 x331 -1 x332 >= 0 ;
+2 x589 +2 x590 +2 x591 +2 x592 -1 x329 -1 x330 -1 x331 -1 x332 -1 x333 -1 x334 -1 x335 -1 x336 >= 0 ;
+2 x593 +2 x594 +2 x595 +2 x596 -1 x333 -1 x334 -1 x335 -1 x336 -1 x337 -1 x338 -1 x339 -1 x340 >= 0 ;
+2 x597 +2 x598 +2 x599 +2 x600 -1 x337 -1 x338 -1 x339 -1 x340 -1 x341 -1 x342 -1 x343 -1 x344 >= 0 ;
+2 x601 +2 x602 +2 x603 +2 x604 -1 x341 -1 x342 -1 x343 -1 x344 -1 x345 -1 x346 -1 x347 -1 x348 >= 0 ;
+2 x605 +2 x606 +2 x607 +2 x608 -1 x345 -1 x346 -1 x347 -1 x348 -1 x349 -1 x350 -1 x351 -1 x352 >= 0 ;
+2 x609 +2 x610 +2 x611 +2 x612 -1 x349 -1 x350 -1 x351 -1 x352 -1 x353 -1 x354 -1 x355 -1 x356 >= 0 ;
+2 x613 +2 x614 +2 x615 +2 x616 -1 x353 -1 x354 -1 x355 -1 x356 -1 x357 -1 x358 -1 x359 -1 x360 >= 0 ;
+2 x617 +2 x618 +2 x619 +2 x620 -1 x357 -1 x358 -1 x359 -1 x360 -1 x361 -1 x362 -1 x363 -1 x364 >= 0 ;
+2 x621 +2 x622 +2 x623 +2 x624 -1 x361 -1 x362 -1 x363 -1 x364 -1 x365 -1 x366 -1 x367 -1 x368 >= 0 ;
+2 x625 +2 x626 +2 x627 +2 x628 -1 x365 -1 x366 -1 x367 -1 x368 -1 x369 -1 x370 -1 x371 -1 x372 >= 0 ;
+2 x629 +2 x630 +2 x631 +2 x632 -1 x369 -1 x370 -1 x371 -1 x372 -1 x373 -1 x374 -1 x375 -1 x376 >= 0 ;
+2 x633 +2 x634 +2 x635 +2 x636 -1 x373 -1 x374 -1 x375 -1 x376 -1 x377 -1 x378 -1 x379 -1 x380 >= 0 ;
+2 x637 +2 x638 +2 x639 +2 x640 -1 x377 -1 x378 -1 x379 -1 x380 -1 x381 -1 x382 -1 x383 -1 x384 >= 0 ;
+2 x641 +2 x642 +2 x643 +2 x644 -1 x381 -1 x382 -1 x383 -1 x384 -1 x385 -1 x386 -1 x387 -1 x388 >= 0 ;
+2 x645 +2 x646 +2 x647 +2 x648 -1 x385 -1 x386 -1 x387 -1 x388 -1 x389 -1 x390 -1 x391 -1 x392 >= 0 ;
+2 x649 +2 x650 +2 x651 +2 x652 -1 x389 -1 x390 -1 x391 -1 x392 -1 x393 -1 x394 -1 x395 -1 x396 >= 0 ;
+2 x653 +2 x654 +2 x655 +2 x656 -1 x393 -1 x394 -1 x395 -1 x396 -1 x397 -1 x398 -1 x399 -1 x400 >= 0 ;
+2 x657 +2 x658 +2 x659 +2 x660 -1 x397 -1 x398 -1 x399 -1 x400 -1 x401 -1 x402 -1 x403 -1 x404 >= 0 ;
+2 x661 +2 x662 +2 x663 +2 x664 -1 x401 -1 x402 -1 x403 -1 x404 -1 x405 -1 x406 -1 x407 -1 x408 >= 0 ;
+2 x665 +2 x666 +2 x667 +2 x668 -1 x405 -1 x406 -1 x407 -1 x408 -1 x409 -1 x410 -1 x411 -1 x412 >= 0 ;
+2 x669 +2 x670 +2 x671 +2 x672 -1 x409 -1 x410 -1 x411 -1 x412 -1 x413 -1 x414 -1 x415 -1 x416 >= 0 ;
+2 x673 +2 x674 +2 x675 +2 x676 -1 x413 -1 x414 -1 x415 -1 x416 -1 x417 -1 x418 -1 x419 -1 x420 >= 0 ;
+2 x677 +2 x678 +2 x679 +2 x680 -1 x417 -1 x418 -1 x419 -1 x420 -1 x421 -1 x422 -1 x423 -1 x424 >= 0 ;
+2 x681 +2 x682 +2 x683 +2 x684 -1 x421 -1 x422 -1 x423 -1 x424 -1 x425 -1 x426 -1 x427 -1 x428 >= 0 ;
+2 x685 +2 x686 +2 x687 +2 x688 -1 x425 -1 x426 -1 x427 -1 x428 -1 x429 -1 x430 -1 x431 -1 x432 >= 0 ;
+2 x689 +2 x690 +2 x691 +2 x692 -1 x429 -1 x430 -1 x431 -1 x432 -1 x433 -1 x434 -1 x435 -1 x436 >= 0 ;
+2 x693 +2 x694 +2 x695 +2 x696 -1 x433 -1 x434 -1 x435 -1 x436 -1 x437 -1 x438 -1 x439 -1 x440 >= 0 ;
+2 x697 +2 x698 +2 x699 +2 x700 -1 x437 -1 x438 -1 x439 -1 x440 -1 x441 -1 x442 -1 x443 -1 x444 >= 0 ;
+2 x701 +2 x702 +2 x703 +2 x704 -1 x441 -1 x442 -1 x443 -1 x444 -1 x445 -1 x446 -1 x447 -1 x448 >= 0 ;
+2 x705 +2 x706 +2 x707 +2 x708 -1 x445 -1 x446 -1 x447 -1 x448 -1 x449 -1 x450 -1 x451 -1 x452 >= 0 ;
+2 x709 +2 x710 +2 x711 +2 x712 -1 x449 -1 x450 -1 x451 -1 x452 -1 x453 -1 x454 -1 x455 -1 x456 >= 0 ;
+2 x713 +2 x714 +2 x715 +2 x716 -1 x453 -1 x454 -1 x455 -1 x456 -1 x457 -1 x458 -1 x459 -1 x460 >= 0 ;
+2 x717 +2 x718 +2 x719 +2 x720 -1 x457 -1 x458 -1 x459 -1 x460 -1 x461 -1 x462 -1 x463 -1 x464 >= 0 ;
+2 x721 +2 x722 +2 x723 +2 x724 -1 x461 -1 x462 -1 x463 -1 x464 -1 x465 -1 x466 -1 x467 -1 x468 >= 0 ;
+2 x725 +2 x726 +2 x727 +2 x728 -1 x465 -1 x466 -1 x467 -1 x468 -1 x469 -1 x470 -1 x471 -1 x472 >= 0 ;
+2 x729 +2 x730 +2 x731 +2 x732 -1 x469 -1 x470 -1 x471 -1 x472 -1 x473 -1 x474 -1 x475 -1 x476 >= 0 ;
+2 x733 +2 x734 +2 x735 +2 x736 -1 x473 -1 x474 -1 x475 -1 x476 -1 x477 -1 x478 -1 x479 -1 x480 >= 0 ;
+2 x737 +2 x738 +2 x739 +2 x740 -1 x477 -1 x478 -1 x479 -1 x480 -1 x481 -1 x482 -1 x483 -1 x484 >= 0 ;
+2 x741 +2 x742 +2 x743 +2 x744 -1 x481 -1 x482 -1 x483 -1 x484 -1 x485 -1 x486 -1 x487 -1 x488 >= 0 ;
+2 x745 +2 x746 +2 x747 +2 x748 -1 x485 -1 x486 -1 x487 -1 x488 -1 x489 -1 x490 -1 x491 -1 x492 >= 0 ;
+2 x749 +2 x750 +2 x751 +2 x752 -1 x489 -1 x490 -1 x491 -1 x492 -1 x493 -1 x494 -1 x495 -1 x496 >= 0 ;
+2 x753 +2 x754 +2 x755 +2 x756 -1 x493 -1 x494 -1 x495 -1 x496 -1 x497 -1 x498 -1 x499 -1 x500 >= 0 ;
+2 x757 +2 x758 +2 x759 +2 x760 -1 x497 -1 x498 -1 x499 -1 x500 -1 x501 -1 x502 -1 x503 -1 x504 >= 0 ;
+2 x761 +2 x762 +2 x763 +2 x764 -1 x501 -1 x502 -1 x503 -1 x504 -1 x505 -1 x506 -1 x507 -1 x508 >= 0 ;
+2 x765 +2 x766 +2 x767 +2 x768 -1 x505 -1 x506 -1 x507 -1 x508 -1 x509 -1 x510 -1 x511 -1 x512 >= 0 ;
+2 x769 +2 x770 +2 x771 +2 x772 -1 x513 -1 x514 -1 x515 -1 x516 -1 x765 -1 x766 -1 x767 -1 x768 >= 0 ;
+2 x773 +2 x774 +2 x775 +2 x776 -1 x513 -1 x514 -1 x515 -1 x516 -1 x517 -1 x518 -1 x519 -1 x520 >= 0 ;
+2 x777 +2 x778 +2 x779 +2 x780 -1 x517 -1 x518 -1 x519 -1 x520 -1 x521 -1 x522 -1 x523 -1 x524 >= 0 ;
+2 x781 +2 x782 +2 x783 +2 x784 -1 x521 -1 x522 -1 x523 -1 x524 -1 x525 -1 x526 -1 x527 -1 x528 >= 0 ;
+2 x785 +2 x786 +2 x787 +2 x788 -1 x525 -1 x526 -1 x527 -1 x528 -1 x529 -1 x530 -1 x531 -1 x532 >= 0 ;
+2 x789 +2 x790 +2 x791 +2 x792 -1 x529 -1 x530 -1 x531 -1 x532 -1 x533 -1 x534 -1 x535 -1 x536 >= 0 ;
+2 x793 +2 x794 +2 x795 +2 x796 -1 x533 -1 x534 -1 x535 -1 x536 -1 x537 -1 x538 -1 x539 -1 x540 >= 0 ;
+2 x797 +2 x798 +2 x799 +2 x800 -1 x537 -1 x538 -1 x539 -1 x540 -1 x541 -1 x542 -1 x543 -1 x544 >= 0 ;
+2 x801 +2 x802 +2 x803 +2 x804 -1 x541 -1 x542 -1 x543 -1 x544 -1 x545 -1 x546 -1 x547 -1 x548 >= 0 ;
+2 x805 +2 x806 +2 x807 +2 x808 -1 x545 -1 x546 -1 x547 -1 x548 -1 x549 -1 x550 -1 x551 -1 x552 >= 0 ;
+2 x809 +2 x810 +2 x811 +2 x812 -1 x549 -1 x550 -1 x551 -1 x552 -1 x553 -1 x554 -1 x555 -1 x556 >= 0 ;
+2 x813 +2 x814 +2 x815 +2 x816 -1 x553 -1 x554 -1 x555 -1 x556 -1 x557 -1 x558 -1 x559 -1 x560 >= 0 ;
+2 x817 +2 x818 +2 x819 +2 x820 -1 x557 -1 x558 -1 x559 -1 x560 -1 x561 -1 x562 -1 x563 -1 x564 >= 0 ;
+2 x821 +2 x822 +2 x823 +2 x824 -1 x561 -1 x562 -1 x563 -1 x564 -1 x565 -1 x566 -1 x567 -1 x568 >= 0 ;
+2 x825 +2 x826 +2 x827 +2 x828 -1 x565 -1 x566 -1 x567 -1 x568 -1 x569 -1 x570 -1 x571 -1 x572 >= 0 ;
+2 x829 +2 x830 +2 x831 +2 x832 -1 x569 -1 x570 -1 x571 -1 x572 -1 x573 -1 x574 -1 x575 -1 x576 >= 0 ;
+2 x833 +2 x834 +2 x835 +2 x836 -1 x573 -1 x574 -1 x575 -1 x576 -1 x577 -1 x578 -1 x579 -1 x580 >= 0 ;
+2 x837 +2 x838 +2 x839 +2 x840 -1 x577 -1 x578 -1 x579 -1 x580 -1 x581 -1 x582 -1 x583 -1 x584 >= 0 ;
+2 x841 +2 x842 +2 x843 +2 x844 -1 x581 -1 x582 -1 x583 -1 x584 -1 x585 -1 x586 -1 x587 -1 x588 >= 0 ;
+2 x845 +2 x846 +2 x847 +2 x848 -1 x585 -1 x586 -1 x587 -1 x588 -1 x589 -1 x590 -1 x591 -1 x592 >= 0 ;
+2 x849 +2 x850 +2 x851 +2 x852 -1 x589 -1 x590 -1 x591 -1 x592 -1 x593 -1 x594 -1 x595 -1 x596 >= 0 ;
+2 x853 +2 x854 +2 x855 +2 x856 -1 x593 -1 x594 -1 x595 -1 x596 -1 x597 -1 x598 -1 x599 -1 x600 >= 0 ;
+2 x857 +2 x858 +2 x859 +2 x860 -1 x597 -1 x598 -1 x599 -1 x600 -1 x601 -1 x602 -1 x603 -1 x604 >= 0 ;
+2 x861 +2 x862 +2 x863 +2 x864 -1 x601 -1 x602 -1 x603 -1 x604 -1 x605 -1 x606 -1 x607 -1 x608 >= 0 ;
+2 x865 +2 x866 +2 x867 +2 x868 -1 x605 -1 x606 -1 x607 -1 x608 -1 x609 -1 x610 -1 x611 -1 x612 >= 0 ;
+2 x869 +2 x870 +2 x871 +2 x872 -1 x609 -1 x610 -1 x611 -1 x612 -1 x613 -1 x614 -1 x615 -1 x616 >= 0 ;
+2 x873 +2 x874 +2 x875 +2 x876 -1 x613 -1 x614 -1 x615 -1 x616 -1 x617 -1 x618 -1 x619 -1 x620 >= 0 ;
+2 x877 +2 x878 +2 x879 +2 x880 -1 x617 -1 x618 -1 x619 -1 x620 -1 x621 -1 x622 -1 x623 -1 x624 >= 0 ;
+2 x881 +2 x882 +2 x883 +2 x884 -1 x621 -1 x622 -1 x623 -1 x624 -1 x625 -1 x626 -1 x627 -1 x628 >= 0 ;
+2 x885 +2 x886 +2 x887 +2 x888 -1 x625 -1 x626 -1 x627 -1 x628 -1 x629 -1 x630 -1 x631 -1 x632 >= 0 ;
+2 x889 +2 x890 +2 x891 +2 x892 -1 x629 -1 x630 -1 x631 -1 x632 -1 x633 -1 x634 -1 x635 -1 x636 >= 0 ;
+2 x893 +2 x894 +2 x895 +2 x896 -1 x633 -1 x634 -1 x635 -1 x636 -1 x637 -1 x638 -1 x639 -1 x640 >= 0 ;
+2 x897 +2 x898 +2 x899 +2 x900 -1 x637 -1 x638 -1 x639 -1 x640 -1 x641 -1 x642 -1 x643 -1 x644 >= 0 ;
+2 x901 +2 x902 +2 x903 +2 x904 -1 x641 -1 x642 -1 x643 -1 x644 -1 x645 -1 x646 -1 x647 -1 x648 >= 0 ;
+2 x905 +2 x906 +2 x907 +2 x908 -1 x645 -1 x646 -1 x647 -1 x648 -1 x649 -1 x650 -1 x651 -1 x652 >= 0 ;
+2 x909 +2 x910 +2 x911 +2 x912 -1 x649 -1 x650 -1 x651 -1 x652 -1 x653 -1 x654 -1 x655 -1 x656 >= 0 ;
+2 x913 +2 x914 +2 x915 +2 x916 -1 x653 -1 x654 -1 x655 -1 x656 -1 x657 -1 x658 -1 x659 -1 x660 >= 0 ;
+2 x917 +2 x918 +2 x919 +2 x920 -1 x657 -1 x658 -1 x659 -1 x660 -1 x661 -1 x662 -1 x663 -1 x664 >= 0 ;
+2 x921 +2 x922 +2 x923 +2 x924 -1 x661 -1 x662 -1 x663 -1 x664 -1 x665 -1 x666 -1 x667 -1 x668 >= 0 ;
+2 x925 +2 x926 +2 x927 +2 x928 -1 x665 -1 x666 -1 x667 -1 x668 -1 x669 -1 x670 -1 x671 -1 x672 >= 0 ;
+2 x929 +2 x930 +2 x931 +2 x932 -1 x669 -1 x670 -1 x671 -1 x672 -1 x673 -1 x674 -1 x675 -1 x676 >= 0 ;
+2 x933 +2 x934 +2 x935 +2 x936 -1 x673 -1 x674 -1 x675 -1 x676 -1 x677 -1 x678 -1 x679 -1 x680 >= 0 ;
+2 x937 +2 x938 +2 x939 +2 x940 -1 x677 -1 x678 -1 x679 -1 x680 -1 x681 -1 x682 -1 x683 -1 x684 >= 0 ;
+2 x941 +2 x942 +2 x943 +2 x944 -1 x681 -1 x682 -1 x683 -1 x684 -1 x685 -1 x686 -1 x687 -1 x688 >= 0 ;
+2 x945 +2 x946 +2 x947 +2 x948 -1 x685 -1 x686 -1 x687 -1 x688 -1 x689 -1 x690 -1 x691 -1 x692 >= 0 ;
+2 x949 +2 x950 +2 x951 +2 x952 -1 x689 -1 x690 -1 x691 -1 x692 -1 x693 -1 x694 -1 x695 -1 x696 >= 0 ;
+2 x953 +2 x954 +2 x955 +2 x956 -1 x693 -1 x694 -1 x695 -1 x696 -1 x697 -1 x698 -1 x699 -1 x700 >= 0 ;
+2 x957 +2 x958 +2 x959 +2 x960 -1 x697 -1 x698 -1 x699 -1 x700 -1 x701 -1 x702 -1 x703 -1 x704 >= 0 ;
+2 x961 +2 x962 +2 x963 +2 x964 -1 x701 -1 x702 -1 x703 -1 x704 -1 x705 -1 x706 -1 x707 -1 x708 >= 0 ;
+2 x965 +2 x966 +2 x967 +2 x968 -1 x705 -1 x706 -1 x707 -1 x708 -1 x709 -1 x710 -1 x711 -1 x712 >= 0 ;
+2 x969 +2 x970 +2 x971 +2 x972 -1 x709 -1 x710 -1 x711 -1 x712 -1 x713 -1 x714 -1 x715 -1 x716 >= 0 ;
+2 x973 +2 x974 +2 x975 +2 x976 -1 x713 -1 x714 -1 x715 -1 x716 -1 x717 -1 x718 -1 x719 -1 x720 >= 0 ;
+2 x977 +2 x978 +2 x979 +2 x980 -1 x717 -1 x718 -1 x719 -1 x720 -1 x721 -1 x722 -1 x723 -1 x724 >= 0 ;
+2 x981 +2 x982 +2 x983 +2 x984 -1 x721 -1 x722 -1 x723 -1 x724 -1 x725 -1 x726 -1 x727 -1 x728 >= 0 ;
+2 x985 +2 x986 +2 x987 +2 x988 -1 x725 -1 x726 -1 x727 -1 x728 -1 x729 -1 x730 -1 x731 -1 x732 >= 0 ;
+2 x989 +2 x990 +2 x991 +2 x992 -1 x729 -1 x730 -1 x731 -1 x732 -1 x733 -1 x734 -1 x735 -1 x736 >= 0 ;
+2 x993 +2 x994 +2 x995 +2 x996 -1 x733 -1 x734 -1 x735 -1 x736 -1 x737 -1 x738 -1 x739 -1 x740 >= 0 ;
+2 x997 +2 x998 +2 x999 +2 x1000 -1 x737 -1 x738 -1 x739 -1 x740 -1 x741 -1 x742 -1 x743 -1 x744 >= 0 ;
+2 x1001 +2 x1002 +2 x1003 +2 x1004 -1 x741 -1 x742 -1 x743 -1 x744 -1 x745 -1 x746 -1 x747 -1 x748 >= 0 ;
+2 x1005 +2 x1006 +2 x1007 +2 x1008 -1 x745 -1 x746 -1 x747 -1 x748 -1 x749 -1 x750 -1 x751 -1 x752 >= 0 ;
+2 x1009 +2 x1010 +2 x1011 +2 x1012 -1 x749 -1 x750 -1 x751 -1 x752 -1 x753 -1 x754 -1 x755 -1 x756 >= 0 ;
+2 x1013 +2 x1014 +2 x1015 +2 x1016 -1 x753 -1 x754 -1 x755 -1 x756 -1 x757 -1 x758 -1 x759 -1 x760 >= 0 ;
+2 x1017 +2 x1018 +2 x1019 +2 x1020 -1 x757 -1 x758 -1 x759 -1 x760 -1 x761 -1 x762 -1 x763 -1 x764 >= 0 ;
+2 x1021 +2 x1022 +2 x1023 +2 x1024 -1 x761 -1 x762 -1 x763 -1 x764 -1 x765 -1 x766 -1 x767 -1 x768 >= 0 ;
+2 x1025 +2 x1026 +2 x1027 +2 x1028 -1 x769 -1 x770 -1 x771 -1 x772 -1 x1021 -1 x1022 -1 x1023 -1 x1024 >= 0 ;
+2 x1029 +2 x1030 +2 x1031 +2 x1032 -1 x769 -1 x770 -1 x771 -1 x772 -1 x773 -1 x774 -1 x775 -1 x776 >= 0 ;
+2 x1033 +2 x1034 +2 x1035 +2 x1036 -1 x773 -1 x774 -1 x775 -1 x776 -1 x777 -1 x778 -1 x779 -1 x780 >= 0 ;
+2 x1037 +2 x1038 +2 x1039 +2 x1040 -1 x777 -1 x778 -1 x779 -1 x780 -1 x781 -1 x782 -1 x783 -1 x784 >= 0 ;
+2 x1041 +2 x1042 +2 x1043 +2 x1044 -1 x781 -1 x782 -1 x783 -1 x784 -1 x785 -1 x786 -1 x787 -1 x788 >= 0 ;
+2 x1045 +2 x1046 +2 x1047 +2 x1048 -1 x785 -1 x786 -1 x787 -1 x788 -1 x789 -1 x790 -1 x791 -1 x792 >= 0 ;
+2 x1049 +2 x1050 +2 x1051 +2 x1052 -1 x789 -1 x790 -1 x791 -1 x792 -1 x793 -1 x794 -1 x795 -1 x796 >= 0 ;
+2 x1053 +2 x1054 +2 x1055 +2 x1056 -1 x793 -1 x794 -1 x795 -1 x796 -1 x797 -1 x798 -1 x799 -1 x800 >= 0 ;
+2 x1057 +2 x1058 +2 x1059 +2 x1060 -1 x797 -1 x798 -1 x799 -1 x800 -1 x801 -1 x802 -1 x803 -1 x804 >= 0 ;
+2 x1061 +2 x1062 +2 x1063 +2 x1064 -1 x801 -1 x802 -1 x803 -1 x804 -1 x805 -1 x806 -1 x807 -1 x808 >= 0 ;
+2 x1065 +2 x1066 +2 x1067 +2 x1068 -1 x805 -1 x806 -1 x807 -1 x808 -1 x809 -1 x810 -1 x811 -1 x812 >= 0 ;
+2 x1069 +2 x1070 +2 x1071 +2 x1072 -1 x809 -1 x810 -1 x811 -1 x812 -1 x813 -1 x814 -1 x815 -1 x816 >= 0 ;
+2 x1073 +2 x1074 +2 x1075 +2 x1076 -1 x813 -1 x814 -1 x815 -1 x816 -1 x817 -1 x818 -1 x819 -1 x820 >= 0 ;
+2 x1077 +2 x1078 +2 x1079 +2 x1080 -1 x817 -1 x818 -1 x819 -1 x820 -1 x821 -1 x822 -1 x823 -1 x824 >= 0 ;
+2 x1081 +2 x1082 +2 x1083 +2 x1084 -1 x821 -1 x822 -1 x823 -1 x824 -1 x825 -1 x826 -1 x827 -1 x828 >= 0 ;
+2 x1085 +2 x1086 +2 x1087 +2 x1088 -1 x825 -1 x826 -1 x827 -1 x828 -1 x829 -1 x830 -1 x831 -1 x832 >= 0 ;
+2 x1089 +2 x1090 +2 x1091 +2 x1092 -1 x829 -1 x830 -1 x831 -1 x832 -1 x833 -1 x834 -1 x835 -1 x836 >= 0 ;
+2 x1093 +2 x1094 +2 x1095 +2 x1096 -1 x833 -1 x834 -1 x835 -1 x836 -1 x837 -1 x838 -1 x839 -1 x840 >= 0 ;
+2 x1097 +2 x1098 +2 x1099 +2 x1100 -1 x837 -1 x838 -1 x839 -1 x840 -1 x841 -1 x842 -1 x843 -1 x844 >= 0 ;
+2 x1101 +2 x1102 +2 x1103 +2 x1104 -1 x841 -1 x842 -1 x843 -1 x844 -1 x845 -1 x846 -1 x847 -1 x848 >= 0 ;
+2 x1105 +2 x1106 +2 x1107 +2 x1108 -1 x845 -1 x846 -1 x847 -1 x848 -1 x849 -1 x850 -1 x851 -1 x852 >= 0 ;
+2 x1109 +2 x1110 +2 x1111 +2 x1112 -1 x849 -1 x850 -1 x851 -1 x852 -1 x853 -1 x854 -1 x855 -1 x856 >= 0 ;
+2 x1113 +2 x1114 +2 x1115 +2 x1116 -1 x853 -1 x854 -1 x855 -1 x856 -1 x857 -1 x858 -1 x859 -1 x860 >= 0 ;
+2 x1117 +2 x1118 +2 x1119 +2 x1120 -1 x857 -1 x858 -1 x859 -1 x860 -1 x861 -1 x862 -1 x863 -1 x864 >= 0 ;
+2 x1121 +2 x1122 +2 x1123 +2 x1124 -1 x861 -1 x862 -1 x863 -1 x864 -1 x865 -1 x866 -1 x867 -1 x868 >= 0 ;
+2 x1125 +2 x1126 +2 x1127 +2 x1128 -1 x865 -1 x866 -1 x867 -1 x868 -1 x869 -1 x870 -1 x871 -1 x872 >= 0 ;
+2 x1129 +2 x1130 +2 x1131 +2 x1132 -1 x869 -1 x870 -1 x871 -1 x872 -1 x873 -1 x874 -1 x875 -1 x876 >= 0 ;
+2 x1133 +2 x1134 +2 x1135 +2 x1136 -1 x873 -1 x874 -1 x875 -1 x876 -1 x877 -1 x878 -1 x879 -1 x880 >= 0 ;
+2 x1137 +2 x1138 +2 x1139 +2 x1140 -1 x877 -1 x878 -1 x879 -1 x880 -1 x881 -1 x882 -1 x883 -1 x884 >= 0 ;
+2 x1141 +2 x1142 +2 x1143 +2 x1144 -1 x881 -1 x882 -1 x883 -1 x884 -1 x885 -1 x886 -1 x887 -1 x888 >= 0 ;
+2 x1145 +2 x1146 +2 x1147 +2 x1148 -1 x885 -1 x886 -1 x887 -1 x888 -1 x889 -1 x890 -1 x891 -1 x892 >= 0 ;
+2 x1149 +2 x1150 +2 x1151 +2 x1152 -1 x889 -1 x890 -1 x891 -1 x892 -1 x893 -1 x894 -1 x895 -1 x896 >= 0 ;
+2 x1153 +2 x1154 +2 x1155 +2 x1156 -1 x893 -1 x894 -1 x895 -1 x896 -1 x897 -1 x898 -1 x899 -1 x900 >= 0 ;
+2 x1157 +2 x1158 +2 x1159 +2 x1160 -1 x897 -1 x898 -1 x899 -1 x900 -1 x901 -1 x902 -1 x903 -1 x904 >= 0 ;
+2 x1161 +2 x1162 +2 x1163 +2 x1164 -1 x901 -1 x902 -1 x903 -1 x904 -1 x905 -1 x906 -1 x907 -1 x908 >= 0 ;
+2 x1165 +2 x1166 +2 x1167 +2 x1168 -1 x905 -1 x906 -1 x907 -1 x908 -1 x909 -1 x910 -1 x911 -1 x912 >= 0 ;
+2 x1169 +2 x1170 +2 x1171 +2 x1172 -1 x909 -1 x910 -1 x911 -1 x912 -1 x913 -1 x914 -1 x915 -1 x916 >= 0 ;
+2 x1173 +2 x1174 +2 x1175 +2 x1176 -1 x913 -1 x914 -1 x915 -1 x916 -1 x917 -1 x918 -1 x919 -1 x920 >= 0 ;
+2 x1177 +2 x1178 +2 x1179 +2 x1180 -1 x917 -1 x918 -1 x919 -1 x920 -1 x921 -1 x922 -1 x923 -1 x924 >= 0 ;
+2 x1181 +2 x1182 +2 x1183 +2 x1184 -1 x921 -1 x922 -1 x923 -1 x924 -1 x925 -1 x926 -1 x927 -1 x928 >= 0 ;
+2 x1185 +2 x1186 +2 x1187 +2 x1188 -1 x925 -1 x926 -1 x927 -1 x928 -1 x929 -1 x930 -1 x931 -1 x932 >= 0 ;
+2 x1189 +2 x1190 +2 x1191 +2 x1192 -1 x929 -1 x930 -1 x931 -1 x932 -1 x933 -1 x934 -1 x935 -1 x936 >= 0 ;
+2 x1193 +2 x1194 +2 x1195 +2 x1196 -1 x933 -1 x934 -1 x935 -1 x936 -1 x937 -1 x938 -1 x939 -1 x940 >= 0 ;
+2 x1197 +2 x1198 +2 x1199 +2 x1200 -1 x937 -1 x938 -1 x939 -1 x940 -1 x941 -1 x942 -1 x943 -1 x944 >= 0 ;
+2 x1201 +2 x1202 +2 x1203 +2 x1204 -1 x941 -1 x942 -1 x943 -1 x944 -1 x945 -1 x946 -1 x947 -1 x948 >= 0 ;
+2 x1205 +2 x1206 +2 x1207 +2 x1208 -1 x945 -1 x946 -1 x947 -1 x948 -1 x949 -1 x950 -1 x951 -1 x952 >= 0 ;
+2 x1209 +2 x1210 +2 x1211 +2 x1212 -1 x949 -1 x950 -1 x951 -1 x952 -1 x953 -1 x954 -1 x955 -1 x956 >= 0 ;
+2 x1213 +2 x1214 +2 x1215 +2 x1216 -1 x953 -1 x954 -1 x955 -1 x956 -1 x957 -1 x958 -1 x959 -1 x960 >= 0 ;
+2 x1217 +2 x1218 +2 x1219 +2 x1220 -1 x957 -1 x958 -1 x959 -1 x960 -1 x961 -1 x962 -1 x963 -1 x964 >= 0 ;
+2 x1221 +2 x1222 +2 x1223 +2 x1224 -1 x961 -1 x962 -1 x963 -1 x964 -1 x965 -1 x966 -1 x967 -1 x968 >= 0 ;
+2 x1225 +2 x1226 +2 x1227 +2 x1228 -1 x965 -1 x966 -1 x967 -1 x968 -1 x969 -1 x970 -1 x971 -1 x972 >= 0 ;
+2 x1229 +2 x1230 +2 x1231 +2 x1232 -1 x969 -1 x970 -1 x971 -1 x972 -1 x973 -1 x974 -1 x975 -1 x976 >= 0 ;
+2 x1233 +2 x1234 +2 x1235 +2 x1236 -1 x973 -1 x974 -1 x975 -1 x976 -1 x977 -1 x978 -1 x979 -1 x980 >= 0 ;
+2 x1237 +2 x1238 +2 x1239 +2 x1240 -1 x977 -1 x978 -1 x979 -1 x980 -1 x981 -1 x982 -1 x983 -1 x984 >= 0 ;
+2 x1241 +2 x1242 +2 x1243 +2 x1244 -1 x981 -1 x982 -1 x983 -1 x984 -1 x985 -1 x986 -1 x987 -1 x988 >= 0 ;
+2 x1245 +2 x1246 +2 x1247 +2 x1248 -1 x985 -1 x986 -1 x987 -1 x988 -1 x989 -1 x990 -1 x991 -1 x992 >= 0 ;
+2 x1249 +2 x1250 +2 x1251 +2 x1252 -1 x989 -1 x990 -1 x991 -1 x992 -1 x993 -1 x994 -1 x995 -1 x996 >= 0 ;
+2 x1253 +2 x1254 +2 x1255 +2 x1256 -1 x993 -1 x994 -1 x995 -1 x996 -1 x997 -1 x998 -1 x999 -1 x1000 >= 0 ;
+2 x1257 +2 x1258 +2 x1259 +2 x1260 -1 x997 -1 x998 -1 x999 -1 x1000 -1 x1001 -1 x1002 -1 x1003 -1 x1004 >= 0 ;
+2 x1261 +2 x1262 +2 x1263 +2 x1264 -1 x1001 -1 x1002 -1 x1003 -1 x1004 -1 x1005 -1 x1006 -1 x1007 -1 x1008 >= 0 ;
+2 x1265 +2 x1266 +2 x1267 +2 x1268 -1 x1005 -1 x1006 -1 x1007 -1 x1008 -1 x1009 -1 x1010 -1 x1011 -1 x1012 >= 0 ;
+2 x1269 +2 x1270 +2 x1271 +2 x1272 -1 x1009 -1 x1010 -1 x1011 -1 x1012 -1 x1013 -1 x1014 -1 x1015 -1 x1016 >= 0 ;
+2 x1273 +2 x1274 +2 x1275 +2 x1276 -1 x1013 -1 x1014 -1 x1015 -1 x1016 -1 x1017 -1 x1018 -1 x1019 -1 x1020 >= 0 ;
+2 x1277 +2 x1278 +2 x1279 +2 x1280 -1 x1017 -1 x1018 -1 x1019 -1 x1020 -1 x1021 -1 x1022 -1 x1023 -1 x1024 >= 0 ;
+2 x1281 +2 x1282 +2 x1283 +2 x1284 -1 x1025 -1 x1026 -1 x1027 -1 x1028 -1 x1277 -1 x1278 -1 x1279 -1 x1280 >= 0 ;
+2 x1285 +2 x1286 +2 x1287 +2 x1288 -1 x1025 -1 x1026 -1 x1027 -1 x1028 -1 x1029 -1 x1030 -1 x1031 -1 x1032 >= 0 ;
+2 x1289 +2 x1290 +2 x1291 +2 x1292 -1 x1029 -1 x1030 -1 x1031 -1 x1032 -1 x1033 -1 x1034 -1 x1035 -1 x1036 >= 0 ;
+2 x1293 +2 x1294 +2 x1295 +2 x1296 -1 x1033 -1 x1034 -1 x1035 -1 x1036 -1 x1037 -1 x1038 -1 x1039 -1 x1040 >= 0 ;
+2 x1297 +2 x1298 +2 x1299 +2 x1300 -1 x1037 -1 x1038 -1 x1039 -1 x1040 -1 x1041 -1 x1042 -1 x1043 -1 x1044 >= 0 ;
+2 x1301 +2 x1302 +2 x1303 +2 x1304 -1 x1041 -1 x1042 -1 x1043 -1 x1044 -1 x1045 -1 x1046 -1 x1047 -1 x1048 >= 0 ;
+2 x1305 +2 x1306 +2 x1307 +2 x1308 -1 x1045 -1 x1046 -1 x1047 -1 x1048 -1 x1049 -1 x1050 -1 x1051 -1 x1052 >= 0 ;
+2 x1309 +2 x1310 +2 x1311 +2 x1312 -1 x1049 -1 x1050 -1 x1051 -1 x1052 -1 x1053 -1 x1054 -1 x1055 -1 x1056 >= 0 ;
+2 x1313 +2 x1314 +2 x1315 +2 x1316 -1 x1053 -1 x1054 -1 x1055 -1 x1056 -1 x1057 -1 x1058 -1 x1059 -1 x1060 >= 0 ;
+2 x1317 +2 x1318 +2 x1319 +2 x1320 -1 x1057 -1 x1058 -1 x1059 -1 x1060 -1 x1061 -1 x1062 -1 x1063 -1 x1064 >= 0 ;
+2 x1321 +2 x1322 +2 x1323 +2 x1324 -1 x1061 -1 x1062 -1 x1063 -1 x1064 -1 x1065 -1 x1066 -1 x1067 -1 x1068 >= 0 ;
+2 x1325 +2 x1326 +2 x1327 +2 x1328 -1 x1065 -1 x1066 -1 x1067 -1 x1068 -1 x1069 -1 x1070 -1 x1071 -1 x1072 >= 0 ;
+2 x1329 +2 x1330 +2 x1331 +2 x1332 -1 x1069 -1 x1070 -1 x1071 -1 x1072 -1 x1073 -1 x1074 -1 x1075 -1 x1076 >= 0 ;
+2 x1333 +2 x1334 +2 x1335 +2 x1336 -1 x1073 -1 x1074 -1 x1075 -1 x1076 -1 x1077 -1 x1078 -1 x1079 -1 x1080 >= 0 ;
+2 x1337 +2 x1338 +2 x1339 +2 x1340 -1 x1077 -1 x1078 -1 x1079 -1 x1080 -1 x1081 -1 x1082 -1 x1083 -1 x1084 >= 0 ;
+2 x1341 +2 x1342 +2 x1343 +2 x1344 -1 x1081 -1 x1082 -1 x1083 -1 x1084 -1 x1085 -1 x1086 -1 x1087 -1 x1088 >= 0 ;
+2 x1345 +2 x1346 +2 x1347 +2 x1348 -1 x1085 -1 x1086 -1 x1087 -1 x1088 -1 x1089 -1 x1090 -1 x1091 -1 x1092 >= 0 ;
+2 x1349 +2 x1350 +2 x1351 +2 x1352 -1 x1089 -1 x1090 -1 x1091 -1 x1092 -1 x1093 -1 x1094 -1 x1095 -1 x1096 >= 0 ;
+2 x1353 +2 x1354 +2 x1355 +2 x1356 -1 x1093 -1 x1094 -1 x1095 -1 x1096 -1 x1097 -1 x1098 -1 x1099 -1 x1100 >= 0 ;
+2 x1357 +2 x1358 +2 x1359 +2 x1360 -1 x1097 -1 x1098 -1 x1099 -1 x1100 -1 x1101 -1 x1102 -1 x1103 -1 x1104 >= 0 ;
+2 x1361 +2 x1362 +2 x1363 +2 x1364 -1 x1101 -1 x1102 -1 x1103 -1 x1104 -1 x1105 -1 x1106 -1 x1107 -1 x1108 >= 0 ;
+2 x1365 +2 x1366 +2 x1367 +2 x1368 -1 x1105 -1 x1106 -1 x1107 -1 x1108 -1 x1109 -1 x1110 -1 x1111 -1 x1112 >= 0 ;
+2 x1369 +2 x1370 +2 x1371 +2 x1372 -1 x1109 -1 x1110 -1 x1111 -1 x1112 -1 x1113 -1 x1114 -1 x1115 -1 x1116 >= 0 ;
+2 x1373 +2 x1374 +2 x1375 +2 x1376 -1 x1113 -1 x1114 -1 x1115 -1 x1116 -1 x1117 -1 x1118 -1 x1119 -1 x1120 >= 0 ;
+2 x1377 +2 x1378 +2 x1379 +2 x1380 -1 x1117 -1 x1118 -1 x1119 -1 x1120 -1 x1121 -1 x1122 -1 x1123 -1 x1124 >= 0 ;
+2 x1381 +2 x1382 +2 x1383 +2 x1384 -1 x1121 -1 x1122 -1 x1123 -1 x1124 -1 x1125 -1 x1126 -1 x1127 -1 x1128 >= 0 ;
+2 x1385 +2 x1386 +2 x1387 +2 x1388 -1 x1125 -1 x1126 -1 x1127 -1 x1128 -1 x1129 -1 x1130 -1 x1131 -1 x1132 >= 0 ;
+2 x1389 +2 x1390 +2 x1391 +2 x1392 -1 x1129 -1 x1130 -1 x1131 -1 x1132 -1 x1133 -1 x1134 -1 x1135 -1 x1136 >= 0 ;
+2 x1393 +2 x1394 +2 x1395 +2 x1396 -1 x1133 -1 x1134 -1 x1135 -1 x1136 -1 x1137 -1 x1138 -1 x1139 -1 x1140 >= 0 ;
+2 x1397 +2 x1398 +2 x1399 +2 x1400 -1 x1137 -1 x1138 -1 x1139 -1 x1140 -1 x1141 -1 x1142 -1 x1143 -1 x1144 >= 0 ;
+2 x1401 +2 x1402 +2 x1403 +2 x1404 -1 x1141 -1 x1142 -1 x1143 -1 x1144 -1 x1145 -1 x1146 -1 x1147 -1 x1148 >= 0 ;
+2 x1405 +2 x1406 +2 x1407 +2 x1408 -1 x1145 -1 x1146 -1 x1147 -1 x1148 -1 x1149 -1 x1150 -1 x1151 -1 x1152 >= 0 ;
+2 x1409 +2 x1410 +2 x1411 +2 x1412 -1 x1149 -1 x1150 -1 x1151 -1 x1152 -1 x1153 -1 x1154 -1 x1155 -1 x1156 >= 0 ;
+2 x1413 +2 x1414 +2 x1415 +2 x1416 -1 x1153 -1 x1154 -1 x1155 -1 x1156 -1 x1157 -1 x1158 -1 x1159 -1 x1160 >= 0 ;
+2 x1417 +2 x1418 +2 x1419 +2 x1420 -1 x1157 -1 x1158 -1 x1159 -1 x1160 -1 x1161 -1 x1162 -1 x1163 -1 x1164 >= 0 ;
+2 x1421 +2 x1422 +2 x1423 +2 x1424 -1 x1161 -1 x1162 -1 x1163 -1 x1164 -1 x1165 -1 x1166 -1 x1167 -1 x1168 >= 0 ;
+2 x1425 +2 x1426 +2 x1427 +2 x1428 -1 x1165 -1 x1166 -1 x1167 -1 x1168 -1 x1169 -1 x1170 -1 x1171 -1 x1172 >= 0 ;
+2 x1429 +2 x1430 +2 x1431 +2 x1432 -1 x1169 -1 x1170 -1 x1171 -1 x1172 -1 x1173 -1 x1174 -1 x1175 -1 x1176 >= 0 ;
+2 x1433 +2 x1434 +2 x1435 +2 x1436 -1 x1173 -1 x1174 -1 x1175 -1 x1176 -1 x1177 -1 x1178 -1 x1179 -1 x1180 >= 0 ;
+2 x1437 +2 x1438 +2 x1439 +2 x1440 -1 x1177 -1 x1178 -1 x1179 -1 x1180 -1 x1181 -1 x1182 -1 x1183 -1 x1184 >= 0 ;
+2 x1441 +2 x1442 +2 x1443 +2 x1444 -1 x1181 -1 x1182 -1 x1183 -1 x1184 -1 x1185 -1 x1186 -1 x1187 -1 x1188 >= 0 ;
+2 x1445 +2 x1446 +2 x1447 +2 x1448 -1 x1185 -1 x1186 -1 x1187 -1 x1188 -1 x1189 -1 x1190 -1 x1191 -1 x1192 >= 0 ;
+2 x1449 +2 x1450 +2 x1451 +2 x1452 -1 x1189 -1 x1190 -1 x1191 -1 x1192 -1 x1193 -1 x1194 -1 x1195 -1 x1196 >= 0 ;
+2 x1453 +2 x1454 +2 x1455 +2 x1456 -1 x1193 -1 x1194 -1 x1195 -1 x1196 -1 x1197 -1 x1198 -1 x1199 -1 x1200 >= 0 ;
+2 x1457 +2 x1458 +2 x1459 +2 x1460 -1 x1197 -1 x1198 -1 x1199 -1 x1200 -1 x1201 -1 x1202 -1 x1203 -1 x1204 >= 0 ;
+2 x1461 +2 x1462 +2 x1463 +2 x1464 -1 x1201 -1 x1202 -1 x1203 -1 x1204 -1 x1205 -1 x1206 -1 x1207 -1 x1208 >= 0 ;
+2 x1465 +2 x1466 +2 x1467 +2 x1468 -1 x1205 -1 x1206 -1 x1207 -1 x1208 -1 x1209 -1 x1210 -1 x1211 -1 x1212 >= 0 ;
+2 x1469 +2 x1470 +2 x1471 +2 x1472 -1 x1209 -1 x1210 -1 x1211 -1 x1212 -1 x1213 -1 x1214 -1 x1215 -1 x1216 >= 0 ;
+2 x1473 +2 x1474 +2 x1475 +2 x1476 -1 x1213 -1 x1214 -1 x1215 -1 x1216 -1 x1217 -1 x1218 -1 x1219 -1 x1220 >= 0 ;
+2 x1477 +2 x1478 +2 x1479 +2 x1480 -1 x1217 -1 x1218 -1 x1219 -1 x1220 -1 x1221 -1 x1222 -1 x1223 -1 x1224 >= 0 ;
+2 x1481 +2 x1482 +2 x1483 +2 x1484 -1 x1221 -1 x1222 -1 x1223 -1 x1224 -1 x1225 -1 x1226 -1 x1227 -1 x1228 >= 0 ;
+2 x1485 +2 x1486 +2 x1487 +2 x1488 -1 x1225 -1 x1226 -1 x1227 -1 x1228 -1 x1229 -1 x1230 -1 x1231 -1 x1232 >= 0 ;
+2 x1489 +2 x1490 +2 x1491 +2 x1492 -1 x1229 -1 x1230 -1 x1231 -1 x1232 -1 x1233 -1 x1234 -1 x1235 -1 x1236 >= 0 ;
+2 x1493 +2 x1494 +2 x1495 +2 x1496 -1 x1233 -1 x1234 -1 x1235 -1 x1236 -1 x1237 -1 x1238 -1 x1239 -1 x1240 >= 0 ;
+2 x1497 +2 x1498 +2 x1499 +2 x1500 -1 x1237 -1 x1238 -1 x1239 -1 x1240 -1 x1241 -1 x1242 -1 x1243 -1 x1244 >= 0 ;
+2 x1501 +2 x1502 +2 x1503 +2 x1504 -1 x1241 -1 x1242 -1 x1243 -1 x1244 -1 x1245 -1 x1246 -1 x1247 -1 x1248 >= 0 ;
+2 x1505 +2 x1506 +2 x1507 +2 x1508 -1 x1245 -1 x1246 -1 x1247 -1 x1248 -1 x1249 -1 x1250 -1 x1251 -1 x1252 >= 0 ;
+2 x1509 +2 x1510 +2 x1511 +2 x1512 -1 x1249 -1 x1250 -1 x1251 -1 x1252 -1 x1253 -1 x1254 -1 x1255 -1 x1256 >= 0 ;
+2 x1513 +2 x1514 +2 x1515 +2 x1516 -1 x1253 -1 x1254 -1 x1255 -1 x1256 -1 x1257 -1 x1258 -1 x1259 -1 x1260 >= 0 ;
+2 x1517 +2 x1518 +2 x1519 +2 x1520 -1 x1257 -1 x1258 -1 x1259 -1 x1260 -1 x1261 -1 x1262 -1 x1263 -1 x1264 >= 0 ;
+2 x1521 +2 x1522 +2 x1523 +2 x1524 -1 x1261 -1 x1262 -1 x1263 -1 x1264 -1 x1265 -1 x1266 -1 x1267 -1 x1268 >= 0 ;
+2 x1525 +2 x1526 +2 x1527 +2 x1528 -1 x1265 -1 x1266 -1 x1267 -1 x1268 -1 x1269 -1 x1270 -1 x1271 -1 x1272 >= 0 ;
+2 x1529 +2 x1530 +2 x1531 +2 x1532 -1 x1269 -1 x1270 -1 x1271 -1 x1272 -1 x1273 -1 x1274 -1 x1275 -1 x1276 >= 0 ;
+2 x1533 +2 x1534 +2 x1535 +2 x1536 -1 x1273 -1 x1274 -1 x1275 -1 x1276 -1 x1277 -1 x1278 -1 x1279 -1 x1280 >= 0 ;
+2 x1537 +2 x1538 +2 x1539 +2 x1540 -1 x1281 -1 x1282 -1 x1283 -1 x1284 -1 x1533 -1 x1534 -1 x1535 -1 x1536 >= 0 ;
+2 x1541 +2 x1542 +2 x1543 +2 x1544 -1 x1281 -1 x1282 -1 x1283 -1 x1284 -1 x1285 -1 x1286 -1 x1287 -1 x1288 >= 0 ;
+2 x1545 +2 x1546 +2 x1547 +2 x1548 -1 x1285 -1 x1286 -1 x1287 -1 x1288 -1 x1289 -1 x1290 -1 x1291 -1 x1292 >= 0 ;
+2 x1549 +2 x1550 +2 x1551 +2 x1552 -1 x1289 -1 x1290 -1 x1291 -1 x1292 -1 x1293 -1 x1294 -1 x1295 -1 x1296 >= 0 ;
+2 x1553 +2 x1554 +2 x1555 +2 x1556 -1 x1293 -1 x1294 -1 x1295 -1 x1296 -1 x1297 -1 x1298 -1 x1299 -1 x1300 >= 0 ;
+2 x1557 +2 x1558 +2 x1559 +2 x1560 -1 x1297 -1 x1298 -1 x1299 -1 x1300 -1 x1301 -1 x1302 -1 x1303 -1 x1304 >= 0 ;
+2 x1561 +2 x1562 +2 x1563 +2 x1564 -1 x1301 -1 x1302 -1 x1303 -1 x1304 -1 x1305 -1 x1306 -1 x1307 -1 x1308 >= 0 ;
+2 x1565 +2 x1566 +2 x1567 +2 x1568 -1 x1305 -1 x1306 -1 x1307 -1 x1308 -1 x1309 -1 x1310 -1 x1311 -1 x1312 >= 0 ;
+2 x1569 +2 x1570 +2 x1571 +2 x1572 -1 x1309 -1 x1310 -1 x1311 -1 x1312 -1 x1313 -1 x1314 -1 x1315 -1 x1316 >= 0 ;
+2 x1573 +2 x1574 +2 x1575 +2 x1576 -1 x1313 -1 x1314 -1 x1315 -1 x1316 -1 x1317 -1 x1318 -1 x1319 -1 x1320 >= 0 ;
+2 x1577 +2 x1578 +2 x1579 +2 x1580 -1 x1317 -1 x1318 -1 x1319 -1 x1320 -1 x1321 -1 x1322 -1 x1323 -1 x1324 >= 0 ;
+2 x1581 +2 x1582 +2 x1583 +2 x1584 -1 x1321 -1 x1322 -1 x1323 -1 x1324 -1 x1325 -1 x1326 -1 x1327 -1 x1328 >= 0 ;
+2 x1585 +2 x1586 +2 x1587 +2 x1588 -1 x1325 -1 x1326 -1 x1327 -1 x1328 -1 x1329 -1 x1330 -1 x1331 -1 x1332 >= 0 ;
+2 x1589 +2 x1590 +2 x1591 +2 x1592 -1 x1329 -1 x1330 -1 x1331 -1 x1332 -1 x1333 -1 x1334 -1 x1335 -1 x1336 >= 0 ;
+2 x1593 +2 x1594 +2 x1595 +2 x1596 -1 x1333 -1 x1334 -1 x1335 -1 x1336 -1 x1337 -1 x1338 -1 x1339 -1 x1340 >= 0 ;
+2 x1597 +2 x1598 +2 x1599 +2 x1600 -1 x1337 -1 x1338 -1 x1339 -1 x1340 -1 x1341 -1 x1342 -1 x1343 -1 x1344 >= 0 ;
+2 x1601 +2 x1602 +2 x1603 +2 x1604 -1 x1341 -1 x1342 -1 x1343 -1 x1344 -1 x1345 -1 x1346 -1 x1347 -1 x1348 >= 0 ;
+2 x1605 +2 x1606 +2 x1607 +2 x1608 -1 x1345 -1 x1346 -1 x1347 -1 x1348 -1 x1349 -1 x1350 -1 x1351 -1 x1352 >= 0 ;
+2 x1609 +2 x1610 +2 x1611 +2 x1612 -1 x1349 -1 x1350 -1 x1351 -1 x1352 -1 x1353 -1 x1354 -1 x1355 -1 x1356 >= 0 ;
+2 x1613 +2 x1614 +2 x1615 +2 x1616 -1 x1353 -1 x1354 -1 x1355 -1 x1356 -1 x1357 -1 x1358 -1 x1359 -1 x1360 >= 0 ;
+2 x1617 +2 x1618 +2 x1619 +2 x1620 -1 x1357 -1 x1358 -1 x1359 -1 x1360 -1 x1361 -1 x1362 -1 x1363 -1 x1364 >= 0 ;
+2 x1621 +2 x1622 +2 x1623 +2 x1624 -1 x1361 -1 x1362 -1 x1363 -1 x1364 -1 x1365 -1 x1366 -1 x1367 -1 x1368 >= 0 ;
+2 x1625 +2 x1626 +2 x1627 +2 x1628 -1 x1365 -1 x1366 -1 x1367 -1 x1368 -1 x1369 -1 x1370 -1 x1371 -1 x1372 >= 0 ;
+2 x1629 +2 x1630 +2 x1631 +2 x1632 -1 x1369 -1 x1370 -1 x1371 -1 x1372 -1 x1373 -1 x1374 -1 x1375 -1 x1376 >= 0 ;
+2 x1633 +2 x1634 +2 x1635 +2 x1636 -1 x1373 -1 x1374 -1 x1375 -1 x1376 -1 x1377 -1 x1378 -1 x1379 -1 x1380 >= 0 ;
+2 x1637 +2 x1638 +2 x1639 +2 x1640 -1 x1377 -1 x1378 -1 x1379 -1 x1380 -1 x1381 -1 x1382 -1 x1383 -1 x1384 >= 0 ;
+2 x1641 +2 x1642 +2 x1643 +2 x1644 -1 x1381 -1 x1382 -1 x1383 -1 x1384 -1 x1385 -1 x1386 -1 x1387 -1 x1388 >= 0 ;
+2 x1645 +2 x1646 +2 x1647 +2 x1648 -1 x1385 -1 x1386 -1 x1387 -1 x1388 -1 x1389 -1 x1390 -1 x1391 -1 x1392 >= 0 ;
+2 x1649 +2 x1650 +2 x1651 +2 x1652 -1 x1389 -1 x1390 -1 x1391 -1 x1392 -1 x1393 -1 x1394 -1 x1395 -1 x1396 >= 0 ;
+2 x1653 +2 x1654 +2 x1655 +2 x1656 -1 x1393 -1 x1394 -1 x1395 -1 x1396 -1 x1397 -1 x1398 -1 x1399 -1 x1400 >= 0 ;
+2 x1657 +2 x1658 +2 x1659 +2 x1660 -1 x1397 -1 x1398 -1 x1399 -1 x1400 -1 x1401 -1 x1402 -1 x1403 -1 x1404 >= 0 ;
+2 x1661 +2 x1662 +2 x1663 +2 x1664 -1 x1401 -1 x1402 -1 x1403 -1 x1404 -1 x1405 -1 x1406 -1 x1407 -1 x1408 >= 0 ;
+2 x1665 +2 x1666 +2 x1667 +2 x1668 -1 x1405 -1 x1406 -1 x1407 -1 x1408 -1 x1409 -1 x1410 -1 x1411 -1 x1412 >= 0 ;
+2 x1669 +2 x1670 +2 x1671 +2 x1672 -1 x1409 -1 x1410 -1 x1411 -1 x1412 -1 x1413 -1 x1414 -1 x1415 -1 x1416 >= 0 ;
+2 x1673 +2 x1674 +2 x1675 +2 x1676 -1 x1413 -1 x1414 -1 x1415 -1 x1416 -1 x1417 -1 x1418 -1 x1419 -1 x1420 >= 0 ;
+2 x1677 +2 x1678 +2 x1679 +2 x1680 -1 x1417 -1 x1418 -1 x1419 -1 x1420 -1 x1421 -1 x1422 -1 x1423 -1 x1424 >= 0 ;
+2 x1681 +2 x1682 +2 x1683 +2 x1684 -1 x1421 -1 x1422 -1 x1423 -1 x1424 -1 x1425 -1 x1426 -1 x1427 -1 x1428 >= 0 ;
+2 x1685 +2 x1686 +2 x1687 +2 x1688 -1 x1425 -1 x1426 -1 x1427 -1 x1428 -1 x1429 -1 x1430 -1 x1431 -1 x1432 >= 0 ;
+2 x1689 +2 x1690 +2 x1691 +2 x1692 -1 x1429 -1 x1430 -1 x1431 -1 x1432 -1 x1433 -1 x1434 -1 x1435 -1 x1436 >= 0 ;
+2 x1693 +2 x1694 +2 x1695 +2 x1696 -1 x1433 -1 x1434 -1 x1435 -1 x1436 -1 x1437 -1 x1438 -1 x1439 -1 x1440 >= 0 ;
+2 x1697 +2 x1698 +2 x1699 +2 x1700 -1 x1437 -1 x1438 -1 x1439 -1 x1440 -1 x1441 -1 x1442 -1 x1443 -1 x1444 >= 0 ;
+2 x1701 +2 x1702 +2 x1703 +2 x1704 -1 x1441 -1 x1442 -1 x1443 -1 x1444 -1 x1445 -1 x1446 -1 x1447 -1 x1448 >= 0 ;
+2 x1705 +2 x1706 +2 x1707 +2 x1708 -1 x1445 -1 x1446 -1 x1447 -1 x1448 -1 x1449 -1 x1450 -1 x1451 -1 x1452 >= 0 ;
+2 x1709 +2 x1710 +2 x1711 +2 x1712 -1 x1449 -1 x1450 -1 x1451 -1 x1452 -1 x1453 -1 x1454 -1 x1455 -1 x1456 >= 0 ;
+2 x1713 +2 x1714 +2 x1715 +2 x1716 -1 x1453 -1 x1454 -1 x1455 -1 x1456 -1 x1457 -1 x1458 -1 x1459 -1 x1460 >= 0 ;
+2 x1717 +2 x1718 +2 x1719 +2 x1720 -1 x1457 -1 x1458 -1 x1459 -1 x1460 -1 x1461 -1 x1462 -1 x1463 -1 x1464 >= 0 ;
+2 x1721 +2 x1722 +2 x1723 +2 x1724 -1 x1461 -1 x1462 -1 x1463 -1 x1464 -1 x1465 -1 x1466 -1 x1467 -1 x1468 >= 0 ;
+2 x1725 +2 x1726 +2 x1727 +2 x1728 -1 x1465 -1 x1466 -1 x1467 -1 x1468 -1 x1469 -1 x1470 -1 x1471 -1 x1472 >= 0 ;
+2 x1729 +2 x1730 +2 x1731 +2 x1732 -1 x1469 -1 x1470 -1 x1471 -1 x1472 -1 x1473 -1 x1474 -1 x1475 -1 x1476 >= 0 ;
+2 x1733 +2 x1734 +2 x1735 +2 x1736 -1 x1473 -1 x1474 -1 x1475 -1 x1476 -1 x1477 -1 x1478 -1 x1479 -1 x1480 >= 0 ;
+2 x1737 +2 x1738 +2 x1739 +2 x1740 -1 x1477 -1 x1478 -1 x1479 -1 x1480 -1 x1481 -1 x1482 -1 x1483 -1 x1484 >= 0 ;
+2 x1741 +2 x1742 +2 x1743 +2 x1744 -1 x1481 -1 x1482 -1 x1483 -1 x1484 -1 x1485 -1 x1486 -1 x1487 -1 x1488 >= 0 ;
+2 x1745 +2 x1746 +2 x1747 +2 x1748 -1 x1485 -1 x1486 -1 x1487 -1 x1488 -1 x1489 -1 x1490 -1 x1491 -1 x1492 >= 0 ;
+2 x1749 +2 x1750 +2 x1751 +2 x1752 -1 x1489 -1 x1490 -1 x1491 -1 x1492 -1 x1493 -1 x1494 -1 x1495 -1 x1496 >= 0 ;
+2 x1753 +2 x1754 +2 x1755 +2 x1756 -1 x1493 -1 x1494 -1 x1495 -1 x1496 -1 x1497 -1 x1498 -1 x1499 -1 x1500 >= 0 ;
+2 x1757 +2 x1758 +2 x1759 +2 x1760 -1 x1497 -1 x1498 -1 x1499 -1 x1500 -1 x1501 -1 x1502 -1 x1503 -1 x1504 >= 0 ;
+2 x1761 +2 x1762 +2 x1763 +2 x1764 -1 x1501 -1 x1502 -1 x1503 -1 x1504 -1 x1505 -1 x1506 -1 x1507 -1 x1508 >= 0 ;
+2 x1765 +2 x1766 +2 x1767 +2 x1768 -1 x1505 -1 x1506 -1 x1507 -1 x1508 -1 x1509 -1 x1510 -1 x1511 -1 x1512 >= 0 ;
+2 x1769 +2 x1770 +2 x1771 +2 x1772 -1 x1509 -1 x1510 -1 x1511 -1 x1512 -1 x1513 -1 x1514 -1 x1515 -1 x1516 >= 0 ;
+2 x1773 +2 x1774 +2 x1775 +2 x1776 -1 x1513 -1 x1514 -1 x1515 -1 x1516 -1 x1517 -1 x1518 -1 x1519 -1 x1520 >= 0 ;
+2 x1777 +2 x1778 +2 x1779 +2 x1780 -1 x1517 -1 x1518 -1 x1519 -1 x1520 -1 x1521 -1 x1522 -1 x1523 -1 x1524 >= 0 ;
+2 x1781 +2 x1782 +2 x1783 +2 x1784 -1 x1521 -1 x1522 -1 x1523 -1 x1524 -1 x1525 -1 x1526 -1 x1527 -1 x1528 >= 0 ;
+2 x1785 +2 x1786 +2 x1787 +2 x1788 -1 x1525 -1 x1526 -1 x1527 -1 x1528 -1 x1529 -1 x1530 -1 x1531 -1 x1532 >= 0 ;
+2 x1789 +2 x1790 +2 x1791 +2 x1792 -1 x1529 -1 x1530 -1 x1531 -1 x1532 -1 x1533 -1 x1534 -1 x1535 -1 x1536 >= 0 ;
+2 x1793 +2 x1794 +2 x1795 +2 x1796 -1 x1537 -1 x1538 -1 x1539 -1 x1540 -1 x1789 -1 x1790 -1 x1791 -1 x1792 >= 0 ;
+2 x1797 +2 x1798 +2 x1799 +2 x1800 -1 x1537 -1 x1538 -1 x1539 -1 x1540 -1 x1541 -1 x1542 -1 x1543 -1 x1544 >= 0 ;
+2 x1801 +2 x1802 +2 x1803 +2 x1804 -1 x1541 -1 x1542 -1 x1543 -1 x1544 -1 x1545 -1 x1546 -1 x1547 -1 x1548 >= 0 ;
+2 x1805 +2 x1806 +2 x1807 +2 x1808 -1 x1545 -1 x1546 -1 x1547 -1 x1548 -1 x1549 -1 x1550 -1 x1551 -1 x1552 >= 0 ;
+2 x1809 +2 x1810 +2 x1811 +2 x1812 -1 x1549 -1 x1550 -1 x1551 -1 x1552 -1 x1553 -1 x1554 -1 x1555 -1 x1556 >= 0 ;
+2 x1813 +2 x1814 +2 x1815 +2 x1816 -1 x1553 -1 x1554 -1 x1555 -1 x1556 -1 x1557 -1 x1558 -1 x1559 -1 x1560 >= 0 ;
+2 x1817 +2 x1818 +2 x1819 +2 x1820 -1 x1557 -1 x1558 -1 x1559 -1 x1560 -1 x1561 -1 x1562 -1 x1563 -1 x1564 >= 0 ;
+2 x1821 +2 x1822 +2 x1823 +2 x1824 -1 x1561 -1 x1562 -1 x1563 -1 x1564 -1 x1565 -1 x1566 -1 x1567 -1 x1568 >= 0 ;
+2 x1825 +2 x1826 +2 x1827 +2 x1828 -1 x1565 -1 x1566 -1 x1567 -1 x1568 -1 x1569 -1 x1570 -1 x1571 -1 x1572 >= 0 ;
+2 x1829 +2 x1830 +2 x1831 +2 x1832 -1 x1569 -1 x1570 -1 x1571 -1 x1572 -1 x1573 -1 x1574 -1 x1575 -1 x1576 >= 0 ;
+2 x1833 +2 x1834 +2 x1835 +2 x1836 -1 x1573 -1 x1574 -1 x1575 -1 x1576 -1 x1577 -1 x1578 -1 x1579 -1 x1580 >= 0 ;
+2 x1837 +2 x1838 +2 x1839 +2 x1840 -1 x1577 -1 x1578 -1 x1579 -1 x1580 -1 x1581 -1 x1582 -1 x1583 -1 x1584 >= 0 ;
+2 x1841 +2 x1842 +2 x1843 +2 x1844 -1 x1581 -1 x1582 -1 x1583 -1 x1584 -1 x1585 -1 x1586 -1 x1587 -1 x1588 >= 0 ;
+2 x1845 +2 x1846 +2 x1847 +2 x1848 -1 x1585 -1 x1586 -1 x1587 -1 x1588 -1 x1589 -1 x1590 -1 x1591 -1 x1592 >= 0 ;
+2 x1849 +2 x1850 +2 x1851 +2 x1852 -1 x1589 -1 x1590 -1 x1591 -1 x1592 -1 x1593 -1 x1594 -1 x1595 -1 x1596 >= 0 ;
+2 x1853 +2 x1854 +2 x1855 +2 x1856 -1 x1593 -1 x1594 -1 x1595 -1 x1596 -1 x1597 -1 x1598 -1 x1599 -1 x1600 >= 0 ;
+2 x1857 +2 x1858 +2 x1859 +2 x1860 -1 x1597 -1 x1598 -1 x1599 -1 x1600 -1 x1601 -1 x1602 -1 x1603 -1 x1604 >= 0 ;
+2 x1861 +2 x1862 +2 x1863 +2 x1864 -1 x1601 -1 x1602 -1 x1603 -1 x1604 -1 x1605 -1 x1606 -1 x1607 -1 x1608 >= 0 ;
+2 x1865 +2 x1866 +2 x1867 +2 x1868 -1 x1605 -1 x1606 -1 x1607 -1 x1608 -1 x1609 -1 x1610 -1 x1611 -1 x1612 >= 0 ;
+2 x1869 +2 x1870 +2 x1871 +2 x1872 -1 x1609 -1 x1610 -1 x1611 -1 x1612 -1 x1613 -1 x1614 -1 x1615 -1 x1616 >= 0 ;
+2 x1873 +2 x1874 +2 x1875 +2 x1876 -1 x1613 -1 x1614 -1 x1615 -1 x1616 -1 x1617 -1 x1618 -1 x1619 -1 x1620 >= 0 ;
+2 x1877 +2 x1878 +2 x1879 +2 x1880 -1 x1617 -1 x1618 -1 x1619 -1 x1620 -1 x1621 -1 x1622 -1 x1623 -1 x1624 >= 0 ;
+2 x1881 +2 x1882 +2 x1883 +2 x1884 -1 x1621 -1 x1622 -1 x1623 -1 x1624 -1 x1625 -1 x1626 -1 x1627 -1 x1628 >= 0 ;
+2 x1885 +2 x1886 +2 x1887 +2 x1888 -1 x1625 -1 x1626 -1 x1627 -1 x1628 -1 x1629 -1 x1630 -1 x1631 -1 x1632 >= 0 ;
+2 x1889 +2 x1890 +2 x1891 +2 x1892 -1 x1629 -1 x1630 -1 x1631 -1 x1632 -1 x1633 -1 x1634 -1 x1635 -1 x1636 >= 0 ;
+2 x1893 +2 x1894 +2 x1895 +2 x1896 -1 x1633 -1 x1634 -1 x1635 -1 x1636 -1 x1637 -1 x1638 -1 x1639 -1 x1640 >= 0 ;
+2 x1897 +2 x1898 +2 x1899 +2 x1900 -1 x1637 -1 x1638 -1 x1639 -1 x1640 -1 x1641 -1 x1642 -1 x1643 -1 x1644 >= 0 ;
+2 x1901 +2 x1902 +2 x1903 +2 x1904 -1 x1641 -1 x1642 -1 x1643 -1 x1644 -1 x1645 -1 x1646 -1 x1647 -1 x1648 >= 0 ;
+2 x1905 +2 x1906 +2 x1907 +2 x1908 -1 x1645 -1 x1646 -1 x1647 -1 x1648 -1 x1649 -1 x1650 -1 x1651 -1 x1652 >= 0 ;
+2 x1909 +2 x1910 +2 x1911 +2 x1912 -1 x1649 -1 x1650 -1 x1651 -1 x1652 -1 x1653 -1 x1654 -1 x1655 -1 x1656 >= 0 ;
+2 x1913 +2 x1914 +2 x1915 +2 x1916 -1 x1653 -1 x1654 -1 x1655 -1 x1656 -1 x1657 -1 x1658 -1 x1659 -1 x1660 >= 0 ;
+2 x1917 +2 x1918 +2 x1919 +2 x1920 -1 x1657 -1 x1658 -1 x1659 -1 x1660 -1 x1661 -1 x1662 -1 x1663 -1 x1664 >= 0 ;
+2 x1921 +2 x1922 +2 x1923 +2 x1924 -1 x1661 -1 x1662 -1 x1663 -1 x1664 -1 x1665 -1 x1666 -1 x1667 -1 x1668 >= 0 ;
+2 x1925 +2 x1926 +2 x1927 +2 x1928 -1 x1665 -1 x1666 -1 x1667 -1 x1668 -1 x1669 -1 x1670 -1 x1671 -1 x1672 >= 0 ;
+2 x1929 +2 x1930 +2 x1931 +2 x1932 -1 x1669 -1 x1670 -1 x1671 -1 x1672 -1 x1673 -1 x1674 -1 x1675 -1 x1676 >= 0 ;
+2 x1933 +2 x1934 +2 x1935 +2 x1936 -1 x1673 -1 x1674 -1 x1675 -1 x1676 -1 x1677 -1 x1678 -1 x1679 -1 x1680 >= 0 ;
+2 x1937 +2 x1938 +2 x1939 +2 x1940 -1 x1677 -1 x1678 -1 x1679 -1 x1680 -1 x1681 -1 x1682 -1 x1683 -1 x1684 >= 0 ;
+2 x1941 +2 x1942 +2 x1943 +2 x1944 -1 x1681 -1 x1682 -1 x1683 -1 x1684 -1 x1685 -1 x1686 -1 x1687 -1 x1688 >= 0 ;
+2 x1945 +2 x1946 +2 x1947 +2 x1948 -1 x1685 -1 x1686 -1 x1687 -1 x1688 -1 x1689 -1 x1690 -1 x1691 -1 x1692 >= 0 ;
+2 x1949 +2 x1950 +2 x1951 +2 x1952 -1 x1689 -1 x1690 -1 x1691 -1 x1692 -1 x1693 -1 x1694 -1 x1695 -1 x1696 >= 0 ;
+2 x1953 +2 x1954 +2 x1955 +2 x1956 -1 x1693 -1 x1694 -1 x1695 -1 x1696 -1 x1697 -1 x1698 -1 x1699 -1 x1700 >= 0 ;
+2 x1957 +2 x1958 +2 x1959 +2 x1960 -1 x1697 -1 x1698 -1 x1699 -1 x1700 -1 x1701 -1 x1702 -1 x1703 -1 x1704 >= 0 ;
+2 x1961 +2 x1962 +2 x1963 +2 x1964 -1 x1701 -1 x1702 -1 x1703 -1 x1704 -1 x1705 -1 x1706 -1 x1707 -1 x1708 >= 0 ;
+2 x1965 +2 x1966 +2 x1967 +2 x1968 -1 x1705 -1 x1706 -1 x1707 -1 x1708 -1 x1709 -1 x1710 -1 x1711 -1 x1712 >= 0 ;
+2 x1969 +2 x1970 +2 x1971 +2 x1972 -1 x1709 -1 x1710 -1 x1711 -1 x1712 -1 x1713 -1 x1714 -1 x1715 -1 x1716 >= 0 ;
+2 x1973 +2 x1974 +2 x1975 +2 x1976 -1 x1713 -1 x1714 -1 x1715 -1 x1716 -1 x1717 -1 x1718 -1 x1719 -1 x1720 >= 0 ;
+2 x1977 +2 x1978 +2 x1979 +2 x1980 -1 x1717 -1 x1718 -1 x1719 -1 x1720 -1 x1721 -1 x1722 -1 x1723 -1 x1724 >= 0 ;
+2 x1981 +2 x1982 +2 x1983 +2 x1984 -1 x1721 -1 x1722 -1 x1723 -1 x1724 -1 x1725 -1 x1726 -1 x1727 -1 x1728 >= 0 ;
+2 x1985 +2 x1986 +2 x1987 +2 x1988 -1 x1725 -1 x1726 -1 x1727 -1 x1728 -1 x1729 -1 x1730 -1 x1731 -1 x1732 >= 0 ;
+2 x1989 +2 x1990 +2 x1991 +2 x1992 -1 x1729 -1 x1730 -1 x1731 -1 x1732 -1 x1733 -1 x1734 -1 x1735 -1 x1736 >= 0 ;
+2 x1993 +2 x1994 +2 x1995 +2 x1996 -1 x1733 -1 x1734 -1 x1735 -1 x1736 -1 x1737 -1 x1738 -1 x1739 -1 x1740 >= 0 ;
+2 x1997 +2 x1998 +2 x1999 +2 x2000 -1 x1737 -1 x1738 -1 x1739 -1 x1740 -1 x1741 -1 x1742 -1 x1743 -1 x1744 >= 0 ;
+2 x2001 +2 x2002 +2 x2003 +2 x2004 -1 x1741 -1 x1742 -1 x1743 -1 x1744 -1 x1745 -1 x1746 -1 x1747 -1 x1748 >= 0 ;
+2 x2005 +2 x2006 +2 x2007 +2 x2008 -1 x1745 -1 x1746 -1 x1747 -1 x1748 -1 x1749 -1 x1750 -1 x1751 -1 x1752 >= 0 ;
+2 x2009 +2 x2010 +2 x2011 +2 x2012 -1 x1749 -1 x1750 -1 x1751 -1 x1752 -1 x1753 -1 x1754 -1 x1755 -1 x1756 >= 0 ;
+2 x2013 +2 x2014 +2 x2015 +2 x2016 -1 x1753 -1 x1754 -1 x1755 -1 x1756 -1 x1757 -1 x1758 -1 x1759 -1 x1760 >= 0 ;
+2 x2017 +2 x2018 +2 x2019 +2 x2020 -1 x1757 -1 x1758 -1 x1759 -1 x1760 -1 x1761 -1 x1762 -1 x1763 -1 x1764 >= 0 ;
+2 x2021 +2 x2022 +2 x2023 +2 x2024 -1 x1761 -1 x1762 -1 x1763 -1 x1764 -1 x1765 -1 x1766 -1 x1767 -1 x1768 >= 0 ;
+2 x2025 +2 x2026 +2 x2027 +2 x2028 -1 x1765 -1 x1766 -1 x1767 -1 x1768 -1 x1769 -1 x1770 -1 x1771 -1 x1772 >= 0 ;
+2 x2029 +2 x2030 +2 x2031 +2 x2032 -1 x1769 -1 x1770 -1 x1771 -1 x1772 -1 x1773 -1 x1774 -1 x1775 -1 x1776 >= 0 ;
+2 x2033 +2 x2034 +2 x2035 +2 x2036 -1 x1773 -1 x1774 -1 x1775 -1 x1776 -1 x1777 -1 x1778 -1 x1779 -1 x1780 >= 0 ;
+2 x2037 +2 x2038 +2 x2039 +2 x2040 -1 x1777 -1 x1778 -1 x1779 -1 x1780 -1 x1781 -1 x1782 -1 x1783 -1 x1784 >= 0 ;
+2 x2041 +2 x2042 +2 x2043 +2 x2044 -1 x1781 -1 x1782 -1 x1783 -1 x1784 -1 x1785 -1 x1786 -1 x1787 -1 x1788 >= 0 ;
+2 x2045 +2 x2046 +2 x2047 +2 x2048 -1 x1785 -1 x1786 -1 x1787 -1 x1788 -1 x1789 -1 x1790 -1 x1791 -1 x1792 >= 0 ;
+2 x2049 +2 x2050 +2 x2051 +2 x2052 -1 x1793 -1 x1794 -1 x1795 -1 x1796 -1 x2045 -1 x2046 -1 x2047 -1 x2048 >= 0 ;
+2 x2053 +2 x2054 +2 x2055 +2 x2056 -1 x1793 -1 x1794 -1 x1795 -1 x1796 -1 x1797 -1 x1798 -1 x1799 -1 x1800 >= 0 ;
+2 x2057 +2 x2058 +2 x2059 +2 x2060 -1 x1797 -1 x1798 -1 x1799 -1 x1800 -1 x1801 -1 x1802 -1 x1803 -1 x1804 >= 0 ;
+2 x2061 +2 x2062 +2 x2063 +2 x2064 -1 x1801 -1 x1802 -1 x1803 -1 x1804 -1 x1805 -1 x1806 -1 x1807 -1 x1808 >= 0 ;
+2 x2065 +2 x2066 +2 x2067 +2 x2068 -1 x1805 -1 x1806 -1 x1807 -1 x1808 -1 x1809 -1 x1810 -1 x1811 -1 x1812 >= 0 ;
+2 x2069 +2 x2070 +2 x2071 +2 x2072 -1 x1809 -1 x1810 -1 x1811 -1 x1812 -1 x1813 -1 x1814 -1 x1815 -1 x1816 >= 0 ;
+2 x2073 +2 x2074 +2 x2075 +2 x2076 -1 x1813 -1 x1814 -1 x1815 -1 x1816 -1 x1817 -1 x1818 -1 x1819 -1 x1820 >= 0 ;
+2 x2077 +2 x2078 +2 x2079 +2 x2080 -1 x1817 -1 x1818 -1 x1819 -1 x1820 -1 x1821 -1 x1822 -1 x1823 -1 x1824 >= 0 ;
+2 x2081 +2 x2082 +2 x2083 +2 x2084 -1 x1821 -1 x1822 -1 x1823 -1 x1824 -1 x1825 -1 x1826 -1 x1827 -1 x1828 >= 0 ;
+2 x2085 +2 x2086 +2 x2087 +2 x2088 -1 x1825 -1 x1826 -1 x1827 -1 x1828 -1 x1829 -1 x1830 -1 x1831 -1 x1832 >= 0 ;
+2 x2089 +2 x2090 +2 x2091 +2 x2092 -1 x1829 -1 x1830 -1 x1831 -1 x1832 -1 x1833 -1 x1834 -1 x1835 -1 x1836 >= 0 ;
+2 x2093 +2 x2094 +2 x2095 +2 x2096 -1 x1833 -1 x1834 -1 x1835 -1 x1836 -1 x1837 -1 x1838 -1 x1839 -1 x1840 >= 0 ;
+2 x2097 +2 x2098 +2 x2099 +2 x2100 -1 x1837 -1 x1838 -1 x1839 -1 x1840 -1 x1841 -1 x1842 -1 x1843 -1 x1844 >= 0 ;
+2 x2101 +2 x2102 +2 x2103 +2 x2104 -1 x1841 -1 x1842 -1 x1843 -1 x1844 -1 x1845 -1 x1846 -1 x1847 -1 x1848 >= 0 ;
+2 x2105 +2 x2106 +2 x2107 +2 x2108 -1 x1845 -1 x1846 -1 x1847 -1 x1848 -1 x1849 -1 x1850 -1 x1851 -1 x1852 >= 0 ;
+2 x2109 +2 x2110 +2 x2111 +2 x2112 -1 x1849 -1 x1850 -1 x1851 -1 x1852 -1 x1853 -1 x1854 -1 x1855 -1 x1856 >= 0 ;
+2 x2113 +2 x2114 +2 x2115 +2 x2116 -1 x1853 -1 x1854 -1 x1855 -1 x1856 -1 x1857 -1 x1858 -1 x1859 -1 x1860 >= 0 ;
+2 x2117 +2 x2118 +2 x2119 +2 x2120 -1 x1857 -1 x1858 -1 x1859 -1 x1860 -1 x1861 -1 x1862 -1 x1863 -1 x1864 >= 0 ;
+2 x2121 +2 x2122 +2 x2123 +2 x2124 -1 x1861 -1 x1862 -1 x1863 -1 x1864 -1 x1865 -1 x1866 -1 x1867 -1 x1868 >= 0 ;
+2 x2125 +2 x2126 +2 x2127 +2 x2128 -1 x1865 -1 x1866 -1 x1867 -1 x1868 -1 x1869 -1 x1870 -1 x1871 -1 x1872 >= 0 ;
+2 x2129 +2 x2130 +2 x2131 +2 x2132 -1 x1869 -1 x1870 -1 x1871 -1 x1872 -1 x1873 -1 x1874 -1 x1875 -1 x1876 >= 0 ;
+2 x2133 +2 x2134 +2 x2135 +2 x2136 -1 x1873 -1 x1874 -1 x1875 -1 x1876 -1 x1877 -1 x1878 -1 x1879 -1 x1880 >= 0 ;
+2 x2137 +2 x2138 +2 x2139 +2 x2140 -1 x1877 -1 x1878 -1 x1879 -1 x1880 -1 x1881 -1 x1882 -1 x1883 -1 x1884 >= 0 ;
+2 x2141 +2 x2142 +2 x2143 +2 x2144 -1 x1881 -1 x1882 -1 x1883 -1 x1884 -1 x1885 -1 x1886 -1 x1887 -1 x1888 >= 0 ;
+2 x2145 +2 x2146 +2 x2147 +2 x2148 -1 x1885 -1 x1886 -1 x1887 -1 x1888 -1 x1889 -1 x1890 -1 x1891 -1 x1892 >= 0 ;
+2 x2149 +2 x2150 +2 x2151 +2 x2152 -1 x1889 -1 x1890 -1 x1891 -1 x1892 -1 x1893 -1 x1894 -1 x1895 -1 x1896 >= 0 ;
+2 x2153 +2 x2154 +2 x2155 +2 x2156 -1 x1893 -1 x1894 -1 x1895 -1 x1896 -1 x1897 -1 x1898 -1 x1899 -1 x1900 >= 0 ;
+2 x2157 +2 x2158 +2 x2159 +2 x2160 -1 x1897 -1 x1898 -1 x1899 -1 x1900 -1 x1901 -1 x1902 -1 x1903 -1 x1904 >= 0 ;
+2 x2161 +2 x2162 +2 x2163 +2 x2164 -1 x1901 -1 x1902 -1 x1903 -1 x1904 -1 x1905 -1 x1906 -1 x1907 -1 x1908 >= 0 ;
+2 x2165 +2 x2166 +2 x2167 +2 x2168 -1 x1905 -1 x1906 -1 x1907 -1 x1908 -1 x1909 -1 x1910 -1 x1911 -1 x1912 >= 0 ;
+2 x2169 +2 x2170 +2 x2171 +2 x2172 -1 x1909 -1 x1910 -1 x1911 -1 x1912 -1 x1913 -1 x1914 -1 x1915 -1 x1916 >= 0 ;
+2 x2173 +2 x2174 +2 x2175 +2 x2176 -1 x1913 -1 x1914 -1 x1915 -1 x1916 -1 x1917 -1 x1918 -1 x1919 -1 x1920 >= 0 ;
+2 x2177 +2 x2178 +2 x2179 +2 x2180 -1 x1917 -1 x1918 -1 x1919 -1 x1920 -1 x1921 -1 x1922 -1 x1923 -1 x1924 >= 0 ;
+2 x2181 +2 x2182 +2 x2183 +2 x2184 -1 x1921 -1 x1922 -1 x1923 -1 x1924 -1 x1925 -1 x1926 -1 x1927 -1 x1928 >= 0 ;
+2 x2185 +2 x2186 +2 x2187 +2 x2188 -1 x1925 -1 x1926 -1 x1927 -1 x1928 -1 x1929 -1 x1930 -1 x1931 -1 x1932 >= 0 ;
+2 x2189 +2 x2190 +2 x2191 +2 x2192 -1 x1929 -1 x1930 -1 x1931 -1 x1932 -1 x1933 -1 x1934 -1 x1935 -1 x1936 >= 0 ;
+2 x2193 +2 x2194 +2 x2195 +2 x2196 -1 x1933 -1 x1934 -1 x1935 -1 x1936 -1 x1937 -1 x1938 -1 x1939 -1 x1940 >= 0 ;
+2 x2197 +2 x2198 +2 x2199 +2 x2200 -1 x1937 -1 x1938 -1 x1939 -1 x1940 -1 x1941 -1 x1942 -1 x1943 -1 x1944 >= 0 ;
+2 x2201 +2 x2202 +2 x2203 +2 x2204 -1 x1941 -1 x1942 -1 x1943 -1 x1944 -1 x1945 -1 x1946 -1 x1947 -1 x1948 >= 0 ;
+2 x2205 +2 x2206 +2 x2207 +2 x2208 -1 x1945 -1 x1946 -1 x1947 -1 x1948 -1 x1949 -1 x1950 -1 x1951 -1 x1952 >= 0 ;
+2 x2209 +2 x2210 +2 x2211 +2 x2212 -1 x1949 -1 x1950 -1 x1951 -1 x1952 -1 x1953 -1 x1954 -1 x1955 -1 x1956 >= 0 ;
+2 x2213 +2 x2214 +2 x2215 +2 x2216 -1 x1953 -1 x1954 -1 x1955 -1 x1956 -1 x1957 -1 x1958 -1 x1959 -1 x1960 >= 0 ;
+2 x2217 +2 x2218 +2 x2219 +2 x2220 -1 x1957 -1 x1958 -1 x1959 -1 x1960 -1 x1961 -1 x1962 -1 x1963 -1 x1964 >= 0 ;
+2 x2221 +2 x2222 +2 x2223 +2 x2224 -1 x1961 -1 x1962 -1 x1963 -1 x1964 -1 x1965 -1 x1966 -1 x1967 -1 x1968 >= 0 ;
+2 x2225 +2 x2226 +2 x2227 +2 x2228 -1 x1965 -1 x1966 -1 x1967 -1 x1968 -1 x1969 -1 x1970 -1 x1971 -1 x1972 >= 0 ;
+2 x2229 +2 x2230 +2 x2231 +2 x2232 -1 x1969 -1 x1970 -1 x1971 -1 x1972 -1 x1973 -1 x1974 -1 x1975 -1 x1976 >= 0 ;
+2 x2233 +2 x2234 +2 x2235 +2 x2236 -1 x1973 -1 x1974 -1 x1975 -1 x1976 -1 x1977 -1 x1978 -1 x1979 -1 x1980 >= 0 ;
+2 x2237 +2 x2238 +2 x2239 +2 x2240 -1 x1977 -1 x1978 -1 x1979 -1 x1980 -1 x1981 -1 x1982 -1 x1983 -1 x1984 >= 0 ;
+2 x2241 +2 x2242 +2 x2243 +2 x2244 -1 x1981 -1 x1982 -1 x1983 -1 x1984 -1 x1985 -1 x1986 -1 x1987 -1 x1988 >= 0 ;
+2 x2245 +2 x2246 +2 x2247 +2 x2248 -1 x1985 -1 x1986 -1 x1987 -1 x1988 -1 x1989 -1 x1990 -1 x1991 -1 x1992 >= 0 ;
+2 x2249 +2 x2250 +2 x2251 +2 x2252 -1 x1989 -1 x1990 -1 x1991 -1 x1992 -1 x1993 -1 x1994 -1 x1995 -1 x1996 >= 0 ;
+2 x2253 +2 x2254 +2 x2255 +2 x2256 -1 x1993 -1 x1994 -1 x1995 -1 x1996 -1 x1997 -1 x1998 -1 x1999 -1 x2000 >= 0 ;
+2 x2257 +2 x2258 +2 x2259 +2 x2260 -1 x1997 -1 x1998 -1 x1999 -1 x2000 -1 x2001 -1 x2002 -1 x2003 -1 x2004 >= 0 ;
+2 x2261 +2 x2262 +2 x2263 +2 x2264 -1 x2001 -1 x2002 -1 x2003 -1 x2004 -1 x2005 -1 x2006 -1 x2007 -1 x2008 >= 0 ;
+2 x2265 +2 x2266 +2 x2267 +2 x2268 -1 x2005 -1 x2006 -1 x2007 -1 x2008 -1 x2009 -1 x2010 -1 x2011 -1 x2012 >= 0 ;
+2 x2269 +2 x2270 +2 x2271 +2 x2272 -1 x2009 -1 x2010 -1 x2011 -1 x2012 -1 x2013 -1 x2014 -1 x2015 -1 x2016 >= 0 ;
+2 x2273 +2 x2274 +2 x2275 +2 x2276 -1 x2013 -1 x2014 -1 x2015 -1 x2016 -1 x2017 -1 x2018 -1 x2019 -1 x2020 >= 0 ;
+2 x2277 +2 x2278 +2 x2279 +2 x2280 -1 x2017 -1 x2018 -1 x2019 -1 x2020 -1 x2021 -1 x2022 -1 x2023 -1 x2024 >= 0 ;
+2 x2281 +2 x2282 +2 x2283 +2 x2284 -1 x2021 -1 x2022 -1 x2023 -1 x2024 -1 x2025 -1 x2026 -1 x2027 -1 x2028 >= 0 ;
+2 x2285 +2 x2286 +2 x2287 +2 x2288 -1 x2025 -1 x2026 -1 x2027 -1 x2028 -1 x2029 -1 x2030 -1 x2031 -1 x2032 >= 0 ;
+2 x2289 +2 x2290 +2 x2291 +2 x2292 -1 x2029 -1 x2030 -1 x2031 -1 x2032 -1 x2033 -1 x2034 -1 x2035 -1 x2036 >= 0 ;
+2 x2293 +2 x2294 +2 x2295 +2 x2296 -1 x2033 -1 x2034 -1 x2035 -1 x2036 -1 x2037 -1 x2038 -1 x2039 -1 x2040 >= 0 ;
+2 x2297 +2 x2298 +2 x2299 +2 x2300 -1 x2037 -1 x2038 -1 x2039 -1 x2040 -1 x2041 -1 x2042 -1 x2043 -1 x2044 >= 0 ;
+2 x2301 +2 x2302 +2 x2303 +2 x2304 -1 x2041 -1 x2042 -1 x2043 -1 x2044 -1 x2045 -1 x2046 -1 x2047 -1 x2048 >= 0 ;
+2 x2305 +2 x2306 +2 x2307 +2 x2308 -1 x2049 -1 x2050 -1 x2051 -1 x2052 -1 x2301 -1 x2302 -1 x2303 -1 x2304 >= 0 ;
+2 x2309 +2 x2310 +2 x2311 +2 x2312 -1 x2049 -1 x2050 -1 x2051 -1 x2052 -1 x2053 -1 x2054 -1 x2055 -1 x2056 >= 0 ;
+2 x2313 +2 x2314 +2 x2315 +2 x2316 -1 x2053 -1 x2054 -1 x2055 -1 x2056 -1 x2057 -1 x2058 -1 x2059 -1 x2060 >= 0 ;
+2 x2317 +2 x2318 +2 x2319 +2 x2320 -1 x2057 -1 x2058 -1 x2059 -1 x2060 -1 x2061 -1 x2062 -1 x2063 -1 x2064 >= 0 ;
+2 x2321 +2 x2322 +2 x2323 +2 x2324 -1 x2061 -1 x2062 -1 x2063 -1 x2064 -1 x2065 -1 x2066 -1 x2067 -1 x2068 >= 0 ;
+2 x2325 +2 x2326 +2 x2327 +2 x2328 -1 x2065 -1 x2066 -1 x2067 -1 x2068 -1 x2069 -1 x2070 -1 x2071 -1 x2072 >= 0 ;
+2 x2329 +2 x2330 +2 x2331 +2 x2332 -1 x2069 -1 x2070 -1 x2071 -1 x2072 -1 x2073 -1 x2074 -1 x2075 -1 x2076 >= 0 ;
+2 x2333 +2 x2334 +2 x2335 +2 x2336 -1 x2073 -1 x2074 -1 x2075 -1 x2076 -1 x2077 -1 x2078 -1 x2079 -1 x2080 >= 0 ;
+2 x2337 +2 x2338 +2 x2339 +2 x2340 -1 x2077 -1 x2078 -1 x2079 -1 x2080 -1 x2081 -1 x2082 -1 x2083 -1 x2084 >= 0 ;
+2 x2341 +2 x2342 +2 x2343 +2 x2344 -1 x2081 -1 x2082 -1 x2083 -1 x2084 -1 x2085 -1 x2086 -1 x2087 -1 x2088 >= 0 ;
+2 x2345 +2 x2346 +2 x2347 +2 x2348 -1 x2085 -1 x2086 -1 x2087 -1 x2088 -1 x2089 -1 x2090 -1 x2091 -1 x2092 >= 0 ;
+2 x2349 +2 x2350 +2 x2351 +2 x2352 -1 x2089 -1 x2090 -1 x2091 -1 x2092 -1 x2093 -1 x2094 -1 x2095 -1 x2096 >= 0 ;
+2 x2353 +2 x2354 +2 x2355 +2 x2356 -1 x2093 -1 x2094 -1 x2095 -1 x2096 -1 x2097 -1 x2098 -1 x2099 -1 x2100 >= 0 ;
+2 x2357 +2 x2358 +2 x2359 +2 x2360 -1 x2097 -1 x2098 -1 x2099 -1 x2100 -1 x2101 -1 x2102 -1 x2103 -1 x2104 >= 0 ;
+2 x2361 +2 x2362 +2 x2363 +2 x2364 -1 x2101 -1 x2102 -1 x2103 -1 x2104 -1 x2105 -1 x2106 -1 x2107 -1 x2108 >= 0 ;
+2 x2365 +2 x2366 +2 x2367 +2 x2368 -1 x2105 -1 x2106 -1 x2107 -1 x2108 -1 x2109 -1 x2110 -1 x2111 -1 x2112 >= 0 ;
+2 x2369 +2 x2370 +2 x2371 +2 x2372 -1 x2109 -1 x2110 -1 x2111 -1 x2112 -1 x2113 -1 x2114 -1 x2115 -1 x2116 >= 0 ;
+2 x2373 +2 x2374 +2 x2375 +2 x2376 -1 x2113 -1 x2114 -1 x2115 -1 x2116 -1 x2117 -1 x2118 -1 x2119 -1 x2120 >= 0 ;
+2 x2377 +2 x2378 +2 x2379 +2 x2380 -1 x2117 -1 x2118 -1 x2119 -1 x2120 -1 x2121 -1 x2122 -1 x2123 -1 x2124 >= 0 ;
+2 x2381 +2 x2382 +2 x2383 +2 x2384 -1 x2121 -1 x2122 -1 x2123 -1 x2124 -1 x2125 -1 x2126 -1 x2127 -1 x2128 >= 0 ;
+2 x2385 +2 x2386 +2 x2387 +2 x2388 -1 x2125 -1 x2126 -1 x2127 -1 x2128 -1 x2129 -1 x2130 -1 x2131 -1 x2132 >= 0 ;
+2 x2389 +2 x2390 +2 x2391 +2 x2392 -1 x2129 -1 x2130 -1 x2131 -1 x2132 -1 x2133 -1 x2134 -1 x2135 -1 x2136 >= 0 ;
+2 x2393 +2 x2394 +2 x2395 +2 x2396 -1 x2133 -1 x2134 -1 x2135 -1 x2136 -1 x2137 -1 x2138 -1 x2139 -1 x2140 >= 0 ;
+2 x2397 +2 x2398 +2 x2399 +2 x2400 -1 x2137 -1 x2138 -1 x2139 -1 x2140 -1 x2141 -1 x2142 -1 x2143 -1 x2144 >= 0 ;
+2 x2401 +2 x2402 +2 x2403 +2 x2404 -1 x2141 -1 x2142 -1 x2143 -1 x2144 -1 x2145 -1 x2146 -1 x2147 -1 x2148 >= 0 ;
+2 x2405 +2 x2406 +2 x2407 +2 x2408 -1 x2145 -1 x2146 -1 x2147 -1 x2148 -1 x2149 -1 x2150 -1 x2151 -1 x2152 >= 0 ;
+2 x2409 +2 x2410 +2 x2411 +2 x2412 -1 x2149 -1 x2150 -1 x2151 -1 x2152 -1 x2153 -1 x2154 -1 x2155 -1 x2156 >= 0 ;
+2 x2413 +2 x2414 +2 x2415 +2 x2416 -1 x2153 -1 x2154 -1 x2155 -1 x2156 -1 x2157 -1 x2158 -1 x2159 -1 x2160 >= 0 ;
+2 x2417 +2 x2418 +2 x2419 +2 x2420 -1 x2157 -1 x2158 -1 x2159 -1 x2160 -1 x2161 -1 x2162 -1 x2163 -1 x2164 >= 0 ;
+2 x2421 +2 x2422 +2 x2423 +2 x2424 -1 x2161 -1 x2162 -1 x2163 -1 x2164 -1 x2165 -1 x2166 -1 x2167 -1 x2168 >= 0 ;
+2 x2425 +2 x2426 +2 x2427 +2 x2428 -1 x2165 -1 x2166 -1 x2167 -1 x2168 -1 x2169 -1 x2170 -1 x2171 -1 x2172 >= 0 ;
+2 x2429 +2 x2430 +2 x2431 +2 x2432 -1 x2169 -1 x2170 -1 x2171 -1 x2172 -1 x2173 -1 x2174 -1 x2175 -1 x2176 >= 0 ;
+2 x2433 +2 x2434 +2 x2435 +2 x2436 -1 x2173 -1 x2174 -1 x2175 -1 x2176 -1 x2177 -1 x2178 -1 x2179 -1 x2180 >= 0 ;
+2 x2437 +2 x2438 +2 x2439 +2 x2440 -1 x2177 -1 x2178 -1 x2179 -1 x2180 -1 x2181 -1 x2182 -1 x2183 -1 x2184 >= 0 ;
+2 x2441 +2 x2442 +2 x2443 +2 x2444 -1 x2181 -1 x2182 -1 x2183 -1 x2184 -1 x2185 -1 x2186 -1 x2187 -1 x2188 >= 0 ;
+2 x2445 +2 x2446 +2 x2447 +2 x2448 -1 x2185 -1 x2186 -1 x2187 -1 x2188 -1 x2189 -1 x2190 -1 x2191 -1 x2192 >= 0 ;
+2 x2449 +2 x2450 +2 x2451 +2 x2452 -1 x2189 -1 x2190 -1 x2191 -1 x2192 -1 x2193 -1 x2194 -1 x2195 -1 x2196 >= 0 ;
+2 x2453 +2 x2454 +2 x2455 +2 x2456 -1 x2193 -1 x2194 -1 x2195 -1 x2196 -1 x2197 -1 x2198 -1 x2199 -1 x2200 >= 0 ;
+2 x2457 +2 x2458 +2 x2459 +2 x2460 -1 x2197 -1 x2198 -1 x2199 -1 x2200 -1 x2201 -1 x2202 -1 x2203 -1 x2204 >= 0 ;
+2 x2461 +2 x2462 +2 x2463 +2 x2464 -1 x2201 -1 x2202 -1 x2203 -1 x2204 -1 x2205 -1 x2206 -1 x2207 -1 x2208 >= 0 ;
+2 x2465 +2 x2466 +2 x2467 +2 x2468 -1 x2205 -1 x2206 -1 x2207 -1 x2208 -1 x2209 -1 x2210 -1 x2211 -1 x2212 >= 0 ;
+2 x2469 +2 x2470 +2 x2471 +2 x2472 -1 x2209 -1 x2210 -1 x2211 -1 x2212 -1 x2213 -1 x2214 -1 x2215 -1 x2216 >= 0 ;
+2 x2473 +2 x2474 +2 x2475 +2 x2476 -1 x2213 -1 x2214 -1 x2215 -1 x2216 -1 x2217 -1 x2218 -1 x2219 -1 x2220 >= 0 ;
+2 x2477 +2 x2478 +2 x2479 +2 x2480 -1 x2217 -1 x2218 -1 x2219 -1 x2220 -1 x2221 -1 x2222 -1 x2223 -1 x2224 >= 0 ;
+2 x2481 +2 x2482 +2 x2483 +2 x2484 -1 x2221 -1 x2222 -1 x2223 -1 x2224 -1 x2225 -1 x2226 -1 x2227 -1 x2228 >= 0 ;
+2 x2485 +2 x2486 +2 x2487 +2 x2488 -1 x2225 -1 x2226 -1 x2227 -1 x2228 -1 x2229 -1 x2230 -1 x2231 -1 x2232 >= 0 ;
+2 x2489 +2 x2490 +2 x2491 +2 x2492 -1 x2229 -1 x2230 -1 x2231 -1 x2232 -1 x2233 -1 x2234 -1 x2235 -1 x2236 >= 0 ;
+2 x2493 +2 x2494 +2 x2495 +2 x2496 -1 x2233 -1 x2234 -1 x2235 -1 x2236 -1 x2237 -1 x2238 -1 x2239 -1 x2240 >= 0 ;
+2 x2497 +2 x2498 +2 x2499 +2 x2500 -1 x2237 -1 x2238 -1 x2239 -1 x2240 -1 x2241 -1 x2242 -1 x2243 -1 x2244 >= 0 ;
+2 x2501 +2 x2502 +2 x2503 +2 x2504 -1 x2241 -1 x2242 -1 x2243 -1 x2244 -1 x2245 -1 x2246 -1 x2247 -1 x2248 >= 0 ;
+2 x2505 +2 x2506 +2 x2507 +2 x2508 -1 x2245 -1 x2246 -1 x2247 -1 x2248 -1 x2249 -1 x2250 -1 x2251 -1 x2252 >= 0 ;
+2 x2509 +2 x2510 +2 x2511 +2 x2512 -1 x2249 -1 x2250 -1 x2251 -1 x2252 -1 x2253 -1 x2254 -1 x2255 -1 x2256 >= 0 ;
+2 x2513 +2 x2514 +2 x2515 +2 x2516 -1 x2253 -1 x2254 -1 x2255 -1 x2256 -1 x2257 -1 x2258 -1 x2259 -1 x2260 >= 0 ;
+2 x2517 +2 x2518 +2 x2519 +2 x2520 -1 x2257 -1 x2258 -1 x2259 -1 x2260 -1 x2261 -1 x2262 -1 x2263 -1 x2264 >= 0 ;
+2 x2521 +2 x2522 +2 x2523 +2 x2524 -1 x2261 -1 x2262 -1 x2263 -1 x2264 -1 x2265 -1 x2266 -1 x2267 -1 x2268 >= 0 ;
+2 x2525 +2 x2526 +2 x2527 +2 x2528 -1 x2265 -1 x2266 -1 x2267 -1 x2268 -1 x2269 -1 x2270 -1 x2271 -1 x2272 >= 0 ;
+2 x2529 +2 x2530 +2 x2531 +2 x2532 -1 x2269 -1 x2270 -1 x2271 -1 x2272 -1 x2273 -1 x2274 -1 x2275 -1 x2276 >= 0 ;
+2 x2533 +2 x2534 +2 x2535 +2 x2536 -1 x2273 -1 x2274 -1 x2275 -1 x2276 -1 x2277 -1 x2278 -1 x2279 -1 x2280 >= 0 ;
+2 x2537 +2 x2538 +2 x2539 +2 x2540 -1 x2277 -1 x2278 -1 x2279 -1 x2280 -1 x2281 -1 x2282 -1 x2283 -1 x2284 >= 0 ;
+2 x2541 +2 x2542 +2 x2543 +2 x2544 -1 x2281 -1 x2282 -1 x2283 -1 x2284 -1 x2285 -1 x2286 -1 x2287 -1 x2288 >= 0 ;
+2 x2545 +2 x2546 +2 x2547 +2 x2548 -1 x2285 -1 x2286 -1 x2287 -1 x2288 -1 x2289 -1 x2290 -1 x2291 -1 x2292 >= 0 ;
+2 x2549 +2 x2550 +2 x2551 +2 x2552 -1 x2289 -1 x2290 -1 x2291 -1 x2292 -1 x2293 -1 x2294 -1 x2295 -1 x2296 >= 0 ;
+2 x2553 +2 x2554 +2 x2555 +2 x2556 -1 x2293 -1 x2294 -1 x2295 -1 x2296 -1 x2297 -1 x2298 -1 x2299 -1 x2300 >= 0 ;
+2 x2557 +2 x2558 +2 x2559 +2 x2560 -1 x2297 -1 x2298 -1 x2299 -1 x2300 -1 x2301 -1 x2302 -1 x2303 -1 x2304 >= 0 ;
+2 x2561 +2 x2562 +2 x2563 +2 x2564 -1 x2305 -1 x2306 -1 x2307 -1 x2308 -1 x2557 -1 x2558 -1 x2559 -1 x2560 >= 0 ;
+2 x2565 +2 x2566 +2 x2567 +2 x2568 -1 x2305 -1 x2306 -1 x2307 -1 x2308 -1 x2309 -1 x2310 -1 x2311 -1 x2312 >= 0 ;
+2 x2569 +2 x2570 +2 x2571 +2 x2572 -1 x2309 -1 x2310 -1 x2311 -1 x2312 -1 x2313 -1 x2314 -1 x2315 -1 x2316 >= 0 ;
+2 x2573 +2 x2574 +2 x2575 +2 x2576 -1 x2313 -1 x2314 -1 x2315 -1 x2316 -1 x2317 -1 x2318 -1 x2319 -1 x2320 >= 0 ;
+2 x2577 +2 x2578 +2 x2579 +2 x2580 -1 x2317 -1 x2318 -1 x2319 -1 x2320 -1 x2321 -1 x2322 -1 x2323 -1 x2324 >= 0 ;
+2 x2581 +2 x2582 +2 x2583 +2 x2584 -1 x2321 -1 x2322 -1 x2323 -1 x2324 -1 x2325 -1 x2326 -1 x2327 -1 x2328 >= 0 ;
+2 x2585 +2 x2586 +2 x2587 +2 x2588 -1 x2325 -1 x2326 -1 x2327 -1 x2328 -1 x2329 -1 x2330 -1 x2331 -1 x2332 >= 0 ;
+2 x2589 +2 x2590 +2 x2591 +2 x2592 -1 x2329 -1 x2330 -1 x2331 -1 x2332 -1 x2333 -1 x2334 -1 x2335 -1 x2336 >= 0 ;
+2 x2593 +2 x2594 +2 x2595 +2 x2596 -1 x2333 -1 x2334 -1 x2335 -1 x2336 -1 x2337 -1 x2338 -1 x2339 -1 x2340 >= 0 ;
+2 x2597 +2 x2598 +2 x2599 +2 x2600 -1 x2337 -1 x2338 -1 x2339 -1 x2340 -1 x2341 -1 x2342 -1 x2343 -1 x2344 >= 0 ;
+2 x2601 +2 x2602 +2 x2603 +2 x2604 -1 x2341 -1 x2342 -1 x2343 -1 x2344 -1 x2345 -1 x2346 -1 x2347 -1 x2348 >= 0 ;
+2 x2605 +2 x2606 +2 x2607 +2 x2608 -1 x2345 -1 x2346 -1 x2347 -1 x2348 -1 x2349 -1 x2350 -1 x2351 -1 x2352 >= 0 ;
+2 x2609 +2 x2610 +2 x2611 +2 x2612 -1 x2349 -1 x2350 -1 x2351 -1 x2352 -1 x2353 -1 x2354 -1 x2355 -1 x2356 >= 0 ;
+2 x2613 +2 x2614 +2 x2615 +2 x2616 -1 x2353 -1 x2354 -1 x2355 -1 x2356 -1 x2357 -1 x2358 -1 x2359 -1 x2360 >= 0 ;
+2 x2617 +2 x2618 +2 x2619 +2 x2620 -1 x2357 -1 x2358 -1 x2359 -1 x2360 -1 x2361 -1 x2362 -1 x2363 -1 x2364 >= 0 ;
+2 x2621 +2 x2622 +2 x2623 +2 x2624 -1 x2361 -1 x2362 -1 x2363 -1 x2364 -1 x2365 -1 x2366 -1 x2367 -1 x2368 >= 0 ;
+2 x2625 +2 x2626 +2 x2627 +2 x2628 -1 x2365 -1 x2366 -1 x2367 -1 x2368 -1 x2369 -1 x2370 -1 x2371 -1 x2372 >= 0 ;
+2 x2629 +2 x2630 +2 x2631 +2 x2632 -1 x2369 -1 x2370 -1 x2371 -1 x2372 -1 x2373 -1 x2374 -1 x2375 -1 x2376 >= 0 ;
+2 x2633 +2 x2634 +2 x2635 +2 x2636 -1 x2373 -1 x2374 -1 x2375 -1 x2376 -1 x2377 -1 x2378 -1 x2379 -1 x2380 >= 0 ;
+2 x2637 +2 x2638 +2 x2639 +2 x2640 -1 x2377 -1 x2378 -1 x2379 -1 x2380 -1 x2381 -1 x2382 -1 x2383 -1 x2384 >= 0 ;
+2 x2641 +2 x2642 +2 x2643 +2 x2644 -1 x2381 -1 x2382 -1 x2383 -1 x2384 -1 x2385 -1 x2386 -1 x2387 -1 x2388 >= 0 ;
+2 x2645 +2 x2646 +2 x2647 +2 x2648 -1 x2385 -1 x2386 -1 x2387 -1 x2388 -1 x2389 -1 x2390 -1 x2391 -1 x2392 >= 0 ;
+2 x2649 +2 x2650 +2 x2651 +2 x2652 -1 x2389 -1 x2390 -1 x2391 -1 x2392 -1 x2393 -1 x2394 -1 x2395 -1 x2396 >= 0 ;
+2 x2653 +2 x2654 +2 x2655 +2 x2656 -1 x2393 -1 x2394 -1 x2395 -1 x2396 -1 x2397 -1 x2398 -1 x2399 -1 x2400 >= 0 ;
+2 x2657 +2 x2658 +2 x2659 +2 x2660 -1 x2397 -1 x2398 -1 x2399 -1 x2400 -1 x2401 -1 x2402 -1 x2403 -1 x2404 >= 0 ;
+2 x2661 +2 x2662 +2 x2663 +2 x2664 -1 x2401 -1 x2402 -1 x2403 -1 x2404 -1 x2405 -1 x2406 -1 x2407 -1 x2408 >= 0 ;
+2 x2665 +2 x2666 +2 x2667 +2 x2668 -1 x2405 -1 x2406 -1 x2407 -1 x2408 -1 x2409 -1 x2410 -1 x2411 -1 x2412 >= 0 ;
+2 x2669 +2 x2670 +2 x2671 +2 x2672 -1 x2409 -1 x2410 -1 x2411 -1 x2412 -1 x2413 -1 x2414 -1 x2415 -1 x2416 >= 0 ;
+2 x2673 +2 x2674 +2 x2675 +2 x2676 -1 x2413 -1 x2414 -1 x2415 -1 x2416 -1 x2417 -1 x2418 -1 x2419 -1 x2420 >= 0 ;
+2 x2677 +2 x2678 +2 x2679 +2 x2680 -1 x2417 -1 x2418 -1 x2419 -1 x2420 -1 x2421 -1 x2422 -1 x2423 -1 x2424 >= 0 ;
+2 x2681 +2 x2682 +2 x2683 +2 x2684 -1 x2421 -1 x2422 -1 x2423 -1 x2424 -1 x2425 -1 x2426 -1 x2427 -1 x2428 >= 0 ;
+2 x2685 +2 x2686 +2 x2687 +2 x2688 -1 x2425 -1 x2426 -1 x2427 -1 x2428 -1 x2429 -1 x2430 -1 x2431 -1 x2432 >= 0 ;
+2 x2689 +2 x2690 +2 x2691 +2 x2692 -1 x2429 -1 x2430 -1 x2431 -1 x2432 -1 x2433 -1 x2434 -1 x2435 -1 x2436 >= 0 ;
+2 x2693 +2 x2694 +2 x2695 +2 x2696 -1 x2433 -1 x2434 -1 x2435 -1 x2436 -1 x2437 -1 x2438 -1 x2439 -1 x2440 >= 0 ;
+2 x2697 +2 x2698 +2 x2699 +2 x2700 -1 x2437 -1 x2438 -1 x2439 -1 x2440 -1 x2441 -1 x2442 -1 x2443 -1 x2444 >= 0 ;
+2 x2701 +2 x2702 +2 x2703 +2 x2704 -1 x2441 -1 x2442 -1 x2443 -1 x2444 -1 x2445 -1 x2446 -1 x2447 -1 x2448 >= 0 ;
+2 x2705 +2 x2706 +2 x2707 +2 x2708 -1 x2445 -1 x2446 -1 x2447 -1 x2448 -1 x2449 -1 x2450 -1 x2451 -1 x2452 >= 0 ;
+2 x2709 +2 x2710 +2 x2711 +2 x2712 -1 x2449 -1 x2450 -1 x2451 -1 x2452 -1 x2453 -1 x2454 -1 x2455 -1 x2456 >= 0 ;
+2 x2713 +2 x2714 +2 x2715 +2 x2716 -1 x2453 -1 x2454 -1 x2455 -1 x2456 -1 x2457 -1 x2458 -1 x2459 -1 x2460 >= 0 ;
+2 x2717 +2 x2718 +2 x2719 +2 x2720 -1 x2457 -1 x2458 -1 x2459 -1 x2460 -1 x2461 -1 x2462 -1 x2463 -1 x2464 >= 0 ;
+2 x2721 +2 x2722 +2 x2723 +2 x2724 -1 x2461 -1 x2462 -1 x2463 -1 x2464 -1 x2465 -1 x2466 -1 x2467 -1 x2468 >= 0 ;
+2 x2725 +2 x2726 +2 x2727 +2 x2728 -1 x2465 -1 x2466 -1 x2467 -1 x2468 -1 x2469 -1 x2470 -1 x2471 -1 x2472 >= 0 ;
+2 x2729 +2 x2730 +2 x2731 +2 x2732 -1 x2469 -1 x2470 -1 x2471 -1 x2472 -1 x2473 -1 x2474 -1 x2475 -1 x2476 >= 0 ;
+2 x2733 +2 x2734 +2 x2735 +2 x2736 -1 x2473 -1 x2474 -1 x2475 -1 x2476 -1 x2477 -1 x2478 -1 x2479 -1 x2480 >= 0 ;
+2 x2737 +2 x2738 +2 x2739 +2 x2740 -1 x2477 -1 x2478 -1 x2479 -1 x2480 -1 x2481 -1 x2482 -1 x2483 -1 x2484 >= 0 ;
+2 x2741 +2 x2742 +2 x2743 +2 x2744 -1 x2481 -1 x2482 -1 x2483 -1 x2484 -1 x2485 -1 x2486 -1 x2487 -1 x2488 >= 0 ;
+2 x2745 +2 x2746 +2 x2747 +2 x2748 -1 x2485 -1 x2486 -1 x2487 -1 x2488 -1 x2489 -1 x2490 -1 x2491 -1 x2492 >= 0 ;
+2 x2749 +2 x2750 +2 x2751 +2 x2752 -1 x2489 -1 x2490 -1 x2491 -1 x2492 -1 x2493 -1 x2494 -1 x2495 -1 x2496 >= 0 ;
+2 x2753 +2 x2754 +2 x2755 +2 x2756 -1 x2493 -1 x2494 -1 x2495 -1 x2496 -1 x2497 -1 x2498 -1 x2499 -1 x2500 >= 0 ;
+2 x2757 +2 x2758 +2 x2759 +2 x2760 -1 x2497 -1 x2498 -1 x2499 -1 x2500 -1 x2501 -1 x2502 -1 x2503 -1 x2504 >= 0 ;
+2 x2761 +2 x2762 +2 x2763 +2 x2764 -1 x2501 -1 x2502 -1 x2503 -1 x2504 -1 x2505 -1 x2506 -1 x2507 -1 x2508 >= 0 ;
+2 x2765 +2 x2766 +2 x2767 +2 x2768 -1 x2505 -1 x2506 -1 x2507 -1 x2508 -1 x2509 -1 x2510 -1 x2511 -1 x2512 >= 0 ;
+2 x2769 +2 x2770 +2 x2771 +2 x2772 -1 x2509 -1 x2510 -1 x2511 -1 x2512 -1 x2513 -1 x2514 -1 x2515 -1 x2516 >= 0 ;
+2 x2773 +2 x2774 +2 x2775 +2 x2776 -1 x2513 -1 x2514 -1 x2515 -1 x2516 -1 x2517 -1 x2518 -1 x2519 -1 x2520 >= 0 ;
+2 x2777 +2 x2778 +2 x2779 +2 x2780 -1 x2517 -1 x2518 -1 x2519 -1 x2520 -1 x2521 -1 x2522 -1 x2523 -1 x2524 >= 0 ;
+2 x2781 +2 x2782 +2 x2783 +2 x2784 -1 x2521 -1 x2522 -1 x2523 -1 x2524 -1 x2525 -1 x2526 -1 x2527 -1 x2528 >= 0 ;
+2 x2785 +2 x2786 +2 x2787 +2 x2788 -1 x2525 -1 x2526 -1 x2527 -1 x2528 -1 x2529 -1 x2530 -1 x2531 -1 x2532 >= 0 ;
+2 x2789 +2 x2790 +2 x2791 +2 x2792 -1 x2529 -1 x2530 -1 x2531 -1 x2532 -1 x2533 -1 x2534 -1 x2535 -1 x2536 >= 0 ;
+2 x2793 +2 x2794 +2 x2795 +2 x2796 -1 x2533 -1 x2534 -1 x2535 -1 x2536 -1 x2537 -1 x2538 -1 x2539 -1 x2540 >= 0 ;
+2 x2797 +2 x2798 +2 x2799 +2 x2800 -1 x2537 -1 x2538 -1 x2539 -1 x2540 -1 x2541 -1 x2542 -1 x2543 -1 x2544 >= 0 ;
+2 x2801 +2 x2802 +2 x2803 +2 x2804 -1 x2541 -1 x2542 -1 x2543 -1 x2544 -1 x2545 -1 x2546 -1 x2547 -1 x2548 >= 0 ;
+2 x2805 +2 x2806 +2 x2807 +2 x2808 -1 x2545 -1 x2546 -1 x2547 -1 x2548 -1 x2549 -1 x2550 -1 x2551 -1 x2552 >= 0 ;
+2 x2809 +2 x2810 +2 x2811 +2 x2812 -1 x2549 -1 x2550 -1 x2551 -1 x2552 -1 x2553 -1 x2554 -1 x2555 -1 x2556 >= 0 ;
+2 x2813 +2 x2814 +2 x2815 +2 x2816 -1 x2553 -1 x2554 -1 x2555 -1 x2556 -1 x2557 -1 x2558 -1 x2559 -1 x2560 >= 0 ;
+2 x2817 +2 x2818 +2 x2819 +2 x2820 -1 x2561 -1 x2562 -1 x2563 -1 x2564 -1 x2813 -1 x2814 -1 x2815 -1 x2816 >= 0 ;
+2 x2821 +2 x2822 +2 x2823 +2 x2824 -1 x2561 -1 x2562 -1 x2563 -1 x2564 -1 x2565 -1 x2566 -1 x2567 -1 x2568 >= 0 ;
+2 x2825 +2 x2826 +2 x2827 +2 x2828 -1 x2565 -1 x2566 -1 x2567 -1 x2568 -1 x2569 -1 x2570 -1 x2571 -1 x2572 >= 0 ;
+2 x2829 +2 x2830 +2 x2831 +2 x2832 -1 x2569 -1 x2570 -1 x2571 -1 x2572 -1 x2573 -1 x2574 -1 x2575 -1 x2576 >= 0 ;
+2 x2833 +2 x2834 +2 x2835 +2 x2836 -1 x2573 -1 x2574 -1 x2575 -1 x2576 -1 x2577 -1 x2578 -1 x2579 -1 x2580 >= 0 ;
+2 x2837 +2 x2838 +2 x2839 +2 x2840 -1 x2577 -1 x2578 -1 x2579 -1 x2580 -1 x2581 -1 x2582 -1 x2583 -1 x2584 >= 0 ;
+2 x2841 +2 x2842 +2 x2843 +2 x2844 -1 x2581 -1 x2582 -1 x2583 -1 x2584 -1 x2585 -1 x2586 -1 x2587 -1 x2588 >= 0 ;
+2 x2845 +2 x2846 +2 x2847 +2 x2848 -1 x2585 -1 x2586 -1 x2587 -1 x2588 -1 x2589 -1 x2590 -1 x2591 -1 x2592 >= 0 ;
+2 x2849 +2 x2850 +2 x2851 +2 x2852 -1 x2589 -1 x2590 -1 x2591 -1 x2592 -1 x2593 -1 x2594 -1 x2595 -1 x2596 >= 0 ;
+2 x2853 +2 x2854 +2 x2855 +2 x2856 -1 x2593 -1 x2594 -1 x2595 -1 x2596 -1 x2597 -1 x2598 -1 x2599 -1 x2600 >= 0 ;
+2 x2857 +2 x2858 +2 x2859 +2 x2860 -1 x2597 -1 x2598 -1 x2599 -1 x2600 -1 x2601 -1 x2602 -1 x2603 -1 x2604 >= 0 ;
+2 x2861 +2 x2862 +2 x2863 +2 x2864 -1 x2601 -1 x2602 -1 x2603 -1 x2604 -1 x2605 -1 x2606 -1 x2607 -1 x2608 >= 0 ;
+2 x2865 +2 x2866 +2 x2867 +2 x2868 -1 x2605 -1 x2606 -1 x2607 -1 x2608 -1 x2609 -1 x2610 -1 x2611 -1 x2612 >= 0 ;
+2 x2869 +2 x2870 +2 x2871 +2 x2872 -1 x2609 -1 x2610 -1 x2611 -1 x2612 -1 x2613 -1 x2614 -1 x2615 -1 x2616 >= 0 ;
+2 x2873 +2 x2874 +2 x2875 +2 x2876 -1 x2613 -1 x2614 -1 x2615 -1 x2616 -1 x2617 -1 x2618 -1 x2619 -1 x2620 >= 0 ;
+2 x2877 +2 x2878 +2 x2879 +2 x2880 -1 x2617 -1 x2618 -1 x2619 -1 x2620 -1 x2621 -1 x2622 -1 x2623 -1 x2624 >= 0 ;
+2 x2881 +2 x2882 +2 x2883 +2 x2884 -1 x2621 -1 x2622 -1 x2623 -1 x2624 -1 x2625 -1 x2626 -1 x2627 -1 x2628 >= 0 ;
+2 x2885 +2 x2886 +2 x2887 +2 x2888 -1 x2625 -1 x2626 -1 x2627 -1 x2628 -1 x2629 -1 x2630 -1 x2631 -1 x2632 >= 0 ;
+2 x2889 +2 x2890 +2 x2891 +2 x2892 -1 x2629 -1 x2630 -1 x2631 -1 x2632 -1 x2633 -1 x2634 -1 x2635 -1 x2636 >= 0 ;
+2 x2893 +2 x2894 +2 x2895 +2 x2896 -1 x2633 -1 x2634 -1 x2635 -1 x2636 -1 x2637 -1 x2638 -1 x2639 -1 x2640 >= 0 ;
+2 x2897 +2 x2898 +2 x2899 +2 x2900 -1 x2637 -1 x2638 -1 x2639 -1 x2640 -1 x2641 -1 x2642 -1 x2643 -1 x2644 >= 0 ;
+2 x2901 +2 x2902 +2 x2903 +2 x2904 -1 x2641 -1 x2642 -1 x2643 -1 x2644 -1 x2645 -1 x2646 -1 x2647 -1 x2648 >= 0 ;
+2 x2905 +2 x2906 +2 x2907 +2 x2908 -1 x2645 -1 x2646 -1 x2647 -1 x2648 -1 x2649 -1 x2650 -1 x2651 -1 x2652 >= 0 ;
+2 x2909 +2 x2910 +2 x2911 +2 x2912 -1 x2649 -1 x2650 -1 x2651 -1 x2652 -1 x2653 -1 x2654 -1 x2655 -1 x2656 >= 0 ;
+2 x2913 +2 x2914 +2 x2915 +2 x2916 -1 x2653 -1 x2654 -1 x2655 -1 x2656 -1 x2657 -1 x2658 -1 x2659 -1 x2660 >= 0 ;
+2 x2917 +2 x2918 +2 x2919 +2 x2920 -1 x2657 -1 x2658 -1 x2659 -1 x2660 -1 x2661 -1 x2662 -1 x2663 -1 x2664 >= 0 ;
+2 x2921 +2 x2922 +2 x2923 +2 x2924 -1 x2661 -1 x2662 -1 x2663 -1 x2664 -1 x2665 -1 x2666 -1 x2667 -1 x2668 >= 0 ;
+2 x2925 +2 x2926 +2 x2927 +2 x2928 -1 x2665 -1 x2666 -1 x2667 -1 x2668 -1 x2669 -1 x2670 -1 x2671 -1 x2672 >= 0 ;
+2 x2929 +2 x2930 +2 x2931 +2 x2932 -1 x2669 -1 x2670 -1 x2671 -1 x2672 -1 x2673 -1 x2674 -1 x2675 -1 x2676 >= 0 ;
+2 x2933 +2 x2934 +2 x2935 +2 x2936 -1 x2673 -1 x2674 -1 x2675 -1 x2676 -1 x2677 -1 x2678 -1 x2679 -1 x2680 >= 0 ;
+2 x2937 +2 x2938 +2 x2939 +2 x2940 -1 x2677 -1 x2678 -1 x2679 -1 x2680 -1 x2681 -1 x2682 -1 x2683 -1 x2684 >= 0 ;
+2 x2941 +2 x2942 +2 x2943 +2 x2944 -1 x2681 -1 x2682 -1 x2683 -1 x2684 -1 x2685 -1 x2686 -1 x2687 -1 x2688 >= 0 ;
+2 x2945 +2 x2946 +2 x2947 +2 x2948 -1 x2685 -1 x2686 -1 x2687 -1 x2688 -1 x2689 -1 x2690 -1 x2691 -1 x2692 >= 0 ;
+2 x2949 +2 x2950 +2 x2951 +2 x2952 -1 x2689 -1 x2690 -1 x2691 -1 x2692 -1 x2693 -1 x2694 -1 x2695 -1 x2696 >= 0 ;
+2 x2953 +2 x2954 +2 x2955 +2 x2956 -1 x2693 -1 x2694 -1 x2695 -1 x2696 -1 x2697 -1 x2698 -1 x2699 -1 x2700 >= 0 ;
+2 x2957 +2 x2958 +2 x2959 +2 x2960 -1 x2697 -1 x2698 -1 x2699 -1 x2700 -1 x2701 -1 x2702 -1 x2703 -1 x2704 >= 0 ;
+2 x2961 +2 x2962 +2 x2963 +2 x2964 -1 x2701 -1 x2702 -1 x2703 -1 x2704 -1 x2705 -1 x2706 -1 x2707 -1 x2708 >= 0 ;
+2 x2965 +2 x2966 +2 x2967 +2 x2968 -1 x2705 -1 x2706 -1 x2707 -1 x2708 -1 x2709 -1 x2710 -1 x2711 -1 x2712 >= 0 ;
+2 x2969 +2 x2970 +2 x2971 +2 x2972 -1 x2709 -1 x2710 -1 x2711 -1 x2712 -1 x2713 -1 x2714 -1 x2715 -1 x2716 >= 0 ;
+2 x2973 +2 x2974 +2 x2975 +2 x2976 -1 x2713 -1 x2714 -1 x2715 -1 x2716 -1 x2717 -1 x2718 -1 x2719 -1 x2720 >= 0 ;
+2 x2977 +2 x2978 +2 x2979 +2 x2980 -1 x2717 -1 x2718 -1 x2719 -1 x2720 -1 x2721 -1 x2722 -1 x2723 -1 x2724 >= 0 ;
+2 x2981 +2 x2982 +2 x2983 +2 x2984 -1 x2721 -1 x2722 -1 x2723 -1 x2724 -1 x2725 -1 x2726 -1 x2727 -1 x2728 >= 0 ;
+2 x2985 +2 x2986 +2 x2987 +2 x2988 -1 x2725 -1 x2726 -1 x2727 -1 x2728 -1 x2729 -1 x2730 -1 x2731 -1 x2732 >= 0 ;
+2 x2989 +2 x2990 +2 x2991 +2 x2992 -1 x2729 -1 x2730 -1 x2731 -1 x2732 -1 x2733 -1 x2734 -1 x2735 -1 x2736 >= 0 ;
+2 x2993 +2 x2994 +2 x2995 +2 x2996 -1 x2733 -1 x2734 -1 x2735 -1 x2736 -1 x2737 -1 x2738 -1 x2739 -1 x2740 >= 0 ;
+2 x2997 +2 x2998 +2 x2999 +2 x3000 -1 x2737 -1 x2738 -1 x2739 -1 x2740 -1 x2741 -1 x2742 -1 x2743 -1 x2744 >= 0 ;
+2 x3001 +2 x3002 +2 x3003 +2 x3004 -1 x2741 -1 x2742 -1 x2743 -1 x2744 -1 x2745 -1 x2746 -1 x2747 -1 x2748 >= 0 ;
+2 x3005 +2 x3006 +2 x3007 +2 x3008 -1 x2745 -1 x2746 -1 x2747 -1 x2748 -1 x2749 -1 x2750 -1 x2751 -1 x2752 >= 0 ;
+2 x3009 +2 x3010 +2 x3011 +2 x3012 -1 x2749 -1 x2750 -1 x2751 -1 x2752 -1 x2753 -1 x2754 -1 x2755 -1 x2756 >= 0 ;
+2 x3013 +2 x3014 +2 x3015 +2 x3016 -1 x2753 -1 x2754 -1 x2755 -1 x2756 -1 x2757 -1 x2758 -1 x2759 -1 x2760 >= 0 ;
+2 x3017 +2 x3018 +2 x3019 +2 x3020 -1 x2757 -1 x2758 -1 x2759 -1 x2760 -1 x2761 -1 x2762 -1 x2763 -1 x2764 >= 0 ;
+2 x3021 +2 x3022 +2 x3023 +2 x3024 -1 x2761 -1 x2762 -1 x2763 -1 x2764 -1 x2765 -1 x2766 -1 x2767 -1 x2768 >= 0 ;
+2 x3025 +2 x3026 +2 x3027 +2 x3028 -1 x2765 -1 x2766 -1 x2767 -1 x2768 -1 x2769 -1 x2770 -1 x2771 -1 x2772 >= 0 ;
+2 x3029 +2 x3030 +2 x3031 +2 x3032 -1 x2769 -1 x2770 -1 x2771 -1 x2772 -1 x2773 -1 x2774 -1 x2775 -1 x2776 >= 0 ;
+2 x3033 +2 x3034 +2 x3035 +2 x3036 -1 x2773 -1 x2774 -1 x2775 -1 x2776 -1 x2777 -1 x2778 -1 x2779 -1 x2780 >= 0 ;
+2 x3037 +2 x3038 +2 x3039 +2 x3040 -1 x2777 -1 x2778 -1 x2779 -1 x2780 -1 x2781 -1 x2782 -1 x2783 -1 x2784 >= 0 ;
+2 x3041 +2 x3042 +2 x3043 +2 x3044 -1 x2781 -1 x2782 -1 x2783 -1 x2784 -1 x2785 -1 x2786 -1 x2787 -1 x2788 >= 0 ;
+2 x3045 +2 x3046 +2 x3047 +2 x3048 -1 x2785 -1 x2786 -1 x2787 -1 x2788 -1 x2789 -1 x2790 -1 x2791 -1 x2792 >= 0 ;
+2 x3049 +2 x3050 +2 x3051 +2 x3052 -1 x2789 -1 x2790 -1 x2791 -1 x2792 -1 x2793 -1 x2794 -1 x2795 -1 x2796 >= 0 ;
+2 x3053 +2 x3054 +2 x3055 +2 x3056 -1 x2793 -1 x2794 -1 x2795 -1 x2796 -1 x2797 -1 x2798 -1 x2799 -1 x2800 >= 0 ;
+2 x3057 +2 x3058 +2 x3059 +2 x3060 -1 x2797 -1 x2798 -1 x2799 -1 x2800 -1 x2801 -1 x2802 -1 x2803 -1 x2804 >= 0 ;
+2 x3061 +2 x3062 +2 x3063 +2 x3064 -1 x2801 -1 x2802 -1 x2803 -1 x2804 -1 x2805 -1 x2806 -1 x2807 -1 x2808 >= 0 ;
+2 x3065 +2 x3066 +2 x3067 +2 x3068 -1 x2805 -1 x2806 -1 x2807 -1 x2808 -1 x2809 -1 x2810 -1 x2811 -1 x2812 >= 0 ;
+2 x3069 +2 x3070 +2 x3071 +2 x3072 -1 x2809 -1 x2810 -1 x2811 -1 x2812 -1 x2813 -1 x2814 -1 x2815 -1 x2816 >= 0 ;
+2 x3073 +2 x3074 +2 x3075 +2 x3076 -1 x2817 -1 x2818 -1 x2819 -1 x2820 -1 x3069 -1 x3070 -1 x3071 -1 x3072 >= 0 ;
+2 x3077 +2 x3078 +2 x3079 +2 x3080 -1 x2817 -1 x2818 -1 x2819 -1 x2820 -1 x2821 -1 x2822 -1 x2823 -1 x2824 >= 0 ;
+2 x3081 +2 x3082 +2 x3083 +2 x3084 -1 x2821 -1 x2822 -1 x2823 -1 x2824 -1 x2825 -1 x2826 -1 x2827 -1 x2828 >= 0 ;
+2 x3085 +2 x3086 +2 x3087 +2 x3088 -1 x2825 -1 x2826 -1 x2827 -1 x2828 -1 x2829 -1 x2830 -1 x2831 -1 x2832 >= 0 ;
+2 x3089 +2 x3090 +2 x3091 +2 x3092 -1 x2829 -1 x2830 -1 x2831 -1 x2832 -1 x2833 -1 x2834 -1 x2835 -1 x2836 >= 0 ;
+2 x3093 +2 x3094 +2 x3095 +2 x3096 -1 x2833 -1 x2834 -1 x2835 -1 x2836 -1 x2837 -1 x2838 -1 x2839 -1 x2840 >= 0 ;
+2 x3097 +2 x3098 +2 x3099 +2 x3100 -1 x2837 -1 x2838 -1 x2839 -1 x2840 -1 x2841 -1 x2842 -1 x2843 -1 x2844 >= 0 ;
+2 x3101 +2 x3102 +2 x3103 +2 x3104 -1 x2841 -1 x2842 -1 x2843 -1 x2844 -1 x2845 -1 x2846 -1 x2847 -1 x2848 >= 0 ;
+2 x3105 +2 x3106 +2 x3107 +2 x3108 -1 x2845 -1 x2846 -1 x2847 -1 x2848 -1 x2849 -1 x2850 -1 x2851 -1 x2852 >= 0 ;
+2 x3109 +2 x3110 +2 x3111 +2 x3112 -1 x2849 -1 x2850 -1 x2851 -1 x2852 -1 x2853 -1 x2854 -1 x2855 -1 x2856 >= 0 ;
+2 x3113 +2 x3114 +2 x3115 +2 x3116 -1 x2853 -1 x2854 -1 x2855 -1 x2856 -1 x2857 -1 x2858 -1 x2859 -1 x2860 >= 0 ;
+2 x3117 +2 x3118 +2 x3119 +2 x3120 -1 x2857 -1 x2858 -1 x2859 -1 x2860 -1 x2861 -1 x2862 -1 x2863 -1 x2864 >= 0 ;
+2 x3121 +2 x3122 +2 x3123 +2 x3124 -1 x2861 -1 x2862 -1 x2863 -1 x2864 -1 x2865 -1 x2866 -1 x2867 -1 x2868 >= 0 ;
+2 x3125 +2 x3126 +2 x3127 +2 x3128 -1 x2865 -1 x2866 -1 x2867 -1 x2868 -1 x2869 -1 x2870 -1 x2871 -1 x2872 >= 0 ;
+2 x3129 +2 x3130 +2 x3131 +2 x3132 -1 x2869 -1 x2870 -1 x2871 -1 x2872 -1 x2873 -1 x2874 -1 x2875 -1 x2876 >= 0 ;
+2 x3133 +2 x3134 +2 x3135 +2 x3136 -1 x2873 -1 x2874 -1 x2875 -1 x2876 -1 x2877 -1 x2878 -1 x2879 -1 x2880 >= 0 ;
+2 x3137 +2 x3138 +2 x3139 +2 x3140 -1 x2877 -1 x2878 -1 x2879 -1 x2880 -1 x2881 -1 x2882 -1 x2883 -1 x2884 >= 0 ;
+2 x3141 +2 x3142 +2 x3143 +2 x3144 -1 x2881 -1 x2882 -1 x2883 -1 x2884 -1 x2885 -1 x2886 -1 x2887 -1 x2888 >= 0 ;
+2 x3145 +2 x3146 +2 x3147 +2 x3148 -1 x2885 -1 x2886 -1 x2887 -1 x2888 -1 x2889 -1 x2890 -1 x2891 -1 x2892 >= 0 ;
+2 x3149 +2 x3150 +2 x3151 +2 x3152 -1 x2889 -1 x2890 -1 x2891 -1 x2892 -1 x2893 -1 x2894 -1 x2895 -1 x2896 >= 0 ;
+2 x3153 +2 x3154 +2 x3155 +2 x3156 -1 x2893 -1 x2894 -1 x2895 -1 x2896 -1 x2897 -1 x2898 -1 x2899 -1 x2900 >= 0 ;
+2 x3157 +2 x3158 +2 x3159 +2 x3160 -1 x2897 -1 x2898 -1 x2899 -1 x2900 -1 x2901 -1 x2902 -1 x2903 -1 x2904 >= 0 ;
+2 x3161 +2 x3162 +2 x3163 +2 x3164 -1 x2901 -1 x2902 -1 x2903 -1 x2904 -1 x2905 -1 x2906 -1 x2907 -1 x2908 >= 0 ;
+2 x3165 +2 x3166 +2 x3167 +2 x3168 -1 x2905 -1 x2906 -1 x2907 -1 x2908 -1 x2909 -1 x2910 -1 x2911 -1 x2912 >= 0 ;
+2 x3169 +2 x3170 +2 x3171 +2 x3172 -1 x2909 -1 x2910 -1 x2911 -1 x2912 -1 x2913 -1 x2914 -1 x2915 -1 x2916 >= 0 ;
+2 x3173 +2 x3174 +2 x3175 +2 x3176 -1 x2913 -1 x2914 -1 x2915 -1 x2916 -1 x2917 -1 x2918 -1 x2919 -1 x2920 >= 0 ;
+2 x3177 +2 x3178 +2 x3179 +2 x3180 -1 x2917 -1 x2918 -1 x2919 -1 x2920 -1 x2921 -1 x2922 -1 x2923 -1 x2924 >= 0 ;
+2 x3181 +2 x3182 +2 x3183 +2 x3184 -1 x2921 -1 x2922 -1 x2923 -1 x2924 -1 x2925 -1 x2926 -1 x2927 -1 x2928 >= 0 ;
+2 x3185 +2 x3186 +2 x3187 +2 x3188 -1 x2925 -1 x2926 -1 x2927 -1 x2928 -1 x2929 -1 x2930 -1 x2931 -1 x2932 >= 0 ;
+2 x3189 +2 x3190 +2 x3191 +2 x3192 -1 x2929 -1 x2930 -1 x2931 -1 x2932 -1 x2933 -1 x2934 -1 x2935 -1 x2936 >= 0 ;
+2 x3193 +2 x3194 +2 x3195 +2 x3196 -1 x2933 -1 x2934 -1 x2935 -1 x2936 -1 x2937 -1 x2938 -1 x2939 -1 x2940 >= 0 ;
+2 x3197 +2 x3198 +2 x3199 +2 x3200 -1 x2937 -1 x2938 -1 x2939 -1 x2940 -1 x2941 -1 x2942 -1 x2943 -1 x2944 >= 0 ;
+2 x3201 +2 x3202 +2 x3203 +2 x3204 -1 x2941 -1 x2942 -1 x2943 -1 x2944 -1 x2945 -1 x2946 -1 x2947 -1 x2948 >= 0 ;
+2 x3205 +2 x3206 +2 x3207 +2 x3208 -1 x2945 -1 x2946 -1 x2947 -1 x2948 -1 x2949 -1 x2950 -1 x2951 -1 x2952 >= 0 ;
+2 x3209 +2 x3210 +2 x3211 +2 x3212 -1 x2949 -1 x2950 -1 x2951 -1 x2952 -1 x2953 -1 x2954 -1 x2955 -1 x2956 >= 0 ;
+2 x3213 +2 x3214 +2 x3215 +2 x3216 -1 x2953 -1 x2954 -1 x2955 -1 x2956 -1 x2957 -1 x2958 -1 x2959 -1 x2960 >= 0 ;
+2 x3217 +2 x3218 +2 x3219 +2 x3220 -1 x2957 -1 x2958 -1 x2959 -1 x2960 -1 x2961 -1 x2962 -1 x2963 -1 x2964 >= 0 ;
+2 x3221 +2 x3222 +2 x3223 +2 x3224 -1 x2961 -1 x2962 -1 x2963 -1 x2964 -1 x2965 -1 x2966 -1 x2967 -1 x2968 >= 0 ;
+2 x3225 +2 x3226 +2 x3227 +2 x3228 -1 x2965 -1 x2966 -1 x2967 -1 x2968 -1 x2969 -1 x2970 -1 x2971 -1 x2972 >= 0 ;
+2 x3229 +2 x3230 +2 x3231 +2 x3232 -1 x2969 -1 x2970 -1 x2971 -1 x2972 -1 x2973 -1 x2974 -1 x2975 -1 x2976 >= 0 ;
+2 x3233 +2 x3234 +2 x3235 +2 x3236 -1 x2973 -1 x2974 -1 x2975 -1 x2976 -1 x2977 -1 x2978 -1 x2979 -1 x2980 >= 0 ;
+2 x3237 +2 x3238 +2 x3239 +2 x3240 -1 x2977 -1 x2978 -1 x2979 -1 x2980 -1 x2981 -1 x2982 -1 x2983 -1 x2984 >= 0 ;
+2 x3241 +2 x3242 +2 x3243 +2 x3244 -1 x2981 -1 x2982 -1 x2983 -1 x2984 -1 x2985 -1 x2986 -1 x2987 -1 x2988 >= 0 ;
+2 x3245 +2 x3246 +2 x3247 +2 x3248 -1 x2985 -1 x2986 -1 x2987 -1 x2988 -1 x2989 -1 x2990 -1 x2991 -1 x2992 >= 0 ;
+2 x3249 +2 x3250 +2 x3251 +2 x3252 -1 x2989 -1 x2990 -1 x2991 -1 x2992 -1 x2993 -1 x2994 -1 x2995 -1 x2996 >= 0 ;
+2 x3253 +2 x3254 +2 x3255 +2 x3256 -1 x2993 -1 x2994 -1 x2995 -1 x2996 -1 x2997 -1 x2998 -1 x2999 -1 x3000 >= 0 ;
+2 x3257 +2 x3258 +2 x3259 +2 x3260 -1 x2997 -1 x2998 -1 x2999 -1 x3000 -1 x3001 -1 x3002 -1 x3003 -1 x3004 >= 0 ;
+2 x3261 +2 x3262 +2 x3263 +2 x3264 -1 x3001 -1 x3002 -1 x3003 -1 x3004 -1 x3005 -1 x3006 -1 x3007 -1 x3008 >= 0 ;
+2 x3265 +2 x3266 +2 x3267 +2 x3268 -1 x3005 -1 x3006 -1 x3007 -1 x3008 -1 x3009 -1 x3010 -1 x3011 -1 x3012 >= 0 ;
+2 x3269 +2 x3270 +2 x3271 +2 x3272 -1 x3009 -1 x3010 -1 x3011 -1 x3012 -1 x3013 -1 x3014 -1 x3015 -1 x3016 >= 0 ;
+2 x3273 +2 x3274 +2 x3275 +2 x3276 -1 x3013 -1 x3014 -1 x3015 -1 x3016 -1 x3017 -1 x3018 -1 x3019 -1 x3020 >= 0 ;
+2 x3277 +2 x3278 +2 x3279 +2 x3280 -1 x3017 -1 x3018 -1 x3019 -1 x3020 -1 x3021 -1 x3022 -1 x3023 -1 x3024 >= 0 ;
+2 x3281 +2 x3282 +2 x3283 +2 x3284 -1 x3021 -1 x3022 -1 x3023 -1 x3024 -1 x3025 -1 x3026 -1 x3027 -1 x3028 >= 0 ;
+2 x3285 +2 x3286 +2 x3287 +2 x3288 -1 x3025 -1 x3026 -1 x3027 -1 x3028 -1 x3029 -1 x3030 -1 x3031 -1 x3032 >= 0 ;
+2 x3289 +2 x3290 +2 x3291 +2 x3292 -1 x3029 -1 x3030 -1 x3031 -1 x3032 -1 x3033 -1 x3034 -1 x3035 -1 x3036 >= 0 ;
+2 x3293 +2 x3294 +2 x3295 +2 x3296 -1 x3033 -1 x3034 -1 x3035 -1 x3036 -1 x3037 -1 x3038 -1 x3039 -1 x3040 >= 0 ;
+2 x3297 +2 x3298 +2 x3299 +2 x3300 -1 x3037 -1 x3038 -1 x3039 -1 x3040 -1 x3041 -1 x3042 -1 x3043 -1 x3044 >= 0 ;
+2 x3301 +2 x3302 +2 x3303 +2 x3304 -1 x3041 -1 x3042 -1 x3043 -1 x3044 -1 x3045 -1 x3046 -1 x3047 -1 x3048 >= 0 ;
+2 x3305 +2 x3306 +2 x3307 +2 x3308 -1 x3045 -1 x3046 -1 x3047 -1 x3048 -1 x3049 -1 x3050 -1 x3051 -1 x3052 >= 0 ;
+2 x3309 +2 x3310 +2 x3311 +2 x3312 -1 x3049 -1 x3050 -1 x3051 -1 x3052 -1 x3053 -1 x3054 -1 x3055 -1 x3056 >= 0 ;
+2 x3313 +2 x3314 +2 x3315 +2 x3316 -1 x3053 -1 x3054 -1 x3055 -1 x3056 -1 x3057 -1 x3058 -1 x3059 -1 x3060 >= 0 ;
+2 x3317 +2 x3318 +2 x3319 +2 x3320 -1 x3057 -1 x3058 -1 x3059 -1 x3060 -1 x3061 -1 x3062 -1 x3063 -1 x3064 >= 0 ;
+2 x3321 +2 x3322 +2 x3323 +2 x3324 -1 x3061 -1 x3062 -1 x3063 -1 x3064 -1 x3065 -1 x3066 -1 x3067 -1 x3068 >= 0 ;
+2 x3325 +2 x3326 +2 x3327 +2 x3328 -1 x3065 -1 x3066 -1 x3067 -1 x3068 -1 x3069 -1 x3070 -1 x3071 -1 x3072 >= 0 ;
+2 x3329 +2 x3330 +2 x3331 +2 x3332 -1 x3073 -1 x3074 -1 x3075 -1 x3076 -1 x3325 -1 x3326 -1 x3327 -1 x3328 >= 0 ;
+2 x3333 +2 x3334 +2 x3335 +2 x3336 -1 x3073 -1 x3074 -1 x3075 -1 x3076 -1 x3077 -1 x3078 -1 x3079 -1 x3080 >= 0 ;
+2 x3337 +2 x3338 +2 x3339 +2 x3340 -1 x3077 -1 x3078 -1 x3079 -1 x3080 -1 x3081 -1 x3082 -1 x3083 -1 x3084 >= 0 ;
+2 x3341 +2 x3342 +2 x3343 +2 x3344 -1 x3081 -1 x3082 -1 x3083 -1 x3084 -1 x3085 -1 x3086 -1 x3087 -1 x3088 >= 0 ;
+2 x3345 +2 x3346 +2 x3347 +2 x3348 -1 x3085 -1 x3086 -1 x3087 -1 x3088 -1 x3089 -1 x3090 -1 x3091 -1 x3092 >= 0 ;
+2 x3349 +2 x3350 +2 x3351 +2 x3352 -1 x3089 -1 x3090 -1 x3091 -1 x3092 -1 x3093 -1 x3094 -1 x3095 -1 x3096 >= 0 ;
+2 x3353 +2 x3354 +2 x3355 +2 x3356 -1 x3093 -1 x3094 -1 x3095 -1 x3096 -1 x3097 -1 x3098 -1 x3099 -1 x3100 >= 0 ;
+2 x3357 +2 x3358 +2 x3359 +2 x3360 -1 x3097 -1 x3098 -1 x3099 -1 x3100 -1 x3101 -1 x3102 -1 x3103 -1 x3104 >= 0 ;
+2 x3361 +2 x3362 +2 x3363 +2 x3364 -1 x3101 -1 x3102 -1 x3103 -1 x3104 -1 x3105 -1 x3106 -1 x3107 -1 x3108 >= 0 ;
+2 x3365 +2 x3366 +2 x3367 +2 x3368 -1 x3105 -1 x3106 -1 x3107 -1 x3108 -1 x3109 -1 x3110 -1 x3111 -1 x3112 >= 0 ;
+2 x3369 +2 x3370 +2 x3371 +2 x3372 -1 x3109 -1 x3110 -1 x3111 -1 x3112 -1 x3113 -1 x3114 -1 x3115 -1 x3116 >= 0 ;
+2 x3373 +2 x3374 +2 x3375 +2 x3376 -1 x3113 -1 x3114 -1 x3115 -1 x3116 -1 x3117 -1 x3118 -1 x3119 -1 x3120 >= 0 ;
+2 x3377 +2 x3378 +2 x3379 +2 x3380 -1 x3117 -1 x3118 -1 x3119 -1 x3120 -1 x3121 -1 x3122 -1 x3123 -1 x3124 >= 0 ;
+2 x3381 +2 x3382 +2 x3383 +2 x3384 -1 x3121 -1 x3122 -1 x3123 -1 x3124 -1 x3125 -1 x3126 -1 x3127 -1 x3128 >= 0 ;
+2 x3385 +2 x3386 +2 x3387 +2 x3388 -1 x3125 -1 x3126 -1 x3127 -1 x3128 -1 x3129 -1 x3130 -1 x3131 -1 x3132 >= 0 ;
+2 x3389 +2 x3390 +2 x3391 +2 x3392 -1 x3129 -1 x3130 -1 x3131 -1 x3132 -1 x3133 -1 x3134 -1 x3135 -1 x3136 >= 0 ;
+2 x3393 +2 x3394 +2 x3395 +2 x3396 -1 x3133 -1 x3134 -1 x3135 -1 x3136 -1 x3137 -1 x3138 -1 x3139 -1 x3140 >= 0 ;
+2 x3397 +2 x3398 +2 x3399 +2 x3400 -1 x3137 -1 x3138 -1 x3139 -1 x3140 -1 x3141 -1 x3142 -1 x3143 -1 x3144 >= 0 ;
+2 x3401 +2 x3402 +2 x3403 +2 x3404 -1 x3141 -1 x3142 -1 x3143 -1 x3144 -1 x3145 -1 x3146 -1 x3147 -1 x3148 >= 0 ;
+2 x3405 +2 x3406 +2 x3407 +2 x3408 -1 x3145 -1 x3146 -1 x3147 -1 x3148 -1 x3149 -1 x3150 -1 x3151 -1 x3152 >= 0 ;
+2 x3409 +2 x3410 +2 x3411 +2 x3412 -1 x3149 -1 x3150 -1 x3151 -1 x3152 -1 x3153 -1 x3154 -1 x3155 -1 x3156 >= 0 ;
+2 x3413 +2 x3414 +2 x3415 +2 x3416 -1 x3153 -1 x3154 -1 x3155 -1 x3156 -1 x3157 -1 x3158 -1 x3159 -1 x3160 >= 0 ;
+2 x3417 +2 x3418 +2 x3419 +2 x3420 -1 x3157 -1 x3158 -1 x3159 -1 x3160 -1 x3161 -1 x3162 -1 x3163 -1 x3164 >= 0 ;
+2 x3421 +2 x3422 +2 x3423 +2 x3424 -1 x3161 -1 x3162 -1 x3163 -1 x3164 -1 x3165 -1 x3166 -1 x3167 -1 x3168 >= 0 ;
+2 x3425 +2 x3426 +2 x3427 +2 x3428 -1 x3165 -1 x3166 -1 x3167 -1 x3168 -1 x3169 -1 x3170 -1 x3171 -1 x3172 >= 0 ;
+2 x3429 +2 x3430 +2 x3431 +2 x3432 -1 x3169 -1 x3170 -1 x3171 -1 x3172 -1 x3173 -1 x3174 -1 x3175 -1 x3176 >= 0 ;
+2 x3433 +2 x3434 +2 x3435 +2 x3436 -1 x3173 -1 x3174 -1 x3175 -1 x3176 -1 x3177 -1 x3178 -1 x3179 -1 x3180 >= 0 ;
+2 x3437 +2 x3438 +2 x3439 +2 x3440 -1 x3177 -1 x3178 -1 x3179 -1 x3180 -1 x3181 -1 x3182 -1 x3183 -1 x3184 >= 0 ;
+2 x3441 +2 x3442 +2 x3443 +2 x3444 -1 x3181 -1 x3182 -1 x3183 -1 x3184 -1 x3185 -1 x3186 -1 x3187 -1 x3188 >= 0 ;
+2 x3445 +2 x3446 +2 x3447 +2 x3448 -1 x3185 -1 x3186 -1 x3187 -1 x3188 -1 x3189 -1 x3190 -1 x3191 -1 x3192 >= 0 ;
+2 x3449 +2 x3450 +2 x3451 +2 x3452 -1 x3189 -1 x3190 -1 x3191 -1 x3192 -1 x3193 -1 x3194 -1 x3195 -1 x3196 >= 0 ;
+2 x3453 +2 x3454 +2 x3455 +2 x3456 -1 x3193 -1 x3194 -1 x3195 -1 x3196 -1 x3197 -1 x3198 -1 x3199 -1 x3200 >= 0 ;
+2 x3457 +2 x3458 +2 x3459 +2 x3460 -1 x3197 -1 x3198 -1 x3199 -1 x3200 -1 x3201 -1 x3202 -1 x3203 -1 x3204 >= 0 ;
+2 x3461 +2 x3462 +2 x3463 +2 x3464 -1 x3201 -1 x3202 -1 x3203 -1 x3204 -1 x3205 -1 x3206 -1 x3207 -1 x3208 >= 0 ;
+2 x3465 +2 x3466 +2 x3467 +2 x3468 -1 x3205 -1 x3206 -1 x3207 -1 x3208 -1 x3209 -1 x3210 -1 x3211 -1 x3212 >= 0 ;
+2 x3469 +2 x3470 +2 x3471 +2 x3472 -1 x3209 -1 x3210 -1 x3211 -1 x3212 -1 x3213 -1 x3214 -1 x3215 -1 x3216 >= 0 ;
+2 x3473 +2 x3474 +2 x3475 +2 x3476 -1 x3213 -1 x3214 -1 x3215 -1 x3216 -1 x3217 -1 x3218 -1 x3219 -1 x3220 >= 0 ;
+2 x3477 +2 x3478 +2 x3479 +2 x3480 -1 x3217 -1 x3218 -1 x3219 -1 x3220 -1 x3221 -1 x3222 -1 x3223 -1 x3224 >= 0 ;
+2 x3481 +2 x3482 +2 x3483 +2 x3484 -1 x3221 -1 x3222 -1 x3223 -1 x3224 -1 x3225 -1 x3226 -1 x3227 -1 x3228 >= 0 ;
+2 x3485 +2 x3486 +2 x3487 +2 x3488 -1 x3225 -1 x3226 -1 x3227 -1 x3228 -1 x3229 -1 x3230 -1 x3231 -1 x3232 >= 0 ;
+2 x3489 +2 x3490 +2 x3491 +2 x3492 -1 x3229 -1 x3230 -1 x3231 -1 x3232 -1 x3233 -1 x3234 -1 x3235 -1 x3236 >= 0 ;
+2 x3493 +2 x3494 +2 x3495 +2 x3496 -1 x3233 -1 x3234 -1 x3235 -1 x3236 -1 x3237 -1 x3238 -1 x3239 -1 x3240 >= 0 ;
+2 x3497 +2 x3498 +2 x3499 +2 x3500 -1 x3237 -1 x3238 -1 x3239 -1 x3240 -1 x3241 -1 x3242 -1 x3243 -1 x3244 >= 0 ;
+2 x3501 +2 x3502 +2 x3503 +2 x3504 -1 x3241 -1 x3242 -1 x3243 -1 x3244 -1 x3245 -1 x3246 -1 x3247 -1 x3248 >= 0 ;
+2 x3505 +2 x3506 +2 x3507 +2 x3508 -1 x3245 -1 x3246 -1 x3247 -1 x3248 -1 x3249 -1 x3250 -1 x3251 -1 x3252 >= 0 ;
+2 x3509 +2 x3510 +2 x3511 +2 x3512 -1 x3249 -1 x3250 -1 x3251 -1 x3252 -1 x3253 -1 x3254 -1 x3255 -1 x3256 >= 0 ;
+2 x3513 +2 x3514 +2 x3515 +2 x3516 -1 x3253 -1 x3254 -1 x3255 -1 x3256 -1 x3257 -1 x3258 -1 x3259 -1 x3260 >= 0 ;
+2 x3517 +2 x3518 +2 x3519 +2 x3520 -1 x3257 -1 x3258 -1 x3259 -1 x3260 -1 x3261 -1 x3262 -1 x3263 -1 x3264 >= 0 ;
+2 x3521 +2 x3522 +2 x3523 +2 x3524 -1 x3261 -1 x3262 -1 x3263 -1 x3264 -1 x3265 -1 x3266 -1 x3267 -1 x3268 >= 0 ;
+2 x3525 +2 x3526 +2 x3527 +2 x3528 -1 x3265 -1 x3266 -1 x3267 -1 x3268 -1 x3269 -1 x3270 -1 x3271 -1 x3272 >= 0 ;
+2 x3529 +2 x3530 +2 x3531 +2 x3532 -1 x3269 -1 x3270 -1 x3271 -1 x3272 -1 x3273 -1 x3274 -1 x3275 -1 x3276 >= 0 ;
+2 x3533 +2 x3534 +2 x3535 +2 x3536 -1 x3273 -1 x3274 -1 x3275 -1 x3276 -1 x3277 -1 x3278 -1 x3279 -1 x3280 >= 0 ;
+2 x3537 +2 x3538 +2 x3539 +2 x3540 -1 x3277 -1 x3278 -1 x3279 -1 x3280 -1 x3281 -1 x3282 -1 x3283 -1 x3284 >= 0 ;
+2 x3541 +2 x3542 +2 x3543 +2 x3544 -1 x3281 -1 x3282 -1 x3283 -1 x3284 -1 x3285 -1 x3286 -1 x3287 -1 x3288 >= 0 ;
+2 x3545 +2 x3546 +2 x3547 +2 x3548 -1 x3285 -1 x3286 -1 x3287 -1 x3288 -1 x3289 -1 x3290 -1 x3291 -1 x3292 >= 0 ;
+2 x3549 +2 x3550 +2 x3551 +2 x3552 -1 x3289 -1 x3290 -1 x3291 -1 x3292 -1 x3293 -1 x3294 -1 x3295 -1 x3296 >= 0 ;
+2 x3553 +2 x3554 +2 x3555 +2 x3556 -1 x3293 -1 x3294 -1 x3295 -1 x3296 -1 x3297 -1 x3298 -1 x3299 -1 x3300 >= 0 ;
+2 x3557 +2 x3558 +2 x3559 +2 x3560 -1 x3297 -1 x3298 -1 x3299 -1 x3300 -1 x3301 -1 x3302 -1 x3303 -1 x3304 >= 0 ;
+2 x3561 +2 x3562 +2 x3563 +2 x3564 -1 x3301 -1 x3302 -1 x3303 -1 x3304 -1 x3305 -1 x3306 -1 x3307 -1 x3308 >= 0 ;
+2 x3565 +2 x3566 +2 x3567 +2 x3568 -1 x3305 -1 x3306 -1 x3307 -1 x3308 -1 x3309 -1 x3310 -1 x3311 -1 x3312 >= 0 ;
+2 x3569 +2 x3570 +2 x3571 +2 x3572 -1 x3309 -1 x3310 -1 x3311 -1 x3312 -1 x3313 -1 x3314 -1 x3315 -1 x3316 >= 0 ;
+2 x3573 +2 x3574 +2 x3575 +2 x3576 -1 x3313 -1 x3314 -1 x3315 -1 x3316 -1 x3317 -1 x3318 -1 x3319 -1 x3320 >= 0 ;
+2 x3577 +2 x3578 +2 x3579 +2 x3580 -1 x3317 -1 x3318 -1 x3319 -1 x3320 -1 x3321 -1 x3322 -1 x3323 -1 x3324 >= 0 ;
+2 x3581 +2 x3582 +2 x3583 +2 x3584 -1 x3321 -1 x3322 -1 x3323 -1 x3324 -1 x3325 -1 x3326 -1 x3327 -1 x3328 >= 0 ;
+2 x3585 +2 x3586 +2 x3587 +2 x3588 -1 x3329 -1 x3330 -1 x3331 -1 x3332 -1 x3581 -1 x3582 -1 x3583 -1 x3584 >= 0 ;
+2 x3589 +2 x3590 +2 x3591 +2 x3592 -1 x3329 -1 x3330 -1 x3331 -1 x3332 -1 x3333 -1 x3334 -1 x3335 -1 x3336 >= 0 ;
+2 x3593 +2 x3594 +2 x3595 +2 x3596 -1 x3333 -1 x3334 -1 x3335 -1 x3336 -1 x3337 -1 x3338 -1 x3339 -1 x3340 >= 0 ;
+2 x3597 +2 x3598 +2 x3599 +2 x3600 -1 x3337 -1 x3338 -1 x3339 -1 x3340 -1 x3341 -1 x3342 -1 x3343 -1 x3344 >= 0 ;
+2 x3601 +2 x3602 +2 x3603 +2 x3604 -1 x3341 -1 x3342 -1 x3343 -1 x3344 -1 x3345 -1 x3346 -1 x3347 -1 x3348 >= 0 ;
+2 x3605 +2 x3606 +2 x3607 +2 x3608 -1 x3345 -1 x3346 -1 x3347 -1 x3348 -1 x3349 -1 x3350 -1 x3351 -1 x3352 >= 0 ;
+2 x3609 +2 x3610 +2 x3611 +2 x3612 -1 x3349 -1 x3350 -1 x3351 -1 x3352 -1 x3353 -1 x3354 -1 x3355 -1 x3356 >= 0 ;
+2 x3613 +2 x3614 +2 x3615 +2 x3616 -1 x3353 -1 x3354 -1 x3355 -1 x3356 -1 x3357 -1 x3358 -1 x3359 -1 x3360 >= 0 ;
+2 x3617 +2 x3618 +2 x3619 +2 x3620 -1 x3357 -1 x3358 -1 x3359 -1 x3360 -1 x3361 -1 x3362 -1 x3363 -1 x3364 >= 0 ;
+2 x3621 +2 x3622 +2 x3623 +2 x3624 -1 x3361 -1 x3362 -1 x3363 -1 x3364 -1 x3365 -1 x3366 -1 x3367 -1 x3368 >= 0 ;
+2 x3625 +2 x3626 +2 x3627 +2 x3628 -1 x3365 -1 x3366 -1 x3367 -1 x3368 -1 x3369 -1 x3370 -1 x3371 -1 x3372 >= 0 ;
+2 x3629 +2 x3630 +2 x3631 +2 x3632 -1 x3369 -1 x3370 -1 x3371 -1 x3372 -1 x3373 -1 x3374 -1 x3375 -1 x3376 >= 0 ;
+2 x3633 +2 x3634 +2 x3635 +2 x3636 -1 x3373 -1 x3374 -1 x3375 -1 x3376 -1 x3377 -1 x3378 -1 x3379 -1 x3380 >= 0 ;
+2 x3637 +2 x3638 +2 x3639 +2 x3640 -1 x3377 -1 x3378 -1 x3379 -1 x3380 -1 x3381 -1 x3382 -1 x3383 -1 x3384 >= 0 ;
+2 x3641 +2 x3642 +2 x3643 +2 x3644 -1 x3381 -1 x3382 -1 x3383 -1 x3384 -1 x3385 -1 x3386 -1 x3387 -1 x3388 >= 0 ;
+2 x3645 +2 x3646 +2 x3647 +2 x3648 -1 x3385 -1 x3386 -1 x3387 -1 x3388 -1 x3389 -1 x3390 -1 x3391 -1 x3392 >= 0 ;
+2 x3649 +2 x3650 +2 x3651 +2 x3652 -1 x3389 -1 x3390 -1 x3391 -1 x3392 -1 x3393 -1 x3394 -1 x3395 -1 x3396 >= 0 ;
+2 x3653 +2 x3654 +2 x3655 +2 x3656 -1 x3393 -1 x3394 -1 x3395 -1 x3396 -1 x3397 -1 x3398 -1 x3399 -1 x3400 >= 0 ;
+2 x3657 +2 x3658 +2 x3659 +2 x3660 -1 x3397 -1 x3398 -1 x3399 -1 x3400 -1 x3401 -1 x3402 -1 x3403 -1 x3404 >= 0 ;
+2 x3661 +2 x3662 +2 x3663 +2 x3664 -1 x3401 -1 x3402 -1 x3403 -1 x3404 -1 x3405 -1 x3406 -1 x3407 -1 x3408 >= 0 ;
+2 x3665 +2 x3666 +2 x3667 +2 x3668 -1 x3405 -1 x3406 -1 x3407 -1 x3408 -1 x3409 -1 x3410 -1 x3411 -1 x3412 >= 0 ;
+2 x3669 +2 x3670 +2 x3671 +2 x3672 -1 x3409 -1 x3410 -1 x3411 -1 x3412 -1 x3413 -1 x3414 -1 x3415 -1 x3416 >= 0 ;
+2 x3673 +2 x3674 +2 x3675 +2 x3676 -1 x3413 -1 x3414 -1 x3415 -1 x3416 -1 x3417 -1 x3418 -1 x3419 -1 x3420 >= 0 ;
+2 x3677 +2 x3678 +2 x3679 +2 x3680 -1 x3417 -1 x3418 -1 x3419 -1 x3420 -1 x3421 -1 x3422 -1 x3423 -1 x3424 >= 0 ;
+2 x3681 +2 x3682 +2 x3683 +2 x3684 -1 x3421 -1 x3422 -1 x3423 -1 x3424 -1 x3425 -1 x3426 -1 x3427 -1 x3428 >= 0 ;
+2 x3685 +2 x3686 +2 x3687 +2 x3688 -1 x3425 -1 x3426 -1 x3427 -1 x3428 -1 x3429 -1 x3430 -1 x3431 -1 x3432 >= 0 ;
+2 x3689 +2 x3690 +2 x3691 +2 x3692 -1 x3429 -1 x3430 -1 x3431 -1 x3432 -1 x3433 -1 x3434 -1 x3435 -1 x3436 >= 0 ;
+2 x3693 +2 x3694 +2 x3695 +2 x3696 -1 x3433 -1 x3434 -1 x3435 -1 x3436 -1 x3437 -1 x3438 -1 x3439 -1 x3440 >= 0 ;
+2 x3697 +2 x3698 +2 x3699 +2 x3700 -1 x3437 -1 x3438 -1 x3439 -1 x3440 -1 x3441 -1 x3442 -1 x3443 -1 x3444 >= 0 ;
+2 x3701 +2 x3702 +2 x3703 +2 x3704 -1 x3441 -1 x3442 -1 x3443 -1 x3444 -1 x3445 -1 x3446 -1 x3447 -1 x3448 >= 0 ;
+2 x3705 +2 x3706 +2 x3707 +2 x3708 -1 x3445 -1 x3446 -1 x3447 -1 x3448 -1 x3449 -1 x3450 -1 x3451 -1 x3452 >= 0 ;
+2 x3709 +2 x3710 +2 x3711 +2 x3712 -1 x3449 -1 x3450 -1 x3451 -1 x3452 -1 x3453 -1 x3454 -1 x3455 -1 x3456 >= 0 ;
+2 x3713 +2 x3714 +2 x3715 +2 x3716 -1 x3453 -1 x3454 -1 x3455 -1 x3456 -1 x3457 -1 x3458 -1 x3459 -1 x3460 >= 0 ;
+2 x3717 +2 x3718 +2 x3719 +2 x3720 -1 x3457 -1 x3458 -1 x3459 -1 x3460 -1 x3461 -1 x3462 -1 x3463 -1 x3464 >= 0 ;
+2 x3721 +2 x3722 +2 x3723 +2 x3724 -1 x3461 -1 x3462 -1 x3463 -1 x3464 -1 x3465 -1 x3466 -1 x3467 -1 x3468 >= 0 ;
+2 x3725 +2 x3726 +2 x3727 +2 x3728 -1 x3465 -1 x3466 -1 x3467 -1 x3468 -1 x3469 -1 x3470 -1 x3471 -1 x3472 >= 0 ;
+2 x3729 +2 x3730 +2 x3731 +2 x3732 -1 x3469 -1 x3470 -1 x3471 -1 x3472 -1 x3473 -1 x3474 -1 x3475 -1 x3476 >= 0 ;
+2 x3733 +2 x3734 +2 x3735 +2 x3736 -1 x3473 -1 x3474 -1 x3475 -1 x3476 -1 x3477 -1 x3478 -1 x3479 -1 x3480 >= 0 ;
+2 x3737 +2 x3738 +2 x3739 +2 x3740 -1 x3477 -1 x3478 -1 x3479 -1 x3480 -1 x3481 -1 x3482 -1 x3483 -1 x3484 >= 0 ;
+2 x3741 +2 x3742 +2 x3743 +2 x3744 -1 x3481 -1 x3482 -1 x3483 -1 x3484 -1 x3485 -1 x3486 -1 x3487 -1 x3488 >= 0 ;
+2 x3745 +2 x3746 +2 x3747 +2 x3748 -1 x3485 -1 x3486 -1 x3487 -1 x3488 -1 x3489 -1 x3490 -1 x3491 -1 x3492 >= 0 ;
+2 x3749 +2 x3750 +2 x3751 +2 x3752 -1 x3489 -1 x3490 -1 x3491 -1 x3492 -1 x3493 -1 x3494 -1 x3495 -1 x3496 >= 0 ;
+2 x3753 +2 x3754 +2 x3755 +2 x3756 -1 x3493 -1 x3494 -1 x3495 -1 x3496 -1 x3497 -1 x3498 -1 x3499 -1 x3500 >= 0 ;
+2 x3757 +2 x3758 +2 x3759 +2 x3760 -1 x3497 -1 x3498 -1 x3499 -1 x3500 -1 x3501 -1 x3502 -1 x3503 -1 x3504 >= 0 ;
+2 x3761 +2 x3762 +2 x3763 +2 x3764 -1 x3501 -1 x3502 -1 x3503 -1 x3504 -1 x3505 -1 x3506 -1 x3507 -1 x3508 >= 0 ;
+2 x3765 +2 x3766 +2 x3767 +2 x3768 -1 x3505 -1 x3506 -1 x3507 -1 x3508 -1 x3509 -1 x3510 -1 x3511 -1 x3512 >= 0 ;
+2 x3769 +2 x3770 +2 x3771 +2 x3772 -1 x3509 -1 x3510 -1 x3511 -1 x3512 -1 x3513 -1 x3514 -1 x3515 -1 x3516 >= 0 ;
+2 x3773 +2 x3774 +2 x3775 +2 x3776 -1 x3513 -1 x3514 -1 x3515 -1 x3516 -1 x3517 -1 x3518 -1 x3519 -1 x3520 >= 0 ;
+2 x3777 +2 x3778 +2 x3779 +2 x3780 -1 x3517 -1 x3518 -1 x3519 -1 x3520 -1 x3521 -1 x3522 -1 x3523 -1 x3524 >= 0 ;
+2 x3781 +2 x3782 +2 x3783 +2 x3784 -1 x3521 -1 x3522 -1 x3523 -1 x3524 -1 x3525 -1 x3526 -1 x3527 -1 x3528 >= 0 ;
+2 x3785 +2 x3786 +2 x3787 +2 x3788 -1 x3525 -1 x3526 -1 x3527 -1 x3528 -1 x3529 -1 x3530 -1 x3531 -1 x3532 >= 0 ;
+2 x3789 +2 x3790 +2 x3791 +2 x3792 -1 x3529 -1 x3530 -1 x3531 -1 x3532 -1 x3533 -1 x3534 -1 x3535 -1 x3536 >= 0 ;
+2 x3793 +2 x3794 +2 x3795 +2 x3796 -1 x3533 -1 x3534 -1 x3535 -1 x3536 -1 x3537 -1 x3538 -1 x3539 -1 x3540 >= 0 ;
+2 x3797 +2 x3798 +2 x3799 +2 x3800 -1 x3537 -1 x3538 -1 x3539 -1 x3540 -1 x3541 -1 x3542 -1 x3543 -1 x3544 >= 0 ;
+2 x3801 +2 x3802 +2 x3803 +2 x3804 -1 x3541 -1 x3542 -1 x3543 -1 x3544 -1 x3545 -1 x3546 -1 x3547 -1 x3548 >= 0 ;
+2 x3805 +2 x3806 +2 x3807 +2 x3808 -1 x3545 -1 x3546 -1 x3547 -1 x3548 -1 x3549 -1 x3550 -1 x3551 -1 x3552 >= 0 ;
+2 x3809 +2 x3810 +2 x3811 +2 x3812 -1 x3549 -1 x3550 -1 x3551 -1 x3552 -1 x3553 -1 x3554 -1 x3555 -1 x3556 >= 0 ;
+2 x3813 +2 x3814 +2 x3815 +2 x3816 -1 x3553 -1 x3554 -1 x3555 -1 x3556 -1 x3557 -1 x3558 -1 x3559 -1 x3560 >= 0 ;
+2 x3817 +2 x3818 +2 x3819 +2 x3820 -1 x3557 -1 x3558 -1 x3559 -1 x3560 -1 x3561 -1 x3562 -1 x3563 -1 x3564 >= 0 ;
+2 x3821 +2 x3822 +2 x3823 +2 x3824 -1 x3561 -1 x3562 -1 x3563 -1 x3564 -1 x3565 -1 x3566 -1 x3567 -1 x3568 >= 0 ;
+2 x3825 +2 x3826 +2 x3827 +2 x3828 -1 x3565 -1 x3566 -1 x3567 -1 x3568 -1 x3569 -1 x3570 -1 x3571 -1 x3572 >= 0 ;
+2 x3829 +2 x3830 +2 x3831 +2 x3832 -1 x3569 -1 x3570 -1 x3571 -1 x3572 -1 x3573 -1 x3574 -1 x3575 -1 x3576 >= 0 ;
+2 x3833 +2 x3834 +2 x3835 +2 x3836 -1 x3573 -1 x3574 -1 x3575 -1 x3576 -1 x3577 -1 x3578 -1 x3579 -1 x3580 >= 0 ;
+2 x3837 +2 x3838 +2 x3839 +2 x3840 -1 x3577 -1 x3578 -1 x3579 -1 x3580 -1 x3581 -1 x3582 -1 x3583 -1 x3584 >= 0 ;
+2 x3841 +2 x3842 +2 x3843 +2 x3844 -1 x3585 -1 x3586 -1 x3587 -1 x3588 -1 x3837 -1 x3838 -1 x3839 -1 x3840 >= 0 ;
+2 x3845 +2 x3846 +2 x3847 +2 x3848 -1 x3585 -1 x3586 -1 x3587 -1 x3588 -1 x3589 -1 x3590 -1 x3591 -1 x3592 >= 0 ;
+2 x3849 +2 x3850 +2 x3851 +2 x3852 -1 x3589 -1 x3590 -1 x3591 -1 x3592 -1 x3593 -1 x3594 -1 x3595 -1 x3596 >= 0 ;
+2 x3853 +2 x3854 +2 x3855 +2 x3856 -1 x3593 -1 x3594 -1 x3595 -1 x3596 -1 x3597 -1 x3598 -1 x3599 -1 x3600 >= 0 ;
+2 x3857 +2 x3858 +2 x3859 +2 x3860 -1 x3597 -1 x3598 -1 x3599 -1 x3600 -1 x3601 -1 x3602 -1 x3603 -1 x3604 >= 0 ;
+2 x3861 +2 x3862 +2 x3863 +2 x3864 -1 x3601 -1 x3602 -1 x3603 -1 x3604 -1 x3605 -1 x3606 -1 x3607 -1 x3608 >= 0 ;
+2 x3865 +2 x3866 +2 x3867 +2 x3868 -1 x3605 -1 x3606 -1 x3607 -1 x3608 -1 x3609 -1 x3610 -1 x3611 -1 x3612 >= 0 ;
+2 x3869 +2 x3870 +2 x3871 +2 x3872 -1 x3609 -1 x3610 -1 x3611 -1 x3612 -1 x3613 -1 x3614 -1 x3615 -1 x3616 >= 0 ;
+2 x3873 +2 x3874 +2 x3875 +2 x3876 -1 x3613 -1 x3614 -1 x3615 -1 x3616 -1 x3617 -1 x3618 -1 x3619 -1 x3620 >= 0 ;
+2 x3877 +2 x3878 +2 x3879 +2 x3880 -1 x3617 -1 x3618 -1 x3619 -1 x3620 -1 x3621 -1 x3622 -1 x3623 -1 x3624 >= 0 ;
+2 x3881 +2 x3882 +2 x3883 +2 x3884 -1 x3621 -1 x3622 -1 x3623 -1 x3624 -1 x3625 -1 x3626 -1 x3627 -1 x3628 >= 0 ;
+2 x3885 +2 x3886 +2 x3887 +2 x3888 -1 x3625 -1 x3626 -1 x3627 -1 x3628 -1 x3629 -1 x3630 -1 x3631 -1 x3632 >= 0 ;
+2 x3889 +2 x3890 +2 x3891 +2 x3892 -1 x3629 -1 x3630 -1 x3631 -1 x3632 -1 x3633 -1 x3634 -1 x3635 -1 x3636 >= 0 ;
+2 x3893 +2 x3894 +2 x3895 +2 x3896 -1 x3633 -1 x3634 -1 x3635 -1 x3636 -1 x3637 -1 x3638 -1 x3639 -1 x3640 >= 0 ;
+2 x3897 +2 x3898 +2 x3899 +2 x3900 -1 x3637 -1 x3638 -1 x3639 -1 x3640 -1 x3641 -1 x3642 -1 x3643 -1 x3644 >= 0 ;
+2 x3901 +2 x3902 +2 x3903 +2 x3904 -1 x3641 -1 x3642 -1 x3643 -1 x3644 -1 x3645 -1 x3646 -1 x3647 -1 x3648 >= 0 ;
+2 x3905 +2 x3906 +2 x3907 +2 x3908 -1 x3645 -1 x3646 -1 x3647 -1 x3648 -1 x3649 -1 x3650 -1 x3651 -1 x3652 >= 0 ;
+2 x3909 +2 x3910 +2 x3911 +2 x3912 -1 x3649 -1 x3650 -1 x3651 -1 x3652 -1 x3653 -1 x3654 -1 x3655 -1 x3656 >= 0 ;
+2 x3913 +2 x3914 +2 x3915 +2 x3916 -1 x3653 -1 x3654 -1 x3655 -1 x3656 -1 x3657 -1 x3658 -1 x3659 -1 x3660 >= 0 ;
+2 x3917 +2 x3918 +2 x3919 +2 x3920 -1 x3657 -1 x3658 -1 x3659 -1 x3660 -1 x3661 -1 x3662 -1 x3663 -1 x3664 >= 0 ;
+2 x3921 +2 x3922 +2 x3923 +2 x3924 -1 x3661 -1 x3662 -1 x3663 -1 x3664 -1 x3665 -1 x3666 -1 x3667 -1 x3668 >= 0 ;
+2 x3925 +2 x3926 +2 x3927 +2 x3928 -1 x3665 -1 x3666 -1 x3667 -1 x3668 -1 x3669 -1 x3670 -1 x3671 -1 x3672 >= 0 ;
+2 x3929 +2 x3930 +2 x3931 +2 x3932 -1 x3669 -1 x3670 -1 x3671 -1 x3672 -1 x3673 -1 x3674 -1 x3675 -1 x3676 >= 0 ;
+2 x3933 +2 x3934 +2 x3935 +2 x3936 -1 x3673 -1 x3674 -1 x3675 -1 x3676 -1 x3677 -1 x3678 -1 x3679 -1 x3680 >= 0 ;
+2 x3937 +2 x3938 +2 x3939 +2 x3940 -1 x3677 -1 x3678 -1 x3679 -1 x3680 -1 x3681 -1 x3682 -1 x3683 -1 x3684 >= 0 ;
+2 x3941 +2 x3942 +2 x3943 +2 x3944 -1 x3681 -1 x3682 -1 x3683 -1 x3684 -1 x3685 -1 x3686 -1 x3687 -1 x3688 >= 0 ;
+2 x3945 +2 x3946 +2 x3947 +2 x3948 -1 x3685 -1 x3686 -1 x3687 -1 x3688 -1 x3689 -1 x3690 -1 x3691 -1 x3692 >= 0 ;
+2 x3949 +2 x3950 +2 x3951 +2 x3952 -1 x3689 -1 x3690 -1 x3691 -1 x3692 -1 x3693 -1 x3694 -1 x3695 -1 x3696 >= 0 ;
+2 x3953 +2 x3954 +2 x3955 +2 x3956 -1 x3693 -1 x3694 -1 x3695 -1 x3696 -1 x3697 -1 x3698 -1 x3699 -1 x3700 >= 0 ;
+2 x3957 +2 x3958 +2 x3959 +2 x3960 -1 x3697 -1 x3698 -1 x3699 -1 x3700 -1 x3701 -1 x3702 -1 x3703 -1 x3704 >= 0 ;
+2 x3961 +2 x3962 +2 x3963 +2 x3964 -1 x3701 -1 x3702 -1 x3703 -1 x3704 -1 x3705 -1 x3706 -1 x3707 -1 x3708 >= 0 ;
+2 x3965 +2 x3966 +2 x3967 +2 x3968 -1 x3705 -1 x3706 -1 x3707 -1 x3708 -1 x3709 -1 x3710 -1 x3711 -1 x3712 >= 0 ;
+2 x3969 +2 x3970 +2 x3971 +2 x3972 -1 x3709 -1 x3710 -1 x3711 -1 x3712 -1 x3713 -1 x3714 -1 x3715 -1 x3716 >= 0 ;
+2 x3973 +2 x3974 +2 x3975 +2 x3976 -1 x3713 -1 x3714 -1 x3715 -1 x3716 -1 x3717 -1 x3718 -1 x3719 -1 x3720 >= 0 ;
+2 x3977 +2 x3978 +2 x3979 +2 x3980 -1 x3717 -1 x3718 -1 x3719 -1 x3720 -1 x3721 -1 x3722 -1 x3723 -1 x3724 >= 0 ;
+2 x3981 +2 x3982 +2 x3983 +2 x3984 -1 x3721 -1 x3722 -1 x3723 -1 x3724 -1 x3725 -1 x3726 -1 x3727 -1 x3728 >= 0 ;
+2 x3985 +2 x3986 +2 x3987 +2 x3988 -1 x3725 -1 x3726 -1 x3727 -1 x3728 -1 x3729 -1 x3730 -1 x3731 -1 x3732 >= 0 ;
+2 x3989 +2 x3990 +2 x3991 +2 x3992 -1 x3729 -1 x3730 -1 x3731 -1 x3732 -1 x3733 -1 x3734 -1 x3735 -1 x3736 >= 0 ;
+2 x3993 +2 x3994 +2 x3995 +2 x3996 -1 x3733 -1 x3734 -1 x3735 -1 x3736 -1 x3737 -1 x3738 -1 x3739 -1 x3740 >= 0 ;
+2 x3997 +2 x3998 +2 x3999 +2 x4000 -1 x3737 -1 x3738 -1 x3739 -1 x3740 -1 x3741 -1 x3742 -1 x3743 -1 x3744 >= 0 ;
+2 x4001 +2 x4002 +2 x4003 +2 x4004 -1 x3741 -1 x3742 -1 x3743 -1 x3744 -1 x3745 -1 x3746 -1 x3747 -1 x3748 >= 0 ;
+2 x4005 +2 x4006 +2 x4007 +2 x4008 -1 x3745 -1 x3746 -1 x3747 -1 x3748 -1 x3749 -1 x3750 -1 x3751 -1 x3752 >= 0 ;
+2 x4009 +2 x4010 +2 x4011 +2 x4012 -1 x3749 -1 x3750 -1 x3751 -1 x3752 -1 x3753 -1 x3754 -1 x3755 -1 x3756 >= 0 ;
+2 x4013 +2 x4014 +2 x4015 +2 x4016 -1 x3753 -1 x3754 -1 x3755 -1 x3756 -1 x3757 -1 x3758 -1 x3759 -1 x3760 >= 0 ;
+2 x4017 +2 x4018 +2 x4019 +2 x4020 -1 x3757 -1 x3758 -1 x3759 -1 x3760 -1 x3761 -1 x3762 -1 x3763 -1 x3764 >= 0 ;
+2 x4021 +2 x4022 +2 x4023 +2 x4024 -1 x3761 -1 x3762 -1 x3763 -1 x3764 -1 x3765 -1 x3766 -1 x3767 -1 x3768 >= 0 ;
+2 x4025 +2 x4026 +2 x4027 +2 x4028 -1 x3765 -1 x3766 -1 x3767 -1 x3768 -1 x3769 -1 x3770 -1 x3771 -1 x3772 >= 0 ;
+2 x4029 +2 x4030 +2 x4031 +2 x4032 -1 x3769 -1 x3770 -1 x3771 -1 x3772 -1 x3773 -1 x3774 -1 x3775 -1 x3776 >= 0 ;
+2 x4033 +2 x4034 +2 x4035 +2 x4036 -1 x3773 -1 x3774 -1 x3775 -1 x3776 -1 x3777 -1 x3778 -1 x3779 -1 x3780 >= 0 ;
+2 x4037 +2 x4038 +2 x4039 +2 x4040 -1 x3777 -1 x3778 -1 x3779 -1 x3780 -1 x3781 -1 x3782 -1 x3783 -1 x3784 >= 0 ;
+2 x4041 +2 x4042 +2 x4043 +2 x4044 -1 x3781 -1 x3782 -1 x3783 -1 x3784 -1 x3785 -1 x3786 -1 x3787 -1 x3788 >= 0 ;
+2 x4045 +2 x4046 +2 x4047 +2 x4048 -1 x3785 -1 x3786 -1 x3787 -1 x3788 -1 x3789 -1 x3790 -1 x3791 -1 x3792 >= 0 ;
+2 x4049 +2 x4050 +2 x4051 +2 x4052 -1 x3789 -1 x3790 -1 x3791 -1 x3792 -1 x3793 -1 x3794 -1 x3795 -1 x3796 >= 0 ;
+2 x4053 +2 x4054 +2 x4055 +2 x4056 -1 x3793 -1 x3794 -1 x3795 -1 x3796 -1 x3797 -1 x3798 -1 x3799 -1 x3800 >= 0 ;
+2 x4057 +2 x4058 +2 x4059 +2 x4060 -1 x3797 -1 x3798 -1 x3799 -1 x3800 -1 x3801 -1 x3802 -1 x3803 -1 x3804 >= 0 ;
+2 x4061 +2 x4062 +2 x4063 +2 x4064 -1 x3801 -1 x3802 -1 x3803 -1 x3804 -1 x3805 -1 x3806 -1 x3807 -1 x3808 >= 0 ;
+2 x4065 +2 x4066 +2 x4067 +2 x4068 -1 x3805 -1 x3806 -1 x3807 -1 x3808 -1 x3809 -1 x3810 -1 x3811 -1 x3812 >= 0 ;
+2 x4069 +2 x4070 +2 x4071 +2 x4072 -1 x3809 -1 x3810 -1 x3811 -1 x3812 -1 x3813 -1 x3814 -1 x3815 -1 x3816 >= 0 ;
+2 x4073 +2 x4074 +2 x4075 +2 x4076 -1 x3813 -1 x3814 -1 x3815 -1 x3816 -1 x3817 -1 x3818 -1 x3819 -1 x3820 >= 0 ;
+2 x4077 +2 x4078 +2 x4079 +2 x4080 -1 x3817 -1 x3818 -1 x3819 -1 x3820 -1 x3821 -1 x3822 -1 x3823 -1 x3824 >= 0 ;
+2 x4081 +2 x4082 +2 x4083 +2 x4084 -1 x3821 -1 x3822 -1 x3823 -1 x3824 -1 x3825 -1 x3826 -1 x3827 -1 x3828 >= 0 ;
+2 x4085 +2 x4086 +2 x4087 +2 x4088 -1 x3825 -1 x3826 -1 x3827 -1 x3828 -1 x3829 -1 x3830 -1 x3831 -1 x3832 >= 0 ;
+2 x4089 +2 x4090 +2 x4091 +2 x4092 -1 x3829 -1 x3830 -1 x3831 -1 x3832 -1 x3833 -1 x3834 -1 x3835 -1 x3836 >= 0 ;
+2 x4093 +2 x4094 +2 x4095 +2 x4096 -1 x3833 -1 x3834 -1 x3835 -1 x3836 -1 x3837 -1 x3838 -1 x3839 -1 x3840 >= 0 ;
+2 x4097 +2 x4098 +2 x4099 +2 x4100 -1 x3841 -1 x3842 -1 x3843 -1 x3844 -1 x4093 -1 x4094 -1 x4095 -1 x4096 >= 0 ;
+2 x4101 +2 x4102 +2 x4103 +2 x4104 -1 x3841 -1 x3842 -1 x3843 -1 x3844 -1 x3845 -1 x3846 -1 x3847 -1 x3848 >= 0 ;
+2 x4105 +2 x4106 +2 x4107 +2 x4108 -1 x3845 -1 x3846 -1 x3847 -1 x3848 -1 x3849 -1 x3850 -1 x3851 -1 x3852 >= 0 ;
+2 x4109 +2 x4110 +2 x4111 +2 x4112 -1 x3849 -1 x3850 -1 x3851 -1 x3852 -1 x3853 -1 x3854 -1 x3855 -1 x3856 >= 0 ;
+2 x4113 +2 x4114 +2 x4115 +2 x4116 -1 x3853 -1 x3854 -1 x3855 -1 x3856 -1 x3857 -1 x3858 -1 x3859 -1 x3860 >= 0 ;
+2 x4117 +2 x4118 +2 x4119 +2 x4120 -1 x3857 -1 x3858 -1 x3859 -1 x3860 -1 x3861 -1 x3862 -1 x3863 -1 x3864 >= 0 ;
+2 x4121 +2 x4122 +2 x4123 +2 x4124 -1 x3861 -1 x3862 -1 x3863 -1 x3864 -1 x3865 -1 x3866 -1 x3867 -1 x3868 >= 0 ;
+2 x4125 +2 x4126 +2 x4127 +2 x4128 -1 x3865 -1 x3866 -1 x3867 -1 x3868 -1 x3869 -1 x3870 -1 x3871 -1 x3872 >= 0 ;
+2 x4129 +2 x4130 +2 x4131 +2 x4132 -1 x3869 -1 x3870 -1 x3871 -1 x3872 -1 x3873 -1 x3874 -1 x3875 -1 x3876 >= 0 ;
+2 x4133 +2 x4134 +2 x4135 +2 x4136 -1 x3873 -1 x3874 -1 x3875 -1 x3876 -1 x3877 -1 x3878 -1 x3879 -1 x3880 >= 0 ;
+2 x4137 +2 x4138 +2 x4139 +2 x4140 -1 x3877 -1 x3878 -1 x3879 -1 x3880 -1 x3881 -1 x3882 -1 x3883 -1 x3884 >= 0 ;
+2 x4141 +2 x4142 +2 x4143 +2 x4144 -1 x3881 -1 x3882 -1 x3883 -1 x3884 -1 x3885 -1 x3886 -1 x3887 -1 x3888 >= 0 ;
+2 x4145 +2 x4146 +2 x4147 +2 x4148 -1 x3885 -1 x3886 -1 x3887 -1 x3888 -1 x3889 -1 x3890 -1 x3891 -1 x3892 >= 0 ;
+2 x4149 +2 x4150 +2 x4151 +2 x4152 -1 x3889 -1 x3890 -1 x3891 -1 x3892 -1 x3893 -1 x3894 -1 x3895 -1 x3896 >= 0 ;
+2 x4153 +2 x4154 +2 x4155 +2 x4156 -1 x3893 -1 x3894 -1 x3895 -1 x3896 -1 x3897 -1 x3898 -1 x3899 -1 x3900 >= 0 ;
+2 x4157 +2 x4158 +2 x4159 +2 x4160 -1 x3897 -1 x3898 -1 x3899 -1 x3900 -1 x3901 -1 x3902 -1 x3903 -1 x3904 >= 0 ;
+2 x4161 +2 x4162 +2 x4163 +2 x4164 -1 x3901 -1 x3902 -1 x3903 -1 x3904 -1 x3905 -1 x3906 -1 x3907 -1 x3908 >= 0 ;
+2 x4165 +2 x4166 +2 x4167 +2 x4168 -1 x3905 -1 x3906 -1 x3907 -1 x3908 -1 x3909 -1 x3910 -1 x3911 -1 x3912 >= 0 ;
+2 x4169 +2 x4170 +2 x4171 +2 x4172 -1 x3909 -1 x3910 -1 x3911 -1 x3912 -1 x3913 -1 x3914 -1 x3915 -1 x3916 >= 0 ;
+2 x4173 +2 x4174 +2 x4175 +2 x4176 -1 x3913 -1 x3914 -1 x3915 -1 x3916 -1 x3917 -1 x3918 -1 x3919 -1 x3920 >= 0 ;
+2 x4177 +2 x4178 +2 x4179 +2 x4180 -1 x3917 -1 x3918 -1 x3919 -1 x3920 -1 x3921 -1 x3922 -1 x3923 -1 x3924 >= 0 ;
+2 x4181 +2 x4182 +2 x4183 +2 x4184 -1 x3921 -1 x3922 -1 x3923 -1 x3924 -1 x3925 -1 x3926 -1 x3927 -1 x3928 >= 0 ;
+2 x4185 +2 x4186 +2 x4187 +2 x4188 -1 x3925 -1 x3926 -1 x3927 -1 x3928 -1 x3929 -1 x3930 -1 x3931 -1 x3932 >= 0 ;
+2 x4189 +2 x4190 +2 x4191 +2 x4192 -1 x3929 -1 x3930 -1 x3931 -1 x3932 -1 x3933 -1 x3934 -1 x3935 -1 x3936 >= 0 ;
+2 x4193 +2 x4194 +2 x4195 +2 x4196 -1 x3933 -1 x3934 -1 x3935 -1 x3936 -1 x3937 -1 x3938 -1 x3939 -1 x3940 >= 0 ;
+2 x4197 +2 x4198 +2 x4199 +2 x4200 -1 x3937 -1 x3938 -1 x3939 -1 x3940 -1 x3941 -1 x3942 -1 x3943 -1 x3944 >= 0 ;
+2 x4201 +2 x4202 +2 x4203 +2 x4204 -1 x3941 -1 x3942 -1 x3943 -1 x3944 -1 x3945 -1 x3946 -1 x3947 -1 x3948 >= 0 ;
+2 x4205 +2 x4206 +2 x4207 +2 x4208 -1 x3945 -1 x3946 -1 x3947 -1 x3948 -1 x3949 -1 x3950 -1 x3951 -1 x3952 >= 0 ;
+2 x4209 +2 x4210 +2 x4211 +2 x4212 -1 x3949 -1 x3950 -1 x3951 -1 x3952 -1 x3953 -1 x3954 -1 x3955 -1 x3956 >= 0 ;
+2 x4213 +2 x4214 +2 x4215 +2 x4216 -1 x3953 -1 x3954 -1 x3955 -1 x3956 -1 x3957 -1 x3958 -1 x3959 -1 x3960 >= 0 ;
+2 x4217 +2 x4218 +2 x4219 +2 x4220 -1 x3957 -1 x3958 -1 x3959 -1 x3960 -1 x3961 -1 x3962 -1 x3963 -1 x3964 >= 0 ;
+2 x4221 +2 x4222 +2 x4223 +2 x4224 -1 x3961 -1 x3962 -1 x3963 -1 x3964 -1 x3965 -1 x3966 -1 x3967 -1 x3968 >= 0 ;
+2 x4225 +2 x4226 +2 x4227 +2 x4228 -1 x3965 -1 x3966 -1 x3967 -1 x3968 -1 x3969 -1 x3970 -1 x3971 -1 x3972 >= 0 ;
+2 x4229 +2 x4230 +2 x4231 +2 x4232 -1 x3969 -1 x3970 -1 x3971 -1 x3972 -1 x3973 -1 x3974 -1 x3975 -1 x3976 >= 0 ;
+2 x4233 +2 x4234 +2 x4235 +2 x4236 -1 x3973 -1 x3974 -1 x3975 -1 x3976 -1 x3977 -1 x3978 -1 x3979 -1 x3980 >= 0 ;
+2 x4237 +2 x4238 +2 x4239 +2 x4240 -1 x3977 -1 x3978 -1 x3979 -1 x3980 -1 x3981 -1 x3982 -1 x3983 -1 x3984 >= 0 ;
+2 x4241 +2 x4242 +2 x4243 +2 x4244 -1 x3981 -1 x3982 -1 x3983 -1 x3984 -1 x3985 -1 x3986 -1 x3987 -1 x3988 >= 0 ;
+2 x4245 +2 x4246 +2 x4247 +2 x4248 -1 x3985 -1 x3986 -1 x3987 -1 x3988 -1 x3989 -1 x3990 -1 x3991 -1 x3992 >= 0 ;
+2 x4249 +2 x4250 +2 x4251 +2 x4252 -1 x3989 -1 x3990 -1 x3991 -1 x3992 -1 x3993 -1 x3994 -1 x3995 -1 x3996 >= 0 ;
+2 x4253 +2 x4254 +2 x4255 +2 x4256 -1 x3993 -1 x3994 -1 x3995 -1 x3996 -1 x3997 -1 x3998 -1 x3999 -1 x4000 >= 0 ;
+2 x4257 +2 x4258 +2 x4259 +2 x4260 -1 x3997 -1 x3998 -1 x3999 -1 x4000 -1 x4001 -1 x4002 -1 x4003 -1 x4004 >= 0 ;
+2 x4261 +2 x4262 +2 x4263 +2 x4264 -1 x4001 -1 x4002 -1 x4003 -1 x4004 -1 x4005 -1 x4006 -1 x4007 -1 x4008 >= 0 ;
+2 x4265 +2 x4266 +2 x4267 +2 x4268 -1 x4005 -1 x4006 -1 x4007 -1 x4008 -1 x4009 -1 x4010 -1 x4011 -1 x4012 >= 0 ;
+2 x4269 +2 x4270 +2 x4271 +2 x4272 -1 x4009 -1 x4010 -1 x4011 -1 x4012 -1 x4013 -1 x4014 -1 x4015 -1 x4016 >= 0 ;
+2 x4273 +2 x4274 +2 x4275 +2 x4276 -1 x4013 -1 x4014 -1 x4015 -1 x4016 -1 x4017 -1 x4018 -1 x4019 -1 x4020 >= 0 ;
+2 x4277 +2 x4278 +2 x4279 +2 x4280 -1 x4017 -1 x4018 -1 x4019 -1 x4020 -1 x4021 -1 x4022 -1 x4023 -1 x4024 >= 0 ;
+2 x4281 +2 x4282 +2 x4283 +2 x4284 -1 x4021 -1 x4022 -1 x4023 -1 x4024 -1 x4025 -1 x4026 -1 x4027 -1 x4028 >= 0 ;
+2 x4285 +2 x4286 +2 x4287 +2 x4288 -1 x4025 -1 x4026 -1 x4027 -1 x4028 -1 x4029 -1 x4030 -1 x4031 -1 x4032 >= 0 ;
+2 x4289 +2 x4290 +2 x4291 +2 x4292 -1 x4029 -1 x4030 -1 x4031 -1 x4032 -1 x4033 -1 x4034 -1 x4035 -1 x4036 >= 0 ;
+2 x4293 +2 x4294 +2 x4295 +2 x4296 -1 x4033 -1 x4034 -1 x4035 -1 x4036 -1 x4037 -1 x4038 -1 x4039 -1 x4040 >= 0 ;
+2 x4297 +2 x4298 +2 x4299 +2 x4300 -1 x4037 -1 x4038 -1 x4039 -1 x4040 -1 x4041 -1 x4042 -1 x4043 -1 x4044 >= 0 ;
+2 x4301 +2 x4302 +2 x4303 +2 x4304 -1 x4041 -1 x4042 -1 x4043 -1 x4044 -1 x4045 -1 x4046 -1 x4047 -1 x4048 >= 0 ;
+2 x4305 +2 x4306 +2 x4307 +2 x4308 -1 x4045 -1 x4046 -1 x4047 -1 x4048 -1 x4049 -1 x4050 -1 x4051 -1 x4052 >= 0 ;
+2 x4309 +2 x4310 +2 x4311 +2 x4312 -1 x4049 -1 x4050 -1 x4051 -1 x4052 -1 x4053 -1 x4054 -1 x4055 -1 x4056 >= 0 ;
+2 x4313 +2 x4314 +2 x4315 +2 x4316 -1 x4053 -1 x4054 -1 x4055 -1 x4056 -1 x4057 -1 x4058 -1 x4059 -1 x4060 >= 0 ;
+2 x4317 +2 x4318 +2 x4319 +2 x4320 -1 x4057 -1 x4058 -1 x4059 -1 x4060 -1 x4061 -1 x4062 -1 x4063 -1 x4064 >= 0 ;
+2 x4321 +2 x4322 +2 x4323 +2 x4324 -1 x4061 -1 x4062 -1 x4063 -1 x4064 -1 x4065 -1 x4066 -1 x4067 -1 x4068 >= 0 ;
+2 x4325 +2 x4326 +2 x4327 +2 x4328 -1 x4065 -1 x4066 -1 x4067 -1 x4068 -1 x4069 -1 x4070 -1 x4071 -1 x4072 >= 0 ;
+2 x4329 +2 x4330 +2 x4331 +2 x4332 -1 x4069 -1 x4070 -1 x4071 -1 x4072 -1 x4073 -1 x4074 -1 x4075 -1 x4076 >= 0 ;
+2 x4333 +2 x4334 +2 x4335 +2 x4336 -1 x4073 -1 x4074 -1 x4075 -1 x4076 -1 x4077 -1 x4078 -1 x4079 -1 x4080 >= 0 ;
+2 x4337 +2 x4338 +2 x4339 +2 x4340 -1 x4077 -1 x4078 -1 x4079 -1 x4080 -1 x4081 -1 x4082 -1 x4083 -1 x4084 >= 0 ;
+2 x4341 +2 x4342 +2 x4343 +2 x4344 -1 x4081 -1 x4082 -1 x4083 -1 x4084 -1 x4085 -1 x4086 -1 x4087 -1 x4088 >= 0 ;
+2 x4345 +2 x4346 +2 x4347 +2 x4348 -1 x4085 -1 x4086 -1 x4087 -1 x4088 -1 x4089 -1 x4090 -1 x4091 -1 x4092 >= 0 ;
+2 x4349 +2 x4350 +2 x4351 +2 x4352 -1 x4089 -1 x4090 -1 x4091 -1 x4092 -1 x4093 -1 x4094 -1 x4095 -1 x4096 >= 0 ;
+2 x4353 +2 x4354 +2 x4355 +2 x4356 -1 x4097 -1 x4098 -1 x4099 -1 x4100 -1 x4349 -1 x4350 -1 x4351 -1 x4352 >= 0 ;
+2 x4357 +2 x4358 +2 x4359 +2 x4360 -1 x4097 -1 x4098 -1 x4099 -1 x4100 -1 x4101 -1 x4102 -1 x4103 -1 x4104 >= 0 ;
+2 x4361 +2 x4362 +2 x4363 +2 x4364 -1 x4101 -1 x4102 -1 x4103 -1 x4104 -1 x4105 -1 x4106 -1 x4107 -1 x4108 >= 0 ;
+2 x4365 +2 x4366 +2 x4367 +2 x4368 -1 x4105 -1 x4106 -1 x4107 -1 x4108 -1 x4109 -1 x4110 -1 x4111 -1 x4112 >= 0 ;
+2 x4369 +2 x4370 +2 x4371 +2 x4372 -1 x4109 -1 x4110 -1 x4111 -1 x4112 -1 x4113 -1 x4114 -1 x4115 -1 x4116 >= 0 ;
+2 x4373 +2 x4374 +2 x4375 +2 x4376 -1 x4113 -1 x4114 -1 x4115 -1 x4116 -1 x4117 -1 x4118 -1 x4119 -1 x4120 >= 0 ;
+2 x4377 +2 x4378 +2 x4379 +2 x4380 -1 x4117 -1 x4118 -1 x4119 -1 x4120 -1 x4121 -1 x4122 -1 x4123 -1 x4124 >= 0 ;
+2 x4381 +2 x4382 +2 x4383 +2 x4384 -1 x4121 -1 x4122 -1 x4123 -1 x4124 -1 x4125 -1 x4126 -1 x4127 -1 x4128 >= 0 ;
+2 x4385 +2 x4386 +2 x4387 +2 x4388 -1 x4125 -1 x4126 -1 x4127 -1 x4128 -1 x4129 -1 x4130 -1 x4131 -1 x4132 >= 0 ;
+2 x4389 +2 x4390 +2 x4391 +2 x4392 -1 x4129 -1 x4130 -1 x4131 -1 x4132 -1 x4133 -1 x4134 -1 x4135 -1 x4136 >= 0 ;
+2 x4393 +2 x4394 +2 x4395 +2 x4396 -1 x4133 -1 x4134 -1 x4135 -1 x4136 -1 x4137 -1 x4138 -1 x4139 -1 x4140 >= 0 ;
+2 x4397 +2 x4398 +2 x4399 +2 x4400 -1 x4137 -1 x4138 -1 x4139 -1 x4140 -1 x4141 -1 x4142 -1 x4143 -1 x4144 >= 0 ;
+2 x4401 +2 x4402 +2 x4403 +2 x4404 -1 x4141 -1 x4142 -1 x4143 -1 x4144 -1 x4145 -1 x4146 -1 x4147 -1 x4148 >= 0 ;
+2 x4405 +2 x4406 +2 x4407 +2 x4408 -1 x4145 -1 x4146 -1 x4147 -1 x4148 -1 x4149 -1 x4150 -1 x4151 -1 x4152 >= 0 ;
+2 x4409 +2 x4410 +2 x4411 +2 x4412 -1 x4149 -1 x4150 -1 x4151 -1 x4152 -1 x4153 -1 x4154 -1 x4155 -1 x4156 >= 0 ;
+2 x4413 +2 x4414 +2 x4415 +2 x4416 -1 x4153 -1 x4154 -1 x4155 -1 x4156 -1 x4157 -1 x4158 -1 x4159 -1 x4160 >= 0 ;
+2 x4417 +2 x4418 +2 x4419 +2 x4420 -1 x4157 -1 x4158 -1 x4159 -1 x4160 -1 x4161 -1 x4162 -1 x4163 -1 x4164 >= 0 ;
+2 x4421 +2 x4422 +2 x4423 +2 x4424 -1 x4161 -1 x4162 -1 x4163 -1 x4164 -1 x4165 -1 x4166 -1 x4167 -1 x4168 >= 0 ;
+2 x4425 +2 x4426 +2 x4427 +2 x4428 -1 x4165 -1 x4166 -1 x4167 -1 x4168 -1 x4169 -1 x4170 -1 x4171 -1 x4172 >= 0 ;
+2 x4429 +2 x4430 +2 x4431 +2 x4432 -1 x4169 -1 x4170 -1 x4171 -1 x4172 -1 x4173 -1 x4174 -1 x4175 -1 x4176 >= 0 ;
+2 x4433 +2 x4434 +2 x4435 +2 x4436 -1 x4173 -1 x4174 -1 x4175 -1 x4176 -1 x4177 -1 x4178 -1 x4179 -1 x4180 >= 0 ;
+2 x4437 +2 x4438 +2 x4439 +2 x4440 -1 x4177 -1 x4178 -1 x4179 -1 x4180 -1 x4181 -1 x4182 -1 x4183 -1 x4184 >= 0 ;
+2 x4441 +2 x4442 +2 x4443 +2 x4444 -1 x4181 -1 x4182 -1 x4183 -1 x4184 -1 x4185 -1 x4186 -1 x4187 -1 x4188 >= 0 ;
+2 x4445 +2 x4446 +2 x4447 +2 x4448 -1 x4185 -1 x4186 -1 x4187 -1 x4188 -1 x4189 -1 x4190 -1 x4191 -1 x4192 >= 0 ;
+2 x4449 +2 x4450 +2 x4451 +2 x4452 -1 x4189 -1 x4190 -1 x4191 -1 x4192 -1 x4193 -1 x4194 -1 x4195 -1 x4196 >= 0 ;
+2 x4453 +2 x4454 +2 x4455 +2 x4456 -1 x4193 -1 x4194 -1 x4195 -1 x4196 -1 x4197 -1 x4198 -1 x4199 -1 x4200 >= 0 ;
+2 x4457 +2 x4458 +2 x4459 +2 x4460 -1 x4197 -1 x4198 -1 x4199 -1 x4200 -1 x4201 -1 x4202 -1 x4203 -1 x4204 >= 0 ;
+2 x4461 +2 x4462 +2 x4463 +2 x4464 -1 x4201 -1 x4202 -1 x4203 -1 x4204 -1 x4205 -1 x4206 -1 x4207 -1 x4208 >= 0 ;
+2 x4465 +2 x4466 +2 x4467 +2 x4468 -1 x4205 -1 x4206 -1 x4207 -1 x4208 -1 x4209 -1 x4210 -1 x4211 -1 x4212 >= 0 ;
+2 x4469 +2 x4470 +2 x4471 +2 x4472 -1 x4209 -1 x4210 -1 x4211 -1 x4212 -1 x4213 -1 x4214 -1 x4215 -1 x4216 >= 0 ;
+2 x4473 +2 x4474 +2 x4475 +2 x4476 -1 x4213 -1 x4214 -1 x4215 -1 x4216 -1 x4217 -1 x4218 -1 x4219 -1 x4220 >= 0 ;
+2 x4477 +2 x4478 +2 x4479 +2 x4480 -1 x4217 -1 x4218 -1 x4219 -1 x4220 -1 x4221 -1 x4222 -1 x4223 -1 x4224 >= 0 ;
+2 x4481 +2 x4482 +2 x4483 +2 x4484 -1 x4221 -1 x4222 -1 x4223 -1 x4224 -1 x4225 -1 x4226 -1 x4227 -1 x4228 >= 0 ;
+2 x4485 +2 x4486 +2 x4487 +2 x4488 -1 x4225 -1 x4226 -1 x4227 -1 x4228 -1 x4229 -1 x4230 -1 x4231 -1 x4232 >= 0 ;
+2 x4489 +2 x4490 +2 x4491 +2 x4492 -1 x4229 -1 x4230 -1 x4231 -1 x4232 -1 x4233 -1 x4234 -1 x4235 -1 x4236 >= 0 ;
+2 x4493 +2 x4494 +2 x4495 +2 x4496 -1 x4233 -1 x4234 -1 x4235 -1 x4236 -1 x4237 -1 x4238 -1 x4239 -1 x4240 >= 0 ;
+2 x4497 +2 x4498 +2 x4499 +2 x4500 -1 x4237 -1 x4238 -1 x4239 -1 x4240 -1 x4241 -1 x4242 -1 x4243 -1 x4244 >= 0 ;
+2 x4501 +2 x4502 +2 x4503 +2 x4504 -1 x4241 -1 x4242 -1 x4243 -1 x4244 -1 x4245 -1 x4246 -1 x4247 -1 x4248 >= 0 ;
+2 x4505 +2 x4506 +2 x4507 +2 x4508 -1 x4245 -1 x4246 -1 x4247 -1 x4248 -1 x4249 -1 x4250 -1 x4251 -1 x4252 >= 0 ;
+2 x4509 +2 x4510 +2 x4511 +2 x4512 -1 x4249 -1 x4250 -1 x4251 -1 x4252 -1 x4253 -1 x4254 -1 x4255 -1 x4256 >= 0 ;
+2 x4513 +2 x4514 +2 x4515 +2 x4516 -1 x4253 -1 x4254 -1 x4255 -1 x4256 -1 x4257 -1 x4258 -1 x4259 -1 x4260 >= 0 ;
+2 x4517 +2 x4518 +2 x4519 +2 x4520 -1 x4257 -1 x4258 -1 x4259 -1 x4260 -1 x4261 -1 x4262 -1 x4263 -1 x4264 >= 0 ;
+2 x4521 +2 x4522 +2 x4523 +2 x4524 -1 x4261 -1 x4262 -1 x4263 -1 x4264 -1 x4265 -1 x4266 -1 x4267 -1 x4268 >= 0 ;
+2 x4525 +2 x4526 +2 x4527 +2 x4528 -1 x4265 -1 x4266 -1 x4267 -1 x4268 -1 x4269 -1 x4270 -1 x4271 -1 x4272 >= 0 ;
+2 x4529 +2 x4530 +2 x4531 +2 x4532 -1 x4269 -1 x4270 -1 x4271 -1 x4272 -1 x4273 -1 x4274 -1 x4275 -1 x4276 >= 0 ;
+2 x4533 +2 x4534 +2 x4535 +2 x4536 -1 x4273 -1 x4274 -1 x4275 -1 x4276 -1 x4277 -1 x4278 -1 x4279 -1 x4280 >= 0 ;
+2 x4537 +2 x4538 +2 x4539 +2 x4540 -1 x4277 -1 x4278 -1 x4279 -1 x4280 -1 x4281 -1 x4282 -1 x4283 -1 x4284 >= 0 ;
+2 x4541 +2 x4542 +2 x4543 +2 x4544 -1 x4281 -1 x4282 -1 x4283 -1 x4284 -1 x4285 -1 x4286 -1 x4287 -1 x4288 >= 0 ;
+2 x4545 +2 x4546 +2 x4547 +2 x4548 -1 x4285 -1 x4286 -1 x4287 -1 x4288 -1 x4289 -1 x4290 -1 x4291 -1 x4292 >= 0 ;
+2 x4549 +2 x4550 +2 x4551 +2 x4552 -1 x4289 -1 x4290 -1 x4291 -1 x4292 -1 x4293 -1 x4294 -1 x4295 -1 x4296 >= 0 ;
+2 x4553 +2 x4554 +2 x4555 +2 x4556 -1 x4293 -1 x4294 -1 x4295 -1 x4296 -1 x4297 -1 x4298 -1 x4299 -1 x4300 >= 0 ;
+2 x4557 +2 x4558 +2 x4559 +2 x4560 -1 x4297 -1 x4298 -1 x4299 -1 x4300 -1 x4301 -1 x4302 -1 x4303 -1 x4304 >= 0 ;
+2 x4561 +2 x4562 +2 x4563 +2 x4564 -1 x4301 -1 x4302 -1 x4303 -1 x4304 -1 x4305 -1 x4306 -1 x4307 -1 x4308 >= 0 ;
+2 x4565 +2 x4566 +2 x4567 +2 x4568 -1 x4305 -1 x4306 -1 x4307 -1 x4308 -1 x4309 -1 x4310 -1 x4311 -1 x4312 >= 0 ;
+2 x4569 +2 x4570 +2 x4571 +2 x4572 -1 x4309 -1 x4310 -1 x4311 -1 x4312 -1 x4313 -1 x4314 -1 x4315 -1 x4316 >= 0 ;
+2 x4573 +2 x4574 +2 x4575 +2 x4576 -1 x4313 -1 x4314 -1 x4315 -1 x4316 -1 x4317 -1 x4318 -1 x4319 -1 x4320 >= 0 ;
+2 x4577 +2 x4578 +2 x4579 +2 x4580 -1 x4317 -1 x4318 -1 x4319 -1 x4320 -1 x4321 -1 x4322 -1 x4323 -1 x4324 >= 0 ;
+2 x4581 +2 x4582 +2 x4583 +2 x4584 -1 x4321 -1 x4322 -1 x4323 -1 x4324 -1 x4325 -1 x4326 -1 x4327 -1 x4328 >= 0 ;
+2 x4585 +2 x4586 +2 x4587 +2 x4588 -1 x4325 -1 x4326 -1 x4327 -1 x4328 -1 x4329 -1 x4330 -1 x4331 -1 x4332 >= 0 ;
+2 x4589 +2 x4590 +2 x4591 +2 x4592 -1 x4329 -1 x4330 -1 x4331 -1 x4332 -1 x4333 -1 x4334 -1 x4335 -1 x4336 >= 0 ;
+2 x4593 +2 x4594 +2 x4595 +2 x4596 -1 x4333 -1 x4334 -1 x4335 -1 x4336 -1 x4337 -1 x4338 -1 x4339 -1 x4340 >= 0 ;
+2 x4597 +2 x4598 +2 x4599 +2 x4600 -1 x4337 -1 x4338 -1 x4339 -1 x4340 -1 x4341 -1 x4342 -1 x4343 -1 x4344 >= 0 ;
+2 x4601 +2 x4602 +2 x4603 +2 x4604 -1 x4341 -1 x4342 -1 x4343 -1 x4344 -1 x4345 -1 x4346 -1 x4347 -1 x4348 >= 0 ;
+2 x4605 +2 x4606 +2 x4607 +2 x4608 -1 x4345 -1 x4346 -1 x4347 -1 x4348 -1 x4349 -1 x4350 -1 x4351 -1 x4352 >= 0 ;
+2 x4609 +2 x4610 +2 x4611 +2 x4612 -1 x4353 -1 x4354 -1 x4355 -1 x4356 -1 x4605 -1 x4606 -1 x4607 -1 x4608 >= 0 ;
+2 x4613 +2 x4614 +2 x4615 +2 x4616 -1 x4353 -1 x4354 -1 x4355 -1 x4356 -1 x4357 -1 x4358 -1 x4359 -1 x4360 >= 0 ;
+2 x4617 +2 x4618 +2 x4619 +2 x4620 -1 x4357 -1 x4358 -1 x4359 -1 x4360 -1 x4361 -1 x4362 -1 x4363 -1 x4364 >= 0 ;
+2 x4621 +2 x4622 +2 x4623 +2 x4624 -1 x4361 -1 x4362 -1 x4363 -1 x4364 -1 x4365 -1 x4366 -1 x4367 -1 x4368 >= 0 ;
+2 x4625 +2 x4626 +2 x4627 +2 x4628 -1 x4365 -1 x4366 -1 x4367 -1 x4368 -1 x4369 -1 x4370 -1 x4371 -1 x4372 >= 0 ;
+2 x4629 +2 x4630 +2 x4631 +2 x4632 -1 x4369 -1 x4370 -1 x4371 -1 x4372 -1 x4373 -1 x4374 -1 x4375 -1 x4376 >= 0 ;
+2 x4633 +2 x4634 +2 x4635 +2 x4636 -1 x4373 -1 x4374 -1 x4375 -1 x4376 -1 x4377 -1 x4378 -1 x4379 -1 x4380 >= 0 ;
+2 x4637 +2 x4638 +2 x4639 +2 x4640 -1 x4377 -1 x4378 -1 x4379 -1 x4380 -1 x4381 -1 x4382 -1 x4383 -1 x4384 >= 0 ;
+2 x4641 +2 x4642 +2 x4643 +2 x4644 -1 x4381 -1 x4382 -1 x4383 -1 x4384 -1 x4385 -1 x4386 -1 x4387 -1 x4388 >= 0 ;
+2 x4645 +2 x4646 +2 x4647 +2 x4648 -1 x4385 -1 x4386 -1 x4387 -1 x4388 -1 x4389 -1 x4390 -1 x4391 -1 x4392 >= 0 ;
+2 x4649 +2 x4650 +2 x4651 +2 x4652 -1 x4389 -1 x4390 -1 x4391 -1 x4392 -1 x4393 -1 x4394 -1 x4395 -1 x4396 >= 0 ;
+2 x4653 +2 x4654 +2 x4655 +2 x4656 -1 x4393 -1 x4394 -1 x4395 -1 x4396 -1 x4397 -1 x4398 -1 x4399 -1 x4400 >= 0 ;
+2 x4657 +2 x4658 +2 x4659 +2 x4660 -1 x4397 -1 x4398 -1 x4399 -1 x4400 -1 x4401 -1 x4402 -1 x4403 -1 x4404 >= 0 ;
+2 x4661 +2 x4662 +2 x4663 +2 x4664 -1 x4401 -1 x4402 -1 x4403 -1 x4404 -1 x4405 -1 x4406 -1 x4407 -1 x4408 >= 0 ;
+2 x4665 +2 x4666 +2 x4667 +2 x4668 -1 x4405 -1 x4406 -1 x4407 -1 x4408 -1 x4409 -1 x4410 -1 x4411 -1 x4412 >= 0 ;
+2 x4669 +2 x4670 +2 x4671 +2 x4672 -1 x4409 -1 x4410 -1 x4411 -1 x4412 -1 x4413 -1 x4414 -1 x4415 -1 x4416 >= 0 ;
+2 x4673 +2 x4674 +2 x4675 +2 x4676 -1 x4413 -1 x4414 -1 x4415 -1 x4416 -1 x4417 -1 x4418 -1 x4419 -1 x4420 >= 0 ;
+2 x4677 +2 x4678 +2 x4679 +2 x4680 -1 x4417 -1 x4418 -1 x4419 -1 x4420 -1 x4421 -1 x4422 -1 x4423 -1 x4424 >= 0 ;
+2 x4681 +2 x4682 +2 x4683 +2 x4684 -1 x4421 -1 x4422 -1 x4423 -1 x4424 -1 x4425 -1 x4426 -1 x4427 -1 x4428 >= 0 ;
+2 x4685 +2 x4686 +2 x4687 +2 x4688 -1 x4425 -1 x4426 -1 x4427 -1 x4428 -1 x4429 -1 x4430 -1 x4431 -1 x4432 >= 0 ;
+2 x4689 +2 x4690 +2 x4691 +2 x4692 -1 x4429 -1 x4430 -1 x4431 -1 x4432 -1 x4433 -1 x4434 -1 x4435 -1 x4436 >= 0 ;
+2 x4693 +2 x4694 +2 x4695 +2 x4696 -1 x4433 -1 x4434 -1 x4435 -1 x4436 -1 x4437 -1 x4438 -1 x4439 -1 x4440 >= 0 ;
+2 x4697 +2 x4698 +2 x4699 +2 x4700 -1 x4437 -1 x4438 -1 x4439 -1 x4440 -1 x4441 -1 x4442 -1 x4443 -1 x4444 >= 0 ;
+2 x4701 +2 x4702 +2 x4703 +2 x4704 -1 x4441 -1 x4442 -1 x4443 -1 x4444 -1 x4445 -1 x4446 -1 x4447 -1 x4448 >= 0 ;
+2 x4705 +2 x4706 +2 x4707 +2 x4708 -1 x4445 -1 x4446 -1 x4447 -1 x4448 -1 x4449 -1 x4450 -1 x4451 -1 x4452 >= 0 ;
+2 x4709 +2 x4710 +2 x4711 +2 x4712 -1 x4449 -1 x4450 -1 x4451 -1 x4452 -1 x4453 -1 x4454 -1 x4455 -1 x4456 >= 0 ;
+2 x4713 +2 x4714 +2 x4715 +2 x4716 -1 x4453 -1 x4454 -1 x4455 -1 x4456 -1 x4457 -1 x4458 -1 x4459 -1 x4460 >= 0 ;
+2 x4717 +2 x4718 +2 x4719 +2 x4720 -1 x4457 -1 x4458 -1 x4459 -1 x4460 -1 x4461 -1 x4462 -1 x4463 -1 x4464 >= 0 ;
+2 x4721 +2 x4722 +2 x4723 +2 x4724 -1 x4461 -1 x4462 -1 x4463 -1 x4464 -1 x4465 -1 x4466 -1 x4467 -1 x4468 >= 0 ;
+2 x4725 +2 x4726 +2 x4727 +2 x4728 -1 x4465 -1 x4466 -1 x4467 -1 x4468 -1 x4469 -1 x4470 -1 x4471 -1 x4472 >= 0 ;
+2 x4729 +2 x4730 +2 x4731 +2 x4732 -1 x4469 -1 x4470 -1 x4471 -1 x4472 -1 x4473 -1 x4474 -1 x4475 -1 x4476 >= 0 ;
+2 x4733 +2 x4734 +2 x4735 +2 x4736 -1 x4473 -1 x4474 -1 x4475 -1 x4476 -1 x4477 -1 x4478 -1 x4479 -1 x4480 >= 0 ;
+2 x4737 +2 x4738 +2 x4739 +2 x4740 -1 x4477 -1 x4478 -1 x4479 -1 x4480 -1 x4481 -1 x4482 -1 x4483 -1 x4484 >= 0 ;
+2 x4741 +2 x4742 +2 x4743 +2 x4744 -1 x4481 -1 x4482 -1 x4483 -1 x4484 -1 x4485 -1 x4486 -1 x4487 -1 x4488 >= 0 ;
+2 x4745 +2 x4746 +2 x4747 +2 x4748 -1 x4485 -1 x4486 -1 x4487 -1 x4488 -1 x4489 -1 x4490 -1 x4491 -1 x4492 >= 0 ;
+2 x4749 +2 x4750 +2 x4751 +2 x4752 -1 x4489 -1 x4490 -1 x4491 -1 x4492 -1 x4493 -1 x4494 -1 x4495 -1 x4496 >= 0 ;
+2 x4753 +2 x4754 +2 x4755 +2 x4756 -1 x4493 -1 x4494 -1 x4495 -1 x4496 -1 x4497 -1 x4498 -1 x4499 -1 x4500 >= 0 ;
+2 x4757 +2 x4758 +2 x4759 +2 x4760 -1 x4497 -1 x4498 -1 x4499 -1 x4500 -1 x4501 -1 x4502 -1 x4503 -1 x4504 >= 0 ;
+2 x4761 +2 x4762 +2 x4763 +2 x4764 -1 x4501 -1 x4502 -1 x4503 -1 x4504 -1 x4505 -1 x4506 -1 x4507 -1 x4508 >= 0 ;
+2 x4765 +2 x4766 +2 x4767 +2 x4768 -1 x4505 -1 x4506 -1 x4507 -1 x4508 -1 x4509 -1 x4510 -1 x4511 -1 x4512 >= 0 ;
+2 x4769 +2 x4770 +2 x4771 +2 x4772 -1 x4509 -1 x4510 -1 x4511 -1 x4512 -1 x4513 -1 x4514 -1 x4515 -1 x4516 >= 0 ;
+2 x4773 +2 x4774 +2 x4775 +2 x4776 -1 x4513 -1 x4514 -1 x4515 -1 x4516 -1 x4517 -1 x4518 -1 x4519 -1 x4520 >= 0 ;
+2 x4777 +2 x4778 +2 x4779 +2 x4780 -1 x4517 -1 x4518 -1 x4519 -1 x4520 -1 x4521 -1 x4522 -1 x4523 -1 x4524 >= 0 ;
+2 x4781 +2 x4782 +2 x4783 +2 x4784 -1 x4521 -1 x4522 -1 x4523 -1 x4524 -1 x4525 -1 x4526 -1 x4527 -1 x4528 >= 0 ;
+2 x4785 +2 x4786 +2 x4787 +2 x4788 -1 x4525 -1 x4526 -1 x4527 -1 x4528 -1 x4529 -1 x4530 -1 x4531 -1 x4532 >= 0 ;
+2 x4789 +2 x4790 +2 x4791 +2 x4792 -1 x4529 -1 x4530 -1 x4531 -1 x4532 -1 x4533 -1 x4534 -1 x4535 -1 x4536 >= 0 ;
+2 x4793 +2 x4794 +2 x4795 +2 x4796 -1 x4533 -1 x4534 -1 x4535 -1 x4536 -1 x4537 -1 x4538 -1 x4539 -1 x4540 >= 0 ;
+2 x4797 +2 x4798 +2 x4799 +2 x4800 -1 x4537 -1 x4538 -1 x4539 -1 x4540 -1 x4541 -1 x4542 -1 x4543 -1 x4544 >= 0 ;
+2 x4801 +2 x4802 +2 x4803 +2 x4804 -1 x4541 -1 x4542 -1 x4543 -1 x4544 -1 x4545 -1 x4546 -1 x4547 -1 x4548 >= 0 ;
+2 x4805 +2 x4806 +2 x4807 +2 x4808 -1 x4545 -1 x4546 -1 x4547 -1 x4548 -1 x4549 -1 x4550 -1 x4551 -1 x4552 >= 0 ;
+2 x4809 +2 x4810 +2 x4811 +2 x4812 -1 x4549 -1 x4550 -1 x4551 -1 x4552 -1 x4553 -1 x4554 -1 x4555 -1 x4556 >= 0 ;
+2 x4813 +2 x4814 +2 x4815 +2 x4816 -1 x4553 -1 x4554 -1 x4555 -1 x4556 -1 x4557 -1 x4558 -1 x4559 -1 x4560 >= 0 ;
+2 x4817 +2 x4818 +2 x4819 +2 x4820 -1 x4557 -1 x4558 -1 x4559 -1 x4560 -1 x4561 -1 x4562 -1 x4563 -1 x4564 >= 0 ;
+2 x4821 +2 x4822 +2 x4823 +2 x4824 -1 x4561 -1 x4562 -1 x4563 -1 x4564 -1 x4565 -1 x4566 -1 x4567 -1 x4568 >= 0 ;
+2 x4825 +2 x4826 +2 x4827 +2 x4828 -1 x4565 -1 x4566 -1 x4567 -1 x4568 -1 x4569 -1 x4570 -1 x4571 -1 x4572 >= 0 ;
+2 x4829 +2 x4830 +2 x4831 +2 x4832 -1 x4569 -1 x4570 -1 x4571 -1 x4572 -1 x4573 -1 x4574 -1 x4575 -1 x4576 >= 0 ;
+2 x4833 +2 x4834 +2 x4835 +2 x4836 -1 x4573 -1 x4574 -1 x4575 -1 x4576 -1 x4577 -1 x4578 -1 x4579 -1 x4580 >= 0 ;
+2 x4837 +2 x4838 +2 x4839 +2 x4840 -1 x4577 -1 x4578 -1 x4579 -1 x4580 -1 x4581 -1 x4582 -1 x4583 -1 x4584 >= 0 ;
+2 x4841 +2 x4842 +2 x4843 +2 x4844 -1 x4581 -1 x4582 -1 x4583 -1 x4584 -1 x4585 -1 x4586 -1 x4587 -1 x4588 >= 0 ;
+2 x4845 +2 x4846 +2 x4847 +2 x4848 -1 x4585 -1 x4586 -1 x4587 -1 x4588 -1 x4589 -1 x4590 -1 x4591 -1 x4592 >= 0 ;
+2 x4849 +2 x4850 +2 x4851 +2 x4852 -1 x4589 -1 x4590 -1 x4591 -1 x4592 -1 x4593 -1 x4594 -1 x4595 -1 x4596 >= 0 ;
+2 x4853 +2 x4854 +2 x4855 +2 x4856 -1 x4593 -1 x4594 -1 x4595 -1 x4596 -1 x4597 -1 x4598 -1 x4599 -1 x4600 >= 0 ;
+2 x4857 +2 x4858 +2 x4859 +2 x4860 -1 x4597 -1 x4598 -1 x4599 -1 x4600 -1 x4601 -1 x4602 -1 x4603 -1 x4604 >= 0 ;
+2 x4861 +2 x4862 +2 x4863 +2 x4864 -1 x4601 -1 x4602 -1 x4603 -1 x4604 -1 x4605 -1 x4606 -1 x4607 -1 x4608 >= 0 ;
+2 x4865 +2 x4866 +2 x4867 +2 x4868 -1 x4609 -1 x4610 -1 x4611 -1 x4612 -1 x4861 -1 x4862 -1 x4863 -1 x4864 >= 0 ;
+2 x4869 +2 x4870 +2 x4871 +2 x4872 -1 x4609 -1 x4610 -1 x4611 -1 x4612 -1 x4613 -1 x4614 -1 x4615 -1 x4616 >= 0 ;
+2 x4873 +2 x4874 +2 x4875 +2 x4876 -1 x4613 -1 x4614 -1 x4615 -1 x4616 -1 x4617 -1 x4618 -1 x4619 -1 x4620 >= 0 ;
+2 x4877 +2 x4878 +2 x4879 +2 x4880 -1 x4617 -1 x4618 -1 x4619 -1 x4620 -1 x4621 -1 x4622 -1 x4623 -1 x4624 >= 0 ;
+2 x4881 +2 x4882 +2 x4883 +2 x4884 -1 x4621 -1 x4622 -1 x4623 -1 x4624 -1 x4625 -1 x4626 -1 x4627 -1 x4628 >= 0 ;
+2 x4885 +2 x4886 +2 x4887 +2 x4888 -1 x4625 -1 x4626 -1 x4627 -1 x4628 -1 x4629 -1 x4630 -1 x4631 -1 x4632 >= 0 ;
+2 x4889 +2 x4890 +2 x4891 +2 x4892 -1 x4629 -1 x4630 -1 x4631 -1 x4632 -1 x4633 -1 x4634 -1 x4635 -1 x4636 >= 0 ;
+2 x4893 +2 x4894 +2 x4895 +2 x4896 -1 x4633 -1 x4634 -1 x4635 -1 x4636 -1 x4637 -1 x4638 -1 x4639 -1 x4640 >= 0 ;
+2 x4897 +2 x4898 +2 x4899 +2 x4900 -1 x4637 -1 x4638 -1 x4639 -1 x4640 -1 x4641 -1 x4642 -1 x4643 -1 x4644 >= 0 ;
+2 x4901 +2 x4902 +2 x4903 +2 x4904 -1 x4641 -1 x4642 -1 x4643 -1 x4644 -1 x4645 -1 x4646 -1 x4647 -1 x4648 >= 0 ;
+2 x4905 +2 x4906 +2 x4907 +2 x4908 -1 x4645 -1 x4646 -1 x4647 -1 x4648 -1 x4649 -1 x4650 -1 x4651 -1 x4652 >= 0 ;
+2 x4909 +2 x4910 +2 x4911 +2 x4912 -1 x4649 -1 x4650 -1 x4651 -1 x4652 -1 x4653 -1 x4654 -1 x4655 -1 x4656 >= 0 ;
+2 x4913 +2 x4914 +2 x4915 +2 x4916 -1 x4653 -1 x4654 -1 x4655 -1 x4656 -1 x4657 -1 x4658 -1 x4659 -1 x4660 >= 0 ;
+2 x4917 +2 x4918 +2 x4919 +2 x4920 -1 x4657 -1 x4658 -1 x4659 -1 x4660 -1 x4661 -1 x4662 -1 x4663 -1 x4664 >= 0 ;
+2 x4921 +2 x4922 +2 x4923 +2 x4924 -1 x4661 -1 x4662 -1 x4663 -1 x4664 -1 x4665 -1 x4666 -1 x4667 -1 x4668 >= 0 ;
+2 x4925 +2 x4926 +2 x4927 +2 x4928 -1 x4665 -1 x4666 -1 x4667 -1 x4668 -1 x4669 -1 x4670 -1 x4671 -1 x4672 >= 0 ;
+2 x4929 +2 x4930 +2 x4931 +2 x4932 -1 x4669 -1 x4670 -1 x4671 -1 x4672 -1 x4673 -1 x4674 -1 x4675 -1 x4676 >= 0 ;
+2 x4933 +2 x4934 +2 x4935 +2 x4936 -1 x4673 -1 x4674 -1 x4675 -1 x4676 -1 x4677 -1 x4678 -1 x4679 -1 x4680 >= 0 ;
+2 x4937 +2 x4938 +2 x4939 +2 x4940 -1 x4677 -1 x4678 -1 x4679 -1 x4680 -1 x4681 -1 x4682 -1 x4683 -1 x4684 >= 0 ;
+2 x4941 +2 x4942 +2 x4943 +2 x4944 -1 x4681 -1 x4682 -1 x4683 -1 x4684 -1 x4685 -1 x4686 -1 x4687 -1 x4688 >= 0 ;
+2 x4945 +2 x4946 +2 x4947 +2 x4948 -1 x4685 -1 x4686 -1 x4687 -1 x4688 -1 x4689 -1 x4690 -1 x4691 -1 x4692 >= 0 ;
+2 x4949 +2 x4950 +2 x4951 +2 x4952 -1 x4689 -1 x4690 -1 x4691 -1 x4692 -1 x4693 -1 x4694 -1 x4695 -1 x4696 >= 0 ;
+2 x4953 +2 x4954 +2 x4955 +2 x4956 -1 x4693 -1 x4694 -1 x4695 -1 x4696 -1 x4697 -1 x4698 -1 x4699 -1 x4700 >= 0 ;
+2 x4957 +2 x4958 +2 x4959 +2 x4960 -1 x4697 -1 x4698 -1 x4699 -1 x4700 -1 x4701 -1 x4702 -1 x4703 -1 x4704 >= 0 ;
+2 x4961 +2 x4962 +2 x4963 +2 x4964 -1 x4701 -1 x4702 -1 x4703 -1 x4704 -1 x4705 -1 x4706 -1 x4707 -1 x4708 >= 0 ;
+2 x4965 +2 x4966 +2 x4967 +2 x4968 -1 x4705 -1 x4706 -1 x4707 -1 x4708 -1 x4709 -1 x4710 -1 x4711 -1 x4712 >= 0 ;
+2 x4969 +2 x4970 +2 x4971 +2 x4972 -1 x4709 -1 x4710 -1 x4711 -1 x4712 -1 x4713 -1 x4714 -1 x4715 -1 x4716 >= 0 ;
+2 x4973 +2 x4974 +2 x4975 +2 x4976 -1 x4713 -1 x4714 -1 x4715 -1 x4716 -1 x4717 -1 x4718 -1 x4719 -1 x4720 >= 0 ;
+2 x4977 +2 x4978 +2 x4979 +2 x4980 -1 x4717 -1 x4718 -1 x4719 -1 x4720 -1 x4721 -1 x4722 -1 x4723 -1 x4724 >= 0 ;
+2 x4981 +2 x4982 +2 x4983 +2 x4984 -1 x4721 -1 x4722 -1 x4723 -1 x4724 -1 x4725 -1 x4726 -1 x4727 -1 x4728 >= 0 ;
+2 x4985 +2 x4986 +2 x4987 +2 x4988 -1 x4725 -1 x4726 -1 x4727 -1 x4728 -1 x4729 -1 x4730 -1 x4731 -1 x4732 >= 0 ;
+2 x4989 +2 x4990 +2 x4991 +2 x4992 -1 x4729 -1 x4730 -1 x4731 -1 x4732 -1 x4733 -1 x4734 -1 x4735 -1 x4736 >= 0 ;
+2 x4993 +2 x4994 +2 x4995 +2 x4996 -1 x4733 -1 x4734 -1 x4735 -1 x4736 -1 x4737 -1 x4738 -1 x4739 -1 x4740 >= 0 ;
+2 x4997 +2 x4998 +2 x4999 +2 x5000 -1 x4737 -1 x4738 -1 x4739 -1 x4740 -1 x4741 -1 x4742 -1 x4743 -1 x4744 >= 0 ;
+2 x5001 +2 x5002 +2 x5003 +2 x5004 -1 x4741 -1 x4742 -1 x4743 -1 x4744 -1 x4745 -1 x4746 -1 x4747 -1 x4748 >= 0 ;
+2 x5005 +2 x5006 +2 x5007 +2 x5008 -1 x4745 -1 x4746 -1 x4747 -1 x4748 -1 x4749 -1 x4750 -1 x4751 -1 x4752 >= 0 ;
+2 x5009 +2 x5010 +2 x5011 +2 x5012 -1 x4749 -1 x4750 -1 x4751 -1 x4752 -1 x4753 -1 x4754 -1 x4755 -1 x4756 >= 0 ;
+2 x5013 +2 x5014 +2 x5015 +2 x5016 -1 x4753 -1 x4754 -1 x4755 -1 x4756 -1 x4757 -1 x4758 -1 x4759 -1 x4760 >= 0 ;
+2 x5017 +2 x5018 +2 x5019 +2 x5020 -1 x4757 -1 x4758 -1 x4759 -1 x4760 -1 x4761 -1 x4762 -1 x4763 -1 x4764 >= 0 ;
+2 x5021 +2 x5022 +2 x5023 +2 x5024 -1 x4761 -1 x4762 -1 x4763 -1 x4764 -1 x4765 -1 x4766 -1 x4767 -1 x4768 >= 0 ;
+2 x5025 +2 x5026 +2 x5027 +2 x5028 -1 x4765 -1 x4766 -1 x4767 -1 x4768 -1 x4769 -1 x4770 -1 x4771 -1 x4772 >= 0 ;
+2 x5029 +2 x5030 +2 x5031 +2 x5032 -1 x4769 -1 x4770 -1 x4771 -1 x4772 -1 x4773 -1 x4774 -1 x4775 -1 x4776 >= 0 ;
+2 x5033 +2 x5034 +2 x5035 +2 x5036 -1 x4773 -1 x4774 -1 x4775 -1 x4776 -1 x4777 -1 x4778 -1 x4779 -1 x4780 >= 0 ;
+2 x5037 +2 x5038 +2 x5039 +2 x5040 -1 x4777 -1 x4778 -1 x4779 -1 x4780 -1 x4781 -1 x4782 -1 x4783 -1 x4784 >= 0 ;
+2 x5041 +2 x5042 +2 x5043 +2 x5044 -1 x4781 -1 x4782 -1 x4783 -1 x4784 -1 x4785 -1 x4786 -1 x4787 -1 x4788 >= 0 ;
+2 x5045 +2 x5046 +2 x5047 +2 x5048 -1 x4785 -1 x4786 -1 x4787 -1 x4788 -1 x4789 -1 x4790 -1 x4791 -1 x4792 >= 0 ;
+2 x5049 +2 x5050 +2 x5051 +2 x5052 -1 x4789 -1 x4790 -1 x4791 -1 x4792 -1 x4793 -1 x4794 -1 x4795 -1 x4796 >= 0 ;
+2 x5053 +2 x5054 +2 x5055 +2 x5056 -1 x4793 -1 x4794 -1 x4795 -1 x4796 -1 x4797 -1 x4798 -1 x4799 -1 x4800 >= 0 ;
+2 x5057 +2 x5058 +2 x5059 +2 x5060 -1 x4797 -1 x4798 -1 x4799 -1 x4800 -1 x4801 -1 x4802 -1 x4803 -1 x4804 >= 0 ;
+2 x5061 +2 x5062 +2 x5063 +2 x5064 -1 x4801 -1 x4802 -1 x4803 -1 x4804 -1 x4805 -1 x4806 -1 x4807 -1 x4808 >= 0 ;
+2 x5065 +2 x5066 +2 x5067 +2 x5068 -1 x4805 -1 x4806 -1 x4807 -1 x4808 -1 x4809 -1 x4810 -1 x4811 -1 x4812 >= 0 ;
+2 x5069 +2 x5070 +2 x5071 +2 x5072 -1 x4809 -1 x4810 -1 x4811 -1 x4812 -1 x4813 -1 x4814 -1 x4815 -1 x4816 >= 0 ;
+2 x5073 +2 x5074 +2 x5075 +2 x5076 -1 x4813 -1 x4814 -1 x4815 -1 x4816 -1 x4817 -1 x4818 -1 x4819 -1 x4820 >= 0 ;
+2 x5077 +2 x5078 +2 x5079 +2 x5080 -1 x4817 -1 x4818 -1 x4819 -1 x4820 -1 x4821 -1 x4822 -1 x4823 -1 x4824 >= 0 ;
+2 x5081 +2 x5082 +2 x5083 +2 x5084 -1 x4821 -1 x4822 -1 x4823 -1 x4824 -1 x4825 -1 x4826 -1 x4827 -1 x4828 >= 0 ;
+2 x5085 +2 x5086 +2 x5087 +2 x5088 -1 x4825 -1 x4826 -1 x4827 -1 x4828 -1 x4829 -1 x4830 -1 x4831 -1 x4832 >= 0 ;
+2 x5089 +2 x5090 +2 x5091 +2 x5092 -1 x4829 -1 x4830 -1 x4831 -1 x4832 -1 x4833 -1 x4834 -1 x4835 -1 x4836 >= 0 ;
+2 x5093 +2 x5094 +2 x5095 +2 x5096 -1 x4833 -1 x4834 -1 x4835 -1 x4836 -1 x4837 -1 x4838 -1 x4839 -1 x4840 >= 0 ;
+2 x5097 +2 x5098 +2 x5099 +2 x5100 -1 x4837 -1 x4838 -1 x4839 -1 x4840 -1 x4841 -1 x4842 -1 x4843 -1 x4844 >= 0 ;
+2 x5101 +2 x5102 +2 x5103 +2 x5104 -1 x4841 -1 x4842 -1 x4843 -1 x4844 -1 x4845 -1 x4846 -1 x4847 -1 x4848 >= 0 ;
+2 x5105 +2 x5106 +2 x5107 +2 x5108 -1 x4845 -1 x4846 -1 x4847 -1 x4848 -1 x4849 -1 x4850 -1 x4851 -1 x4852 >= 0 ;
+2 x5109 +2 x5110 +2 x5111 +2 x5112 -1 x4849 -1 x4850 -1 x4851 -1 x4852 -1 x4853 -1 x4854 -1 x4855 -1 x4856 >= 0 ;
+2 x5113 +2 x5114 +2 x5115 +2 x5116 -1 x4853 -1 x4854 -1 x4855 -1 x4856 -1 x4857 -1 x4858 -1 x4859 -1 x4860 >= 0 ;
+2 x5117 +2 x5118 +2 x5119 +2 x5120 -1 x4857 -1 x4858 -1 x4859 -1 x4860 -1 x4861 -1 x4862 -1 x4863 -1 x4864 >= 0 ;
+2 x5121 +2 x5122 +2 x5123 +2 x5124 -1 x4865 -1 x4866 -1 x4867 -1 x4868 -1 x5117 -1 x5118 -1 x5119 -1 x5120 >= 0 ;
+2 x5125 +2 x5126 +2 x5127 +2 x5128 -1 x4865 -1 x4866 -1 x4867 -1 x4868 -1 x4869 -1 x4870 -1 x4871 -1 x4872 >= 0 ;
+2 x5129 +2 x5130 +2 x5131 +2 x5132 -1 x4869 -1 x4870 -1 x4871 -1 x4872 -1 x4873 -1 x4874 -1 x4875 -1 x4876 >= 0 ;
+2 x5133 +2 x5134 +2 x5135 +2 x5136 -1 x4873 -1 x4874 -1 x4875 -1 x4876 -1 x4877 -1 x4878 -1 x4879 -1 x4880 >= 0 ;
+2 x5137 +2 x5138 +2 x5139 +2 x5140 -1 x4877 -1 x4878 -1 x4879 -1 x4880 -1 x4881 -1 x4882 -1 x4883 -1 x4884 >= 0 ;
+2 x5141 +2 x5142 +2 x5143 +2 x5144 -1 x4881 -1 x4882 -1 x4883 -1 x4884 -1 x4885 -1 x4886 -1 x4887 -1 x4888 >= 0 ;
+2 x5145 +2 x5146 +2 x5147 +2 x5148 -1 x4885 -1 x4886 -1 x4887 -1 x4888 -1 x4889 -1 x4890 -1 x4891 -1 x4892 >= 0 ;
+2 x5149 +2 x5150 +2 x5151 +2 x5152 -1 x4889 -1 x4890 -1 x4891 -1 x4892 -1 x4893 -1 x4894 -1 x4895 -1 x4896 >= 0 ;
+2 x5153 +2 x5154 +2 x5155 +2 x5156 -1 x4893 -1 x4894 -1 x4895 -1 x4896 -1 x4897 -1 x4898 -1 x4899 -1 x4900 >= 0 ;
+2 x5157 +2 x5158 +2 x5159 +2 x5160 -1 x4897 -1 x4898 -1 x4899 -1 x4900 -1 x4901 -1 x4902 -1 x4903 -1 x4904 >= 0 ;
+2 x5161 +2 x5162 +2 x5163 +2 x5164 -1 x4901 -1 x4902 -1 x4903 -1 x4904 -1 x4905 -1 x4906 -1 x4907 -1 x4908 >= 0 ;
+2 x5165 +2 x5166 +2 x5167 +2 x5168 -1 x4905 -1 x4906 -1 x4907 -1 x4908 -1 x4909 -1 x4910 -1 x4911 -1 x4912 >= 0 ;
+2 x5169 +2 x5170 +2 x5171 +2 x5172 -1 x4909 -1 x4910 -1 x4911 -1 x4912 -1 x4913 -1 x4914 -1 x4915 -1 x4916 >= 0 ;
+2 x5173 +2 x5174 +2 x5175 +2 x5176 -1 x4913 -1 x4914 -1 x4915 -1 x4916 -1 x4917 -1 x4918 -1 x4919 -1 x4920 >= 0 ;
+2 x5177 +2 x5178 +2 x5179 +2 x5180 -1 x4917 -1 x4918 -1 x4919 -1 x4920 -1 x4921 -1 x4922 -1 x4923 -1 x4924 >= 0 ;
+2 x5181 +2 x5182 +2 x5183 +2 x5184 -1 x4921 -1 x4922 -1 x4923 -1 x4924 -1 x4925 -1 x4926 -1 x4927 -1 x4928 >= 0 ;
+2 x5185 +2 x5186 +2 x5187 +2 x5188 -1 x4925 -1 x4926 -1 x4927 -1 x4928 -1 x4929 -1 x4930 -1 x4931 -1 x4932 >= 0 ;
+2 x5189 +2 x5190 +2 x5191 +2 x5192 -1 x4929 -1 x4930 -1 x4931 -1 x4932 -1 x4933 -1 x4934 -1 x4935 -1 x4936 >= 0 ;
+2 x5193 +2 x5194 +2 x5195 +2 x5196 -1 x4933 -1 x4934 -1 x4935 -1 x4936 -1 x4937 -1 x4938 -1 x4939 -1 x4940 >= 0 ;
+2 x5197 +2 x5198 +2 x5199 +2 x5200 -1 x4937 -1 x4938 -1 x4939 -1 x4940 -1 x4941 -1 x4942 -1 x4943 -1 x4944 >= 0 ;
+2 x5201 +2 x5202 +2 x5203 +2 x5204 -1 x4941 -1 x4942 -1 x4943 -1 x4944 -1 x4945 -1 x4946 -1 x4947 -1 x4948 >= 0 ;
+2 x5205 +2 x5206 +2 x5207 +2 x5208 -1 x4945 -1 x4946 -1 x4947 -1 x4948 -1 x4949 -1 x4950 -1 x4951 -1 x4952 >= 0 ;
+2 x5209 +2 x5210 +2 x5211 +2 x5212 -1 x4949 -1 x4950 -1 x4951 -1 x4952 -1 x4953 -1 x4954 -1 x4955 -1 x4956 >= 0 ;
+2 x5213 +2 x5214 +2 x5215 +2 x5216 -1 x4953 -1 x4954 -1 x4955 -1 x4956 -1 x4957 -1 x4958 -1 x4959 -1 x4960 >= 0 ;
+2 x5217 +2 x5218 +2 x5219 +2 x5220 -1 x4957 -1 x4958 -1 x4959 -1 x4960 -1 x4961 -1 x4962 -1 x4963 -1 x4964 >= 0 ;
+2 x5221 +2 x5222 +2 x5223 +2 x5224 -1 x4961 -1 x4962 -1 x4963 -1 x4964 -1 x4965 -1 x4966 -1 x4967 -1 x4968 >= 0 ;
+2 x5225 +2 x5226 +2 x5227 +2 x5228 -1 x4965 -1 x4966 -1 x4967 -1 x4968 -1 x4969 -1 x4970 -1 x4971 -1 x4972 >= 0 ;
+2 x5229 +2 x5230 +2 x5231 +2 x5232 -1 x4969 -1 x4970 -1 x4971 -1 x4972 -1 x4973 -1 x4974 -1 x4975 -1 x4976 >= 0 ;
+2 x5233 +2 x5234 +2 x5235 +2 x5236 -1 x4973 -1 x4974 -1 x4975 -1 x4976 -1 x4977 -1 x4978 -1 x4979 -1 x4980 >= 0 ;
+2 x5237 +2 x5238 +2 x5239 +2 x5240 -1 x4977 -1 x4978 -1 x4979 -1 x4980 -1 x4981 -1 x4982 -1 x4983 -1 x4984 >= 0 ;
+2 x5241 +2 x5242 +2 x5243 +2 x5244 -1 x4981 -1 x4982 -1 x4983 -1 x4984 -1 x4985 -1 x4986 -1 x4987 -1 x4988 >= 0 ;
+2 x5245 +2 x5246 +2 x5247 +2 x5248 -1 x4985 -1 x4986 -1 x4987 -1 x4988 -1 x4989 -1 x4990 -1 x4991 -1 x4992 >= 0 ;
+2 x5249 +2 x5250 +2 x5251 +2 x5252 -1 x4989 -1 x4990 -1 x4991 -1 x4992 -1 x4993 -1 x4994 -1 x4995 -1 x4996 >= 0 ;
+2 x5253 +2 x5254 +2 x5255 +2 x5256 -1 x4993 -1 x4994 -1 x4995 -1 x4996 -1 x4997 -1 x4998 -1 x4999 -1 x5000 >= 0 ;
+2 x5257 +2 x5258 +2 x5259 +2 x5260 -1 x4997 -1 x4998 -1 x4999 -1 x5000 -1 x5001 -1 x5002 -1 x5003 -1 x5004 >= 0 ;
+2 x5261 +2 x5262 +2 x5263 +2 x5264 -1 x5001 -1 x5002 -1 x5003 -1 x5004 -1 x5005 -1 x5006 -1 x5007 -1 x5008 >= 0 ;
+2 x5265 +2 x5266 +2 x5267 +2 x5268 -1 x5005 -1 x5006 -1 x5007 -1 x5008 -1 x5009 -1 x5010 -1 x5011 -1 x5012 >= 0 ;
+2 x5269 +2 x5270 +2 x5271 +2 x5272 -1 x5009 -1 x5010 -1 x5011 -1 x5012 -1 x5013 -1 x5014 -1 x5015 -1 x5016 >= 0 ;
+2 x5273 +2 x5274 +2 x5275 +2 x5276 -1 x5013 -1 x5014 -1 x5015 -1 x5016 -1 x5017 -1 x5018 -1 x5019 -1 x5020 >= 0 ;
+2 x5277 +2 x5278 +2 x5279 +2 x5280 -1 x5017 -1 x5018 -1 x5019 -1 x5020 -1 x5021 -1 x5022 -1 x5023 -1 x5024 >= 0 ;
+2 x5281 +2 x5282 +2 x5283 +2 x5284 -1 x5021 -1 x5022 -1 x5023 -1 x5024 -1 x5025 -1 x5026 -1 x5027 -1 x5028 >= 0 ;
+2 x5285 +2 x5286 +2 x5287 +2 x5288 -1 x5025 -1 x5026 -1 x5027 -1 x5028 -1 x5029 -1 x5030 -1 x5031 -1 x5032 >= 0 ;
+2 x5289 +2 x5290 +2 x5291 +2 x5292 -1 x5029 -1 x5030 -1 x5031 -1 x5032 -1 x5033 -1 x5034 -1 x5035 -1 x5036 >= 0 ;
+2 x5293 +2 x5294 +2 x5295 +2 x5296 -1 x5033 -1 x5034 -1 x5035 -1 x5036 -1 x5037 -1 x5038 -1 x5039 -1 x5040 >= 0 ;
+2 x5297 +2 x5298 +2 x5299 +2 x5300 -1 x5037 -1 x5038 -1 x5039 -1 x5040 -1 x5041 -1 x5042 -1 x5043 -1 x5044 >= 0 ;
+2 x5301 +2 x5302 +2 x5303 +2 x5304 -1 x5041 -1 x5042 -1 x5043 -1 x5044 -1 x5045 -1 x5046 -1 x5047 -1 x5048 >= 0 ;
+2 x5305 +2 x5306 +2 x5307 +2 x5308 -1 x5045 -1 x5046 -1 x5047 -1 x5048 -1 x5049 -1 x5050 -1 x5051 -1 x5052 >= 0 ;
+2 x5309 +2 x5310 +2 x5311 +2 x5312 -1 x5049 -1 x5050 -1 x5051 -1 x5052 -1 x5053 -1 x5054 -1 x5055 -1 x5056 >= 0 ;
+2 x5313 +2 x5314 +2 x5315 +2 x5316 -1 x5053 -1 x5054 -1 x5055 -1 x5056 -1 x5057 -1 x5058 -1 x5059 -1 x5060 >= 0 ;
+2 x5317 +2 x5318 +2 x5319 +2 x5320 -1 x5057 -1 x5058 -1 x5059 -1 x5060 -1 x5061 -1 x5062 -1 x5063 -1 x5064 >= 0 ;
+2 x5321 +2 x5322 +2 x5323 +2 x5324 -1 x5061 -1 x5062 -1 x5063 -1 x5064 -1 x5065 -1 x5066 -1 x5067 -1 x5068 >= 0 ;
+2 x5325 +2 x5326 +2 x5327 +2 x5328 -1 x5065 -1 x5066 -1 x5067 -1 x5068 -1 x5069 -1 x5070 -1 x5071 -1 x5072 >= 0 ;
+2 x5329 +2 x5330 +2 x5331 +2 x5332 -1 x5069 -1 x5070 -1 x5071 -1 x5072 -1 x5073 -1 x5074 -1 x5075 -1 x5076 >= 0 ;
+2 x5333 +2 x5334 +2 x5335 +2 x5336 -1 x5073 -1 x5074 -1 x5075 -1 x5076 -1 x5077 -1 x5078 -1 x5079 -1 x5080 >= 0 ;
+2 x5337 +2 x5338 +2 x5339 +2 x5340 -1 x5077 -1 x5078 -1 x5079 -1 x5080 -1 x5081 -1 x5082 -1 x5083 -1 x5084 >= 0 ;
+2 x5341 +2 x5342 +2 x5343 +2 x5344 -1 x5081 -1 x5082 -1 x5083 -1 x5084 -1 x5085 -1 x5086 -1 x5087 -1 x5088 >= 0 ;
+2 x5345 +2 x5346 +2 x5347 +2 x5348 -1 x5085 -1 x5086 -1 x5087 -1 x5088 -1 x5089 -1 x5090 -1 x5091 -1 x5092 >= 0 ;
+2 x5349 +2 x5350 +2 x5351 +2 x5352 -1 x5089 -1 x5090 -1 x5091 -1 x5092 -1 x5093 -1 x5094 -1 x5095 -1 x5096 >= 0 ;
+2 x5353 +2 x5354 +2 x5355 +2 x5356 -1 x5093 -1 x5094 -1 x5095 -1 x5096 -1 x5097 -1 x5098 -1 x5099 -1 x5100 >= 0 ;
+2 x5357 +2 x5358 +2 x5359 +2 x5360 -1 x5097 -1 x5098 -1 x5099 -1 x5100 -1 x5101 -1 x5102 -1 x5103 -1 x5104 >= 0 ;
+2 x5361 +2 x5362 +2 x5363 +2 x5364 -1 x5101 -1 x5102 -1 x5103 -1 x5104 -1 x5105 -1 x5106 -1 x5107 -1 x5108 >= 0 ;
+2 x5365 +2 x5366 +2 x5367 +2 x5368 -1 x5105 -1 x5106 -1 x5107 -1 x5108 -1 x5109 -1 x5110 -1 x5111 -1 x5112 >= 0 ;
+2 x5369 +2 x5370 +2 x5371 +2 x5372 -1 x5109 -1 x5110 -1 x5111 -1 x5112 -1 x5113 -1 x5114 -1 x5115 -1 x5116 >= 0 ;
+2 x5373 +2 x5374 +2 x5375 +2 x5376 -1 x5113 -1 x5114 -1 x5115 -1 x5116 -1 x5117 -1 x5118 -1 x5119 -1 x5120 >= 0 ;
+2 x5377 +2 x5378 +2 x5379 +2 x5380 -1 x5121 -1 x5122 -1 x5123 -1 x5124 -1 x5373 -1 x5374 -1 x5375 -1 x5376 >= 0 ;
+2 x5381 +2 x5382 +2 x5383 +2 x5384 -1 x5121 -1 x5122 -1 x5123 -1 x5124 -1 x5125 -1 x5126 -1 x5127 -1 x5128 >= 0 ;
+2 x5385 +2 x5386 +2 x5387 +2 x5388 -1 x5125 -1 x5126 -1 x5127 -1 x5128 -1 x5129 -1 x5130 -1 x5131 -1 x5132 >= 0 ;
+2 x5389 +2 x5390 +2 x5391 +2 x5392 -1 x5129 -1 x5130 -1 x5131 -1 x5132 -1 x5133 -1 x5134 -1 x5135 -1 x5136 >= 0 ;
+2 x5393 +2 x5394 +2 x5395 +2 x5396 -1 x5133 -1 x5134 -1 x5135 -1 x5136 -1 x5137 -1 x5138 -1 x5139 -1 x5140 >= 0 ;
+2 x5397 +2 x5398 +2 x5399 +2 x5400 -1 x5137 -1 x5138 -1 x5139 -1 x5140 -1 x5141 -1 x5142 -1 x5143 -1 x5144 >= 0 ;
+2 x5401 +2 x5402 +2 x5403 +2 x5404 -1 x5141 -1 x5142 -1 x5143 -1 x5144 -1 x5145 -1 x5146 -1 x5147 -1 x5148 >= 0 ;
+2 x5405 +2 x5406 +2 x5407 +2 x5408 -1 x5145 -1 x5146 -1 x5147 -1 x5148 -1 x5149 -1 x5150 -1 x5151 -1 x5152 >= 0 ;
+2 x5409 +2 x5410 +2 x5411 +2 x5412 -1 x5149 -1 x5150 -1 x5151 -1 x5152 -1 x5153 -1 x5154 -1 x5155 -1 x5156 >= 0 ;
+2 x5413 +2 x5414 +2 x5415 +2 x5416 -1 x5153 -1 x5154 -1 x5155 -1 x5156 -1 x5157 -1 x5158 -1 x5159 -1 x5160 >= 0 ;
+2 x5417 +2 x5418 +2 x5419 +2 x5420 -1 x5157 -1 x5158 -1 x5159 -1 x5160 -1 x5161 -1 x5162 -1 x5163 -1 x5164 >= 0 ;
+2 x5421 +2 x5422 +2 x5423 +2 x5424 -1 x5161 -1 x5162 -1 x5163 -1 x5164 -1 x5165 -1 x5166 -1 x5167 -1 x5168 >= 0 ;
+2 x5425 +2 x5426 +2 x5427 +2 x5428 -1 x5165 -1 x5166 -1 x5167 -1 x5168 -1 x5169 -1 x5170 -1 x5171 -1 x5172 >= 0 ;
+2 x5429 +2 x5430 +2 x5431 +2 x5432 -1 x5169 -1 x5170 -1 x5171 -1 x5172 -1 x5173 -1 x5174 -1 x5175 -1 x5176 >= 0 ;
+2 x5433 +2 x5434 +2 x5435 +2 x5436 -1 x5173 -1 x5174 -1 x5175 -1 x5176 -1 x5177 -1 x5178 -1 x5179 -1 x5180 >= 0 ;
+2 x5437 +2 x5438 +2 x5439 +2 x5440 -1 x5177 -1 x5178 -1 x5179 -1 x5180 -1 x5181 -1 x5182 -1 x5183 -1 x5184 >= 0 ;
+2 x5441 +2 x5442 +2 x5443 +2 x5444 -1 x5181 -1 x5182 -1 x5183 -1 x5184 -1 x5185 -1 x5186 -1 x5187 -1 x5188 >= 0 ;
+2 x5445 +2 x5446 +2 x5447 +2 x5448 -1 x5185 -1 x5186 -1 x5187 -1 x5188 -1 x5189 -1 x5190 -1 x5191 -1 x5192 >= 0 ;
+2 x5449 +2 x5450 +2 x5451 +2 x5452 -1 x5189 -1 x5190 -1 x5191 -1 x5192 -1 x5193 -1 x5194 -1 x5195 -1 x5196 >= 0 ;
+2 x5453 +2 x5454 +2 x5455 +2 x5456 -1 x5193 -1 x5194 -1 x5195 -1 x5196 -1 x5197 -1 x5198 -1 x5199 -1 x5200 >= 0 ;
+2 x5457 +2 x5458 +2 x5459 +2 x5460 -1 x5197 -1 x5198 -1 x5199 -1 x5200 -1 x5201 -1 x5202 -1 x5203 -1 x5204 >= 0 ;
+2 x5461 +2 x5462 +2 x5463 +2 x5464 -1 x5201 -1 x5202 -1 x5203 -1 x5204 -1 x5205 -1 x5206 -1 x5207 -1 x5208 >= 0 ;
+2 x5465 +2 x5466 +2 x5467 +2 x5468 -1 x5205 -1 x5206 -1 x5207 -1 x5208 -1 x5209 -1 x5210 -1 x5211 -1 x5212 >= 0 ;
+2 x5469 +2 x5470 +2 x5471 +2 x5472 -1 x5209 -1 x5210 -1 x5211 -1 x5212 -1 x5213 -1 x5214 -1 x5215 -1 x5216 >= 0 ;
+2 x5473 +2 x5474 +2 x5475 +2 x5476 -1 x5213 -1 x5214 -1 x5215 -1 x5216 -1 x5217 -1 x5218 -1 x5219 -1 x5220 >= 0 ;
+2 x5477 +2 x5478 +2 x5479 +2 x5480 -1 x5217 -1 x5218 -1 x5219 -1 x5220 -1 x5221 -1 x5222 -1 x5223 -1 x5224 >= 0 ;
+2 x5481 +2 x5482 +2 x5483 +2 x5484 -1 x5221 -1 x5222 -1 x5223 -1 x5224 -1 x5225 -1 x5226 -1 x5227 -1 x5228 >= 0 ;
+2 x5485 +2 x5486 +2 x5487 +2 x5488 -1 x5225 -1 x5226 -1 x5227 -1 x5228 -1 x5229 -1 x5230 -1 x5231 -1 x5232 >= 0 ;
+2 x5489 +2 x5490 +2 x5491 +2 x5492 -1 x5229 -1 x5230 -1 x5231 -1 x5232 -1 x5233 -1 x5234 -1 x5235 -1 x5236 >= 0 ;
+2 x5493 +2 x5494 +2 x5495 +2 x5496 -1 x5233 -1 x5234 -1 x5235 -1 x5236 -1 x5237 -1 x5238 -1 x5239 -1 x5240 >= 0 ;
+2 x5497 +2 x5498 +2 x5499 +2 x5500 -1 x5237 -1 x5238 -1 x5239 -1 x5240 -1 x5241 -1 x5242 -1 x5243 -1 x5244 >= 0 ;
+2 x5501 +2 x5502 +2 x5503 +2 x5504 -1 x5241 -1 x5242 -1 x5243 -1 x5244 -1 x5245 -1 x5246 -1 x5247 -1 x5248 >= 0 ;
+2 x5505 +2 x5506 +2 x5507 +2 x5508 -1 x5245 -1 x5246 -1 x5247 -1 x5248 -1 x5249 -1 x5250 -1 x5251 -1 x5252 >= 0 ;
+2 x5509 +2 x5510 +2 x5511 +2 x5512 -1 x5249 -1 x5250 -1 x5251 -1 x5252 -1 x5253 -1 x5254 -1 x5255 -1 x5256 >= 0 ;
+2 x5513 +2 x5514 +2 x5515 +2 x5516 -1 x5253 -1 x5254 -1 x5255 -1 x5256 -1 x5257 -1 x5258 -1 x5259 -1 x5260 >= 0 ;
+2 x5517 +2 x5518 +2 x5519 +2 x5520 -1 x5257 -1 x5258 -1 x5259 -1 x5260 -1 x5261 -1 x5262 -1 x5263 -1 x5264 >= 0 ;
+2 x5521 +2 x5522 +2 x5523 +2 x5524 -1 x5261 -1 x5262 -1 x5263 -1 x5264 -1 x5265 -1 x5266 -1 x5267 -1 x5268 >= 0 ;
+2 x5525 +2 x5526 +2 x5527 +2 x5528 -1 x5265 -1 x5266 -1 x5267 -1 x5268 -1 x5269 -1 x5270 -1 x5271 -1 x5272 >= 0 ;
+2 x5529 +2 x5530 +2 x5531 +2 x5532 -1 x5269 -1 x5270 -1 x5271 -1 x5272 -1 x5273 -1 x5274 -1 x5275 -1 x5276 >= 0 ;
+2 x5533 +2 x5534 +2 x5535 +2 x5536 -1 x5273 -1 x5274 -1 x5275 -1 x5276 -1 x5277 -1 x5278 -1 x5279 -1 x5280 >= 0 ;
+2 x5537 +2 x5538 +2 x5539 +2 x5540 -1 x5277 -1 x5278 -1 x5279 -1 x5280 -1 x5281 -1 x5282 -1 x5283 -1 x5284 >= 0 ;
+2 x5541 +2 x5542 +2 x5543 +2 x5544 -1 x5281 -1 x5282 -1 x5283 -1 x5284 -1 x5285 -1 x5286 -1 x5287 -1 x5288 >= 0 ;
+2 x5545 +2 x5546 +2 x5547 +2 x5548 -1 x5285 -1 x5286 -1 x5287 -1 x5288 -1 x5289 -1 x5290 -1 x5291 -1 x5292 >= 0 ;
+2 x5549 +2 x5550 +2 x5551 +2 x5552 -1 x5289 -1 x5290 -1 x5291 -1 x5292 -1 x5293 -1 x5294 -1 x5295 -1 x5296 >= 0 ;
+2 x5553 +2 x5554 +2 x5555 +2 x5556 -1 x5293 -1 x5294 -1 x5295 -1 x5296 -1 x5297 -1 x5298 -1 x5299 -1 x5300 >= 0 ;
+2 x5557 +2 x5558 +2 x5559 +2 x5560 -1 x5297 -1 x5298 -1 x5299 -1 x5300 -1 x5301 -1 x5302 -1 x5303 -1 x5304 >= 0 ;
+2 x5561 +2 x5562 +2 x5563 +2 x5564 -1 x5301 -1 x5302 -1 x5303 -1 x5304 -1 x5305 -1 x5306 -1 x5307 -1 x5308 >= 0 ;
+2 x5565 +2 x5566 +2 x5567 +2 x5568 -1 x5305 -1 x5306 -1 x5307 -1 x5308 -1 x5309 -1 x5310 -1 x5311 -1 x5312 >= 0 ;
+2 x5569 +2 x5570 +2 x5571 +2 x5572 -1 x5309 -1 x5310 -1 x5311 -1 x5312 -1 x5313 -1 x5314 -1 x5315 -1 x5316 >= 0 ;
+2 x5573 +2 x5574 +2 x5575 +2 x5576 -1 x5313 -1 x5314 -1 x5315 -1 x5316 -1 x5317 -1 x5318 -1 x5319 -1 x5320 >= 0 ;
+2 x5577 +2 x5578 +2 x5579 +2 x5580 -1 x5317 -1 x5318 -1 x5319 -1 x5320 -1 x5321 -1 x5322 -1 x5323 -1 x5324 >= 0 ;
+2 x5581 +2 x5582 +2 x5583 +2 x5584 -1 x5321 -1 x5322 -1 x5323 -1 x5324 -1 x5325 -1 x5326 -1 x5327 -1 x5328 >= 0 ;
+2 x5585 +2 x5586 +2 x5587 +2 x5588 -1 x5325 -1 x5326 -1 x5327 -1 x5328 -1 x5329 -1 x5330 -1 x5331 -1 x5332 >= 0 ;
+2 x5589 +2 x5590 +2 x5591 +2 x5592 -1 x5329 -1 x5330 -1 x5331 -1 x5332 -1 x5333 -1 x5334 -1 x5335 -1 x5336 >= 0 ;
+2 x5593 +2 x5594 +2 x5595 +2 x5596 -1 x5333 -1 x5334 -1 x5335 -1 x5336 -1 x5337 -1 x5338 -1 x5339 -1 x5340 >= 0 ;
+2 x5597 +2 x5598 +2 x5599 +2 x5600 -1 x5337 -1 x5338 -1 x5339 -1 x5340 -1 x5341 -1 x5342 -1 x5343 -1 x5344 >= 0 ;
+2 x5601 +2 x5602 +2 x5603 +2 x5604 -1 x5341 -1 x5342 -1 x5343 -1 x5344 -1 x5345 -1 x5346 -1 x5347 -1 x5348 >= 0 ;
+2 x5605 +2 x5606 +2 x5607 +2 x5608 -1 x5345 -1 x5346 -1 x5347 -1 x5348 -1 x5349 -1 x5350 -1 x5351 -1 x5352 >= 0 ;
+2 x5609 +2 x5610 +2 x5611 +2 x5612 -1 x5349 -1 x5350 -1 x5351 -1 x5352 -1 x5353 -1 x5354 -1 x5355 -1 x5356 >= 0 ;
+2 x5613 +2 x5614 +2 x5615 +2 x5616 -1 x5353 -1 x5354 -1 x5355 -1 x5356 -1 x5357 -1 x5358 -1 x5359 -1 x5360 >= 0 ;
+2 x5617 +2 x5618 +2 x5619 +2 x5620 -1 x5357 -1 x5358 -1 x5359 -1 x5360 -1 x5361 -1 x5362 -1 x5363 -1 x5364 >= 0 ;
+2 x5621 +2 x5622 +2 x5623 +2 x5624 -1 x5361 -1 x5362 -1 x5363 -1 x5364 -1 x5365 -1 x5366 -1 x5367 -1 x5368 >= 0 ;
+2 x5625 +2 x5626 +2 x5627 +2 x5628 -1 x5365 -1 x5366 -1 x5367 -1 x5368 -1 x5369 -1 x5370 -1 x5371 -1 x5372 >= 0 ;
+2 x5629 +2 x5630 +2 x5631 +2 x5632 -1 x5369 -1 x5370 -1 x5371 -1 x5372 -1 x5373 -1 x5374 -1 x5375 -1 x5376 >= 0 ;
+2 x5633 +2 x5634 +2 x5635 +2 x5636 -1 x5377 -1 x5378 -1 x5379 -1 x5380 -1 x5629 -1 x5630 -1 x5631 -1 x5632 >= 0 ;
+2 x5637 +2 x5638 +2 x5639 +2 x5640 -1 x5377 -1 x5378 -1 x5379 -1 x5380 -1 x5381 -1 x5382 -1 x5383 -1 x5384 >= 0 ;
+2 x5641 +2 x5642 +2 x5643 +2 x5644 -1 x5381 -1 x5382 -1 x5383 -1 x5384 -1 x5385 -1 x5386 -1 x5387 -1 x5388 >= 0 ;
+2 x5645 +2 x5646 +2 x5647 +2 x5648 -1 x5385 -1 x5386 -1 x5387 -1 x5388 -1 x5389 -1 x5390 -1 x5391 -1 x5392 >= 0 ;
+2 x5649 +2 x5650 +2 x5651 +2 x5652 -1 x5389 -1 x5390 -1 x5391 -1 x5392 -1 x5393 -1 x5394 -1 x5395 -1 x5396 >= 0 ;
+2 x5653 +2 x5654 +2 x5655 +2 x5656 -1 x5393 -1 x5394 -1 x5395 -1 x5396 -1 x5397 -1 x5398 -1 x5399 -1 x5400 >= 0 ;
+2 x5657 +2 x5658 +2 x5659 +2 x5660 -1 x5397 -1 x5398 -1 x5399 -1 x5400 -1 x5401 -1 x5402 -1 x5403 -1 x5404 >= 0 ;
+2 x5661 +2 x5662 +2 x5663 +2 x5664 -1 x5401 -1 x5402 -1 x5403 -1 x5404 -1 x5405 -1 x5406 -1 x5407 -1 x5408 >= 0 ;
+2 x5665 +2 x5666 +2 x5667 +2 x5668 -1 x5405 -1 x5406 -1 x5407 -1 x5408 -1 x5409 -1 x5410 -1 x5411 -1 x5412 >= 0 ;
+2 x5669 +2 x5670 +2 x5671 +2 x5672 -1 x5409 -1 x5410 -1 x5411 -1 x5412 -1 x5413 -1 x5414 -1 x5415 -1 x5416 >= 0 ;
+2 x5673 +2 x5674 +2 x5675 +2 x5676 -1 x5413 -1 x5414 -1 x5415 -1 x5416 -1 x5417 -1 x5418 -1 x5419 -1 x5420 >= 0 ;
+2 x5677 +2 x5678 +2 x5679 +2 x5680 -1 x5417 -1 x5418 -1 x5419 -1 x5420 -1 x5421 -1 x5422 -1 x5423 -1 x5424 >= 0 ;
+2 x5681 +2 x5682 +2 x5683 +2 x5684 -1 x5421 -1 x5422 -1 x5423 -1 x5424 -1 x5425 -1 x5426 -1 x5427 -1 x5428 >= 0 ;
+2 x5685 +2 x5686 +2 x5687 +2 x5688 -1 x5425 -1 x5426 -1 x5427 -1 x5428 -1 x5429 -1 x5430 -1 x5431 -1 x5432 >= 0 ;
+2 x5689 +2 x5690 +2 x5691 +2 x5692 -1 x5429 -1 x5430 -1 x5431 -1 x5432 -1 x5433 -1 x5434 -1 x5435 -1 x5436 >= 0 ;
+2 x5693 +2 x5694 +2 x5695 +2 x5696 -1 x5433 -1 x5434 -1 x5435 -1 x5436 -1 x5437 -1 x5438 -1 x5439 -1 x5440 >= 0 ;
+2 x5697 +2 x5698 +2 x5699 +2 x5700 -1 x5437 -1 x5438 -1 x5439 -1 x5440 -1 x5441 -1 x5442 -1 x5443 -1 x5444 >= 0 ;
+2 x5701 +2 x5702 +2 x5703 +2 x5704 -1 x5441 -1 x5442 -1 x5443 -1 x5444 -1 x5445 -1 x5446 -1 x5447 -1 x5448 >= 0 ;
+2 x5705 +2 x5706 +2 x5707 +2 x5708 -1 x5445 -1 x5446 -1 x5447 -1 x5448 -1 x5449 -1 x5450 -1 x5451 -1 x5452 >= 0 ;
+2 x5709 +2 x5710 +2 x5711 +2 x5712 -1 x5449 -1 x5450 -1 x5451 -1 x5452 -1 x5453 -1 x5454 -1 x5455 -1 x5456 >= 0 ;
+2 x5713 +2 x5714 +2 x5715 +2 x5716 -1 x5453 -1 x5454 -1 x5455 -1 x5456 -1 x5457 -1 x5458 -1 x5459 -1 x5460 >= 0 ;
+2 x5717 +2 x5718 +2 x5719 +2 x5720 -1 x5457 -1 x5458 -1 x5459 -1 x5460 -1 x5461 -1 x5462 -1 x5463 -1 x5464 >= 0 ;
+2 x5721 +2 x5722 +2 x5723 +2 x5724 -1 x5461 -1 x5462 -1 x5463 -1 x5464 -1 x5465 -1 x5466 -1 x5467 -1 x5468 >= 0 ;
+2 x5725 +2 x5726 +2 x5727 +2 x5728 -1 x5465 -1 x5466 -1 x5467 -1 x5468 -1 x5469 -1 x5470 -1 x5471 -1 x5472 >= 0 ;
+2 x5729 +2 x5730 +2 x5731 +2 x5732 -1 x5469 -1 x5470 -1 x5471 -1 x5472 -1 x5473 -1 x5474 -1 x5475 -1 x5476 >= 0 ;
+2 x5733 +2 x5734 +2 x5735 +2 x5736 -1 x5473 -1 x5474 -1 x5475 -1 x5476 -1 x5477 -1 x5478 -1 x5479 -1 x5480 >= 0 ;
+2 x5737 +2 x5738 +2 x5739 +2 x5740 -1 x5477 -1 x5478 -1 x5479 -1 x5480 -1 x5481 -1 x5482 -1 x5483 -1 x5484 >= 0 ;
+2 x5741 +2 x5742 +2 x5743 +2 x5744 -1 x5481 -1 x5482 -1 x5483 -1 x5484 -1 x5485 -1 x5486 -1 x5487 -1 x5488 >= 0 ;
+2 x5745 +2 x5746 +2 x5747 +2 x5748 -1 x5485 -1 x5486 -1 x5487 -1 x5488 -1 x5489 -1 x5490 -1 x5491 -1 x5492 >= 0 ;
+2 x5749 +2 x5750 +2 x5751 +2 x5752 -1 x5489 -1 x5490 -1 x5491 -1 x5492 -1 x5493 -1 x5494 -1 x5495 -1 x5496 >= 0 ;
+2 x5753 +2 x5754 +2 x5755 +2 x5756 -1 x5493 -1 x5494 -1 x5495 -1 x5496 -1 x5497 -1 x5498 -1 x5499 -1 x5500 >= 0 ;
+2 x5757 +2 x5758 +2 x5759 +2 x5760 -1 x5497 -1 x5498 -1 x5499 -1 x5500 -1 x5501 -1 x5502 -1 x5503 -1 x5504 >= 0 ;
+2 x5761 +2 x5762 +2 x5763 +2 x5764 -1 x5501 -1 x5502 -1 x5503 -1 x5504 -1 x5505 -1 x5506 -1 x5507 -1 x5508 >= 0 ;
+2 x5765 +2 x5766 +2 x5767 +2 x5768 -1 x5505 -1 x5506 -1 x5507 -1 x5508 -1 x5509 -1 x5510 -1 x5511 -1 x5512 >= 0 ;
+2 x5769 +2 x5770 +2 x5771 +2 x5772 -1 x5509 -1 x5510 -1 x5511 -1 x5512 -1 x5513 -1 x5514 -1 x5515 -1 x5516 >= 0 ;
+2 x5773 +2 x5774 +2 x5775 +2 x5776 -1 x5513 -1 x5514 -1 x5515 -1 x5516 -1 x5517 -1 x5518 -1 x5519 -1 x5520 >= 0 ;
+2 x5777 +2 x5778 +2 x5779 +2 x5780 -1 x5517 -1 x5518 -1 x5519 -1 x5520 -1 x5521 -1 x5522 -1 x5523 -1 x5524 >= 0 ;
+2 x5781 +2 x5782 +2 x5783 +2 x5784 -1 x5521 -1 x5522 -1 x5523 -1 x5524 -1 x5525 -1 x5526 -1 x5527 -1 x5528 >= 0 ;
+2 x5785 +2 x5786 +2 x5787 +2 x5788 -1 x5525 -1 x5526 -1 x5527 -1 x5528 -1 x5529 -1 x5530 -1 x5531 -1 x5532 >= 0 ;
+2 x5789 +2 x5790 +2 x5791 +2 x5792 -1 x5529 -1 x5530 -1 x5531 -1 x5532 -1 x5533 -1 x5534 -1 x5535 -1 x5536 >= 0 ;
+2 x5793 +2 x5794 +2 x5795 +2 x5796 -1 x5533 -1 x5534 -1 x5535 -1 x5536 -1 x5537 -1 x5538 -1 x5539 -1 x5540 >= 0 ;
+2 x5797 +2 x5798 +2 x5799 +2 x5800 -1 x5537 -1 x5538 -1 x5539 -1 x5540 -1 x5541 -1 x5542 -1 x5543 -1 x5544 >= 0 ;
+2 x5801 +2 x5802 +2 x5803 +2 x5804 -1 x5541 -1 x5542 -1 x5543 -1 x5544 -1 x5545 -1 x5546 -1 x5547 -1 x5548 >= 0 ;
+2 x5805 +2 x5806 +2 x5807 +2 x5808 -1 x5545 -1 x5546 -1 x5547 -1 x5548 -1 x5549 -1 x5550 -1 x5551 -1 x5552 >= 0 ;
+2 x5809 +2 x5810 +2 x5811 +2 x5812 -1 x5549 -1 x5550 -1 x5551 -1 x5552 -1 x5553 -1 x5554 -1 x5555 -1 x5556 >= 0 ;
+2 x5813 +2 x5814 +2 x5815 +2 x5816 -1 x5553 -1 x5554 -1 x5555 -1 x5556 -1 x5557 -1 x5558 -1 x5559 -1 x5560 >= 0 ;
+2 x5817 +2 x5818 +2 x5819 +2 x5820 -1 x5557 -1 x5558 -1 x5559 -1 x5560 -1 x5561 -1 x5562 -1 x5563 -1 x5564 >= 0 ;
+2 x5821 +2 x5822 +2 x5823 +2 x5824 -1 x5561 -1 x5562 -1 x5563 -1 x5564 -1 x5565 -1 x5566 -1 x5567 -1 x5568 >= 0 ;
+2 x5825 +2 x5826 +2 x5827 +2 x5828 -1 x5565 -1 x5566 -1 x5567 -1 x5568 -1 x5569 -1 x5570 -1 x5571 -1 x5572 >= 0 ;
+2 x5829 +2 x5830 +2 x5831 +2 x5832 -1 x5569 -1 x5570 -1 x5571 -1 x5572 -1 x5573 -1 x5574 -1 x5575 -1 x5576 >= 0 ;
+2 x5833 +2 x5834 +2 x5835 +2 x5836 -1 x5573 -1 x5574 -1 x5575 -1 x5576 -1 x5577 -1 x5578 -1 x5579 -1 x5580 >= 0 ;
+2 x5837 +2 x5838 +2 x5839 +2 x5840 -1 x5577 -1 x5578 -1 x5579 -1 x5580 -1 x5581 -1 x5582 -1 x5583 -1 x5584 >= 0 ;
+2 x5841 +2 x5842 +2 x5843 +2 x5844 -1 x5581 -1 x5582 -1 x5583 -1 x5584 -1 x5585 -1 x5586 -1 x5587 -1 x5588 >= 0 ;
+2 x5845 +2 x5846 +2 x5847 +2 x5848 -1 x5585 -1 x5586 -1 x5587 -1 x5588 -1 x5589 -1 x5590 -1 x5591 -1 x5592 >= 0 ;
+2 x5849 +2 x5850 +2 x5851 +2 x5852 -1 x5589 -1 x5590 -1 x5591 -1 x5592 -1 x5593 -1 x5594 -1 x5595 -1 x5596 >= 0 ;
+2 x5853 +2 x5854 +2 x5855 +2 x5856 -1 x5593 -1 x5594 -1 x5595 -1 x5596 -1 x5597 -1 x5598 -1 x5599 -1 x5600 >= 0 ;
+2 x5857 +2 x5858 +2 x5859 +2 x5860 -1 x5597 -1 x5598 -1 x5599 -1 x5600 -1 x5601 -1 x5602 -1 x5603 -1 x5604 >= 0 ;
+2 x5861 +2 x5862 +2 x5863 +2 x5864 -1 x5601 -1 x5602 -1 x5603 -1 x5604 -1 x5605 -1 x5606 -1 x5607 -1 x5608 >= 0 ;
+2 x5865 +2 x5866 +2 x5867 +2 x5868 -1 x5605 -1 x5606 -1 x5607 -1 x5608 -1 x5609 -1 x5610 -1 x5611 -1 x5612 >= 0 ;
+2 x5869 +2 x5870 +2 x5871 +2 x5872 -1 x5609 -1 x5610 -1 x5611 -1 x5612 -1 x5613 -1 x5614 -1 x5615 -1 x5616 >= 0 ;
+2 x5873 +2 x5874 +2 x5875 +2 x5876 -1 x5613 -1 x5614 -1 x5615 -1 x5616 -1 x5617 -1 x5618 -1 x5619 -1 x5620 >= 0 ;
+2 x5877 +2 x5878 +2 x5879 +2 x5880 -1 x5617 -1 x5618 -1 x5619 -1 x5620 -1 x5621 -1 x5622 -1 x5623 -1 x5624 >= 0 ;
+2 x5881 +2 x5882 +2 x5883 +2 x5884 -1 x5621 -1 x5622 -1 x5623 -1 x5624 -1 x5625 -1 x5626 -1 x5627 -1 x5628 >= 0 ;
+2 x5885 +2 x5886 +2 x5887 +2 x5888 -1 x5625 -1 x5626 -1 x5627 -1 x5628 -1 x5629 -1 x5630 -1 x5631 -1 x5632 >= 0 ;
+2 x5889 +2 x5890 +2 x5891 +2 x5892 -1 x5633 -1 x5634 -1 x5635 -1 x5636 -1 x5885 -1 x5886 -1 x5887 -1 x5888 >= 0 ;
+2 x5893 +2 x5894 +2 x5895 +2 x5896 -1 x5633 -1 x5634 -1 x5635 -1 x5636 -1 x5637 -1 x5638 -1 x5639 -1 x5640 >= 0 ;
+2 x5897 +2 x5898 +2 x5899 +2 x5900 -1 x5637 -1 x5638 -1 x5639 -1 x5640 -1 x5641 -1 x5642 -1 x5643 -1 x5644 >= 0 ;
+2 x5901 +2 x5902 +2 x5903 +2 x5904 -1 x5641 -1 x5642 -1 x5643 -1 x5644 -1 x5645 -1 x5646 -1 x5647 -1 x5648 >= 0 ;
+2 x5905 +2 x5906 +2 x5907 +2 x5908 -1 x5645 -1 x5646 -1 x5647 -1 x5648 -1 x5649 -1 x5650 -1 x5651 -1 x5652 >= 0 ;
+2 x5909 +2 x5910 +2 x5911 +2 x5912 -1 x5649 -1 x5650 -1 x5651 -1 x5652 -1 x5653 -1 x5654 -1 x5655 -1 x5656 >= 0 ;
+2 x5913 +2 x5914 +2 x5915 +2 x5916 -1 x5653 -1 x5654 -1 x5655 -1 x5656 -1 x5657 -1 x5658 -1 x5659 -1 x5660 >= 0 ;
+2 x5917 +2 x5918 +2 x5919 +2 x5920 -1 x5657 -1 x5658 -1 x5659 -1 x5660 -1 x5661 -1 x5662 -1 x5663 -1 x5664 >= 0 ;
+2 x5921 +2 x5922 +2 x5923 +2 x5924 -1 x5661 -1 x5662 -1 x5663 -1 x5664 -1 x5665 -1 x5666 -1 x5667 -1 x5668 >= 0 ;
+2 x5925 +2 x5926 +2 x5927 +2 x5928 -1 x5665 -1 x5666 -1 x5667 -1 x5668 -1 x5669 -1 x5670 -1 x5671 -1 x5672 >= 0 ;
+2 x5929 +2 x5930 +2 x5931 +2 x5932 -1 x5669 -1 x5670 -1 x5671 -1 x5672 -1 x5673 -1 x5674 -1 x5675 -1 x5676 >= 0 ;
+2 x5933 +2 x5934 +2 x5935 +2 x5936 -1 x5673 -1 x5674 -1 x5675 -1 x5676 -1 x5677 -1 x5678 -1 x5679 -1 x5680 >= 0 ;
+2 x5937 +2 x5938 +2 x5939 +2 x5940 -1 x5677 -1 x5678 -1 x5679 -1 x5680 -1 x5681 -1 x5682 -1 x5683 -1 x5684 >= 0 ;
+2 x5941 +2 x5942 +2 x5943 +2 x5944 -1 x5681 -1 x5682 -1 x5683 -1 x5684 -1 x5685 -1 x5686 -1 x5687 -1 x5688 >= 0 ;
+2 x5945 +2 x5946 +2 x5947 +2 x5948 -1 x5685 -1 x5686 -1 x5687 -1 x5688 -1 x5689 -1 x5690 -1 x5691 -1 x5692 >= 0 ;
+2 x5949 +2 x5950 +2 x5951 +2 x5952 -1 x5689 -1 x5690 -1 x5691 -1 x5692 -1 x5693 -1 x5694 -1 x5695 -1 x5696 >= 0 ;
+2 x5953 +2 x5954 +2 x5955 +2 x5956 -1 x5693 -1 x5694 -1 x5695 -1 x5696 -1 x5697 -1 x5698 -1 x5699 -1 x5700 >= 0 ;
+2 x5957 +2 x5958 +2 x5959 +2 x5960 -1 x5697 -1 x5698 -1 x5699 -1 x5700 -1 x5701 -1 x5702 -1 x5703 -1 x5704 >= 0 ;
+2 x5961 +2 x5962 +2 x5963 +2 x5964 -1 x5701 -1 x5702 -1 x5703 -1 x5704 -1 x5705 -1 x5706 -1 x5707 -1 x5708 >= 0 ;
+2 x5965 +2 x5966 +2 x5967 +2 x5968 -1 x5705 -1 x5706 -1 x5707 -1 x5708 -1 x5709 -1 x5710 -1 x5711 -1 x5712 >= 0 ;
+2 x5969 +2 x5970 +2 x5971 +2 x5972 -1 x5709 -1 x5710 -1 x5711 -1 x5712 -1 x5713 -1 x5714 -1 x5715 -1 x5716 >= 0 ;
+2 x5973 +2 x5974 +2 x5975 +2 x5976 -1 x5713 -1 x5714 -1 x5715 -1 x5716 -1 x5717 -1 x5718 -1 x5719 -1 x5720 >= 0 ;
+2 x5977 +2 x5978 +2 x5979 +2 x5980 -1 x5717 -1 x5718 -1 x5719 -1 x5720 -1 x5721 -1 x5722 -1 x5723 -1 x5724 >= 0 ;
+2 x5981 +2 x5982 +2 x5983 +2 x5984 -1 x5721 -1 x5722 -1 x5723 -1 x5724 -1 x5725 -1 x5726 -1 x5727 -1 x5728 >= 0 ;
+2 x5985 +2 x5986 +2 x5987 +2 x5988 -1 x5725 -1 x5726 -1 x5727 -1 x5728 -1 x5729 -1 x5730 -1 x5731 -1 x5732 >= 0 ;
+2 x5989 +2 x5990 +2 x5991 +2 x5992 -1 x5729 -1 x5730 -1 x5731 -1 x5732 -1 x5733 -1 x5734 -1 x5735 -1 x5736 >= 0 ;
+2 x5993 +2 x5994 +2 x5995 +2 x5996 -1 x5733 -1 x5734 -1 x5735 -1 x5736 -1 x5737 -1 x5738 -1 x5739 -1 x5740 >= 0 ;
+2 x5997 +2 x5998 +2 x5999 +2 x6000 -1 x5737 -1 x5738 -1 x5739 -1 x5740 -1 x5741 -1 x5742 -1 x5743 -1 x5744 >= 0 ;
+2 x6001 +2 x6002 +2 x6003 +2 x6004 -1 x5741 -1 x5742 -1 x5743 -1 x5744 -1 x5745 -1 x5746 -1 x5747 -1 x5748 >= 0 ;
+2 x6005 +2 x6006 +2 x6007 +2 x6008 -1 x5745 -1 x5746 -1 x5747 -1 x5748 -1 x5749 -1 x5750 -1 x5751 -1 x5752 >= 0 ;
+2 x6009 +2 x6010 +2 x6011 +2 x6012 -1 x5749 -1 x5750 -1 x5751 -1 x5752 -1 x5753 -1 x5754 -1 x5755 -1 x5756 >= 0 ;
+2 x6013 +2 x6014 +2 x6015 +2 x6016 -1 x5753 -1 x5754 -1 x5755 -1 x5756 -1 x5757 -1 x5758 -1 x5759 -1 x5760 >= 0 ;
+2 x6017 +2 x6018 +2 x6019 +2 x6020 -1 x5757 -1 x5758 -1 x5759 -1 x5760 -1 x5761 -1 x5762 -1 x5763 -1 x5764 >= 0 ;
+2 x6021 +2 x6022 +2 x6023 +2 x6024 -1 x5761 -1 x5762 -1 x5763 -1 x5764 -1 x5765 -1 x5766 -1 x5767 -1 x5768 >= 0 ;
+2 x6025 +2 x6026 +2 x6027 +2 x6028 -1 x5765 -1 x5766 -1 x5767 -1 x5768 -1 x5769 -1 x5770 -1 x5771 -1 x5772 >= 0 ;
+2 x6029 +2 x6030 +2 x6031 +2 x6032 -1 x5769 -1 x5770 -1 x5771 -1 x5772 -1 x5773 -1 x5774 -1 x5775 -1 x5776 >= 0 ;
+2 x6033 +2 x6034 +2 x6035 +2 x6036 -1 x5773 -1 x5774 -1 x5775 -1 x5776 -1 x5777 -1 x5778 -1 x5779 -1 x5780 >= 0 ;
+2 x6037 +2 x6038 +2 x6039 +2 x6040 -1 x5777 -1 x5778 -1 x5779 -1 x5780 -1 x5781 -1 x5782 -1 x5783 -1 x5784 >= 0 ;
+2 x6041 +2 x6042 +2 x6043 +2 x6044 -1 x5781 -1 x5782 -1 x5783 -1 x5784 -1 x5785 -1 x5786 -1 x5787 -1 x5788 >= 0 ;
+2 x6045 +2 x6046 +2 x6047 +2 x6048 -1 x5785 -1 x5786 -1 x5787 -1 x5788 -1 x5789 -1 x5790 -1 x5791 -1 x5792 >= 0 ;
+2 x6049 +2 x6050 +2 x6051 +2 x6052 -1 x5789 -1 x5790 -1 x5791 -1 x5792 -1 x5793 -1 x5794 -1 x5795 -1 x5796 >= 0 ;
+2 x6053 +2 x6054 +2 x6055 +2 x6056 -1 x5793 -1 x5794 -1 x5795 -1 x5796 -1 x5797 -1 x5798 -1 x5799 -1 x5800 >= 0 ;
+2 x6057 +2 x6058 +2 x6059 +2 x6060 -1 x5797 -1 x5798 -1 x5799 -1 x5800 -1 x5801 -1 x5802 -1 x5803 -1 x5804 >= 0 ;
+2 x6061 +2 x6062 +2 x6063 +2 x6064 -1 x5801 -1 x5802 -1 x5803 -1 x5804 -1 x5805 -1 x5806 -1 x5807 -1 x5808 >= 0 ;
+2 x6065 +2 x6066 +2 x6067 +2 x6068 -1 x5805 -1 x5806 -1 x5807 -1 x5808 -1 x5809 -1 x5810 -1 x5811 -1 x5812 >= 0 ;
+2 x6069 +2 x6070 +2 x6071 +2 x6072 -1 x5809 -1 x5810 -1 x5811 -1 x5812 -1 x5813 -1 x5814 -1 x5815 -1 x5816 >= 0 ;
+2 x6073 +2 x6074 +2 x6075 +2 x6076 -1 x5813 -1 x5814 -1 x5815 -1 x5816 -1 x5817 -1 x5818 -1 x5819 -1 x5820 >= 0 ;
+2 x6077 +2 x6078 +2 x6079 +2 x6080 -1 x5817 -1 x5818 -1 x5819 -1 x5820 -1 x5821 -1 x5822 -1 x5823 -1 x5824 >= 0 ;
+2 x6081 +2 x6082 +2 x6083 +2 x6084 -1 x5821 -1 x5822 -1 x5823 -1 x5824 -1 x5825 -1 x5826 -1 x5827 -1 x5828 >= 0 ;
+2 x6085 +2 x6086 +2 x6087 +2 x6088 -1 x5825 -1 x5826 -1 x5827 -1 x5828 -1 x5829 -1 x5830 -1 x5831 -1 x5832 >= 0 ;
+2 x6089 +2 x6090 +2 x6091 +2 x6092 -1 x5829 -1 x5830 -1 x5831 -1 x5832 -1 x5833 -1 x5834 -1 x5835 -1 x5836 >= 0 ;
+2 x6093 +2 x6094 +2 x6095 +2 x6096 -1 x5833 -1 x5834 -1 x5835 -1 x5836 -1 x5837 -1 x5838 -1 x5839 -1 x5840 >= 0 ;
+2 x6097 +2 x6098 +2 x6099 +2 x6100 -1 x5837 -1 x5838 -1 x5839 -1 x5840 -1 x5841 -1 x5842 -1 x5843 -1 x5844 >= 0 ;
+2 x6101 +2 x6102 +2 x6103 +2 x6104 -1 x5841 -1 x5842 -1 x5843 -1 x5844 -1 x5845 -1 x5846 -1 x5847 -1 x5848 >= 0 ;
+2 x6105 +2 x6106 +2 x6107 +2 x6108 -1 x5845 -1 x5846 -1 x5847 -1 x5848 -1 x5849 -1 x5850 -1 x5851 -1 x5852 >= 0 ;
+2 x6109 +2 x6110 +2 x6111 +2 x6112 -1 x5849 -1 x5850 -1 x5851 -1 x5852 -1 x5853 -1 x5854 -1 x5855 -1 x5856 >= 0 ;
+2 x6113 +2 x6114 +2 x6115 +2 x6116 -1 x5853 -1 x5854 -1 x5855 -1 x5856 -1 x5857 -1 x5858 -1 x5859 -1 x5860 >= 0 ;
+2 x6117 +2 x6118 +2 x6119 +2 x6120 -1 x5857 -1 x5858 -1 x5859 -1 x5860 -1 x5861 -1 x5862 -1 x5863 -1 x5864 >= 0 ;
+2 x6121 +2 x6122 +2 x6123 +2 x6124 -1 x5861 -1 x5862 -1 x5863 -1 x5864 -1 x5865 -1 x5866 -1 x5867 -1 x5868 >= 0 ;
+2 x6125 +2 x6126 +2 x6127 +2 x6128 -1 x5865 -1 x5866 -1 x5867 -1 x5868 -1 x5869 -1 x5870 -1 x5871 -1 x5872 >= 0 ;
+2 x6129 +2 x6130 +2 x6131 +2 x6132 -1 x5869 -1 x5870 -1 x5871 -1 x5872 -1 x5873 -1 x5874 -1 x5875 -1 x5876 >= 0 ;
+2 x6133 +2 x6134 +2 x6135 +2 x6136 -1 x5873 -1 x5874 -1 x5875 -1 x5876 -1 x5877 -1 x5878 -1 x5879 -1 x5880 >= 0 ;
+2 x6137 +2 x6138 +2 x6139 +2 x6140 -1 x5877 -1 x5878 -1 x5879 -1 x5880 -1 x5881 -1 x5882 -1 x5883 -1 x5884 >= 0 ;
+2 x6141 +2 x6142 +2 x6143 +2 x6144 -1 x5881 -1 x5882 -1 x5883 -1 x5884 -1 x5885 -1 x5886 -1 x5887 -1 x5888 >= 0 ;
+2 x6145 +2 x6146 +2 x6147 +2 x6148 -1 x5889 -1 x5890 -1 x5891 -1 x5892 -1 x6141 -1 x6142 -1 x6143 -1 x6144 >= 0 ;
+2 x6149 +2 x6150 +2 x6151 +2 x6152 -1 x5889 -1 x5890 -1 x5891 -1 x5892 -1 x5893 -1 x5894 -1 x5895 -1 x5896 >= 0 ;
+2 x6153 +2 x6154 +2 x6155 +2 x6156 -1 x5893 -1 x5894 -1 x5895 -1 x5896 -1 x5897 -1 x5898 -1 x5899 -1 x5900 >= 0 ;
+2 x6157 +2 x6158 +2 x6159 +2 x6160 -1 x5897 -1 x5898 -1 x5899 -1 x5900 -1 x5901 -1 x5902 -1 x5903 -1 x5904 >= 0 ;
+2 x6161 +2 x6162 +2 x6163 +2 x6164 -1 x5901 -1 x5902 -1 x5903 -1 x5904 -1 x5905 -1 x5906 -1 x5907 -1 x5908 >= 0 ;
+2 x6165 +2 x6166 +2 x6167 +2 x6168 -1 x5905 -1 x5906 -1 x5907 -1 x5908 -1 x5909 -1 x5910 -1 x5911 -1 x5912 >= 0 ;
+2 x6169 +2 x6170 +2 x6171 +2 x6172 -1 x5909 -1 x5910 -1 x5911 -1 x5912 -1 x5913 -1 x5914 -1 x5915 -1 x5916 >= 0 ;
+2 x6173 +2 x6174 +2 x6175 +2 x6176 -1 x5913 -1 x5914 -1 x5915 -1 x5916 -1 x5917 -1 x5918 -1 x5919 -1 x5920 >= 0 ;
+2 x6177 +2 x6178 +2 x6179 +2 x6180 -1 x5917 -1 x5918 -1 x5919 -1 x5920 -1 x5921 -1 x5922 -1 x5923 -1 x5924 >= 0 ;
+2 x6181 +2 x6182 +2 x6183 +2 x6184 -1 x5921 -1 x5922 -1 x5923 -1 x5924 -1 x5925 -1 x5926 -1 x5927 -1 x5928 >= 0 ;
+2 x6185 +2 x6186 +2 x6187 +2 x6188 -1 x5925 -1 x5926 -1 x5927 -1 x5928 -1 x5929 -1 x5930 -1 x5931 -1 x5932 >= 0 ;
+2 x6189 +2 x6190 +2 x6191 +2 x6192 -1 x5929 -1 x5930 -1 x5931 -1 x5932 -1 x5933 -1 x5934 -1 x5935 -1 x5936 >= 0 ;
+2 x6193 +2 x6194 +2 x6195 +2 x6196 -1 x5933 -1 x5934 -1 x5935 -1 x5936 -1 x5937 -1 x5938 -1 x5939 -1 x5940 >= 0 ;
+2 x6197 +2 x6198 +2 x6199 +2 x6200 -1 x5937 -1 x5938 -1 x5939 -1 x5940 -1 x5941 -1 x5942 -1 x5943 -1 x5944 >= 0 ;
+2 x6201 +2 x6202 +2 x6203 +2 x6204 -1 x5941 -1 x5942 -1 x5943 -1 x5944 -1 x5945 -1 x5946 -1 x5947 -1 x5948 >= 0 ;
+2 x6205 +2 x6206 +2 x6207 +2 x6208 -1 x5945 -1 x5946 -1 x5947 -1 x5948 -1 x5949 -1 x5950 -1 x5951 -1 x5952 >= 0 ;
+2 x6209 +2 x6210 +2 x6211 +2 x6212 -1 x5949 -1 x5950 -1 x5951 -1 x5952 -1 x5953 -1 x5954 -1 x5955 -1 x5956 >= 0 ;
+2 x6213 +2 x6214 +2 x6215 +2 x6216 -1 x5953 -1 x5954 -1 x5955 -1 x5956 -1 x5957 -1 x5958 -1 x5959 -1 x5960 >= 0 ;
+2 x6217 +2 x6218 +2 x6219 +2 x6220 -1 x5957 -1 x5958 -1 x5959 -1 x5960 -1 x5961 -1 x5962 -1 x5963 -1 x5964 >= 0 ;
+2 x6221 +2 x6222 +2 x6223 +2 x6224 -1 x5961 -1 x5962 -1 x5963 -1 x5964 -1 x5965 -1 x5966 -1 x5967 -1 x5968 >= 0 ;
+2 x6225 +2 x6226 +2 x6227 +2 x6228 -1 x5965 -1 x5966 -1 x5967 -1 x5968 -1 x5969 -1 x5970 -1 x5971 -1 x5972 >= 0 ;
+2 x6229 +2 x6230 +2 x6231 +2 x6232 -1 x5969 -1 x5970 -1 x5971 -1 x5972 -1 x5973 -1 x5974 -1 x5975 -1 x5976 >= 0 ;
+2 x6233 +2 x6234 +2 x6235 +2 x6236 -1 x5973 -1 x5974 -1 x5975 -1 x5976 -1 x5977 -1 x5978 -1 x5979 -1 x5980 >= 0 ;
+2 x6237 +2 x6238 +2 x6239 +2 x6240 -1 x5977 -1 x5978 -1 x5979 -1 x5980 -1 x5981 -1 x5982 -1 x5983 -1 x5984 >= 0 ;
+2 x6241 +2 x6242 +2 x6243 +2 x6244 -1 x5981 -1 x5982 -1 x5983 -1 x5984 -1 x5985 -1 x5986 -1 x5987 -1 x5988 >= 0 ;
+2 x6245 +2 x6246 +2 x6247 +2 x6248 -1 x5985 -1 x5986 -1 x5987 -1 x5988 -1 x5989 -1 x5990 -1 x5991 -1 x5992 >= 0 ;
+2 x6249 +2 x6250 +2 x6251 +2 x6252 -1 x5989 -1 x5990 -1 x5991 -1 x5992 -1 x5993 -1 x5994 -1 x5995 -1 x5996 >= 0 ;
+2 x6253 +2 x6254 +2 x6255 +2 x6256 -1 x5993 -1 x5994 -1 x5995 -1 x5996 -1 x5997 -1 x5998 -1 x5999 -1 x6000 >= 0 ;
+2 x6257 +2 x6258 +2 x6259 +2 x6260 -1 x5997 -1 x5998 -1 x5999 -1 x6000 -1 x6001 -1 x6002 -1 x6003 -1 x6004 >= 0 ;
+2 x6261 +2 x6262 +2 x6263 +2 x6264 -1 x6001 -1 x6002 -1 x6003 -1 x6004 -1 x6005 -1 x6006 -1 x6007 -1 x6008 >= 0 ;
+2 x6265 +2 x6266 +2 x6267 +2 x6268 -1 x6005 -1 x6006 -1 x6007 -1 x6008 -1 x6009 -1 x6010 -1 x6011 -1 x6012 >= 0 ;
+2 x6269 +2 x6270 +2 x6271 +2 x6272 -1 x6009 -1 x6010 -1 x6011 -1 x6012 -1 x6013 -1 x6014 -1 x6015 -1 x6016 >= 0 ;
+2 x6273 +2 x6274 +2 x6275 +2 x6276 -1 x6013 -1 x6014 -1 x6015 -1 x6016 -1 x6017 -1 x6018 -1 x6019 -1 x6020 >= 0 ;
+2 x6277 +2 x6278 +2 x6279 +2 x6280 -1 x6017 -1 x6018 -1 x6019 -1 x6020 -1 x6021 -1 x6022 -1 x6023 -1 x6024 >= 0 ;
+2 x6281 +2 x6282 +2 x6283 +2 x6284 -1 x6021 -1 x6022 -1 x6023 -1 x6024 -1 x6025 -1 x6026 -1 x6027 -1 x6028 >= 0 ;
+2 x6285 +2 x6286 +2 x6287 +2 x6288 -1 x6025 -1 x6026 -1 x6027 -1 x6028 -1 x6029 -1 x6030 -1 x6031 -1 x6032 >= 0 ;
+2 x6289 +2 x6290 +2 x6291 +2 x6292 -1 x6029 -1 x6030 -1 x6031 -1 x6032 -1 x6033 -1 x6034 -1 x6035 -1 x6036 >= 0 ;
+2 x6293 +2 x6294 +2 x6295 +2 x6296 -1 x6033 -1 x6034 -1 x6035 -1 x6036 -1 x6037 -1 x6038 -1 x6039 -1 x6040 >= 0 ;
+2 x6297 +2 x6298 +2 x6299 +2 x6300 -1 x6037 -1 x6038 -1 x6039 -1 x6040 -1 x6041 -1 x6042 -1 x6043 -1 x6044 >= 0 ;
+2 x6301 +2 x6302 +2 x6303 +2 x6304 -1 x6041 -1 x6042 -1 x6043 -1 x6044 -1 x6045 -1 x6046 -1 x6047 -1 x6048 >= 0 ;
+2 x6305 +2 x6306 +2 x6307 +2 x6308 -1 x6045 -1 x6046 -1 x6047 -1 x6048 -1 x6049 -1 x6050 -1 x6051 -1 x6052 >= 0 ;
+2 x6309 +2 x6310 +2 x6311 +2 x6312 -1 x6049 -1 x6050 -1 x6051 -1 x6052 -1 x6053 -1 x6054 -1 x6055 -1 x6056 >= 0 ;
+2 x6313 +2 x6314 +2 x6315 +2 x6316 -1 x6053 -1 x6054 -1 x6055 -1 x6056 -1 x6057 -1 x6058 -1 x6059 -1 x6060 >= 0 ;
+2 x6317 +2 x6318 +2 x6319 +2 x6320 -1 x6057 -1 x6058 -1 x6059 -1 x6060 -1 x6061 -1 x6062 -1 x6063 -1 x6064 >= 0 ;
+2 x6321 +2 x6322 +2 x6323 +2 x6324 -1 x6061 -1 x6062 -1 x6063 -1 x6064 -1 x6065 -1 x6066 -1 x6067 -1 x6068 >= 0 ;
+2 x6325 +2 x6326 +2 x6327 +2 x6328 -1 x6065 -1 x6066 -1 x6067 -1 x6068 -1 x6069 -1 x6070 -1 x6071 -1 x6072 >= 0 ;
+2 x6329 +2 x6330 +2 x6331 +2 x6332 -1 x6069 -1 x6070 -1 x6071 -1 x6072 -1 x6073 -1 x6074 -1 x6075 -1 x6076 >= 0 ;
+2 x6333 +2 x6334 +2 x6335 +2 x6336 -1 x6073 -1 x6074 -1 x6075 -1 x6076 -1 x6077 -1 x6078 -1 x6079 -1 x6080 >= 0 ;
+2 x6337 +2 x6338 +2 x6339 +2 x6340 -1 x6077 -1 x6078 -1 x6079 -1 x6080 -1 x6081 -1 x6082 -1 x6083 -1 x6084 >= 0 ;
+2 x6341 +2 x6342 +2 x6343 +2 x6344 -1 x6081 -1 x6082 -1 x6083 -1 x6084 -1 x6085 -1 x6086 -1 x6087 -1 x6088 >= 0 ;
+2 x6345 +2 x6346 +2 x6347 +2 x6348 -1 x6085 -1 x6086 -1 x6087 -1 x6088 -1 x6089 -1 x6090 -1 x6091 -1 x6092 >= 0 ;
+2 x6349 +2 x6350 +2 x6351 +2 x6352 -1 x6089 -1 x6090 -1 x6091 -1 x6092 -1 x6093 -1 x6094 -1 x6095 -1 x6096 >= 0 ;
+2 x6353 +2 x6354 +2 x6355 +2 x6356 -1 x6093 -1 x6094 -1 x6095 -1 x6096 -1 x6097 -1 x6098 -1 x6099 -1 x6100 >= 0 ;
+2 x6357 +2 x6358 +2 x6359 +2 x6360 -1 x6097 -1 x6098 -1 x6099 -1 x6100 -1 x6101 -1 x6102 -1 x6103 -1 x6104 >= 0 ;
+2 x6361 +2 x6362 +2 x6363 +2 x6364 -1 x6101 -1 x6102 -1 x6103 -1 x6104 -1 x6105 -1 x6106 -1 x6107 -1 x6108 >= 0 ;
+2 x6365 +2 x6366 +2 x6367 +2 x6368 -1 x6105 -1 x6106 -1 x6107 -1 x6108 -1 x6109 -1 x6110 -1 x6111 -1 x6112 >= 0 ;
+2 x6369 +2 x6370 +2 x6371 +2 x6372 -1 x6109 -1 x6110 -1 x6111 -1 x6112 -1 x6113 -1 x6114 -1 x6115 -1 x6116 >= 0 ;
+2 x6373 +2 x6374 +2 x6375 +2 x6376 -1 x6113 -1 x6114 -1 x6115 -1 x6116 -1 x6117 -1 x6118 -1 x6119 -1 x6120 >= 0 ;
+2 x6377 +2 x6378 +2 x6379 +2 x6380 -1 x6117 -1 x6118 -1 x6119 -1 x6120 -1 x6121 -1 x6122 -1 x6123 -1 x6124 >= 0 ;
+2 x6381 +2 x6382 +2 x6383 +2 x6384 -1 x6121 -1 x6122 -1 x6123 -1 x6124 -1 x6125 -1 x6126 -1 x6127 -1 x6128 >= 0 ;
+2 x6385 +2 x6386 +2 x6387 +2 x6388 -1 x6125 -1 x6126 -1 x6127 -1 x6128 -1 x6129 -1 x6130 -1 x6131 -1 x6132 >= 0 ;
+2 x6389 +2 x6390 +2 x6391 +2 x6392 -1 x6129 -1 x6130 -1 x6131 -1 x6132 -1 x6133 -1 x6134 -1 x6135 -1 x6136 >= 0 ;
+2 x6393 +2 x6394 +2 x6395 +2 x6396 -1 x6133 -1 x6134 -1 x6135 -1 x6136 -1 x6137 -1 x6138 -1 x6139 -1 x6140 >= 0 ;
+2 x6397 +2 x6398 +2 x6399 +2 x6400 -1 x6137 -1 x6138 -1 x6139 -1 x6140 -1 x6141 -1 x6142 -1 x6143 -1 x6144 >= 0 ;
+2 x6401 +2 x6402 +2 x6403 +2 x6404 -1 x6145 -1 x6146 -1 x6147 -1 x6148 -1 x6397 -1 x6398 -1 x6399 -1 x6400 >= 0 ;
+2 x6405 +2 x6406 +2 x6407 +2 x6408 -1 x6145 -1 x6146 -1 x6147 -1 x6148 -1 x6149 -1 x6150 -1 x6151 -1 x6152 >= 0 ;
+2 x6409 +2 x6410 +2 x6411 +2 x6412 -1 x6149 -1 x6150 -1 x6151 -1 x6152 -1 x6153 -1 x6154 -1 x6155 -1 x6156 >= 0 ;
+2 x6413 +2 x6414 +2 x6415 +2 x6416 -1 x6153 -1 x6154 -1 x6155 -1 x6156 -1 x6157 -1 x6158 -1 x6159 -1 x6160 >= 0 ;
+2 x6417 +2 x6418 +2 x6419 +2 x6420 -1 x6157 -1 x6158 -1 x6159 -1 x6160 -1 x6161 -1 x6162 -1 x6163 -1 x6164 >= 0 ;
+2 x6421 +2 x6422 +2 x6423 +2 x6424 -1 x6161 -1 x6162 -1 x6163 -1 x6164 -1 x6165 -1 x6166 -1 x6167 -1 x6168 >= 0 ;
+2 x6425 +2 x6426 +2 x6427 +2 x6428 -1 x6165 -1 x6166 -1 x6167 -1 x6168 -1 x6169 -1 x6170 -1 x6171 -1 x6172 >= 0 ;
+2 x6429 +2 x6430 +2 x6431 +2 x6432 -1 x6169 -1 x6170 -1 x6171 -1 x6172 -1 x6173 -1 x6174 -1 x6175 -1 x6176 >= 0 ;
+2 x6433 +2 x6434 +2 x6435 +2 x6436 -1 x6173 -1 x6174 -1 x6175 -1 x6176 -1 x6177 -1 x6178 -1 x6179 -1 x6180 >= 0 ;
+2 x6437 +2 x6438 +2 x6439 +2 x6440 -1 x6177 -1 x6178 -1 x6179 -1 x6180 -1 x6181 -1 x6182 -1 x6183 -1 x6184 >= 0 ;
+2 x6441 +2 x6442 +2 x6443 +2 x6444 -1 x6181 -1 x6182 -1 x6183 -1 x6184 -1 x6185 -1 x6186 -1 x6187 -1 x6188 >= 0 ;
+2 x6445 +2 x6446 +2 x6447 +2 x6448 -1 x6185 -1 x6186 -1 x6187 -1 x6188 -1 x6189 -1 x6190 -1 x6191 -1 x6192 >= 0 ;
+2 x6449 +2 x6450 +2 x6451 +2 x6452 -1 x6189 -1 x6190 -1 x6191 -1 x6192 -1 x6193 -1 x6194 -1 x6195 -1 x6196 >= 0 ;
+2 x6453 +2 x6454 +2 x6455 +2 x6456 -1 x6193 -1 x6194 -1 x6195 -1 x6196 -1 x6197 -1 x6198 -1 x6199 -1 x6200 >= 0 ;
+2 x6457 +2 x6458 +2 x6459 +2 x6460 -1 x6197 -1 x6198 -1 x6199 -1 x6200 -1 x6201 -1 x6202 -1 x6203 -1 x6204 >= 0 ;
+2 x6461 +2 x6462 +2 x6463 +2 x6464 -1 x6201 -1 x6202 -1 x6203 -1 x6204 -1 x6205 -1 x6206 -1 x6207 -1 x6208 >= 0 ;
+2 x6465 +2 x6466 +2 x6467 +2 x6468 -1 x6205 -1 x6206 -1 x6207 -1 x6208 -1 x6209 -1 x6210 -1 x6211 -1 x6212 >= 0 ;
+2 x6469 +2 x6470 +2 x6471 +2 x6472 -1 x6209 -1 x6210 -1 x6211 -1 x6212 -1 x6213 -1 x6214 -1 x6215 -1 x6216 >= 0 ;
+2 x6473 +2 x6474 +2 x6475 +2 x6476 -1 x6213 -1 x6214 -1 x6215 -1 x6216 -1 x6217 -1 x6218 -1 x6219 -1 x6220 >= 0 ;
+2 x6477 +2 x6478 +2 x6479 +2 x6480 -1 x6217 -1 x6218 -1 x6219 -1 x6220 -1 x6221 -1 x6222 -1 x6223 -1 x6224 >= 0 ;
+2 x6481 +2 x6482 +2 x6483 +2 x6484 -1 x6221 -1 x6222 -1 x6223 -1 x6224 -1 x6225 -1 x6226 -1 x6227 -1 x6228 >= 0 ;
+2 x6485 +2 x6486 +2 x6487 +2 x6488 -1 x6225 -1 x6226 -1 x6227 -1 x6228 -1 x6229 -1 x6230 -1 x6231 -1 x6232 >= 0 ;
+2 x6489 +2 x6490 +2 x6491 +2 x6492 -1 x6229 -1 x6230 -1 x6231 -1 x6232 -1 x6233 -1 x6234 -1 x6235 -1 x6236 >= 0 ;
+2 x6493 +2 x6494 +2 x6495 +2 x6496 -1 x6233 -1 x6234 -1 x6235 -1 x6236 -1 x6237 -1 x6238 -1 x6239 -1 x6240 >= 0 ;
+2 x6497 +2 x6498 +2 x6499 +2 x6500 -1 x6237 -1 x6238 -1 x6239 -1 x6240 -1 x6241 -1 x6242 -1 x6243 -1 x6244 >= 0 ;
+2 x6501 +2 x6502 +2 x6503 +2 x6504 -1 x6241 -1 x6242 -1 x6243 -1 x6244 -1 x6245 -1 x6246 -1 x6247 -1 x6248 >= 0 ;
+2 x6505 +2 x6506 +2 x6507 +2 x6508 -1 x6245 -1 x6246 -1 x6247 -1 x6248 -1 x6249 -1 x6250 -1 x6251 -1 x6252 >= 0 ;
+2 x6509 +2 x6510 +2 x6511 +2 x6512 -1 x6249 -1 x6250 -1 x6251 -1 x6252 -1 x6253 -1 x6254 -1 x6255 -1 x6256 >= 0 ;
+2 x6513 +2 x6514 +2 x6515 +2 x6516 -1 x6253 -1 x6254 -1 x6255 -1 x6256 -1 x6257 -1 x6258 -1 x6259 -1 x6260 >= 0 ;
+2 x6517 +2 x6518 +2 x6519 +2 x6520 -1 x6257 -1 x6258 -1 x6259 -1 x6260 -1 x6261 -1 x6262 -1 x6263 -1 x6264 >= 0 ;
+2 x6521 +2 x6522 +2 x6523 +2 x6524 -1 x6261 -1 x6262 -1 x6263 -1 x6264 -1 x6265 -1 x6266 -1 x6267 -1 x6268 >= 0 ;
+2 x6525 +2 x6526 +2 x6527 +2 x6528 -1 x6265 -1 x6266 -1 x6267 -1 x6268 -1 x6269 -1 x6270 -1 x6271 -1 x6272 >= 0 ;
+2 x6529 +2 x6530 +2 x6531 +2 x6532 -1 x6269 -1 x6270 -1 x6271 -1 x6272 -1 x6273 -1 x6274 -1 x6275 -1 x6276 >= 0 ;
+2 x6533 +2 x6534 +2 x6535 +2 x6536 -1 x6273 -1 x6274 -1 x6275 -1 x6276 -1 x6277 -1 x6278 -1 x6279 -1 x6280 >= 0 ;
+2 x6537 +2 x6538 +2 x6539 +2 x6540 -1 x6277 -1 x6278 -1 x6279 -1 x6280 -1 x6281 -1 x6282 -1 x6283 -1 x6284 >= 0 ;
+2 x6541 +2 x6542 +2 x6543 +2 x6544 -1 x6281 -1 x6282 -1 x6283 -1 x6284 -1 x6285 -1 x6286 -1 x6287 -1 x6288 >= 0 ;
+2 x6545 +2 x6546 +2 x6547 +2 x6548 -1 x6285 -1 x6286 -1 x6287 -1 x6288 -1 x6289 -1 x6290 -1 x6291 -1 x6292 >= 0 ;
+2 x6549 +2 x6550 +2 x6551 +2 x6552 -1 x6289 -1 x6290 -1 x6291 -1 x6292 -1 x6293 -1 x6294 -1 x6295 -1 x6296 >= 0 ;
+2 x6553 +2 x6554 +2 x6555 +2 x6556 -1 x6293 -1 x6294 -1 x6295 -1 x6296 -1 x6297 -1 x6298 -1 x6299 -1 x6300 >= 0 ;
+2 x6557 +2 x6558 +2 x6559 +2 x6560 -1 x6297 -1 x6298 -1 x6299 -1 x6300 -1 x6301 -1 x6302 -1 x6303 -1 x6304 >= 0 ;
+2 x6561 +2 x6562 +2 x6563 +2 x6564 -1 x6301 -1 x6302 -1 x6303 -1 x6304 -1 x6305 -1 x6306 -1 x6307 -1 x6308 >= 0 ;
+2 x6565 +2 x6566 +2 x6567 +2 x6568 -1 x6305 -1 x6306 -1 x6307 -1 x6308 -1 x6309 -1 x6310 -1 x6311 -1 x6312 >= 0 ;
+2 x6569 +2 x6570 +2 x6571 +2 x6572 -1 x6309 -1 x6310 -1 x6311 -1 x6312 -1 x6313 -1 x6314 -1 x6315 -1 x6316 >= 0 ;
+2 x6573 +2 x6574 +2 x6575 +2 x6576 -1 x6313 -1 x6314 -1 x6315 -1 x6316 -1 x6317 -1 x6318 -1 x6319 -1 x6320 >= 0 ;
+2 x6577 +2 x6578 +2 x6579 +2 x6580 -1 x6317 -1 x6318 -1 x6319 -1 x6320 -1 x6321 -1 x6322 -1 x6323 -1 x6324 >= 0 ;
+2 x6581 +2 x6582 +2 x6583 +2 x6584 -1 x6321 -1 x6322 -1 x6323 -1 x6324 -1 x6325 -1 x6326 -1 x6327 -1 x6328 >= 0 ;
+2 x6585 +2 x6586 +2 x6587 +2 x6588 -1 x6325 -1 x6326 -1 x6327 -1 x6328 -1 x6329 -1 x6330 -1 x6331 -1 x6332 >= 0 ;
+2 x6589 +2 x6590 +2 x6591 +2 x6592 -1 x6329 -1 x6330 -1 x6331 -1 x6332 -1 x6333 -1 x6334 -1 x6335 -1 x6336 >= 0 ;
+2 x6593 +2 x6594 +2 x6595 +2 x6596 -1 x6333 -1 x6334 -1 x6335 -1 x6336 -1 x6337 -1 x6338 -1 x6339 -1 x6340 >= 0 ;
+2 x6597 +2 x6598 +2 x6599 +2 x6600 -1 x6337 -1 x6338 -1 x6339 -1 x6340 -1 x6341 -1 x6342 -1 x6343 -1 x6344 >= 0 ;
+2 x6601 +2 x6602 +2 x6603 +2 x6604 -1 x6341 -1 x6342 -1 x6343 -1 x6344 -1 x6345 -1 x6346 -1 x6347 -1 x6348 >= 0 ;
+2 x6605 +2 x6606 +2 x6607 +2 x6608 -1 x6345 -1 x6346 -1 x6347 -1 x6348 -1 x6349 -1 x6350 -1 x6351 -1 x6352 >= 0 ;
+2 x6609 +2 x6610 +2 x6611 +2 x6612 -1 x6349 -1 x6350 -1 x6351 -1 x6352 -1 x6353 -1 x6354 -1 x6355 -1 x6356 >= 0 ;
+2 x6613 +2 x6614 +2 x6615 +2 x6616 -1 x6353 -1 x6354 -1 x6355 -1 x6356 -1 x6357 -1 x6358 -1 x6359 -1 x6360 >= 0 ;
+2 x6617 +2 x6618 +2 x6619 +2 x6620 -1 x6357 -1 x6358 -1 x6359 -1 x6360 -1 x6361 -1 x6362 -1 x6363 -1 x6364 >= 0 ;
+2 x6621 +2 x6622 +2 x6623 +2 x6624 -1 x6361 -1 x6362 -1 x6363 -1 x6364 -1 x6365 -1 x6366 -1 x6367 -1 x6368 >= 0 ;
+2 x6625 +2 x6626 +2 x6627 +2 x6628 -1 x6365 -1 x6366 -1 x6367 -1 x6368 -1 x6369 -1 x6370 -1 x6371 -1 x6372 >= 0 ;
+2 x6629 +2 x6630 +2 x6631 +2 x6632 -1 x6369 -1 x6370 -1 x6371 -1 x6372 -1 x6373 -1 x6374 -1 x6375 -1 x6376 >= 0 ;
+2 x6633 +2 x6634 +2 x6635 +2 x6636 -1 x6373 -1 x6374 -1 x6375 -1 x6376 -1 x6377 -1 x6378 -1 x6379 -1 x6380 >= 0 ;
+2 x6637 +2 x6638 +2 x6639 +2 x6640 -1 x6377 -1 x6378 -1 x6379 -1 x6380 -1 x6381 -1 x6382 -1 x6383 -1 x6384 >= 0 ;
+2 x6641 +2 x6642 +2 x6643 +2 x6644 -1 x6381 -1 x6382 -1 x6383 -1 x6384 -1 x6385 -1 x6386 -1 x6387 -1 x6388 >= 0 ;
+2 x6645 +2 x6646 +2 x6647 +2 x6648 -1 x6385 -1 x6386 -1 x6387 -1 x6388 -1 x6389 -1 x6390 -1 x6391 -1 x6392 >= 0 ;
+2 x6649 +2 x6650 +2 x6651 +2 x6652 -1 x6389 -1 x6390 -1 x6391 -1 x6392 -1 x6393 -1 x6394 -1 x6395 -1 x6396 >= 0 ;
+2 x6653 +2 x6654 +2 x6655 +2 x6656 -1 x6393 -1 x6394 -1 x6395 -1 x6396 -1 x6397 -1 x6398 -1 x6399 -1 x6400 >= 0 ;
+2 x6657 +2 x6658 +2 x6659 +2 x6660 -1 x6401 -1 x6402 -1 x6403 -1 x6404 -1 x6653 -1 x6654 -1 x6655 -1 x6656 >= 0 ;
+2 x6661 +2 x6662 +2 x6663 +2 x6664 -1 x6401 -1 x6402 -1 x6403 -1 x6404 -1 x6405 -1 x6406 -1 x6407 -1 x6408 >= 0 ;
+2 x6665 +2 x6666 +2 x6667 +2 x6668 -1 x6405 -1 x6406 -1 x6407 -1 x6408 -1 x6409 -1 x6410 -1 x6411 -1 x6412 >= 0 ;
+2 x6669 +2 x6670 +2 x6671 +2 x6672 -1 x6409 -1 x6410 -1 x6411 -1 x6412 -1 x6413 -1 x6414 -1 x6415 -1 x6416 >= 0 ;
+2 x6673 +2 x6674 +2 x6675 +2 x6676 -1 x6413 -1 x6414 -1 x6415 -1 x6416 -1 x6417 -1 x6418 -1 x6419 -1 x6420 >= 0 ;
+2 x6677 +2 x6678 +2 x6679 +2 x6680 -1 x6417 -1 x6418 -1 x6419 -1 x6420 -1 x6421 -1 x6422 -1 x6423 -1 x6424 >= 0 ;
+2 x6681 +2 x6682 +2 x6683 +2 x6684 -1 x6421 -1 x6422 -1 x6423 -1 x6424 -1 x6425 -1 x6426 -1 x6427 -1 x6428 >= 0 ;
+2 x6685 +2 x6686 +2 x6687 +2 x6688 -1 x6425 -1 x6426 -1 x6427 -1 x6428 -1 x6429 -1 x6430 -1 x6431 -1 x6432 >= 0 ;
+2 x6689 +2 x6690 +2 x6691 +2 x6692 -1 x6429 -1 x6430 -1 x6431 -1 x6432 -1 x6433 -1 x6434 -1 x6435 -1 x6436 >= 0 ;
+2 x6693 +2 x6694 +2 x6695 +2 x6696 -1 x6433 -1 x6434 -1 x6435 -1 x6436 -1 x6437 -1 x6438 -1 x6439 -1 x6440 >= 0 ;
+2 x6697 +2 x6698 +2 x6699 +2 x6700 -1 x6437 -1 x6438 -1 x6439 -1 x6440 -1 x6441 -1 x6442 -1 x6443 -1 x6444 >= 0 ;
+2 x6701 +2 x6702 +2 x6703 +2 x6704 -1 x6441 -1 x6442 -1 x6443 -1 x6444 -1 x6445 -1 x6446 -1 x6447 -1 x6448 >= 0 ;
+2 x6705 +2 x6706 +2 x6707 +2 x6708 -1 x6445 -1 x6446 -1 x6447 -1 x6448 -1 x6449 -1 x6450 -1 x6451 -1 x6452 >= 0 ;
+2 x6709 +2 x6710 +2 x6711 +2 x6712 -1 x6449 -1 x6450 -1 x6451 -1 x6452 -1 x6453 -1 x6454 -1 x6455 -1 x6456 >= 0 ;
+2 x6713 +2 x6714 +2 x6715 +2 x6716 -1 x6453 -1 x6454 -1 x6455 -1 x6456 -1 x6457 -1 x6458 -1 x6459 -1 x6460 >= 0 ;
+2 x6717 +2 x6718 +2 x6719 +2 x6720 -1 x6457 -1 x6458 -1 x6459 -1 x6460 -1 x6461 -1 x6462 -1 x6463 -1 x6464 >= 0 ;
+2 x6721 +2 x6722 +2 x6723 +2 x6724 -1 x6461 -1 x6462 -1 x6463 -1 x6464 -1 x6465 -1 x6466 -1 x6467 -1 x6468 >= 0 ;
+2 x6725 +2 x6726 +2 x6727 +2 x6728 -1 x6465 -1 x6466 -1 x6467 -1 x6468 -1 x6469 -1 x6470 -1 x6471 -1 x6472 >= 0 ;
+2 x6729 +2 x6730 +2 x6731 +2 x6732 -1 x6469 -1 x6470 -1 x6471 -1 x6472 -1 x6473 -1 x6474 -1 x6475 -1 x6476 >= 0 ;
+2 x6733 +2 x6734 +2 x6735 +2 x6736 -1 x6473 -1 x6474 -1 x6475 -1 x6476 -1 x6477 -1 x6478 -1 x6479 -1 x6480 >= 0 ;
+2 x6737 +2 x6738 +2 x6739 +2 x6740 -1 x6477 -1 x6478 -1 x6479 -1 x6480 -1 x6481 -1 x6482 -1 x6483 -1 x6484 >= 0 ;
+2 x6741 +2 x6742 +2 x6743 +2 x6744 -1 x6481 -1 x6482 -1 x6483 -1 x6484 -1 x6485 -1 x6486 -1 x6487 -1 x6488 >= 0 ;
+2 x6745 +2 x6746 +2 x6747 +2 x6748 -1 x6485 -1 x6486 -1 x6487 -1 x6488 -1 x6489 -1 x6490 -1 x6491 -1 x6492 >= 0 ;
+2 x6749 +2 x6750 +2 x6751 +2 x6752 -1 x6489 -1 x6490 -1 x6491 -1 x6492 -1 x6493 -1 x6494 -1 x6495 -1 x6496 >= 0 ;
+2 x6753 +2 x6754 +2 x6755 +2 x6756 -1 x6493 -1 x6494 -1 x6495 -1 x6496 -1 x6497 -1 x6498 -1 x6499 -1 x6500 >= 0 ;
+2 x6757 +2 x6758 +2 x6759 +2 x6760 -1 x6497 -1 x6498 -1 x6499 -1 x6500 -1 x6501 -1 x6502 -1 x6503 -1 x6504 >= 0 ;
+2 x6761 +2 x6762 +2 x6763 +2 x6764 -1 x6501 -1 x6502 -1 x6503 -1 x6504 -1 x6505 -1 x6506 -1 x6507 -1 x6508 >= 0 ;
+2 x6765 +2 x6766 +2 x6767 +2 x6768 -1 x6505 -1 x6506 -1 x6507 -1 x6508 -1 x6509 -1 x6510 -1 x6511 -1 x6512 >= 0 ;
+2 x6769 +2 x6770 +2 x6771 +2 x6772 -1 x6509 -1 x6510 -1 x6511 -1 x6512 -1 x6513 -1 x6514 -1 x6515 -1 x6516 >= 0 ;
+2 x6773 +2 x6774 +2 x6775 +2 x6776 -1 x6513 -1 x6514 -1 x6515 -1 x6516 -1 x6517 -1 x6518 -1 x6519 -1 x6520 >= 0 ;
+2 x6777 +2 x6778 +2 x6779 +2 x6780 -1 x6517 -1 x6518 -1 x6519 -1 x6520 -1 x6521 -1 x6522 -1 x6523 -1 x6524 >= 0 ;
+2 x6781 +2 x6782 +2 x6783 +2 x6784 -1 x6521 -1 x6522 -1 x6523 -1 x6524 -1 x6525 -1 x6526 -1 x6527 -1 x6528 >= 0 ;
+2 x6785 +2 x6786 +2 x6787 +2 x6788 -1 x6525 -1 x6526 -1 x6527 -1 x6528 -1 x6529 -1 x6530 -1 x6531 -1 x6532 >= 0 ;
+2 x6789 +2 x6790 +2 x6791 +2 x6792 -1 x6529 -1 x6530 -1 x6531 -1 x6532 -1 x6533 -1 x6534 -1 x6535 -1 x6536 >= 0 ;
+2 x6793 +2 x6794 +2 x6795 +2 x6796 -1 x6533 -1 x6534 -1 x6535 -1 x6536 -1 x6537 -1 x6538 -1 x6539 -1 x6540 >= 0 ;
+2 x6797 +2 x6798 +2 x6799 +2 x6800 -1 x6537 -1 x6538 -1 x6539 -1 x6540 -1 x6541 -1 x6542 -1 x6543 -1 x6544 >= 0 ;
+2 x6801 +2 x6802 +2 x6803 +2 x6804 -1 x6541 -1 x6542 -1 x6543 -1 x6544 -1 x6545 -1 x6546 -1 x6547 -1 x6548 >= 0 ;
+2 x6805 +2 x6806 +2 x6807 +2 x6808 -1 x6545 -1 x6546 -1 x6547 -1 x6548 -1 x6549 -1 x6550 -1 x6551 -1 x6552 >= 0 ;
+2 x6809 +2 x6810 +2 x6811 +2 x6812 -1 x6549 -1 x6550 -1 x6551 -1 x6552 -1 x6553 -1 x6554 -1 x6555 -1 x6556 >= 0 ;
+2 x6813 +2 x6814 +2 x6815 +2 x6816 -1 x6553 -1 x6554 -1 x6555 -1 x6556 -1 x6557 -1 x6558 -1 x6559 -1 x6560 >= 0 ;
+2 x6817 +2 x6818 +2 x6819 +2 x6820 -1 x6557 -1 x6558 -1 x6559 -1 x6560 -1 x6561 -1 x6562 -1 x6563 -1 x6564 >= 0 ;
+2 x6821 +2 x6822 +2 x6823 +2 x6824 -1 x6561 -1 x6562 -1 x6563 -1 x6564 -1 x6565 -1 x6566 -1 x6567 -1 x6568 >= 0 ;
+2 x6825 +2 x6826 +2 x6827 +2 x6828 -1 x6565 -1 x6566 -1 x6567 -1 x6568 -1 x6569 -1 x6570 -1 x6571 -1 x6572 >= 0 ;
+2 x6829 +2 x6830 +2 x6831 +2 x6832 -1 x6569 -1 x6570 -1 x6571 -1 x6572 -1 x6573 -1 x6574 -1 x6575 -1 x6576 >= 0 ;
+2 x6833 +2 x6834 +2 x6835 +2 x6836 -1 x6573 -1 x6574 -1 x6575 -1 x6576 -1 x6577 -1 x6578 -1 x6579 -1 x6580 >= 0 ;
+2 x6837 +2 x6838 +2 x6839 +2 x6840 -1 x6577 -1 x6578 -1 x6579 -1 x6580 -1 x6581 -1 x6582 -1 x6583 -1 x6584 >= 0 ;
+2 x6841 +2 x6842 +2 x6843 +2 x6844 -1 x6581 -1 x6582 -1 x6583 -1 x6584 -1 x6585 -1 x6586 -1 x6587 -1 x6588 >= 0 ;
+2 x6845 +2 x6846 +2 x6847 +2 x6848 -1 x6585 -1 x6586 -1 x6587 -1 x6588 -1 x6589 -1 x6590 -1 x6591 -1 x6592 >= 0 ;
+2 x6849 +2 x6850 +2 x6851 +2 x6852 -1 x6589 -1 x6590 -1 x6591 -1 x6592 -1 x6593 -1 x6594 -1 x6595 -1 x6596 >= 0 ;
+2 x6853 +2 x6854 +2 x6855 +2 x6856 -1 x6593 -1 x6594 -1 x6595 -1 x6596 -1 x6597 -1 x6598 -1 x6599 -1 x6600 >= 0 ;
+2 x6857 +2 x6858 +2 x6859 +2 x6860 -1 x6597 -1 x6598 -1 x6599 -1 x6600 -1 x6601 -1 x6602 -1 x6603 -1 x6604 >= 0 ;
+2 x6861 +2 x6862 +2 x6863 +2 x6864 -1 x6601 -1 x6602 -1 x6603 -1 x6604 -1 x6605 -1 x6606 -1 x6607 -1 x6608 >= 0 ;
+2 x6865 +2 x6866 +2 x6867 +2 x6868 -1 x6605 -1 x6606 -1 x6607 -1 x6608 -1 x6609 -1 x6610 -1 x6611 -1 x6612 >= 0 ;
+2 x6869 +2 x6870 +2 x6871 +2 x6872 -1 x6609 -1 x6610 -1 x6611 -1 x6612 -1 x6613 -1 x6614 -1 x6615 -1 x6616 >= 0 ;
+2 x6873 +2 x6874 +2 x6875 +2 x6876 -1 x6613 -1 x6614 -1 x6615 -1 x6616 -1 x6617 -1 x6618 -1 x6619 -1 x6620 >= 0 ;
+2 x6877 +2 x6878 +2 x6879 +2 x6880 -1 x6617 -1 x6618 -1 x6619 -1 x6620 -1 x6621 -1 x6622 -1 x6623 -1 x6624 >= 0 ;
+2 x6881 +2 x6882 +2 x6883 +2 x6884 -1 x6621 -1 x6622 -1 x6623 -1 x6624 -1 x6625 -1 x6626 -1 x6627 -1 x6628 >= 0 ;
+2 x6885 +2 x6886 +2 x6887 +2 x6888 -1 x6625 -1 x6626 -1 x6627 -1 x6628 -1 x6629 -1 x6630 -1 x6631 -1 x6632 >= 0 ;
+2 x6889 +2 x6890 +2 x6891 +2 x6892 -1 x6629 -1 x6630 -1 x6631 -1 x6632 -1 x6633 -1 x6634 -1 x6635 -1 x6636 >= 0 ;
+2 x6893 +2 x6894 +2 x6895 +2 x6896 -1 x6633 -1 x6634 -1 x6635 -1 x6636 -1 x6637 -1 x6638 -1 x6639 -1 x6640 >= 0 ;
+2 x6897 +2 x6898 +2 x6899 +2 x6900 -1 x6637 -1 x6638 -1 x6639 -1 x6640 -1 x6641 -1 x6642 -1 x6643 -1 x6644 >= 0 ;
+2 x6901 +2 x6902 +2 x6903 +2 x6904 -1 x6641 -1 x6642 -1 x6643 -1 x6644 -1 x6645 -1 x6646 -1 x6647 -1 x6648 >= 0 ;
+2 x6905 +2 x6906 +2 x6907 +2 x6908 -1 x6645 -1 x6646 -1 x6647 -1 x6648 -1 x6649 -1 x6650 -1 x6651 -1 x6652 >= 0 ;
+2 x6909 +2 x6910 +2 x6911 +2 x6912 -1 x6649 -1 x6650 -1 x6651 -1 x6652 -1 x6653 -1 x6654 -1 x6655 -1 x6656 >= 0 ;
+2 x6913 +2 x6914 +2 x6915 +2 x6916 -1 x6657 -1 x6658 -1 x6659 -1 x6660 -1 x6909 -1 x6910 -1 x6911 -1 x6912 >= 0 ;
+2 x6917 +2 x6918 +2 x6919 +2 x6920 -1 x6657 -1 x6658 -1 x6659 -1 x6660 -1 x6661 -1 x6662 -1 x6663 -1 x6664 >= 0 ;
+2 x6921 +2 x6922 +2 x6923 +2 x6924 -1 x6661 -1 x6662 -1 x6663 -1 x6664 -1 x6665 -1 x6666 -1 x6667 -1 x6668 >= 0 ;
+2 x6925 +2 x6926 +2 x6927 +2 x6928 -1 x6665 -1 x6666 -1 x6667 -1 x6668 -1 x6669 -1 x6670 -1 x6671 -1 x6672 >= 0 ;
+2 x6929 +2 x6930 +2 x6931 +2 x6932 -1 x6669 -1 x6670 -1 x6671 -1 x6672 -1 x6673 -1 x6674 -1 x6675 -1 x6676 >= 0 ;
+2 x6933 +2 x6934 +2 x6935 +2 x6936 -1 x6673 -1 x6674 -1 x6675 -1 x6676 -1 x6677 -1 x6678 -1 x6679 -1 x6680 >= 0 ;
+2 x6937 +2 x6938 +2 x6939 +2 x6940 -1 x6677 -1 x6678 -1 x6679 -1 x6680 -1 x6681 -1 x6682 -1 x6683 -1 x6684 >= 0 ;
+2 x6941 +2 x6942 +2 x6943 +2 x6944 -1 x6681 -1 x6682 -1 x6683 -1 x6684 -1 x6685 -1 x6686 -1 x6687 -1 x6688 >= 0 ;
+2 x6945 +2 x6946 +2 x6947 +2 x6948 -1 x6685 -1 x6686 -1 x6687 -1 x6688 -1 x6689 -1 x6690 -1 x6691 -1 x6692 >= 0 ;
+2 x6949 +2 x6950 +2 x6951 +2 x6952 -1 x6689 -1 x6690 -1 x6691 -1 x6692 -1 x6693 -1 x6694 -1 x6695 -1 x6696 >= 0 ;
+2 x6953 +2 x6954 +2 x6955 +2 x6956 -1 x6693 -1 x6694 -1 x6695 -1 x6696 -1 x6697 -1 x6698 -1 x6699 -1 x6700 >= 0 ;
+2 x6957 +2 x6958 +2 x6959 +2 x6960 -1 x6697 -1 x6698 -1 x6699 -1 x6700 -1 x6701 -1 x6702 -1 x6703 -1 x6704 >= 0 ;
+2 x6961 +2 x6962 +2 x6963 +2 x6964 -1 x6701 -1 x6702 -1 x6703 -1 x6704 -1 x6705 -1 x6706 -1 x6707 -1 x6708 >= 0 ;
+2 x6965 +2 x6966 +2 x6967 +2 x6968 -1 x6705 -1 x6706 -1 x6707 -1 x6708 -1 x6709 -1 x6710 -1 x6711 -1 x6712 >= 0 ;
+2 x6969 +2 x6970 +2 x6971 +2 x6972 -1 x6709 -1 x6710 -1 x6711 -1 x6712 -1 x6713 -1 x6714 -1 x6715 -1 x6716 >= 0 ;
+2 x6973 +2 x6974 +2 x6975 +2 x6976 -1 x6713 -1 x6714 -1 x6715 -1 x6716 -1 x6717 -1 x6718 -1 x6719 -1 x6720 >= 0 ;
+2 x6977 +2 x6978 +2 x6979 +2 x6980 -1 x6717 -1 x6718 -1 x6719 -1 x6720 -1 x6721 -1 x6722 -1 x6723 -1 x6724 >= 0 ;
+2 x6981 +2 x6982 +2 x6983 +2 x6984 -1 x6721 -1 x6722 -1 x6723 -1 x6724 -1 x6725 -1 x6726 -1 x6727 -1 x6728 >= 0 ;
+2 x6985 +2 x6986 +2 x6987 +2 x6988 -1 x6725 -1 x6726 -1 x6727 -1 x6728 -1 x6729 -1 x6730 -1 x6731 -1 x6732 >= 0 ;
+2 x6989 +2 x6990 +2 x6991 +2 x6992 -1 x6729 -1 x6730 -1 x6731 -1 x6732 -1 x6733 -1 x6734 -1 x6735 -1 x6736 >= 0 ;
+2 x6993 +2 x6994 +2 x6995 +2 x6996 -1 x6733 -1 x6734 -1 x6735 -1 x6736 -1 x6737 -1 x6738 -1 x6739 -1 x6740 >= 0 ;
+2 x6997 +2 x6998 +2 x6999 +2 x7000 -1 x6737 -1 x6738 -1 x6739 -1 x6740 -1 x6741 -1 x6742 -1 x6743 -1 x6744 >= 0 ;
+2 x7001 +2 x7002 +2 x7003 +2 x7004 -1 x6741 -1 x6742 -1 x6743 -1 x6744 -1 x6745 -1 x6746 -1 x6747 -1 x6748 >= 0 ;
+2 x7005 +2 x7006 +2 x7007 +2 x7008 -1 x6745 -1 x6746 -1 x6747 -1 x6748 -1 x6749 -1 x6750 -1 x6751 -1 x6752 >= 0 ;
+2 x7009 +2 x7010 +2 x7011 +2 x7012 -1 x6749 -1 x6750 -1 x6751 -1 x6752 -1 x6753 -1 x6754 -1 x6755 -1 x6756 >= 0 ;
+2 x7013 +2 x7014 +2 x7015 +2 x7016 -1 x6753 -1 x6754 -1 x6755 -1 x6756 -1 x6757 -1 x6758 -1 x6759 -1 x6760 >= 0 ;
+2 x7017 +2 x7018 +2 x7019 +2 x7020 -1 x6757 -1 x6758 -1 x6759 -1 x6760 -1 x6761 -1 x6762 -1 x6763 -1 x6764 >= 0 ;
+2 x7021 +2 x7022 +2 x7023 +2 x7024 -1 x6761 -1 x6762 -1 x6763 -1 x6764 -1 x6765 -1 x6766 -1 x6767 -1 x6768 >= 0 ;
+2 x7025 +2 x7026 +2 x7027 +2 x7028 -1 x6765 -1 x6766 -1 x6767 -1 x6768 -1 x6769 -1 x6770 -1 x6771 -1 x6772 >= 0 ;
+2 x7029 +2 x7030 +2 x7031 +2 x7032 -1 x6769 -1 x6770 -1 x6771 -1 x6772 -1 x6773 -1 x6774 -1 x6775 -1 x6776 >= 0 ;
+2 x7033 +2 x7034 +2 x7035 +2 x7036 -1 x6773 -1 x6774 -1 x6775 -1 x6776 -1 x6777 -1 x6778 -1 x6779 -1 x6780 >= 0 ;
+2 x7037 +2 x7038 +2 x7039 +2 x7040 -1 x6777 -1 x6778 -1 x6779 -1 x6780 -1 x6781 -1 x6782 -1 x6783 -1 x6784 >= 0 ;
+2 x7041 +2 x7042 +2 x7043 +2 x7044 -1 x6781 -1 x6782 -1 x6783 -1 x6784 -1 x6785 -1 x6786 -1 x6787 -1 x6788 >= 0 ;
+2 x7045 +2 x7046 +2 x7047 +2 x7048 -1 x6785 -1 x6786 -1 x6787 -1 x6788 -1 x6789 -1 x6790 -1 x6791 -1 x6792 >= 0 ;
+2 x7049 +2 x7050 +2 x7051 +2 x7052 -1 x6789 -1 x6790 -1 x6791 -1 x6792 -1 x6793 -1 x6794 -1 x6795 -1 x6796 >= 0 ;
+2 x7053 +2 x7054 +2 x7055 +2 x7056 -1 x6793 -1 x6794 -1 x6795 -1 x6796 -1 x6797 -1 x6798 -1 x6799 -1 x6800 >= 0 ;
+2 x7057 +2 x7058 +2 x7059 +2 x7060 -1 x6797 -1 x6798 -1 x6799 -1 x6800 -1 x6801 -1 x6802 -1 x6803 -1 x6804 >= 0 ;
+2 x7061 +2 x7062 +2 x7063 +2 x7064 -1 x6801 -1 x6802 -1 x6803 -1 x6804 -1 x6805 -1 x6806 -1 x6807 -1 x6808 >= 0 ;
+2 x7065 +2 x7066 +2 x7067 +2 x7068 -1 x6805 -1 x6806 -1 x6807 -1 x6808 -1 x6809 -1 x6810 -1 x6811 -1 x6812 >= 0 ;
+2 x7069 +2 x7070 +2 x7071 +2 x7072 -1 x6809 -1 x6810 -1 x6811 -1 x6812 -1 x6813 -1 x6814 -1 x6815 -1 x6816 >= 0 ;
+2 x7073 +2 x7074 +2 x7075 +2 x7076 -1 x6813 -1 x6814 -1 x6815 -1 x6816 -1 x6817 -1 x6818 -1 x6819 -1 x6820 >= 0 ;
+2 x7077 +2 x7078 +2 x7079 +2 x7080 -1 x6817 -1 x6818 -1 x6819 -1 x6820 -1 x6821 -1 x6822 -1 x6823 -1 x6824 >= 0 ;
+2 x7081 +2 x7082 +2 x7083 +2 x7084 -1 x6821 -1 x6822 -1 x6823 -1 x6824 -1 x6825 -1 x6826 -1 x6827 -1 x6828 >= 0 ;
+2 x7085 +2 x7086 +2 x7087 +2 x7088 -1 x6825 -1 x6826 -1 x6827 -1 x6828 -1 x6829 -1 x6830 -1 x6831 -1 x6832 >= 0 ;
+2 x7089 +2 x7090 +2 x7091 +2 x7092 -1 x6829 -1 x6830 -1 x6831 -1 x6832 -1 x6833 -1 x6834 -1 x6835 -1 x6836 >= 0 ;
+2 x7093 +2 x7094 +2 x7095 +2 x7096 -1 x6833 -1 x6834 -1 x6835 -1 x6836 -1 x6837 -1 x6838 -1 x6839 -1 x6840 >= 0 ;
+2 x7097 +2 x7098 +2 x7099 +2 x7100 -1 x6837 -1 x6838 -1 x6839 -1 x6840 -1 x6841 -1 x6842 -1 x6843 -1 x6844 >= 0 ;
+2 x7101 +2 x7102 +2 x7103 +2 x7104 -1 x6841 -1 x6842 -1 x6843 -1 x6844 -1 x6845 -1 x6846 -1 x6847 -1 x6848 >= 0 ;
+2 x7105 +2 x7106 +2 x7107 +2 x7108 -1 x6845 -1 x6846 -1 x6847 -1 x6848 -1 x6849 -1 x6850 -1 x6851 -1 x6852 >= 0 ;
+2 x7109 +2 x7110 +2 x7111 +2 x7112 -1 x6849 -1 x6850 -1 x6851 -1 x6852 -1 x6853 -1 x6854 -1 x6855 -1 x6856 >= 0 ;
+2 x7113 +2 x7114 +2 x7115 +2 x7116 -1 x6853 -1 x6854 -1 x6855 -1 x6856 -1 x6857 -1 x6858 -1 x6859 -1 x6860 >= 0 ;
+2 x7117 +2 x7118 +2 x7119 +2 x7120 -1 x6857 -1 x6858 -1 x6859 -1 x6860 -1 x6861 -1 x6862 -1 x6863 -1 x6864 >= 0 ;
+2 x7121 +2 x7122 +2 x7123 +2 x7124 -1 x6861 -1 x6862 -1 x6863 -1 x6864 -1 x6865 -1 x6866 -1 x6867 -1 x6868 >= 0 ;
+2 x7125 +2 x7126 +2 x7127 +2 x7128 -1 x6865 -1 x6866 -1 x6867 -1 x6868 -1 x6869 -1 x6870 -1 x6871 -1 x6872 >= 0 ;
+2 x7129 +2 x7130 +2 x7131 +2 x7132 -1 x6869 -1 x6870 -1 x6871 -1 x6872 -1 x6873 -1 x6874 -1 x6875 -1 x6876 >= 0 ;
+2 x7133 +2 x7134 +2 x7135 +2 x7136 -1 x6873 -1 x6874 -1 x6875 -1 x6876 -1 x6877 -1 x6878 -1 x6879 -1 x6880 >= 0 ;
+2 x7137 +2 x7138 +2 x7139 +2 x7140 -1 x6877 -1 x6878 -1 x6879 -1 x6880 -1 x6881 -1 x6882 -1 x6883 -1 x6884 >= 0 ;
+2 x7141 +2 x7142 +2 x7143 +2 x7144 -1 x6881 -1 x6882 -1 x6883 -1 x6884 -1 x6885 -1 x6886 -1 x6887 -1 x6888 >= 0 ;
+2 x7145 +2 x7146 +2 x7147 +2 x7148 -1 x6885 -1 x6886 -1 x6887 -1 x6888 -1 x6889 -1 x6890 -1 x6891 -1 x6892 >= 0 ;
+2 x7149 +2 x7150 +2 x7151 +2 x7152 -1 x6889 -1 x6890 -1 x6891 -1 x6892 -1 x6893 -1 x6894 -1 x6895 -1 x6896 >= 0 ;
+2 x7153 +2 x7154 +2 x7155 +2 x7156 -1 x6893 -1 x6894 -1 x6895 -1 x6896 -1 x6897 -1 x6898 -1 x6899 -1 x6900 >= 0 ;
+2 x7157 +2 x7158 +2 x7159 +2 x7160 -1 x6897 -1 x6898 -1 x6899 -1 x6900 -1 x6901 -1 x6902 -1 x6903 -1 x6904 >= 0 ;
+2 x7161 +2 x7162 +2 x7163 +2 x7164 -1 x6901 -1 x6902 -1 x6903 -1 x6904 -1 x6905 -1 x6906 -1 x6907 -1 x6908 >= 0 ;
+2 x7165 +2 x7166 +2 x7167 +2 x7168 -1 x6905 -1 x6906 -1 x6907 -1 x6908 -1 x6909 -1 x6910 -1 x6911 -1 x6912 >= 0 ;
+2 x7169 +2 x7170 +2 x7171 +2 x7172 -1 x6913 -1 x6914 -1 x6915 -1 x6916 -1 x7165 -1 x7166 -1 x7167 -1 x7168 >= 0 ;
+2 x7173 +2 x7174 +2 x7175 +2 x7176 -1 x6913 -1 x6914 -1 x6915 -1 x6916 -1 x6917 -1 x6918 -1 x6919 -1 x6920 >= 0 ;
+2 x7177 +2 x7178 +2 x7179 +2 x7180 -1 x6917 -1 x6918 -1 x6919 -1 x6920 -1 x6921 -1 x6922 -1 x6923 -1 x6924 >= 0 ;
+2 x7181 +2 x7182 +2 x7183 +2 x7184 -1 x6921 -1 x6922 -1 x6923 -1 x6924 -1 x6925 -1 x6926 -1 x6927 -1 x6928 >= 0 ;
+2 x7185 +2 x7186 +2 x7187 +2 x7188 -1 x6925 -1 x6926 -1 x6927 -1 x6928 -1 x6929 -1 x6930 -1 x6931 -1 x6932 >= 0 ;
+2 x7189 +2 x7190 +2 x7191 +2 x7192 -1 x6929 -1 x6930 -1 x6931 -1 x6932 -1 x6933 -1 x6934 -1 x6935 -1 x6936 >= 0 ;
+2 x7193 +2 x7194 +2 x7195 +2 x7196 -1 x6933 -1 x6934 -1 x6935 -1 x6936 -1 x6937 -1 x6938 -1 x6939 -1 x6940 >= 0 ;
+2 x7197 +2 x7198 +2 x7199 +2 x7200 -1 x6937 -1 x6938 -1 x6939 -1 x6940 -1 x6941 -1 x6942 -1 x6943 -1 x6944 >= 0 ;
+2 x7201 +2 x7202 +2 x7203 +2 x7204 -1 x6941 -1 x6942 -1 x6943 -1 x6944 -1 x6945 -1 x6946 -1 x6947 -1 x6948 >= 0 ;
+2 x7205 +2 x7206 +2 x7207 +2 x7208 -1 x6945 -1 x6946 -1 x6947 -1 x6948 -1 x6949 -1 x6950 -1 x6951 -1 x6952 >= 0 ;
+2 x7209 +2 x7210 +2 x7211 +2 x7212 -1 x6949 -1 x6950 -1 x6951 -1 x6952 -1 x6953 -1 x6954 -1 x6955 -1 x6956 >= 0 ;
+2 x7213 +2 x7214 +2 x7215 +2 x7216 -1 x6953 -1 x6954 -1 x6955 -1 x6956 -1 x6957 -1 x6958 -1 x6959 -1 x6960 >= 0 ;
+2 x7217 +2 x7218 +2 x7219 +2 x7220 -1 x6957 -1 x6958 -1 x6959 -1 x6960 -1 x6961 -1 x6962 -1 x6963 -1 x6964 >= 0 ;
+2 x7221 +2 x7222 +2 x7223 +2 x7224 -1 x6961 -1 x6962 -1 x6963 -1 x6964 -1 x6965 -1 x6966 -1 x6967 -1 x6968 >= 0 ;
+2 x7225 +2 x7226 +2 x7227 +2 x7228 -1 x6965 -1 x6966 -1 x6967 -1 x6968 -1 x6969 -1 x6970 -1 x6971 -1 x6972 >= 0 ;
+2 x7229 +2 x7230 +2 x7231 +2 x7232 -1 x6969 -1 x6970 -1 x6971 -1 x6972 -1 x6973 -1 x6974 -1 x6975 -1 x6976 >= 0 ;
+2 x7233 +2 x7234 +2 x7235 +2 x7236 -1 x6973 -1 x6974 -1 x6975 -1 x6976 -1 x6977 -1 x6978 -1 x6979 -1 x6980 >= 0 ;
+2 x7237 +2 x7238 +2 x7239 +2 x7240 -1 x6977 -1 x6978 -1 x6979 -1 x6980 -1 x6981 -1 x6982 -1 x6983 -1 x6984 >= 0 ;
+2 x7241 +2 x7242 +2 x7243 +2 x7244 -1 x6981 -1 x6982 -1 x6983 -1 x6984 -1 x6985 -1 x6986 -1 x6987 -1 x6988 >= 0 ;
+2 x7245 +2 x7246 +2 x7247 +2 x7248 -1 x6985 -1 x6986 -1 x6987 -1 x6988 -1 x6989 -1 x6990 -1 x6991 -1 x6992 >= 0 ;
+2 x7249 +2 x7250 +2 x7251 +2 x7252 -1 x6989 -1 x6990 -1 x6991 -1 x6992 -1 x6993 -1 x6994 -1 x6995 -1 x6996 >= 0 ;
+2 x7253 +2 x7254 +2 x7255 +2 x7256 -1 x6993 -1 x6994 -1 x6995 -1 x6996 -1 x6997 -1 x6998 -1 x6999 -1 x7000 >= 0 ;
+2 x7257 +2 x7258 +2 x7259 +2 x7260 -1 x6997 -1 x6998 -1 x6999 -1 x7000 -1 x7001 -1 x7002 -1 x7003 -1 x7004 >= 0 ;
+2 x7261 +2 x7262 +2 x7263 +2 x7264 -1 x7001 -1 x7002 -1 x7003 -1 x7004 -1 x7005 -1 x7006 -1 x7007 -1 x7008 >= 0 ;
+2 x7265 +2 x7266 +2 x7267 +2 x7268 -1 x7005 -1 x7006 -1 x7007 -1 x7008 -1 x7009 -1 x7010 -1 x7011 -1 x7012 >= 0 ;
+2 x7269 +2 x7270 +2 x7271 +2 x7272 -1 x7009 -1 x7010 -1 x7011 -1 x7012 -1 x7013 -1 x7014 -1 x7015 -1 x7016 >= 0 ;
+2 x7273 +2 x7274 +2 x7275 +2 x7276 -1 x7013 -1 x7014 -1 x7015 -1 x7016 -1 x7017 -1 x7018 -1 x7019 -1 x7020 >= 0 ;
+2 x7277 +2 x7278 +2 x7279 +2 x7280 -1 x7017 -1 x7018 -1 x7019 -1 x7020 -1 x7021 -1 x7022 -1 x7023 -1 x7024 >= 0 ;
+2 x7281 +2 x7282 +2 x7283 +2 x7284 -1 x7021 -1 x7022 -1 x7023 -1 x7024 -1 x7025 -1 x7026 -1 x7027 -1 x7028 >= 0 ;
+2 x7285 +2 x7286 +2 x7287 +2 x7288 -1 x7025 -1 x7026 -1 x7027 -1 x7028 -1 x7029 -1 x7030 -1 x7031 -1 x7032 >= 0 ;
+2 x7289 +2 x7290 +2 x7291 +2 x7292 -1 x7029 -1 x7030 -1 x7031 -1 x7032 -1 x7033 -1 x7034 -1 x7035 -1 x7036 >= 0 ;
+2 x7293 +2 x7294 +2 x7295 +2 x7296 -1 x7033 -1 x7034 -1 x7035 -1 x7036 -1 x7037 -1 x7038 -1 x7039 -1 x7040 >= 0 ;
+2 x7297 +2 x7298 +2 x7299 +2 x7300 -1 x7037 -1 x7038 -1 x7039 -1 x7040 -1 x7041 -1 x7042 -1 x7043 -1 x7044 >= 0 ;
+2 x7301 +2 x7302 +2 x7303 +2 x7304 -1 x7041 -1 x7042 -1 x7043 -1 x7044 -1 x7045 -1 x7046 -1 x7047 -1 x7048 >= 0 ;
+2 x7305 +2 x7306 +2 x7307 +2 x7308 -1 x7045 -1 x7046 -1 x7047 -1 x7048 -1 x7049 -1 x7050 -1 x7051 -1 x7052 >= 0 ;
+2 x7309 +2 x7310 +2 x7311 +2 x7312 -1 x7049 -1 x7050 -1 x7051 -1 x7052 -1 x7053 -1 x7054 -1 x7055 -1 x7056 >= 0 ;
+2 x7313 +2 x7314 +2 x7315 +2 x7316 -1 x7053 -1 x7054 -1 x7055 -1 x7056 -1 x7057 -1 x7058 -1 x7059 -1 x7060 >= 0 ;
+2 x7317 +2 x7318 +2 x7319 +2 x7320 -1 x7057 -1 x7058 -1 x7059 -1 x7060 -1 x7061 -1 x7062 -1 x7063 -1 x7064 >= 0 ;
+2 x7321 +2 x7322 +2 x7323 +2 x7324 -1 x7061 -1 x7062 -1 x7063 -1 x7064 -1 x7065 -1 x7066 -1 x7067 -1 x7068 >= 0 ;
+2 x7325 +2 x7326 +2 x7327 +2 x7328 -1 x7065 -1 x7066 -1 x7067 -1 x7068 -1 x7069 -1 x7070 -1 x7071 -1 x7072 >= 0 ;
+2 x7329 +2 x7330 +2 x7331 +2 x7332 -1 x7069 -1 x7070 -1 x7071 -1 x7072 -1 x7073 -1 x7074 -1 x7075 -1 x7076 >= 0 ;
+2 x7333 +2 x7334 +2 x7335 +2 x7336 -1 x7073 -1 x7074 -1 x7075 -1 x7076 -1 x7077 -1 x7078 -1 x7079 -1 x7080 >= 0 ;
+2 x7337 +2 x7338 +2 x7339 +2 x7340 -1 x7077 -1 x7078 -1 x7079 -1 x7080 -1 x7081 -1 x7082 -1 x7083 -1 x7084 >= 0 ;
+2 x7341 +2 x7342 +2 x7343 +2 x7344 -1 x7081 -1 x7082 -1 x7083 -1 x7084 -1 x7085 -1 x7086 -1 x7087 -1 x7088 >= 0 ;
+2 x7345 +2 x7346 +2 x7347 +2 x7348 -1 x7085 -1 x7086 -1 x7087 -1 x7088 -1 x7089 -1 x7090 -1 x7091 -1 x7092 >= 0 ;
+2 x7349 +2 x7350 +2 x7351 +2 x7352 -1 x7089 -1 x7090 -1 x7091 -1 x7092 -1 x7093 -1 x7094 -1 x7095 -1 x7096 >= 0 ;
+2 x7353 +2 x7354 +2 x7355 +2 x7356 -1 x7093 -1 x7094 -1 x7095 -1 x7096 -1 x7097 -1 x7098 -1 x7099 -1 x7100 >= 0 ;
+2 x7357 +2 x7358 +2 x7359 +2 x7360 -1 x7097 -1 x7098 -1 x7099 -1 x7100 -1 x7101 -1 x7102 -1 x7103 -1 x7104 >= 0 ;
+2 x7361 +2 x7362 +2 x7363 +2 x7364 -1 x7101 -1 x7102 -1 x7103 -1 x7104 -1 x7105 -1 x7106 -1 x7107 -1 x7108 >= 0 ;
+2 x7365 +2 x7366 +2 x7367 +2 x7368 -1 x7105 -1 x7106 -1 x7107 -1 x7108 -1 x7109 -1 x7110 -1 x7111 -1 x7112 >= 0 ;
+2 x7369 +2 x7370 +2 x7371 +2 x7372 -1 x7109 -1 x7110 -1 x7111 -1 x7112 -1 x7113 -1 x7114 -1 x7115 -1 x7116 >= 0 ;
+2 x7373 +2 x7374 +2 x7375 +2 x7376 -1 x7113 -1 x7114 -1 x7115 -1 x7116 -1 x7117 -1 x7118 -1 x7119 -1 x7120 >= 0 ;
+2 x7377 +2 x7378 +2 x7379 +2 x7380 -1 x7117 -1 x7118 -1 x7119 -1 x7120 -1 x7121 -1 x7122 -1 x7123 -1 x7124 >= 0 ;
+2 x7381 +2 x7382 +2 x7383 +2 x7384 -1 x7121 -1 x7122 -1 x7123 -1 x7124 -1 x7125 -1 x7126 -1 x7127 -1 x7128 >= 0 ;
+2 x7385 +2 x7386 +2 x7387 +2 x7388 -1 x7125 -1 x7126 -1 x7127 -1 x7128 -1 x7129 -1 x7130 -1 x7131 -1 x7132 >= 0 ;
+2 x7389 +2 x7390 +2 x7391 +2 x7392 -1 x7129 -1 x7130 -1 x7131 -1 x7132 -1 x7133 -1 x7134 -1 x7135 -1 x7136 >= 0 ;
+2 x7393 +2 x7394 +2 x7395 +2 x7396 -1 x7133 -1 x7134 -1 x7135 -1 x7136 -1 x7137 -1 x7138 -1 x7139 -1 x7140 >= 0 ;
+2 x7397 +2 x7398 +2 x7399 +2 x7400 -1 x7137 -1 x7138 -1 x7139 -1 x7140 -1 x7141 -1 x7142 -1 x7143 -1 x7144 >= 0 ;
+2 x7401 +2 x7402 +2 x7403 +2 x7404 -1 x7141 -1 x7142 -1 x7143 -1 x7144 -1 x7145 -1 x7146 -1 x7147 -1 x7148 >= 0 ;
+2 x7405 +2 x7406 +2 x7407 +2 x7408 -1 x7145 -1 x7146 -1 x7147 -1 x7148 -1 x7149 -1 x7150 -1 x7151 -1 x7152 >= 0 ;
+2 x7409 +2 x7410 +2 x7411 +2 x7412 -1 x7149 -1 x7150 -1 x7151 -1 x7152 -1 x7153 -1 x7154 -1 x7155 -1 x7156 >= 0 ;
+2 x7413 +2 x7414 +2 x7415 +2 x7416 -1 x7153 -1 x7154 -1 x7155 -1 x7156 -1 x7157 -1 x7158 -1 x7159 -1 x7160 >= 0 ;
+2 x7417 +2 x7418 +2 x7419 +2 x7420 -1 x7157 -1 x7158 -1 x7159 -1 x7160 -1 x7161 -1 x7162 -1 x7163 -1 x7164 >= 0 ;
+2 x7421 +2 x7422 +2 x7423 +2 x7424 -1 x7161 -1 x7162 -1 x7163 -1 x7164 -1 x7165 -1 x7166 -1 x7167 -1 x7168 >= 0 ;
+2 x7425 +2 x7426 +2 x7427 +2 x7428 -1 x7169 -1 x7170 -1 x7171 -1 x7172 -1 x7421 -1 x7422 -1 x7423 -1 x7424 >= 0 ;
+2 x7429 +2 x7430 +2 x7431 +2 x7432 -1 x7169 -1 x7170 -1 x7171 -1 x7172 -1 x7173 -1 x7174 -1 x7175 -1 x7176 >= 0 ;
+2 x7433 +2 x7434 +2 x7435 +2 x7436 -1 x7173 -1 x7174 -1 x7175 -1 x7176 -1 x7177 -1 x7178 -1 x7179 -1 x7180 >= 0 ;
+2 x7437 +2 x7438 +2 x7439 +2 x7440 -1 x7177 -1 x7178 -1 x7179 -1 x7180 -1 x7181 -1 x7182 -1 x7183 -1 x7184 >= 0 ;
+2 x7441 +2 x7442 +2 x7443 +2 x7444 -1 x7181 -1 x7182 -1 x7183 -1 x7184 -1 x7185 -1 x7186 -1 x7187 -1 x7188 >= 0 ;
+2 x7445 +2 x7446 +2 x7447 +2 x7448 -1 x7185 -1 x7186 -1 x7187 -1 x7188 -1 x7189 -1 x7190 -1 x7191 -1 x7192 >= 0 ;
+2 x7449 +2 x7450 +2 x7451 +2 x7452 -1 x7189 -1 x7190 -1 x7191 -1 x7192 -1 x7193 -1 x7194 -1 x7195 -1 x7196 >= 0 ;
+2 x7453 +2 x7454 +2 x7455 +2 x7456 -1 x7193 -1 x7194 -1 x7195 -1 x7196 -1 x7197 -1 x7198 -1 x7199 -1 x7200 >= 0 ;
+2 x7457 +2 x7458 +2 x7459 +2 x7460 -1 x7197 -1 x7198 -1 x7199 -1 x7200 -1 x7201 -1 x7202 -1 x7203 -1 x7204 >= 0 ;
+2 x7461 +2 x7462 +2 x7463 +2 x7464 -1 x7201 -1 x7202 -1 x7203 -1 x7204 -1 x7205 -1 x7206 -1 x7207 -1 x7208 >= 0 ;
+2 x7465 +2 x7466 +2 x7467 +2 x7468 -1 x7205 -1 x7206 -1 x7207 -1 x7208 -1 x7209 -1 x7210 -1 x7211 -1 x7212 >= 0 ;
+2 x7469 +2 x7470 +2 x7471 +2 x7472 -1 x7209 -1 x7210 -1 x7211 -1 x7212 -1 x7213 -1 x7214 -1 x7215 -1 x7216 >= 0 ;
+2 x7473 +2 x7474 +2 x7475 +2 x7476 -1 x7213 -1 x7214 -1 x7215 -1 x7216 -1 x7217 -1 x7218 -1 x7219 -1 x7220 >= 0 ;
+2 x7477 +2 x7478 +2 x7479 +2 x7480 -1 x7217 -1 x7218 -1 x7219 -1 x7220 -1 x7221 -1 x7222 -1 x7223 -1 x7224 >= 0 ;
+2 x7481 +2 x7482 +2 x7483 +2 x7484 -1 x7221 -1 x7222 -1 x7223 -1 x7224 -1 x7225 -1 x7226 -1 x7227 -1 x7228 >= 0 ;
+2 x7485 +2 x7486 +2 x7487 +2 x7488 -1 x7225 -1 x7226 -1 x7227 -1 x7228 -1 x7229 -1 x7230 -1 x7231 -1 x7232 >= 0 ;
+2 x7489 +2 x7490 +2 x7491 +2 x7492 -1 x7229 -1 x7230 -1 x7231 -1 x7232 -1 x7233 -1 x7234 -1 x7235 -1 x7236 >= 0 ;
+2 x7493 +2 x7494 +2 x7495 +2 x7496 -1 x7233 -1 x7234 -1 x7235 -1 x7236 -1 x7237 -1 x7238 -1 x7239 -1 x7240 >= 0 ;
+2 x7497 +2 x7498 +2 x7499 +2 x7500 -1 x7237 -1 x7238 -1 x7239 -1 x7240 -1 x7241 -1 x7242 -1 x7243 -1 x7244 >= 0 ;
+2 x7501 +2 x7502 +2 x7503 +2 x7504 -1 x7241 -1 x7242 -1 x7243 -1 x7244 -1 x7245 -1 x7246 -1 x7247 -1 x7248 >= 0 ;
+2 x7505 +2 x7506 +2 x7507 +2 x7508 -1 x7245 -1 x7246 -1 x7247 -1 x7248 -1 x7249 -1 x7250 -1 x7251 -1 x7252 >= 0 ;
+2 x7509 +2 x7510 +2 x7511 +2 x7512 -1 x7249 -1 x7250 -1 x7251 -1 x7252 -1 x7253 -1 x7254 -1 x7255 -1 x7256 >= 0 ;
+2 x7513 +2 x7514 +2 x7515 +2 x7516 -1 x7253 -1 x7254 -1 x7255 -1 x7256 -1 x7257 -1 x7258 -1 x7259 -1 x7260 >= 0 ;
+2 x7517 +2 x7518 +2 x7519 +2 x7520 -1 x7257 -1 x7258 -1 x7259 -1 x7260 -1 x7261 -1 x7262 -1 x7263 -1 x7264 >= 0 ;
+2 x7521 +2 x7522 +2 x7523 +2 x7524 -1 x7261 -1 x7262 -1 x7263 -1 x7264 -1 x7265 -1 x7266 -1 x7267 -1 x7268 >= 0 ;
+2 x7525 +2 x7526 +2 x7527 +2 x7528 -1 x7265 -1 x7266 -1 x7267 -1 x7268 -1 x7269 -1 x7270 -1 x7271 -1 x7272 >= 0 ;
+2 x7529 +2 x7530 +2 x7531 +2 x7532 -1 x7269 -1 x7270 -1 x7271 -1 x7272 -1 x7273 -1 x7274 -1 x7275 -1 x7276 >= 0 ;
+2 x7533 +2 x7534 +2 x7535 +2 x7536 -1 x7273 -1 x7274 -1 x7275 -1 x7276 -1 x7277 -1 x7278 -1 x7279 -1 x7280 >= 0 ;
+2 x7537 +2 x7538 +2 x7539 +2 x7540 -1 x7277 -1 x7278 -1 x7279 -1 x7280 -1 x7281 -1 x7282 -1 x7283 -1 x7284 >= 0 ;
+2 x7541 +2 x7542 +2 x7543 +2 x7544 -1 x7281 -1 x7282 -1 x7283 -1 x7284 -1 x7285 -1 x7286 -1 x7287 -1 x7288 >= 0 ;
+2 x7545 +2 x7546 +2 x7547 +2 x7548 -1 x7285 -1 x7286 -1 x7287 -1 x7288 -1 x7289 -1 x7290 -1 x7291 -1 x7292 >= 0 ;
+2 x7549 +2 x7550 +2 x7551 +2 x7552 -1 x7289 -1 x7290 -1 x7291 -1 x7292 -1 x7293 -1 x7294 -1 x7295 -1 x7296 >= 0 ;
+2 x7553 +2 x7554 +2 x7555 +2 x7556 -1 x7293 -1 x7294 -1 x7295 -1 x7296 -1 x7297 -1 x7298 -1 x7299 -1 x7300 >= 0 ;
+2 x7557 +2 x7558 +2 x7559 +2 x7560 -1 x7297 -1 x7298 -1 x7299 -1 x7300 -1 x7301 -1 x7302 -1 x7303 -1 x7304 >= 0 ;
+2 x7561 +2 x7562 +2 x7563 +2 x7564 -1 x7301 -1 x7302 -1 x7303 -1 x7304 -1 x7305 -1 x7306 -1 x7307 -1 x7308 >= 0 ;
+2 x7565 +2 x7566 +2 x7567 +2 x7568 -1 x7305 -1 x7306 -1 x7307 -1 x7308 -1 x7309 -1 x7310 -1 x7311 -1 x7312 >= 0 ;
+2 x7569 +2 x7570 +2 x7571 +2 x7572 -1 x7309 -1 x7310 -1 x7311 -1 x7312 -1 x7313 -1 x7314 -1 x7315 -1 x7316 >= 0 ;
+2 x7573 +2 x7574 +2 x7575 +2 x7576 -1 x7313 -1 x7314 -1 x7315 -1 x7316 -1 x7317 -1 x7318 -1 x7319 -1 x7320 >= 0 ;
+2 x7577 +2 x7578 +2 x7579 +2 x7580 -1 x7317 -1 x7318 -1 x7319 -1 x7320 -1 x7321 -1 x7322 -1 x7323 -1 x7324 >= 0 ;
+2 x7581 +2 x7582 +2 x7583 +2 x7584 -1 x7321 -1 x7322 -1 x7323 -1 x7324 -1 x7325 -1 x7326 -1 x7327 -1 x7328 >= 0 ;
+2 x7585 +2 x7586 +2 x7587 +2 x7588 -1 x7325 -1 x7326 -1 x7327 -1 x7328 -1 x7329 -1 x7330 -1 x7331 -1 x7332 >= 0 ;
+2 x7589 +2 x7590 +2 x7591 +2 x7592 -1 x7329 -1 x7330 -1 x7331 -1 x7332 -1 x7333 -1 x7334 -1 x7335 -1 x7336 >= 0 ;
+2 x7593 +2 x7594 +2 x7595 +2 x7596 -1 x7333 -1 x7334 -1 x7335 -1 x7336 -1 x7337 -1 x7338 -1 x7339 -1 x7340 >= 0 ;
+2 x7597 +2 x7598 +2 x7599 +2 x7600 -1 x7337 -1 x7338 -1 x7339 -1 x7340 -1 x7341 -1 x7342 -1 x7343 -1 x7344 >= 0 ;
+2 x7601 +2 x7602 +2 x7603 +2 x7604 -1 x7341 -1 x7342 -1 x7343 -1 x7344 -1 x7345 -1 x7346 -1 x7347 -1 x7348 >= 0 ;
+2 x7605 +2 x7606 +2 x7607 +2 x7608 -1 x7345 -1 x7346 -1 x7347 -1 x7348 -1 x7349 -1 x7350 -1 x7351 -1 x7352 >= 0 ;
+2 x7609 +2 x7610 +2 x7611 +2 x7612 -1 x7349 -1 x7350 -1 x7351 -1 x7352 -1 x7353 -1 x7354 -1 x7355 -1 x7356 >= 0 ;
+2 x7613 +2 x7614 +2 x7615 +2 x7616 -1 x7353 -1 x7354 -1 x7355 -1 x7356 -1 x7357 -1 x7358 -1 x7359 -1 x7360 >= 0 ;
+2 x7617 +2 x7618 +2 x7619 +2 x7620 -1 x7357 -1 x7358 -1 x7359 -1 x7360 -1 x7361 -1 x7362 -1 x7363 -1 x7364 >= 0 ;
+2 x7621 +2 x7622 +2 x7623 +2 x7624 -1 x7361 -1 x7362 -1 x7363 -1 x7364 -1 x7365 -1 x7366 -1 x7367 -1 x7368 >= 0 ;
+2 x7625 +2 x7626 +2 x7627 +2 x7628 -1 x7365 -1 x7366 -1 x7367 -1 x7368 -1 x7369 -1 x7370 -1 x7371 -1 x7372 >= 0 ;
+2 x7629 +2 x7630 +2 x7631 +2 x7632 -1 x7369 -1 x7370 -1 x7371 -1 x7372 -1 x7373 -1 x7374 -1 x7375 -1 x7376 >= 0 ;
+2 x7633 +2 x7634 +2 x7635 +2 x7636 -1 x7373 -1 x7374 -1 x7375 -1 x7376 -1 x7377 -1 x7378 -1 x7379 -1 x7380 >= 0 ;
+2 x7637 +2 x7638 +2 x7639 +2 x7640 -1 x7377 -1 x7378 -1 x7379 -1 x7380 -1 x7381 -1 x7382 -1 x7383 -1 x7384 >= 0 ;
+2 x7641 +2 x7642 +2 x7643 +2 x7644 -1 x7381 -1 x7382 -1 x7383 -1 x7384 -1 x7385 -1 x7386 -1 x7387 -1 x7388 >= 0 ;
+2 x7645 +2 x7646 +2 x7647 +2 x7648 -1 x7385 -1 x7386 -1 x7387 -1 x7388 -1 x7389 -1 x7390 -1 x7391 -1 x7392 >= 0 ;
+2 x7649 +2 x7650 +2 x7651 +2 x7652 -1 x7389 -1 x7390 -1 x7391 -1 x7392 -1 x7393 -1 x7394 -1 x7395 -1 x7396 >= 0 ;
+2 x7653 +2 x7654 +2 x7655 +2 x7656 -1 x7393 -1 x7394 -1 x7395 -1 x7396 -1 x7397 -1 x7398 -1 x7399 -1 x7400 >= 0 ;
+2 x7657 +2 x7658 +2 x7659 +2 x7660 -1 x7397 -1 x7398 -1 x7399 -1 x7400 -1 x7401 -1 x7402 -1 x7403 -1 x7404 >= 0 ;
+2 x7661 +2 x7662 +2 x7663 +2 x7664 -1 x7401 -1 x7402 -1 x7403 -1 x7404 -1 x7405 -1 x7406 -1 x7407 -1 x7408 >= 0 ;
+2 x7665 +2 x7666 +2 x7667 +2 x7668 -1 x7405 -1 x7406 -1 x7407 -1 x7408 -1 x7409 -1 x7410 -1 x7411 -1 x7412 >= 0 ;
+2 x7669 +2 x7670 +2 x7671 +2 x7672 -1 x7409 -1 x7410 -1 x7411 -1 x7412 -1 x7413 -1 x7414 -1 x7415 -1 x7416 >= 0 ;
+2 x7673 +2 x7674 +2 x7675 +2 x7676 -1 x7413 -1 x7414 -1 x7415 -1 x7416 -1 x7417 -1 x7418 -1 x7419 -1 x7420 >= 0 ;
+2 x7677 +2 x7678 +2 x7679 +2 x7680 -1 x7417 -1 x7418 -1 x7419 -1 x7420 -1 x7421 -1 x7422 -1 x7423 -1 x7424 >= 0 ;
+2 x7681 +2 x7682 +2 x7683 +2 x7684 -1 x7425 -1 x7426 -1 x7427 -1 x7428 -1 x7677 -1 x7678 -1 x7679 -1 x7680 >= 0 ;
+2 x7685 +2 x7686 +2 x7687 +2 x7688 -1 x7425 -1 x7426 -1 x7427 -1 x7428 -1 x7429 -1 x7430 -1 x7431 -1 x7432 >= 0 ;
+2 x7689 +2 x7690 +2 x7691 +2 x7692 -1 x7429 -1 x7430 -1 x7431 -1 x7432 -1 x7433 -1 x7434 -1 x7435 -1 x7436 >= 0 ;
+2 x7693 +2 x7694 +2 x7695 +2 x7696 -1 x7433 -1 x7434 -1 x7435 -1 x7436 -1 x7437 -1 x7438 -1 x7439 -1 x7440 >= 0 ;
+2 x7697 +2 x7698 +2 x7699 +2 x7700 -1 x7437 -1 x7438 -1 x7439 -1 x7440 -1 x7441 -1 x7442 -1 x7443 -1 x7444 >= 0 ;
+2 x7701 +2 x7702 +2 x7703 +2 x7704 -1 x7441 -1 x7442 -1 x7443 -1 x7444 -1 x7445 -1 x7446 -1 x7447 -1 x7448 >= 0 ;
+2 x7705 +2 x7706 +2 x7707 +2 x7708 -1 x7445 -1 x7446 -1 x7447 -1 x7448 -1 x7449 -1 x7450 -1 x7451 -1 x7452 >= 0 ;
+2 x7709 +2 x7710 +2 x7711 +2 x7712 -1 x7449 -1 x7450 -1 x7451 -1 x7452 -1 x7453 -1 x7454 -1 x7455 -1 x7456 >= 0 ;
+2 x7713 +2 x7714 +2 x7715 +2 x7716 -1 x7453 -1 x7454 -1 x7455 -1 x7456 -1 x7457 -1 x7458 -1 x7459 -1 x7460 >= 0 ;
+2 x7717 +2 x7718 +2 x7719 +2 x7720 -1 x7457 -1 x7458 -1 x7459 -1 x7460 -1 x7461 -1 x7462 -1 x7463 -1 x7464 >= 0 ;
+2 x7721 +2 x7722 +2 x7723 +2 x7724 -1 x7461 -1 x7462 -1 x7463 -1 x7464 -1 x7465 -1 x7466 -1 x7467 -1 x7468 >= 0 ;
+2 x7725 +2 x7726 +2 x7727 +2 x7728 -1 x7465 -1 x7466 -1 x7467 -1 x7468 -1 x7469 -1 x7470 -1 x7471 -1 x7472 >= 0 ;
+2 x7729 +2 x7730 +2 x7731 +2 x7732 -1 x7469 -1 x7470 -1 x7471 -1 x7472 -1 x7473 -1 x7474 -1 x7475 -1 x7476 >= 0 ;
+2 x7733 +2 x7734 +2 x7735 +2 x7736 -1 x7473 -1 x7474 -1 x7475 -1 x7476 -1 x7477 -1 x7478 -1 x7479 -1 x7480 >= 0 ;
+2 x7737 +2 x7738 +2 x7739 +2 x7740 -1 x7477 -1 x7478 -1 x7479 -1 x7480 -1 x7481 -1 x7482 -1 x7483 -1 x7484 >= 0 ;
+2 x7741 +2 x7742 +2 x7743 +2 x7744 -1 x7481 -1 x7482 -1 x7483 -1 x7484 -1 x7485 -1 x7486 -1 x7487 -1 x7488 >= 0 ;
+2 x7745 +2 x7746 +2 x7747 +2 x7748 -1 x7485 -1 x7486 -1 x7487 -1 x7488 -1 x7489 -1 x7490 -1 x7491 -1 x7492 >= 0 ;
+2 x7749 +2 x7750 +2 x7751 +2 x7752 -1 x7489 -1 x7490 -1 x7491 -1 x7492 -1 x7493 -1 x7494 -1 x7495 -1 x7496 >= 0 ;
+2 x7753 +2 x7754 +2 x7755 +2 x7756 -1 x7493 -1 x7494 -1 x7495 -1 x7496 -1 x7497 -1 x7498 -1 x7499 -1 x7500 >= 0 ;
+2 x7757 +2 x7758 +2 x7759 +2 x7760 -1 x7497 -1 x7498 -1 x7499 -1 x7500 -1 x7501 -1 x7502 -1 x7503 -1 x7504 >= 0 ;
+2 x7761 +2 x7762 +2 x7763 +2 x7764 -1 x7501 -1 x7502 -1 x7503 -1 x7504 -1 x7505 -1 x7506 -1 x7507 -1 x7508 >= 0 ;
+2 x7765 +2 x7766 +2 x7767 +2 x7768 -1 x7505 -1 x7506 -1 x7507 -1 x7508 -1 x7509 -1 x7510 -1 x7511 -1 x7512 >= 0 ;
+2 x7769 +2 x7770 +2 x7771 +2 x7772 -1 x7509 -1 x7510 -1 x7511 -1 x7512 -1 x7513 -1 x7514 -1 x7515 -1 x7516 >= 0 ;
+2 x7773 +2 x7774 +2 x7775 +2 x7776 -1 x7513 -1 x7514 -1 x7515 -1 x7516 -1 x7517 -1 x7518 -1 x7519 -1 x7520 >= 0 ;
+2 x7777 +2 x7778 +2 x7779 +2 x7780 -1 x7517 -1 x7518 -1 x7519 -1 x7520 -1 x7521 -1 x7522 -1 x7523 -1 x7524 >= 0 ;
+2 x7781 +2 x7782 +2 x7783 +2 x7784 -1 x7521 -1 x7522 -1 x7523 -1 x7524 -1 x7525 -1 x7526 -1 x7527 -1 x7528 >= 0 ;
+2 x7785 +2 x7786 +2 x7787 +2 x7788 -1 x7525 -1 x7526 -1 x7527 -1 x7528 -1 x7529 -1 x7530 -1 x7531 -1 x7532 >= 0 ;
+2 x7789 +2 x7790 +2 x7791 +2 x7792 -1 x7529 -1 x7530 -1 x7531 -1 x7532 -1 x7533 -1 x7534 -1 x7535 -1 x7536 >= 0 ;
+2 x7793 +2 x7794 +2 x7795 +2 x7796 -1 x7533 -1 x7534 -1 x7535 -1 x7536 -1 x7537 -1 x7538 -1 x7539 -1 x7540 >= 0 ;
+2 x7797 +2 x7798 +2 x7799 +2 x7800 -1 x7537 -1 x7538 -1 x7539 -1 x7540 -1 x7541 -1 x7542 -1 x7543 -1 x7544 >= 0 ;
+2 x7801 +2 x7802 +2 x7803 +2 x7804 -1 x7541 -1 x7542 -1 x7543 -1 x7544 -1 x7545 -1 x7546 -1 x7547 -1 x7548 >= 0 ;
+2 x7805 +2 x7806 +2 x7807 +2 x7808 -1 x7545 -1 x7546 -1 x7547 -1 x7548 -1 x7549 -1 x7550 -1 x7551 -1 x7552 >= 0 ;
+2 x7809 +2 x7810 +2 x7811 +2 x7812 -1 x7549 -1 x7550 -1 x7551 -1 x7552 -1 x7553 -1 x7554 -1 x7555 -1 x7556 >= 0 ;
+2 x7813 +2 x7814 +2 x7815 +2 x7816 -1 x7553 -1 x7554 -1 x7555 -1 x7556 -1 x7557 -1 x7558 -1 x7559 -1 x7560 >= 0 ;
+2 x7817 +2 x7818 +2 x7819 +2 x7820 -1 x7557 -1 x7558 -1 x7559 -1 x7560 -1 x7561 -1 x7562 -1 x7563 -1 x7564 >= 0 ;
+2 x7821 +2 x7822 +2 x7823 +2 x7824 -1 x7561 -1 x7562 -1 x7563 -1 x7564 -1 x7565 -1 x7566 -1 x7567 -1 x7568 >= 0 ;
+2 x7825 +2 x7826 +2 x7827 +2 x7828 -1 x7565 -1 x7566 -1 x7567 -1 x7568 -1 x7569 -1 x7570 -1 x7571 -1 x7572 >= 0 ;
+2 x7829 +2 x7830 +2 x7831 +2 x7832 -1 x7569 -1 x7570 -1 x7571 -1 x7572 -1 x7573 -1 x7574 -1 x7575 -1 x7576 >= 0 ;
+2 x7833 +2 x7834 +2 x7835 +2 x7836 -1 x7573 -1 x7574 -1 x7575 -1 x7576 -1 x7577 -1 x7578 -1 x7579 -1 x7580 >= 0 ;
+2 x7837 +2 x7838 +2 x7839 +2 x7840 -1 x7577 -1 x7578 -1 x7579 -1 x7580 -1 x7581 -1 x7582 -1 x7583 -1 x7584 >= 0 ;
+2 x7841 +2 x7842 +2 x7843 +2 x7844 -1 x7581 -1 x7582 -1 x7583 -1 x7584 -1 x7585 -1 x7586 -1 x7587 -1 x7588 >= 0 ;
+2 x7845 +2 x7846 +2 x7847 +2 x7848 -1 x7585 -1 x7586 -1 x7587 -1 x7588 -1 x7589 -1 x7590 -1 x7591 -1 x7592 >= 0 ;
+2 x7849 +2 x7850 +2 x7851 +2 x7852 -1 x7589 -1 x7590 -1 x7591 -1 x7592 -1 x7593 -1 x7594 -1 x7595 -1 x7596 >= 0 ;
+2 x7853 +2 x7854 +2 x7855 +2 x7856 -1 x7593 -1 x7594 -1 x7595 -1 x7596 -1 x7597 -1 x7598 -1 x7599 -1 x7600 >= 0 ;
+2 x7857 +2 x7858 +2 x7859 +2 x7860 -1 x7597 -1 x7598 -1 x7599 -1 x7600 -1 x7601 -1 x7602 -1 x7603 -1 x7604 >= 0 ;
+2 x7861 +2 x7862 +2 x7863 +2 x7864 -1 x7601 -1 x7602 -1 x7603 -1 x7604 -1 x7605 -1 x7606 -1 x7607 -1 x7608 >= 0 ;
+2 x7865 +2 x7866 +2 x7867 +2 x7868 -1 x7605 -1 x7606 -1 x7607 -1 x7608 -1 x7609 -1 x7610 -1 x7611 -1 x7612 >= 0 ;
+2 x7869 +2 x7870 +2 x7871 +2 x7872 -1 x7609 -1 x7610 -1 x7611 -1 x7612 -1 x7613 -1 x7614 -1 x7615 -1 x7616 >= 0 ;
+2 x7873 +2 x7874 +2 x7875 +2 x7876 -1 x7613 -1 x7614 -1 x7615 -1 x7616 -1 x7617 -1 x7618 -1 x7619 -1 x7620 >= 0 ;
+2 x7877 +2 x7878 +2 x7879 +2 x7880 -1 x7617 -1 x7618 -1 x7619 -1 x7620 -1 x7621 -1 x7622 -1 x7623 -1 x7624 >= 0 ;
+2 x7881 +2 x7882 +2 x7883 +2 x7884 -1 x7621 -1 x7622 -1 x7623 -1 x7624 -1 x7625 -1 x7626 -1 x7627 -1 x7628 >= 0 ;
+2 x7885 +2 x7886 +2 x7887 +2 x7888 -1 x7625 -1 x7626 -1 x7627 -1 x7628 -1 x7629 -1 x7630 -1 x7631 -1 x7632 >= 0 ;
+2 x7889 +2 x7890 +2 x7891 +2 x7892 -1 x7629 -1 x7630 -1 x7631 -1 x7632 -1 x7633 -1 x7634 -1 x7635 -1 x7636 >= 0 ;
+2 x7893 +2 x7894 +2 x7895 +2 x7896 -1 x7633 -1 x7634 -1 x7635 -1 x7636 -1 x7637 -1 x7638 -1 x7639 -1 x7640 >= 0 ;
+2 x7897 +2 x7898 +2 x7899 +2 x7900 -1 x7637 -1 x7638 -1 x7639 -1 x7640 -1 x7641 -1 x7642 -1 x7643 -1 x7644 >= 0 ;
+2 x7901 +2 x7902 +2 x7903 +2 x7904 -1 x7641 -1 x7642 -1 x7643 -1 x7644 -1 x7645 -1 x7646 -1 x7647 -1 x7648 >= 0 ;
+2 x7905 +2 x7906 +2 x7907 +2 x7908 -1 x7645 -1 x7646 -1 x7647 -1 x7648 -1 x7649 -1 x7650 -1 x7651 -1 x7652 >= 0 ;
+2 x7909 +2 x7910 +2 x7911 +2 x7912 -1 x7649 -1 x7650 -1 x7651 -1 x7652 -1 x7653 -1 x7654 -1 x7655 -1 x7656 >= 0 ;
+2 x7913 +2 x7914 +2 x7915 +2 x7916 -1 x7653 -1 x7654 -1 x7655 -1 x7656 -1 x7657 -1 x7658 -1 x7659 -1 x7660 >= 0 ;
+2 x7917 +2 x7918 +2 x7919 +2 x7920 -1 x7657 -1 x7658 -1 x7659 -1 x7660 -1 x7661 -1 x7662 -1 x7663 -1 x7664 >= 0 ;
+2 x7921 +2 x7922 +2 x7923 +2 x7924 -1 x7661 -1 x7662 -1 x7663 -1 x7664 -1 x7665 -1 x7666 -1 x7667 -1 x7668 >= 0 ;
+2 x7925 +2 x7926 +2 x7927 +2 x7928 -1 x7665 -1 x7666 -1 x7667 -1 x7668 -1 x7669 -1 x7670 -1 x7671 -1 x7672 >= 0 ;
+2 x7929 +2 x7930 +2 x7931 +2 x7932 -1 x7669 -1 x7670 -1 x7671 -1 x7672 -1 x7673 -1 x7674 -1 x7675 -1 x7676 >= 0 ;
+2 x7933 +2 x7934 +2 x7935 +2 x7936 -1 x7673 -1 x7674 -1 x7675 -1 x7676 -1 x7677 -1 x7678 -1 x7679 -1 x7680 >= 0 ;
+2 x7937 +2 x7938 +2 x7939 +2 x7940 -1 x7681 -1 x7682 -1 x7683 -1 x7684 -1 x7933 -1 x7934 -1 x7935 -1 x7936 >= 0 ;
+2 x7941 +2 x7942 +2 x7943 +2 x7944 -1 x7681 -1 x7682 -1 x7683 -1 x7684 -1 x7685 -1 x7686 -1 x7687 -1 x7688 >= 0 ;
+2 x7945 +2 x7946 +2 x7947 +2 x7948 -1 x7685 -1 x7686 -1 x7687 -1 x7688 -1 x7689 -1 x7690 -1 x7691 -1 x7692 >= 0 ;
+2 x7949 +2 x7950 +2 x7951 +2 x7952 -1 x7689 -1 x7690 -1 x7691 -1 x7692 -1 x7693 -1 x7694 -1 x7695 -1 x7696 >= 0 ;
+2 x7953 +2 x7954 +2 x7955 +2 x7956 -1 x7693 -1 x7694 -1 x7695 -1 x7696 -1 x7697 -1 x7698 -1 x7699 -1 x7700 >= 0 ;
+2 x7957 +2 x7958 +2 x7959 +2 x7960 -1 x7697 -1 x7698 -1 x7699 -1 x7700 -1 x7701 -1 x7702 -1 x7703 -1 x7704 >= 0 ;
+2 x7961 +2 x7962 +2 x7963 +2 x7964 -1 x7701 -1 x7702 -1 x7703 -1 x7704 -1 x7705 -1 x7706 -1 x7707 -1 x7708 >= 0 ;
+2 x7965 +2 x7966 +2 x7967 +2 x7968 -1 x7705 -1 x7706 -1 x7707 -1 x7708 -1 x7709 -1 x7710 -1 x7711 -1 x7712 >= 0 ;
+2 x7969 +2 x7970 +2 x7971 +2 x7972 -1 x7709 -1 x7710 -1 x7711 -1 x7712 -1 x7713 -1 x7714 -1 x7715 -1 x7716 >= 0 ;
+2 x7973 +2 x7974 +2 x7975 +2 x7976 -1 x7713 -1 x7714 -1 x7715 -1 x7716 -1 x7717 -1 x7718 -1 x7719 -1 x7720 >= 0 ;
+2 x7977 +2 x7978 +2 x7979 +2 x7980 -1 x7717 -1 x7718 -1 x7719 -1 x7720 -1 x7721 -1 x7722 -1 x7723 -1 x7724 >= 0 ;
+2 x7981 +2 x7982 +2 x7983 +2 x7984 -1 x7721 -1 x7722 -1 x7723 -1 x7724 -1 x7725 -1 x7726 -1 x7727 -1 x7728 >= 0 ;
+2 x7985 +2 x7986 +2 x7987 +2 x7988 -1 x7725 -1 x7726 -1 x7727 -1 x7728 -1 x7729 -1 x7730 -1 x7731 -1 x7732 >= 0 ;
+2 x7989 +2 x7990 +2 x7991 +2 x7992 -1 x7729 -1 x7730 -1 x7731 -1 x7732 -1 x7733 -1 x7734 -1 x7735 -1 x7736 >= 0 ;
+2 x7993 +2 x7994 +2 x7995 +2 x7996 -1 x7733 -1 x7734 -1 x7735 -1 x7736 -1 x7737 -1 x7738 -1 x7739 -1 x7740 >= 0 ;
+2 x7997 +2 x7998 +2 x7999 +2 x8000 -1 x7737 -1 x7738 -1 x7739 -1 x7740 -1 x7741 -1 x7742 -1 x7743 -1 x7744 >= 0 ;
+2 x8001 +2 x8002 +2 x8003 +2 x8004 -1 x7741 -1 x7742 -1 x7743 -1 x7744 -1 x7745 -1 x7746 -1 x7747 -1 x7748 >= 0 ;
+2 x8005 +2 x8006 +2 x8007 +2 x8008 -1 x7745 -1 x7746 -1 x7747 -1 x7748 -1 x7749 -1 x7750 -1 x7751 -1 x7752 >= 0 ;
+2 x8009 +2 x8010 +2 x8011 +2 x8012 -1 x7749 -1 x7750 -1 x7751 -1 x7752 -1 x7753 -1 x7754 -1 x7755 -1 x7756 >= 0 ;
+2 x8013 +2 x8014 +2 x8015 +2 x8016 -1 x7753 -1 x7754 -1 x7755 -1 x7756 -1 x7757 -1 x7758 -1 x7759 -1 x7760 >= 0 ;
+2 x8017 +2 x8018 +2 x8019 +2 x8020 -1 x7757 -1 x7758 -1 x7759 -1 x7760 -1 x7761 -1 x7762 -1 x7763 -1 x7764 >= 0 ;
+2 x8021 +2 x8022 +2 x8023 +2 x8024 -1 x7761 -1 x7762 -1 x7763 -1 x7764 -1 x7765 -1 x7766 -1 x7767 -1 x7768 >= 0 ;
+2 x8025 +2 x8026 +2 x8027 +2 x8028 -1 x7765 -1 x7766 -1 x7767 -1 x7768 -1 x7769 -1 x7770 -1 x7771 -1 x7772 >= 0 ;
+2 x8029 +2 x8030 +2 x8031 +2 x8032 -1 x7769 -1 x7770 -1 x7771 -1 x7772 -1 x7773 -1 x7774 -1 x7775 -1 x7776 >= 0 ;
+2 x8033 +2 x8034 +2 x8035 +2 x8036 -1 x7773 -1 x7774 -1 x7775 -1 x7776 -1 x7777 -1 x7778 -1 x7779 -1 x7780 >= 0 ;
+2 x8037 +2 x8038 +2 x8039 +2 x8040 -1 x7777 -1 x7778 -1 x7779 -1 x7780 -1 x7781 -1 x7782 -1 x7783 -1 x7784 >= 0 ;
+2 x8041 +2 x8042 +2 x8043 +2 x8044 -1 x7781 -1 x7782 -1 x7783 -1 x7784 -1 x7785 -1 x7786 -1 x7787 -1 x7788 >= 0 ;
+2 x8045 +2 x8046 +2 x8047 +2 x8048 -1 x7785 -1 x7786 -1 x7787 -1 x7788 -1 x7789 -1 x7790 -1 x7791 -1 x7792 >= 0 ;
+2 x8049 +2 x8050 +2 x8051 +2 x8052 -1 x7789 -1 x7790 -1 x7791 -1 x7792 -1 x7793 -1 x7794 -1 x7795 -1 x7796 >= 0 ;
+2 x8053 +2 x8054 +2 x8055 +2 x8056 -1 x7793 -1 x7794 -1 x7795 -1 x7796 -1 x7797 -1 x7798 -1 x7799 -1 x7800 >= 0 ;
+2 x8057 +2 x8058 +2 x8059 +2 x8060 -1 x7797 -1 x7798 -1 x7799 -1 x7800 -1 x7801 -1 x7802 -1 x7803 -1 x7804 >= 0 ;
+2 x8061 +2 x8062 +2 x8063 +2 x8064 -1 x7801 -1 x7802 -1 x7803 -1 x7804 -1 x7805 -1 x7806 -1 x7807 -1 x7808 >= 0 ;
+2 x8065 +2 x8066 +2 x8067 +2 x8068 -1 x7805 -1 x7806 -1 x7807 -1 x7808 -1 x7809 -1 x7810 -1 x7811 -1 x7812 >= 0 ;
+2 x8069 +2 x8070 +2 x8071 +2 x8072 -1 x7809 -1 x7810 -1 x7811 -1 x7812 -1 x7813 -1 x7814 -1 x7815 -1 x7816 >= 0 ;
+2 x8073 +2 x8074 +2 x8075 +2 x8076 -1 x7813 -1 x7814 -1 x7815 -1 x7816 -1 x7817 -1 x7818 -1 x7819 -1 x7820 >= 0 ;
+2 x8077 +2 x8078 +2 x8079 +2 x8080 -1 x7817 -1 x7818 -1 x7819 -1 x7820 -1 x7821 -1 x7822 -1 x7823 -1 x7824 >= 0 ;
+2 x8081 +2 x8082 +2 x8083 +2 x8084 -1 x7821 -1 x7822 -1 x7823 -1 x7824 -1 x7825 -1 x7826 -1 x7827 -1 x7828 >= 0 ;
+2 x8085 +2 x8086 +2 x8087 +2 x8088 -1 x7825 -1 x7826 -1 x7827 -1 x7828 -1 x7829 -1 x7830 -1 x7831 -1 x7832 >= 0 ;
+2 x8089 +2 x8090 +2 x8091 +2 x8092 -1 x7829 -1 x7830 -1 x7831 -1 x7832 -1 x7833 -1 x7834 -1 x7835 -1 x7836 >= 0 ;
+2 x8093 +2 x8094 +2 x8095 +2 x8096 -1 x7833 -1 x7834 -1 x7835 -1 x7836 -1 x7837 -1 x7838 -1 x7839 -1 x7840 >= 0 ;
+2 x8097 +2 x8098 +2 x8099 +2 x8100 -1 x7837 -1 x7838 -1 x7839 -1 x7840 -1 x7841 -1 x7842 -1 x7843 -1 x7844 >= 0 ;
+2 x8101 +2 x8102 +2 x8103 +2 x8104 -1 x7841 -1 x7842 -1 x7843 -1 x7844 -1 x7845 -1 x7846 -1 x7847 -1 x7848 >= 0 ;
+2 x8105 +2 x8106 +2 x8107 +2 x8108 -1 x7845 -1 x7846 -1 x7847 -1 x7848 -1 x7849 -1 x7850 -1 x7851 -1 x7852 >= 0 ;
+2 x8109 +2 x8110 +2 x8111 +2 x8112 -1 x7849 -1 x7850 -1 x7851 -1 x7852 -1 x7853 -1 x7854 -1 x7855 -1 x7856 >= 0 ;
+2 x8113 +2 x8114 +2 x8115 +2 x8116 -1 x7853 -1 x7854 -1 x7855 -1 x7856 -1 x7857 -1 x7858 -1 x7859 -1 x7860 >= 0 ;
+2 x8117 +2 x8118 +2 x8119 +2 x8120 -1 x7857 -1 x7858 -1 x7859 -1 x7860 -1 x7861 -1 x7862 -1 x7863 -1 x7864 >= 0 ;
+2 x8121 +2 x8122 +2 x8123 +2 x8124 -1 x7861 -1 x7862 -1 x7863 -1 x7864 -1 x7865 -1 x7866 -1 x7867 -1 x7868 >= 0 ;
+2 x8125 +2 x8126 +2 x8127 +2 x8128 -1 x7865 -1 x7866 -1 x7867 -1 x7868 -1 x7869 -1 x7870 -1 x7871 -1 x7872 >= 0 ;
+2 x8129 +2 x8130 +2 x8131 +2 x8132 -1 x7869 -1 x7870 -1 x7871 -1 x7872 -1 x7873 -1 x7874 -1 x7875 -1 x7876 >= 0 ;
+2 x8133 +2 x8134 +2 x8135 +2 x8136 -1 x7873 -1 x7874 -1 x7875 -1 x7876 -1 x7877 -1 x7878 -1 x7879 -1 x7880 >= 0 ;
+2 x8137 +2 x8138 +2 x8139 +2 x8140 -1 x7877 -1 x7878 -1 x7879 -1 x7880 -1 x7881 -1 x7882 -1 x7883 -1 x7884 >= 0 ;
+2 x8141 +2 x8142 +2 x8143 +2 x8144 -1 x7881 -1 x7882 -1 x7883 -1 x7884 -1 x7885 -1 x7886 -1 x7887 -1 x7888 >= 0 ;
+2 x8145 +2 x8146 +2 x8147 +2 x8148 -1 x7885 -1 x7886 -1 x7887 -1 x7888 -1 x7889 -1 x7890 -1 x7891 -1 x7892 >= 0 ;
+2 x8149 +2 x8150 +2 x8151 +2 x8152 -1 x7889 -1 x7890 -1 x7891 -1 x7892 -1 x7893 -1 x7894 -1 x7895 -1 x7896 >= 0 ;
+2 x8153 +2 x8154 +2 x8155 +2 x8156 -1 x7893 -1 x7894 -1 x7895 -1 x7896 -1 x7897 -1 x7898 -1 x7899 -1 x7900 >= 0 ;
+2 x8157 +2 x8158 +2 x8159 +2 x8160 -1 x7897 -1 x7898 -1 x7899 -1 x7900 -1 x7901 -1 x7902 -1 x7903 -1 x7904 >= 0 ;
+2 x8161 +2 x8162 +2 x8163 +2 x8164 -1 x7901 -1 x7902 -1 x7903 -1 x7904 -1 x7905 -1 x7906 -1 x7907 -1 x7908 >= 0 ;
+2 x8165 +2 x8166 +2 x8167 +2 x8168 -1 x7905 -1 x7906 -1 x7907 -1 x7908 -1 x7909 -1 x7910 -1 x7911 -1 x7912 >= 0 ;
+2 x8169 +2 x8170 +2 x8171 +2 x8172 -1 x7909 -1 x7910 -1 x7911 -1 x7912 -1 x7913 -1 x7914 -1 x7915 -1 x7916 >= 0 ;
+2 x8173 +2 x8174 +2 x8175 +2 x8176 -1 x7913 -1 x7914 -1 x7915 -1 x7916 -1 x7917 -1 x7918 -1 x7919 -1 x7920 >= 0 ;
+2 x8177 +2 x8178 +2 x8179 +2 x8180 -1 x7917 -1 x7918 -1 x7919 -1 x7920 -1 x7921 -1 x7922 -1 x7923 -1 x7924 >= 0 ;
+2 x8181 +2 x8182 +2 x8183 +2 x8184 -1 x7921 -1 x7922 -1 x7923 -1 x7924 -1 x7925 -1 x7926 -1 x7927 -1 x7928 >= 0 ;
+2 x8185 +2 x8186 +2 x8187 +2 x8188 -1 x7925 -1 x7926 -1 x7927 -1 x7928 -1 x7929 -1 x7930 -1 x7931 -1 x7932 >= 0 ;
+2 x8189 +2 x8190 +2 x8191 +2 x8192 -1 x7929 -1 x7930 -1 x7931 -1 x7932 -1 x7933 -1 x7934 -1 x7935 -1 x7936 >= 0 ;
+2 x8193 +2 x8194 +2 x8195 +2 x8196 -1 x7937 -1 x7938 -1 x7939 -1 x7940 -1 x8189 -1 x8190 -1 x8191 -1 x8192 >= 0 ;
+2 x8197 +2 x8198 +2 x8199 +2 x8200 -1 x7937 -1 x7938 -1 x7939 -1 x7940 -1 x7941 -1 x7942 -1 x7943 -1 x7944 >= 0 ;
+2 x8201 +2 x8202 +2 x8203 +2 x8204 -1 x7941 -1 x7942 -1 x7943 -1 x7944 -1 x7945 -1 x7946 -1 x7947 -1 x7948 >= 0 ;
+2 x8205 +2 x8206 +2 x8207 +2 x8208 -1 x7945 -1 x7946 -1 x7947 -1 x7948 -1 x7949 -1 x7950 -1 x7951 -1 x7952 >= 0 ;
+2 x8209 +2 x8210 +2 x8211 +2 x8212 -1 x7949 -1 x7950 -1 x7951 -1 x7952 -1 x7953 -1 x7954 -1 x7955 -1 x7956 >= 0 ;
+2 x8213 +2 x8214 +2 x8215 +2 x8216 -1 x7953 -1 x7954 -1 x7955 -1 x7956 -1 x7957 -1 x7958 -1 x7959 -1 x7960 >= 0 ;
+2 x8217 +2 x8218 +2 x8219 +2 x8220 -1 x7957 -1 x7958 -1 x7959 -1 x7960 -1 x7961 -1 x7962 -1 x7963 -1 x7964 >= 0 ;
+2 x8221 +2 x8222 +2 x8223 +2 x8224 -1 x7961 -1 x7962 -1 x7963 -1 x7964 -1 x7965 -1 x7966 -1 x7967 -1 x7968 >= 0 ;
+2 x8225 +2 x8226 +2 x8227 +2 x8228 -1 x7965 -1 x7966 -1 x7967 -1 x7968 -1 x7969 -1 x7970 -1 x7971 -1 x7972 >= 0 ;
+2 x8229 +2 x8230 +2 x8231 +2 x8232 -1 x7969 -1 x7970 -1 x7971 -1 x7972 -1 x7973 -1 x7974 -1 x7975 -1 x7976 >= 0 ;
+2 x8233 +2 x8234 +2 x8235 +2 x8236 -1 x7973 -1 x7974 -1 x7975 -1 x7976 -1 x7977 -1 x7978 -1 x7979 -1 x7980 >= 0 ;
+2 x8237 +2 x8238 +2 x8239 +2 x8240 -1 x7977 -1 x7978 -1 x7979 -1 x7980 -1 x7981 -1 x7982 -1 x7983 -1 x7984 >= 0 ;
+2 x8241 +2 x8242 +2 x8243 +2 x8244 -1 x7981 -1 x7982 -1 x7983 -1 x7984 -1 x7985 -1 x7986 -1 x7987 -1 x7988 >= 0 ;
+2 x8245 +2 x8246 +2 x8247 +2 x8248 -1 x7985 -1 x7986 -1 x7987 -1 x7988 -1 x7989 -1 x7990 -1 x7991 -1 x7992 >= 0 ;
+2 x8249 +2 x8250 +2 x8251 +2 x8252 -1 x7989 -1 x7990 -1 x7991 -1 x7992 -1 x7993 -1 x7994 -1 x7995 -1 x7996 >= 0 ;
+2 x8253 +2 x8254 +2 x8255 +2 x8256 -1 x7993 -1 x7994 -1 x7995 -1 x7996 -1 x7997 -1 x7998 -1 x7999 -1 x8000 >= 0 ;
+2 x8257 +2 x8258 +2 x8259 +2 x8260 -1 x7997 -1 x7998 -1 x7999 -1 x8000 -1 x8001 -1 x8002 -1 x8003 -1 x8004 >= 0 ;
+2 x8261 +2 x8262 +2 x8263 +2 x8264 -1 x8001 -1 x8002 -1 x8003 -1 x8004 -1 x8005 -1 x8006 -1 x8007 -1 x8008 >= 0 ;
+2 x8265 +2 x8266 +2 x8267 +2 x8268 -1 x8005 -1 x8006 -1 x8007 -1 x8008 -1 x8009 -1 x8010 -1 x8011 -1 x8012 >= 0 ;
+2 x8269 +2 x8270 +2 x8271 +2 x8272 -1 x8009 -1 x8010 -1 x8011 -1 x8012 -1 x8013 -1 x8014 -1 x8015 -1 x8016 >= 0 ;
+2 x8273 +2 x8274 +2 x8275 +2 x8276 -1 x8013 -1 x8014 -1 x8015 -1 x8016 -1 x8017 -1 x8018 -1 x8019 -1 x8020 >= 0 ;
+2 x8277 +2 x8278 +2 x8279 +2 x8280 -1 x8017 -1 x8018 -1 x8019 -1 x8020 -1 x8021 -1 x8022 -1 x8023 -1 x8024 >= 0 ;
+2 x8281 +2 x8282 +2 x8283 +2 x8284 -1 x8021 -1 x8022 -1 x8023 -1 x8024 -1 x8025 -1 x8026 -1 x8027 -1 x8028 >= 0 ;
+2 x8285 +2 x8286 +2 x8287 +2 x8288 -1 x8025 -1 x8026 -1 x8027 -1 x8028 -1 x8029 -1 x8030 -1 x8031 -1 x8032 >= 0 ;
+2 x8289 +2 x8290 +2 x8291 +2 x8292 -1 x8029 -1 x8030 -1 x8031 -1 x8032 -1 x8033 -1 x8034 -1 x8035 -1 x8036 >= 0 ;
+2 x8293 +2 x8294 +2 x8295 +2 x8296 -1 x8033 -1 x8034 -1 x8035 -1 x8036 -1 x8037 -1 x8038 -1 x8039 -1 x8040 >= 0 ;
+2 x8297 +2 x8298 +2 x8299 +2 x8300 -1 x8037 -1 x8038 -1 x8039 -1 x8040 -1 x8041 -1 x8042 -1 x8043 -1 x8044 >= 0 ;
+2 x8301 +2 x8302 +2 x8303 +2 x8304 -1 x8041 -1 x8042 -1 x8043 -1 x8044 -1 x8045 -1 x8046 -1 x8047 -1 x8048 >= 0 ;
+2 x8305 +2 x8306 +2 x8307 +2 x8308 -1 x8045 -1 x8046 -1 x8047 -1 x8048 -1 x8049 -1 x8050 -1 x8051 -1 x8052 >= 0 ;
+2 x8309 +2 x8310 +2 x8311 +2 x8312 -1 x8049 -1 x8050 -1 x8051 -1 x8052 -1 x8053 -1 x8054 -1 x8055 -1 x8056 >= 0 ;
+2 x8313 +2 x8314 +2 x8315 +2 x8316 -1 x8053 -1 x8054 -1 x8055 -1 x8056 -1 x8057 -1 x8058 -1 x8059 -1 x8060 >= 0 ;
+2 x8317 +2 x8318 +2 x8319 +2 x8320 -1 x8057 -1 x8058 -1 x8059 -1 x8060 -1 x8061 -1 x8062 -1 x8063 -1 x8064 >= 0 ;
+2 x8321 +2 x8322 +2 x8323 +2 x8324 -1 x8061 -1 x8062 -1 x8063 -1 x8064 -1 x8065 -1 x8066 -1 x8067 -1 x8068 >= 0 ;
+2 x8325 +2 x8326 +2 x8327 +2 x8328 -1 x8065 -1 x8066 -1 x8067 -1 x8068 -1 x8069 -1 x8070 -1 x8071 -1 x8072 >= 0 ;
+2 x8329 +2 x8330 +2 x8331 +2 x8332 -1 x8069 -1 x8070 -1 x8071 -1 x8072 -1 x8073 -1 x8074 -1 x8075 -1 x8076 >= 0 ;
+2 x8333 +2 x8334 +2 x8335 +2 x8336 -1 x8073 -1 x8074 -1 x8075 -1 x8076 -1 x8077 -1 x8078 -1 x8079 -1 x8080 >= 0 ;
+2 x8337 +2 x8338 +2 x8339 +2 x8340 -1 x8077 -1 x8078 -1 x8079 -1 x8080 -1 x8081 -1 x8082 -1 x8083 -1 x8084 >= 0 ;
+2 x8341 +2 x8342 +2 x8343 +2 x8344 -1 x8081 -1 x8082 -1 x8083 -1 x8084 -1 x8085 -1 x8086 -1 x8087 -1 x8088 >= 0 ;
+2 x8345 +2 x8346 +2 x8347 +2 x8348 -1 x8085 -1 x8086 -1 x8087 -1 x8088 -1 x8089 -1 x8090 -1 x8091 -1 x8092 >= 0 ;
+2 x8349 +2 x8350 +2 x8351 +2 x8352 -1 x8089 -1 x8090 -1 x8091 -1 x8092 -1 x8093 -1 x8094 -1 x8095 -1 x8096 >= 0 ;
+2 x8353 +2 x8354 +2 x8355 +2 x8356 -1 x8093 -1 x8094 -1 x8095 -1 x8096 -1 x8097 -1 x8098 -1 x8099 -1 x8100 >= 0 ;
+2 x8357 +2 x8358 +2 x8359 +2 x8360 -1 x8097 -1 x8098 -1 x8099 -1 x8100 -1 x8101 -1 x8102 -1 x8103 -1 x8104 >= 0 ;
+2 x8361 +2 x8362 +2 x8363 +2 x8364 -1 x8101 -1 x8102 -1 x8103 -1 x8104 -1 x8105 -1 x8106 -1 x8107 -1 x8108 >= 0 ;
+2 x8365 +2 x8366 +2 x8367 +2 x8368 -1 x8105 -1 x8106 -1 x8107 -1 x8108 -1 x8109 -1 x8110 -1 x8111 -1 x8112 >= 0 ;
+2 x8369 +2 x8370 +2 x8371 +2 x8372 -1 x8109 -1 x8110 -1 x8111 -1 x8112 -1 x8113 -1 x8114 -1 x8115 -1 x8116 >= 0 ;
+2 x8373 +2 x8374 +2 x8375 +2 x8376 -1 x8113 -1 x8114 -1 x8115 -1 x8116 -1 x8117 -1 x8118 -1 x8119 -1 x8120 >= 0 ;
+2 x8377 +2 x8378 +2 x8379 +2 x8380 -1 x8117 -1 x8118 -1 x8119 -1 x8120 -1 x8121 -1 x8122 -1 x8123 -1 x8124 >= 0 ;
+2 x8381 +2 x8382 +2 x8383 +2 x8384 -1 x8121 -1 x8122 -1 x8123 -1 x8124 -1 x8125 -1 x8126 -1 x8127 -1 x8128 >= 0 ;
+2 x8385 +2 x8386 +2 x8387 +2 x8388 -1 x8125 -1 x8126 -1 x8127 -1 x8128 -1 x8129 -1 x8130 -1 x8131 -1 x8132 >= 0 ;
+2 x8389 +2 x8390 +2 x8391 +2 x8392 -1 x8129 -1 x8130 -1 x8131 -1 x8132 -1 x8133 -1 x8134 -1 x8135 -1 x8136 >= 0 ;
+2 x8393 +2 x8394 +2 x8395 +2 x8396 -1 x8133 -1 x8134 -1 x8135 -1 x8136 -1 x8137 -1 x8138 -1 x8139 -1 x8140 >= 0 ;
+2 x8397 +2 x8398 +2 x8399 +2 x8400 -1 x8137 -1 x8138 -1 x8139 -1 x8140 -1 x8141 -1 x8142 -1 x8143 -1 x8144 >= 0 ;
+2 x8401 +2 x8402 +2 x8403 +2 x8404 -1 x8141 -1 x8142 -1 x8143 -1 x8144 -1 x8145 -1 x8146 -1 x8147 -1 x8148 >= 0 ;
+2 x8405 +2 x8406 +2 x8407 +2 x8408 -1 x8145 -1 x8146 -1 x8147 -1 x8148 -1 x8149 -1 x8150 -1 x8151 -1 x8152 >= 0 ;
+2 x8409 +2 x8410 +2 x8411 +2 x8412 -1 x8149 -1 x8150 -1 x8151 -1 x8152 -1 x8153 -1 x8154 -1 x8155 -1 x8156 >= 0 ;
+2 x8413 +2 x8414 +2 x8415 +2 x8416 -1 x8153 -1 x8154 -1 x8155 -1 x8156 -1 x8157 -1 x8158 -1 x8159 -1 x8160 >= 0 ;
+2 x8417 +2 x8418 +2 x8419 +2 x8420 -1 x8157 -1 x8158 -1 x8159 -1 x8160 -1 x8161 -1 x8162 -1 x8163 -1 x8164 >= 0 ;
+2 x8421 +2 x8422 +2 x8423 +2 x8424 -1 x8161 -1 x8162 -1 x8163 -1 x8164 -1 x8165 -1 x8166 -1 x8167 -1 x8168 >= 0 ;
+2 x8425 +2 x8426 +2 x8427 +2 x8428 -1 x8165 -1 x8166 -1 x8167 -1 x8168 -1 x8169 -1 x8170 -1 x8171 -1 x8172 >= 0 ;
+2 x8429 +2 x8430 +2 x8431 +2 x8432 -1 x8169 -1 x8170 -1 x8171 -1 x8172 -1 x8173 -1 x8174 -1 x8175 -1 x8176 >= 0 ;
+2 x8433 +2 x8434 +2 x8435 +2 x8436 -1 x8173 -1 x8174 -1 x8175 -1 x8176 -1 x8177 -1 x8178 -1 x8179 -1 x8180 >= 0 ;
+2 x8437 +2 x8438 +2 x8439 +2 x8440 -1 x8177 -1 x8178 -1 x8179 -1 x8180 -1 x8181 -1 x8182 -1 x8183 -1 x8184 >= 0 ;
+2 x8441 +2 x8442 +2 x8443 +2 x8444 -1 x8181 -1 x8182 -1 x8183 -1 x8184 -1 x8185 -1 x8186 -1 x8187 -1 x8188 >= 0 ;
+2 x8445 +2 x8446 +2 x8447 +2 x8448 -1 x8185 -1 x8186 -1 x8187 -1 x8188 -1 x8189 -1 x8190 -1 x8191 -1 x8192 >= 0 ;
+2 x8449 +2 x8450 +2 x8451 +2 x8452 -1 x8193 -1 x8194 -1 x8195 -1 x8196 -1 x8445 -1 x8446 -1 x8447 -1 x8448 >= 0 ;
+2 x8453 +2 x8454 +2 x8455 +2 x8456 -1 x8193 -1 x8194 -1 x8195 -1 x8196 -1 x8197 -1 x8198 -1 x8199 -1 x8200 >= 0 ;
+2 x8457 +2 x8458 +2 x8459 +2 x8460 -1 x8197 -1 x8198 -1 x8199 -1 x8200 -1 x8201 -1 x8202 -1 x8203 -1 x8204 >= 0 ;
+2 x8461 +2 x8462 +2 x8463 +2 x8464 -1 x8201 -1 x8202 -1 x8203 -1 x8204 -1 x8205 -1 x8206 -1 x8207 -1 x8208 >= 0 ;
+2 x8465 +2 x8466 +2 x8467 +2 x8468 -1 x8205 -1 x8206 -1 x8207 -1 x8208 -1 x8209 -1 x8210 -1 x8211 -1 x8212 >= 0 ;
+2 x8469 +2 x8470 +2 x8471 +2 x8472 -1 x8209 -1 x8210 -1 x8211 -1 x8212 -1 x8213 -1 x8214 -1 x8215 -1 x8216 >= 0 ;
+2 x8473 +2 x8474 +2 x8475 +2 x8476 -1 x8213 -1 x8214 -1 x8215 -1 x8216 -1 x8217 -1 x8218 -1 x8219 -1 x8220 >= 0 ;
+2 x8477 +2 x8478 +2 x8479 +2 x8480 -1 x8217 -1 x8218 -1 x8219 -1 x8220 -1 x8221 -1 x8222 -1 x8223 -1 x8224 >= 0 ;
+2 x8481 +2 x8482 +2 x8483 +2 x8484 -1 x8221 -1 x8222 -1 x8223 -1 x8224 -1 x8225 -1 x8226 -1 x8227 -1 x8228 >= 0 ;
+2 x8485 +2 x8486 +2 x8487 +2 x8488 -1 x8225 -1 x8226 -1 x8227 -1 x8228 -1 x8229 -1 x8230 -1 x8231 -1 x8232 >= 0 ;
+2 x8489 +2 x8490 +2 x8491 +2 x8492 -1 x8229 -1 x8230 -1 x8231 -1 x8232 -1 x8233 -1 x8234 -1 x8235 -1 x8236 >= 0 ;
+2 x8493 +2 x8494 +2 x8495 +2 x8496 -1 x8233 -1 x8234 -1 x8235 -1 x8236 -1 x8237 -1 x8238 -1 x8239 -1 x8240 >= 0 ;
+2 x8497 +2 x8498 +2 x8499 +2 x8500 -1 x8237 -1 x8238 -1 x8239 -1 x8240 -1 x8241 -1 x8242 -1 x8243 -1 x8244 >= 0 ;
+2 x8501 +2 x8502 +2 x8503 +2 x8504 -1 x8241 -1 x8242 -1 x8243 -1 x8244 -1 x8245 -1 x8246 -1 x8247 -1 x8248 >= 0 ;
+2 x8505 +2 x8506 +2 x8507 +2 x8508 -1 x8245 -1 x8246 -1 x8247 -1 x8248 -1 x8249 -1 x8250 -1 x8251 -1 x8252 >= 0 ;
+2 x8509 +2 x8510 +2 x8511 +2 x8512 -1 x8249 -1 x8250 -1 x8251 -1 x8252 -1 x8253 -1 x8254 -1 x8255 -1 x8256 >= 0 ;
+2 x8513 +2 x8514 +2 x8515 +2 x8516 -1 x8253 -1 x8254 -1 x8255 -1 x8256 -1 x8257 -1 x8258 -1 x8259 -1 x8260 >= 0 ;
+2 x8517 +2 x8518 +2 x8519 +2 x8520 -1 x8257 -1 x8258 -1 x8259 -1 x8260 -1 x8261 -1 x8262 -1 x8263 -1 x8264 >= 0 ;
+2 x8521 +2 x8522 +2 x8523 +2 x8524 -1 x8261 -1 x8262 -1 x8263 -1 x8264 -1 x8265 -1 x8266 -1 x8267 -1 x8268 >= 0 ;
+2 x8525 +2 x8526 +2 x8527 +2 x8528 -1 x8265 -1 x8266 -1 x8267 -1 x8268 -1 x8269 -1 x8270 -1 x8271 -1 x8272 >= 0 ;
+2 x8529 +2 x8530 +2 x8531 +2 x8532 -1 x8269 -1 x8270 -1 x8271 -1 x8272 -1 x8273 -1 x8274 -1 x8275 -1 x8276 >= 0 ;
+2 x8533 +2 x8534 +2 x8535 +2 x8536 -1 x8273 -1 x8274 -1 x8275 -1 x8276 -1 x8277 -1 x8278 -1 x8279 -1 x8280 >= 0 ;
+2 x8537 +2 x8538 +2 x8539 +2 x8540 -1 x8277 -1 x8278 -1 x8279 -1 x8280 -1 x8281 -1 x8282 -1 x8283 -1 x8284 >= 0 ;
+2 x8541 +2 x8542 +2 x8543 +2 x8544 -1 x8281 -1 x8282 -1 x8283 -1 x8284 -1 x8285 -1 x8286 -1 x8287 -1 x8288 >= 0 ;
+2 x8545 +2 x8546 +2 x8547 +2 x8548 -1 x8285 -1 x8286 -1 x8287 -1 x8288 -1 x8289 -1 x8290 -1 x8291 -1 x8292 >= 0 ;
+2 x8549 +2 x8550 +2 x8551 +2 x8552 -1 x8289 -1 x8290 -1 x8291 -1 x8292 -1 x8293 -1 x8294 -1 x8295 -1 x8296 >= 0 ;
+2 x8553 +2 x8554 +2 x8555 +2 x8556 -1 x8293 -1 x8294 -1 x8295 -1 x8296 -1 x8297 -1 x8298 -1 x8299 -1 x8300 >= 0 ;
+2 x8557 +2 x8558 +2 x8559 +2 x8560 -1 x8297 -1 x8298 -1 x8299 -1 x8300 -1 x8301 -1 x8302 -1 x8303 -1 x8304 >= 0 ;
+2 x8561 +2 x8562 +2 x8563 +2 x8564 -1 x8301 -1 x8302 -1 x8303 -1 x8304 -1 x8305 -1 x8306 -1 x8307 -1 x8308 >= 0 ;
+2 x8565 +2 x8566 +2 x8567 +2 x8568 -1 x8305 -1 x8306 -1 x8307 -1 x8308 -1 x8309 -1 x8310 -1 x8311 -1 x8312 >= 0 ;
+2 x8569 +2 x8570 +2 x8571 +2 x8572 -1 x8309 -1 x8310 -1 x8311 -1 x8312 -1 x8313 -1 x8314 -1 x8315 -1 x8316 >= 0 ;
+2 x8573 +2 x8574 +2 x8575 +2 x8576 -1 x8313 -1 x8314 -1 x8315 -1 x8316 -1 x8317 -1 x8318 -1 x8319 -1 x8320 >= 0 ;
+2 x8577 +2 x8578 +2 x8579 +2 x8580 -1 x8317 -1 x8318 -1 x8319 -1 x8320 -1 x8321 -1 x8322 -1 x8323 -1 x8324 >= 0 ;
+2 x8581 +2 x8582 +2 x8583 +2 x8584 -1 x8321 -1 x8322 -1 x8323 -1 x8324 -1 x8325 -1 x8326 -1 x8327 -1 x8328 >= 0 ;
+2 x8585 +2 x8586 +2 x8587 +2 x8588 -1 x8325 -1 x8326 -1 x8327 -1 x8328 -1 x8329 -1 x8330 -1 x8331 -1 x8332 >= 0 ;
+2 x8589 +2 x8590 +2 x8591 +2 x8592 -1 x8329 -1 x8330 -1 x8331 -1 x8332 -1 x8333 -1 x8334 -1 x8335 -1 x8336 >= 0 ;
+2 x8593 +2 x8594 +2 x8595 +2 x8596 -1 x8333 -1 x8334 -1 x8335 -1 x8336 -1 x8337 -1 x8338 -1 x8339 -1 x8340 >= 0 ;
+2 x8597 +2 x8598 +2 x8599 +2 x8600 -1 x8337 -1 x8338 -1 x8339 -1 x8340 -1 x8341 -1 x8342 -1 x8343 -1 x8344 >= 0 ;
+2 x8601 +2 x8602 +2 x8603 +2 x8604 -1 x8341 -1 x8342 -1 x8343 -1 x8344 -1 x8345 -1 x8346 -1 x8347 -1 x8348 >= 0 ;
+2 x8605 +2 x8606 +2 x8607 +2 x8608 -1 x8345 -1 x8346 -1 x8347 -1 x8348 -1 x8349 -1 x8350 -1 x8351 -1 x8352 >= 0 ;
+2 x8609 +2 x8610 +2 x8611 +2 x8612 -1 x8349 -1 x8350 -1 x8351 -1 x8352 -1 x8353 -1 x8354 -1 x8355 -1 x8356 >= 0 ;
+2 x8613 +2 x8614 +2 x8615 +2 x8616 -1 x8353 -1 x8354 -1 x8355 -1 x8356 -1 x8357 -1 x8358 -1 x8359 -1 x8360 >= 0 ;
+2 x8617 +2 x8618 +2 x8619 +2 x8620 -1 x8357 -1 x8358 -1 x8359 -1 x8360 -1 x8361 -1 x8362 -1 x8363 -1 x8364 >= 0 ;
+2 x8621 +2 x8622 +2 x8623 +2 x8624 -1 x8361 -1 x8362 -1 x8363 -1 x8364 -1 x8365 -1 x8366 -1 x8367 -1 x8368 >= 0 ;
+2 x8625 +2 x8626 +2 x8627 +2 x8628 -1 x8365 -1 x8366 -1 x8367 -1 x8368 -1 x8369 -1 x8370 -1 x8371 -1 x8372 >= 0 ;
+2 x8629 +2 x8630 +2 x8631 +2 x8632 -1 x8369 -1 x8370 -1 x8371 -1 x8372 -1 x8373 -1 x8374 -1 x8375 -1 x8376 >= 0 ;
+2 x8633 +2 x8634 +2 x8635 +2 x8636 -1 x8373 -1 x8374 -1 x8375 -1 x8376 -1 x8377 -1 x8378 -1 x8379 -1 x8380 >= 0 ;
+2 x8637 +2 x8638 +2 x8639 +2 x8640 -1 x8377 -1 x8378 -1 x8379 -1 x8380 -1 x8381 -1 x8382 -1 x8383 -1 x8384 >= 0 ;
+2 x8641 +2 x8642 +2 x8643 +2 x8644 -1 x8381 -1 x8382 -1 x8383 -1 x8384 -1 x8385 -1 x8386 -1 x8387 -1 x8388 >= 0 ;
+2 x8645 +2 x8646 +2 x8647 +2 x8648 -1 x8385 -1 x8386 -1 x8387 -1 x8388 -1 x8389 -1 x8390 -1 x8391 -1 x8392 >= 0 ;
+2 x8649 +2 x8650 +2 x8651 +2 x8652 -1 x8389 -1 x8390 -1 x8391 -1 x8392 -1 x8393 -1 x8394 -1 x8395 -1 x8396 >= 0 ;
+2 x8653 +2 x8654 +2 x8655 +2 x8656 -1 x8393 -1 x8394 -1 x8395 -1 x8396 -1 x8397 -1 x8398 -1 x8399 -1 x8400 >= 0 ;
+2 x8657 +2 x8658 +2 x8659 +2 x8660 -1 x8397 -1 x8398 -1 x8399 -1 x8400 -1 x8401 -1 x8402 -1 x8403 -1 x8404 >= 0 ;
+2 x8661 +2 x8662 +2 x8663 +2 x8664 -1 x8401 -1 x8402 -1 x8403 -1 x8404 -1 x8405 -1 x8406 -1 x8407 -1 x8408 >= 0 ;
+2 x8665 +2 x8666 +2 x8667 +2 x8668 -1 x8405 -1 x8406 -1 x8407 -1 x8408 -1 x8409 -1 x8410 -1 x8411 -1 x8412 >= 0 ;
+2 x8669 +2 x8670 +2 x8671 +2 x8672 -1 x8409 -1 x8410 -1 x8411 -1 x8412 -1 x8413 -1 x8414 -1 x8415 -1 x8416 >= 0 ;
+2 x8673 +2 x8674 +2 x8675 +2 x8676 -1 x8413 -1 x8414 -1 x8415 -1 x8416 -1 x8417 -1 x8418 -1 x8419 -1 x8420 >= 0 ;
+2 x8677 +2 x8678 +2 x8679 +2 x8680 -1 x8417 -1 x8418 -1 x8419 -1 x8420 -1 x8421 -1 x8422 -1 x8423 -1 x8424 >= 0 ;
+2 x8681 +2 x8682 +2 x8683 +2 x8684 -1 x8421 -1 x8422 -1 x8423 -1 x8424 -1 x8425 -1 x8426 -1 x8427 -1 x8428 >= 0 ;
+2 x8685 +2 x8686 +2 x8687 +2 x8688 -1 x8425 -1 x8426 -1 x8427 -1 x8428 -1 x8429 -1 x8430 -1 x8431 -1 x8432 >= 0 ;
+2 x8689 +2 x8690 +2 x8691 +2 x8692 -1 x8429 -1 x8430 -1 x8431 -1 x8432 -1 x8433 -1 x8434 -1 x8435 -1 x8436 >= 0 ;
+2 x8693 +2 x8694 +2 x8695 +2 x8696 -1 x8433 -1 x8434 -1 x8435 -1 x8436 -1 x8437 -1 x8438 -1 x8439 -1 x8440 >= 0 ;
+2 x8697 +2 x8698 +2 x8699 +2 x8700 -1 x8437 -1 x8438 -1 x8439 -1 x8440 -1 x8441 -1 x8442 -1 x8443 -1 x8444 >= 0 ;
+2 x8701 +2 x8702 +2 x8703 +2 x8704 -1 x8441 -1 x8442 -1 x8443 -1 x8444 -1 x8445 -1 x8446 -1 x8447 -1 x8448 >= 0 ;
+2 x8705 +2 x8706 +2 x8707 +2 x8708 -1 x8449 -1 x8450 -1 x8451 -1 x8452 -1 x8701 -1 x8702 -1 x8703 -1 x8704 >= 0 ;
+2 x8709 +2 x8710 +2 x8711 +2 x8712 -1 x8449 -1 x8450 -1 x8451 -1 x8452 -1 x8453 -1 x8454 -1 x8455 -1 x8456 >= 0 ;
+2 x8713 +2 x8714 +2 x8715 +2 x8716 -1 x8453 -1 x8454 -1 x8455 -1 x8456 -1 x8457 -1 x8458 -1 x8459 -1 x8460 >= 0 ;
+2 x8717 +2 x8718 +2 x8719 +2 x8720 -1 x8457 -1 x8458 -1 x8459 -1 x8460 -1 x8461 -1 x8462 -1 x8463 -1 x8464 >= 0 ;
+2 x8721 +2 x8722 +2 x8723 +2 x8724 -1 x8461 -1 x8462 -1 x8463 -1 x8464 -1 x8465 -1 x8466 -1 x8467 -1 x8468 >= 0 ;
+2 x8725 +2 x8726 +2 x8727 +2 x8728 -1 x8465 -1 x8466 -1 x8467 -1 x8468 -1 x8469 -1 x8470 -1 x8471 -1 x8472 >= 0 ;
+2 x8729 +2 x8730 +2 x8731 +2 x8732 -1 x8469 -1 x8470 -1 x8471 -1 x8472 -1 x8473 -1 x8474 -1 x8475 -1 x8476 >= 0 ;
+2 x8733 +2 x8734 +2 x8735 +2 x8736 -1 x8473 -1 x8474 -1 x8475 -1 x8476 -1 x8477 -1 x8478 -1 x8479 -1 x8480 >= 0 ;
+2 x8737 +2 x8738 +2 x8739 +2 x8740 -1 x8477 -1 x8478 -1 x8479 -1 x8480 -1 x8481 -1 x8482 -1 x8483 -1 x8484 >= 0 ;
+2 x8741 +2 x8742 +2 x8743 +2 x8744 -1 x8481 -1 x8482 -1 x8483 -1 x8484 -1 x8485 -1 x8486 -1 x8487 -1 x8488 >= 0 ;
+2 x8745 +2 x8746 +2 x8747 +2 x8748 -1 x8485 -1 x8486 -1 x8487 -1 x8488 -1 x8489 -1 x8490 -1 x8491 -1 x8492 >= 0 ;
+2 x8749 +2 x8750 +2 x8751 +2 x8752 -1 x8489 -1 x8490 -1 x8491 -1 x8492 -1 x8493 -1 x8494 -1 x8495 -1 x8496 >= 0 ;
+2 x8753 +2 x8754 +2 x8755 +2 x8756 -1 x8493 -1 x8494 -1 x8495 -1 x8496 -1 x8497 -1 x8498 -1 x8499 -1 x8500 >= 0 ;
+2 x8757 +2 x8758 +2 x8759 +2 x8760 -1 x8497 -1 x8498 -1 x8499 -1 x8500 -1 x8501 -1 x8502 -1 x8503 -1 x8504 >= 0 ;
+2 x8761 +2 x8762 +2 x8763 +2 x8764 -1 x8501 -1 x8502 -1 x8503 -1 x8504 -1 x8505 -1 x8506 -1 x8507 -1 x8508 >= 0 ;
+2 x8765 +2 x8766 +2 x8767 +2 x8768 -1 x8505 -1 x8506 -1 x8507 -1 x8508 -1 x8509 -1 x8510 -1 x8511 -1 x8512 >= 0 ;
+2 x8769 +2 x8770 +2 x8771 +2 x8772 -1 x8509 -1 x8510 -1 x8511 -1 x8512 -1 x8513 -1 x8514 -1 x8515 -1 x8516 >= 0 ;
+2 x8773 +2 x8774 +2 x8775 +2 x8776 -1 x8513 -1 x8514 -1 x8515 -1 x8516 -1 x8517 -1 x8518 -1 x8519 -1 x8520 >= 0 ;
+2 x8777 +2 x8778 +2 x8779 +2 x8780 -1 x8517 -1 x8518 -1 x8519 -1 x8520 -1 x8521 -1 x8522 -1 x8523 -1 x8524 >= 0 ;
+2 x8781 +2 x8782 +2 x8783 +2 x8784 -1 x8521 -1 x8522 -1 x8523 -1 x8524 -1 x8525 -1 x8526 -1 x8527 -1 x8528 >= 0 ;
+2 x8785 +2 x8786 +2 x8787 +2 x8788 -1 x8525 -1 x8526 -1 x8527 -1 x8528 -1 x8529 -1 x8530 -1 x8531 -1 x8532 >= 0 ;
+2 x8789 +2 x8790 +2 x8791 +2 x8792 -1 x8529 -1 x8530 -1 x8531 -1 x8532 -1 x8533 -1 x8534 -1 x8535 -1 x8536 >= 0 ;
+2 x8793 +2 x8794 +2 x8795 +2 x8796 -1 x8533 -1 x8534 -1 x8535 -1 x8536 -1 x8537 -1 x8538 -1 x8539 -1 x8540 >= 0 ;
+2 x8797 +2 x8798 +2 x8799 +2 x8800 -1 x8537 -1 x8538 -1 x8539 -1 x8540 -1 x8541 -1 x8542 -1 x8543 -1 x8544 >= 0 ;
+2 x8801 +2 x8802 +2 x8803 +2 x8804 -1 x8541 -1 x8542 -1 x8543 -1 x8544 -1 x8545 -1 x8546 -1 x8547 -1 x8548 >= 0 ;
+2 x8805 +2 x8806 +2 x8807 +2 x8808 -1 x8545 -1 x8546 -1 x8547 -1 x8548 -1 x8549 -1 x8550 -1 x8551 -1 x8552 >= 0 ;
+2 x8809 +2 x8810 +2 x8811 +2 x8812 -1 x8549 -1 x8550 -1 x8551 -1 x8552 -1 x8553 -1 x8554 -1 x8555 -1 x8556 >= 0 ;
+2 x8813 +2 x8814 +2 x8815 +2 x8816 -1 x8553 -1 x8554 -1 x8555 -1 x8556 -1 x8557 -1 x8558 -1 x8559 -1 x8560 >= 0 ;
+2 x8817 +2 x8818 +2 x8819 +2 x8820 -1 x8557 -1 x8558 -1 x8559 -1 x8560 -1 x8561 -1 x8562 -1 x8563 -1 x8564 >= 0 ;
+2 x8821 +2 x8822 +2 x8823 +2 x8824 -1 x8561 -1 x8562 -1 x8563 -1 x8564 -1 x8565 -1 x8566 -1 x8567 -1 x8568 >= 0 ;
+2 x8825 +2 x8826 +2 x8827 +2 x8828 -1 x8565 -1 x8566 -1 x8567 -1 x8568 -1 x8569 -1 x8570 -1 x8571 -1 x8572 >= 0 ;
+2 x8829 +2 x8830 +2 x8831 +2 x8832 -1 x8569 -1 x8570 -1 x8571 -1 x8572 -1 x8573 -1 x8574 -1 x8575 -1 x8576 >= 0 ;
+2 x8833 +2 x8834 +2 x8835 +2 x8836 -1 x8573 -1 x8574 -1 x8575 -1 x8576 -1 x8577 -1 x8578 -1 x8579 -1 x8580 >= 0 ;
+2 x8837 +2 x8838 +2 x8839 +2 x8840 -1 x8577 -1 x8578 -1 x8579 -1 x8580 -1 x8581 -1 x8582 -1 x8583 -1 x8584 >= 0 ;
+2 x8841 +2 x8842 +2 x8843 +2 x8844 -1 x8581 -1 x8582 -1 x8583 -1 x8584 -1 x8585 -1 x8586 -1 x8587 -1 x8588 >= 0 ;
+2 x8845 +2 x8846 +2 x8847 +2 x8848 -1 x8585 -1 x8586 -1 x8587 -1 x8588 -1 x8589 -1 x8590 -1 x8591 -1 x8592 >= 0 ;
+2 x8849 +2 x8850 +2 x8851 +2 x8852 -1 x8589 -1 x8590 -1 x8591 -1 x8592 -1 x8593 -1 x8594 -1 x8595 -1 x8596 >= 0 ;
+2 x8853 +2 x8854 +2 x8855 +2 x8856 -1 x8593 -1 x8594 -1 x8595 -1 x8596 -1 x8597 -1 x8598 -1 x8599 -1 x8600 >= 0 ;
+2 x8857 +2 x8858 +2 x8859 +2 x8860 -1 x8597 -1 x8598 -1 x8599 -1 x8600 -1 x8601 -1 x8602 -1 x8603 -1 x8604 >= 0 ;
+2 x8861 +2 x8862 +2 x8863 +2 x8864 -1 x8601 -1 x8602 -1 x8603 -1 x8604 -1 x8605 -1 x8606 -1 x8607 -1 x8608 >= 0 ;
+2 x8865 +2 x8866 +2 x8867 +2 x8868 -1 x8605 -1 x8606 -1 x8607 -1 x8608 -1 x8609 -1 x8610 -1 x8611 -1 x8612 >= 0 ;
+2 x8869 +2 x8870 +2 x8871 +2 x8872 -1 x8609 -1 x8610 -1 x8611 -1 x8612 -1 x8613 -1 x8614 -1 x8615 -1 x8616 >= 0 ;
+2 x8873 +2 x8874 +2 x8875 +2 x8876 -1 x8613 -1 x8614 -1 x8615 -1 x8616 -1 x8617 -1 x8618 -1 x8619 -1 x8620 >= 0 ;
+2 x8877 +2 x8878 +2 x8879 +2 x8880 -1 x8617 -1 x8618 -1 x8619 -1 x8620 -1 x8621 -1 x8622 -1 x8623 -1 x8624 >= 0 ;
+2 x8881 +2 x8882 +2 x8883 +2 x8884 -1 x8621 -1 x8622 -1 x8623 -1 x8624 -1 x8625 -1 x8626 -1 x8627 -1 x8628 >= 0 ;
+2 x8885 +2 x8886 +2 x8887 +2 x8888 -1 x8625 -1 x8626 -1 x8627 -1 x8628 -1 x8629 -1 x8630 -1 x8631 -1 x8632 >= 0 ;
+2 x8889 +2 x8890 +2 x8891 +2 x8892 -1 x8629 -1 x8630 -1 x8631 -1 x8632 -1 x8633 -1 x8634 -1 x8635 -1 x8636 >= 0 ;
+2 x8893 +2 x8894 +2 x8895 +2 x8896 -1 x8633 -1 x8634 -1 x8635 -1 x8636 -1 x8637 -1 x8638 -1 x8639 -1 x8640 >= 0 ;
+2 x8897 +2 x8898 +2 x8899 +2 x8900 -1 x8637 -1 x8638 -1 x8639 -1 x8640 -1 x8641 -1 x8642 -1 x8643 -1 x8644 >= 0 ;
+2 x8901 +2 x8902 +2 x8903 +2 x8904 -1 x8641 -1 x8642 -1 x8643 -1 x8644 -1 x8645 -1 x8646 -1 x8647 -1 x8648 >= 0 ;
+2 x8905 +2 x8906 +2 x8907 +2 x8908 -1 x8645 -1 x8646 -1 x8647 -1 x8648 -1 x8649 -1 x8650 -1 x8651 -1 x8652 >= 0 ;
+2 x8909 +2 x8910 +2 x8911 +2 x8912 -1 x8649 -1 x8650 -1 x8651 -1 x8652 -1 x8653 -1 x8654 -1 x8655 -1 x8656 >= 0 ;
+2 x8913 +2 x8914 +2 x8915 +2 x8916 -1 x8653 -1 x8654 -1 x8655 -1 x8656 -1 x8657 -1 x8658 -1 x8659 -1 x8660 >= 0 ;
+2 x8917 +2 x8918 +2 x8919 +2 x8920 -1 x8657 -1 x8658 -1 x8659 -1 x8660 -1 x8661 -1 x8662 -1 x8663 -1 x8664 >= 0 ;
+2 x8921 +2 x8922 +2 x8923 +2 x8924 -1 x8661 -1 x8662 -1 x8663 -1 x8664 -1 x8665 -1 x8666 -1 x8667 -1 x8668 >= 0 ;
+2 x8925 +2 x8926 +2 x8927 +2 x8928 -1 x8665 -1 x8666 -1 x8667 -1 x8668 -1 x8669 -1 x8670 -1 x8671 -1 x8672 >= 0 ;
+2 x8929 +2 x8930 +2 x8931 +2 x8932 -1 x8669 -1 x8670 -1 x8671 -1 x8672 -1 x8673 -1 x8674 -1 x8675 -1 x8676 >= 0 ;
+2 x8933 +2 x8934 +2 x8935 +2 x8936 -1 x8673 -1 x8674 -1 x8675 -1 x8676 -1 x8677 -1 x8678 -1 x8679 -1 x8680 >= 0 ;
+2 x8937 +2 x8938 +2 x8939 +2 x8940 -1 x8677 -1 x8678 -1 x8679 -1 x8680 -1 x8681 -1 x8682 -1 x8683 -1 x8684 >= 0 ;
+2 x8941 +2 x8942 +2 x8943 +2 x8944 -1 x8681 -1 x8682 -1 x8683 -1 x8684 -1 x8685 -1 x8686 -1 x8687 -1 x8688 >= 0 ;
+2 x8945 +2 x8946 +2 x8947 +2 x8948 -1 x8685 -1 x8686 -1 x8687 -1 x8688 -1 x8689 -1 x8690 -1 x8691 -1 x8692 >= 0 ;
+2 x8949 +2 x8950 +2 x8951 +2 x8952 -1 x8689 -1 x8690 -1 x8691 -1 x8692 -1 x8693 -1 x8694 -1 x8695 -1 x8696 >= 0 ;
+2 x8953 +2 x8954 +2 x8955 +2 x8956 -1 x8693 -1 x8694 -1 x8695 -1 x8696 -1 x8697 -1 x8698 -1 x8699 -1 x8700 >= 0 ;
+2 x8957 +2 x8958 +2 x8959 +2 x8960 -1 x8697 -1 x8698 -1 x8699 -1 x8700 -1 x8701 -1 x8702 -1 x8703 -1 x8704 >= 0 ;
+2 x8961 +2 x8962 +2 x8963 +2 x8964 -1 x8705 -1 x8706 -1 x8707 -1 x8708 -1 x8957 -1 x8958 -1 x8959 -1 x8960 >= 0 ;
+2 x8965 +2 x8966 +2 x8967 +2 x8968 -1 x8705 -1 x8706 -1 x8707 -1 x8708 -1 x8709 -1 x8710 -1 x8711 -1 x8712 >= 0 ;
+2 x8969 +2 x8970 +2 x8971 +2 x8972 -1 x8709 -1 x8710 -1 x8711 -1 x8712 -1 x8713 -1 x8714 -1 x8715 -1 x8716 >= 0 ;
+2 x8973 +2 x8974 +2 x8975 +2 x8976 -1 x8713 -1 x8714 -1 x8715 -1 x8716 -1 x8717 -1 x8718 -1 x8719 -1 x8720 >= 0 ;
+2 x8977 +2 x8978 +2 x8979 +2 x8980 -1 x8717 -1 x8718 -1 x8719 -1 x8720 -1 x8721 -1 x8722 -1 x8723 -1 x8724 >= 0 ;
+2 x8981 +2 x8982 +2 x8983 +2 x8984 -1 x8721 -1 x8722 -1 x8723 -1 x8724 -1 x8725 -1 x8726 -1 x8727 -1 x8728 >= 0 ;
+2 x8985 +2 x8986 +2 x8987 +2 x8988 -1 x8725 -1 x8726 -1 x8727 -1 x8728 -1 x8729 -1 x8730 -1 x8731 -1 x8732 >= 0 ;
+2 x8989 +2 x8990 +2 x8991 +2 x8992 -1 x8729 -1 x8730 -1 x8731 -1 x8732 -1 x8733 -1 x8734 -1 x8735 -1 x8736 >= 0 ;
+2 x8993 +2 x8994 +2 x8995 +2 x8996 -1 x8733 -1 x8734 -1 x8735 -1 x8736 -1 x8737 -1 x8738 -1 x8739 -1 x8740 >= 0 ;
+2 x8997 +2 x8998 +2 x8999 +2 x9000 -1 x8737 -1 x8738 -1 x8739 -1 x8740 -1 x8741 -1 x8742 -1 x8743 -1 x8744 >= 0 ;
+2 x9001 +2 x9002 +2 x9003 +2 x9004 -1 x8741 -1 x8742 -1 x8743 -1 x8744 -1 x8745 -1 x8746 -1 x8747 -1 x8748 >= 0 ;
+2 x9005 +2 x9006 +2 x9007 +2 x9008 -1 x8745 -1 x8746 -1 x8747 -1 x8748 -1 x8749 -1 x8750 -1 x8751 -1 x8752 >= 0 ;
+2 x9009 +2 x9010 +2 x9011 +2 x9012 -1 x8749 -1 x8750 -1 x8751 -1 x8752 -1 x8753 -1 x8754 -1 x8755 -1 x8756 >= 0 ;
+2 x9013 +2 x9014 +2 x9015 +2 x9016 -1 x8753 -1 x8754 -1 x8755 -1 x8756 -1 x8757 -1 x8758 -1 x8759 -1 x8760 >= 0 ;
+2 x9017 +2 x9018 +2 x9019 +2 x9020 -1 x8757 -1 x8758 -1 x8759 -1 x8760 -1 x8761 -1 x8762 -1 x8763 -1 x8764 >= 0 ;
+2 x9021 +2 x9022 +2 x9023 +2 x9024 -1 x8761 -1 x8762 -1 x8763 -1 x8764 -1 x8765 -1 x8766 -1 x8767 -1 x8768 >= 0 ;
+2 x9025 +2 x9026 +2 x9027 +2 x9028 -1 x8765 -1 x8766 -1 x8767 -1 x8768 -1 x8769 -1 x8770 -1 x8771 -1 x8772 >= 0 ;
+2 x9029 +2 x9030 +2 x9031 +2 x9032 -1 x8769 -1 x8770 -1 x8771 -1 x8772 -1 x8773 -1 x8774 -1 x8775 -1 x8776 >= 0 ;
+2 x9033 +2 x9034 +2 x9035 +2 x9036 -1 x8773 -1 x8774 -1 x8775 -1 x8776 -1 x8777 -1 x8778 -1 x8779 -1 x8780 >= 0 ;
+2 x9037 +2 x9038 +2 x9039 +2 x9040 -1 x8777 -1 x8778 -1 x8779 -1 x8780 -1 x8781 -1 x8782 -1 x8783 -1 x8784 >= 0 ;
+2 x9041 +2 x9042 +2 x9043 +2 x9044 -1 x8781 -1 x8782 -1 x8783 -1 x8784 -1 x8785 -1 x8786 -1 x8787 -1 x8788 >= 0 ;
+2 x9045 +2 x9046 +2 x9047 +2 x9048 -1 x8785 -1 x8786 -1 x8787 -1 x8788 -1 x8789 -1 x8790 -1 x8791 -1 x8792 >= 0 ;
+2 x9049 +2 x9050 +2 x9051 +2 x9052 -1 x8789 -1 x8790 -1 x8791 -1 x8792 -1 x8793 -1 x8794 -1 x8795 -1 x8796 >= 0 ;
+2 x9053 +2 x9054 +2 x9055 +2 x9056 -1 x8793 -1 x8794 -1 x8795 -1 x8796 -1 x8797 -1 x8798 -1 x8799 -1 x8800 >= 0 ;
+2 x9057 +2 x9058 +2 x9059 +2 x9060 -1 x8797 -1 x8798 -1 x8799 -1 x8800 -1 x8801 -1 x8802 -1 x8803 -1 x8804 >= 0 ;
+2 x9061 +2 x9062 +2 x9063 +2 x9064 -1 x8801 -1 x8802 -1 x8803 -1 x8804 -1 x8805 -1 x8806 -1 x8807 -1 x8808 >= 0 ;
+2 x9065 +2 x9066 +2 x9067 +2 x9068 -1 x8805 -1 x8806 -1 x8807 -1 x8808 -1 x8809 -1 x8810 -1 x8811 -1 x8812 >= 0 ;
+2 x9069 +2 x9070 +2 x9071 +2 x9072 -1 x8809 -1 x8810 -1 x8811 -1 x8812 -1 x8813 -1 x8814 -1 x8815 -1 x8816 >= 0 ;
+2 x9073 +2 x9074 +2 x9075 +2 x9076 -1 x8813 -1 x8814 -1 x8815 -1 x8816 -1 x8817 -1 x8818 -1 x8819 -1 x8820 >= 0 ;
+2 x9077 +2 x9078 +2 x9079 +2 x9080 -1 x8817 -1 x8818 -1 x8819 -1 x8820 -1 x8821 -1 x8822 -1 x8823 -1 x8824 >= 0 ;
+2 x9081 +2 x9082 +2 x9083 +2 x9084 -1 x8821 -1 x8822 -1 x8823 -1 x8824 -1 x8825 -1 x8826 -1 x8827 -1 x8828 >= 0 ;
+2 x9085 +2 x9086 +2 x9087 +2 x9088 -1 x8825 -1 x8826 -1 x8827 -1 x8828 -1 x8829 -1 x8830 -1 x8831 -1 x8832 >= 0 ;
+2 x9089 +2 x9090 +2 x9091 +2 x9092 -1 x8829 -1 x8830 -1 x8831 -1 x8832 -1 x8833 -1 x8834 -1 x8835 -1 x8836 >= 0 ;
+2 x9093 +2 x9094 +2 x9095 +2 x9096 -1 x8833 -1 x8834 -1 x8835 -1 x8836 -1 x8837 -1 x8838 -1 x8839 -1 x8840 >= 0 ;
+2 x9097 +2 x9098 +2 x9099 +2 x9100 -1 x8837 -1 x8838 -1 x8839 -1 x8840 -1 x8841 -1 x8842 -1 x8843 -1 x8844 >= 0 ;
+2 x9101 +2 x9102 +2 x9103 +2 x9104 -1 x8841 -1 x8842 -1 x8843 -1 x8844 -1 x8845 -1 x8846 -1 x8847 -1 x8848 >= 0 ;
+2 x9105 +2 x9106 +2 x9107 +2 x9108 -1 x8845 -1 x8846 -1 x8847 -1 x8848 -1 x8849 -1 x8850 -1 x8851 -1 x8852 >= 0 ;
+2 x9109 +2 x9110 +2 x9111 +2 x9112 -1 x8849 -1 x8850 -1 x8851 -1 x8852 -1 x8853 -1 x8854 -1 x8855 -1 x8856 >= 0 ;
+2 x9113 +2 x9114 +2 x9115 +2 x9116 -1 x8853 -1 x8854 -1 x8855 -1 x8856 -1 x8857 -1 x8858 -1 x8859 -1 x8860 >= 0 ;
+2 x9117 +2 x9118 +2 x9119 +2 x9120 -1 x8857 -1 x8858 -1 x8859 -1 x8860 -1 x8861 -1 x8862 -1 x8863 -1 x8864 >= 0 ;
+2 x9121 +2 x9122 +2 x9123 +2 x9124 -1 x8861 -1 x8862 -1 x8863 -1 x8864 -1 x8865 -1 x8866 -1 x8867 -1 x8868 >= 0 ;
+2 x9125 +2 x9126 +2 x9127 +2 x9128 -1 x8865 -1 x8866 -1 x8867 -1 x8868 -1 x8869 -1 x8870 -1 x8871 -1 x8872 >= 0 ;
+2 x9129 +2 x9130 +2 x9131 +2 x9132 -1 x8869 -1 x8870 -1 x8871 -1 x8872 -1 x8873 -1 x8874 -1 x8875 -1 x8876 >= 0 ;
+2 x9133 +2 x9134 +2 x9135 +2 x9136 -1 x8873 -1 x8874 -1 x8875 -1 x8876 -1 x8877 -1 x8878 -1 x8879 -1 x8880 >= 0 ;
+2 x9137 +2 x9138 +2 x9139 +2 x9140 -1 x8877 -1 x8878 -1 x8879 -1 x8880 -1 x8881 -1 x8882 -1 x8883 -1 x8884 >= 0 ;
+2 x9141 +2 x9142 +2 x9143 +2 x9144 -1 x8881 -1 x8882 -1 x8883 -1 x8884 -1 x8885 -1 x8886 -1 x8887 -1 x8888 >= 0 ;
+2 x9145 +2 x9146 +2 x9147 +2 x9148 -1 x8885 -1 x8886 -1 x8887 -1 x8888 -1 x8889 -1 x8890 -1 x8891 -1 x8892 >= 0 ;
+2 x9149 +2 x9150 +2 x9151 +2 x9152 -1 x8889 -1 x8890 -1 x8891 -1 x8892 -1 x8893 -1 x8894 -1 x8895 -1 x8896 >= 0 ;
+2 x9153 +2 x9154 +2 x9155 +2 x9156 -1 x8893 -1 x8894 -1 x8895 -1 x8896 -1 x8897 -1 x8898 -1 x8899 -1 x8900 >= 0 ;
+2 x9157 +2 x9158 +2 x9159 +2 x9160 -1 x8897 -1 x8898 -1 x8899 -1 x8900 -1 x8901 -1 x8902 -1 x8903 -1 x8904 >= 0 ;
+2 x9161 +2 x9162 +2 x9163 +2 x9164 -1 x8901 -1 x8902 -1 x8903 -1 x8904 -1 x8905 -1 x8906 -1 x8907 -1 x8908 >= 0 ;
+2 x9165 +2 x9166 +2 x9167 +2 x9168 -1 x8905 -1 x8906 -1 x8907 -1 x8908 -1 x8909 -1 x8910 -1 x8911 -1 x8912 >= 0 ;
+2 x9169 +2 x9170 +2 x9171 +2 x9172 -1 x8909 -1 x8910 -1 x8911 -1 x8912 -1 x8913 -1 x8914 -1 x8915 -1 x8916 >= 0 ;
+2 x9173 +2 x9174 +2 x9175 +2 x9176 -1 x8913 -1 x8914 -1 x8915 -1 x8916 -1 x8917 -1 x8918 -1 x8919 -1 x8920 >= 0 ;
+2 x9177 +2 x9178 +2 x9179 +2 x9180 -1 x8917 -1 x8918 -1 x8919 -1 x8920 -1 x8921 -1 x8922 -1 x8923 -1 x8924 >= 0 ;
+2 x9181 +2 x9182 +2 x9183 +2 x9184 -1 x8921 -1 x8922 -1 x8923 -1 x8924 -1 x8925 -1 x8926 -1 x8927 -1 x8928 >= 0 ;
+2 x9185 +2 x9186 +2 x9187 +2 x9188 -1 x8925 -1 x8926 -1 x8927 -1 x8928 -1 x8929 -1 x8930 -1 x8931 -1 x8932 >= 0 ;
+2 x9189 +2 x9190 +2 x9191 +2 x9192 -1 x8929 -1 x8930 -1 x8931 -1 x8932 -1 x8933 -1 x8934 -1 x8935 -1 x8936 >= 0 ;
+2 x9193 +2 x9194 +2 x9195 +2 x9196 -1 x8933 -1 x8934 -1 x8935 -1 x8936 -1 x8937 -1 x8938 -1 x8939 -1 x8940 >= 0 ;
+2 x9197 +2 x9198 +2 x9199 +2 x9200 -1 x8937 -1 x8938 -1 x8939 -1 x8940 -1 x8941 -1 x8942 -1 x8943 -1 x8944 >= 0 ;
+2 x9201 +2 x9202 +2 x9203 +2 x9204 -1 x8941 -1 x8942 -1 x8943 -1 x8944 -1 x8945 -1 x8946 -1 x8947 -1 x8948 >= 0 ;
+2 x9205 +2 x9206 +2 x9207 +2 x9208 -1 x8945 -1 x8946 -1 x8947 -1 x8948 -1 x8949 -1 x8950 -1 x8951 -1 x8952 >= 0 ;
+2 x9209 +2 x9210 +2 x9211 +2 x9212 -1 x8949 -1 x8950 -1 x8951 -1 x8952 -1 x8953 -1 x8954 -1 x8955 -1 x8956 >= 0 ;
+2 x9213 +2 x9214 +2 x9215 +2 x9216 -1 x8953 -1 x8954 -1 x8955 -1 x8956 -1 x8957 -1 x8958 -1 x8959 -1 x8960 >= 0 ;
+2 x9217 +2 x9218 +2 x9219 +2 x9220 -1 x8961 -1 x8962 -1 x8963 -1 x8964 -1 x9213 -1 x9214 -1 x9215 -1 x9216 >= 0 ;
+2 x9221 +2 x9222 +2 x9223 +2 x9224 -1 x8961 -1 x8962 -1 x8963 -1 x8964 -1 x8965 -1 x8966 -1 x8967 -1 x8968 >= 0 ;
+2 x9225 +2 x9226 +2 x9227 +2 x9228 -1 x8965 -1 x8966 -1 x8967 -1 x8968 -1 x8969 -1 x8970 -1 x8971 -1 x8972 >= 0 ;
+2 x9229 +2 x9230 +2 x9231 +2 x9232 -1 x8969 -1 x8970 -1 x8971 -1 x8972 -1 x8973 -1 x8974 -1 x8975 -1 x8976 >= 0 ;
+2 x9233 +2 x9234 +2 x9235 +2 x9236 -1 x8973 -1 x8974 -1 x8975 -1 x8976 -1 x8977 -1 x8978 -1 x8979 -1 x8980 >= 0 ;
+2 x9237 +2 x9238 +2 x9239 +2 x9240 -1 x8977 -1 x8978 -1 x8979 -1 x8980 -1 x8981 -1 x8982 -1 x8983 -1 x8984 >= 0 ;
+2 x9241 +2 x9242 +2 x9243 +2 x9244 -1 x8981 -1 x8982 -1 x8983 -1 x8984 -1 x8985 -1 x8986 -1 x8987 -1 x8988 >= 0 ;
+2 x9245 +2 x9246 +2 x9247 +2 x9248 -1 x8985 -1 x8986 -1 x8987 -1 x8988 -1 x8989 -1 x8990 -1 x8991 -1 x8992 >= 0 ;
+2 x9249 +2 x9250 +2 x9251 +2 x9252 -1 x8989 -1 x8990 -1 x8991 -1 x8992 -1 x8993 -1 x8994 -1 x8995 -1 x8996 >= 0 ;
+2 x9253 +2 x9254 +2 x9255 +2 x9256 -1 x8993 -1 x8994 -1 x8995 -1 x8996 -1 x8997 -1 x8998 -1 x8999 -1 x9000 >= 0 ;
+2 x9257 +2 x9258 +2 x9259 +2 x9260 -1 x8997 -1 x8998 -1 x8999 -1 x9000 -1 x9001 -1 x9002 -1 x9003 -1 x9004 >= 0 ;
+2 x9261 +2 x9262 +2 x9263 +2 x9264 -1 x9001 -1 x9002 -1 x9003 -1 x9004 -1 x9005 -1 x9006 -1 x9007 -1 x9008 >= 0 ;
+2 x9265 +2 x9266 +2 x9267 +2 x9268 -1 x9005 -1 x9006 -1 x9007 -1 x9008 -1 x9009 -1 x9010 -1 x9011 -1 x9012 >= 0 ;
+2 x9269 +2 x9270 +2 x9271 +2 x9272 -1 x9009 -1 x9010 -1 x9011 -1 x9012 -1 x9013 -1 x9014 -1 x9015 -1 x9016 >= 0 ;
+2 x9273 +2 x9274 +2 x9275 +2 x9276 -1 x9013 -1 x9014 -1 x9015 -1 x9016 -1 x9017 -1 x9018 -1 x9019 -1 x9020 >= 0 ;
+2 x9277 +2 x9278 +2 x9279 +2 x9280 -1 x9017 -1 x9018 -1 x9019 -1 x9020 -1 x9021 -1 x9022 -1 x9023 -1 x9024 >= 0 ;
+2 x9281 +2 x9282 +2 x9283 +2 x9284 -1 x9021 -1 x9022 -1 x9023 -1 x9024 -1 x9025 -1 x9026 -1 x9027 -1 x9028 >= 0 ;
+2 x9285 +2 x9286 +2 x9287 +2 x9288 -1 x9025 -1 x9026 -1 x9027 -1 x9028 -1 x9029 -1 x9030 -1 x9031 -1 x9032 >= 0 ;
+2 x9289 +2 x9290 +2 x9291 +2 x9292 -1 x9029 -1 x9030 -1 x9031 -1 x9032 -1 x9033 -1 x9034 -1 x9035 -1 x9036 >= 0 ;
+2 x9293 +2 x9294 +2 x9295 +2 x9296 -1 x9033 -1 x9034 -1 x9035 -1 x9036 -1 x9037 -1 x9038 -1 x9039 -1 x9040 >= 0 ;
+2 x9297 +2 x9298 +2 x9299 +2 x9300 -1 x9037 -1 x9038 -1 x9039 -1 x9040 -1 x9041 -1 x9042 -1 x9043 -1 x9044 >= 0 ;
+2 x9301 +2 x9302 +2 x9303 +2 x9304 -1 x9041 -1 x9042 -1 x9043 -1 x9044 -1 x9045 -1 x9046 -1 x9047 -1 x9048 >= 0 ;
+2 x9305 +2 x9306 +2 x9307 +2 x9308 -1 x9045 -1 x9046 -1 x9047 -1 x9048 -1 x9049 -1 x9050 -1 x9051 -1 x9052 >= 0 ;
+2 x9309 +2 x9310 +2 x9311 +2 x9312 -1 x9049 -1 x9050 -1 x9051 -1 x9052 -1 x9053 -1 x9054 -1 x9055 -1 x9056 >= 0 ;
+2 x9313 +2 x9314 +2 x9315 +2 x9316 -1 x9053 -1 x9054 -1 x9055 -1 x9056 -1 x9057 -1 x9058 -1 x9059 -1 x9060 >= 0 ;
+2 x9317 +2 x9318 +2 x9319 +2 x9320 -1 x9057 -1 x9058 -1 x9059 -1 x9060 -1 x9061 -1 x9062 -1 x9063 -1 x9064 >= 0 ;
+2 x9321 +2 x9322 +2 x9323 +2 x9324 -1 x9061 -1 x9062 -1 x9063 -1 x9064 -1 x9065 -1 x9066 -1 x9067 -1 x9068 >= 0 ;
+2 x9325 +2 x9326 +2 x9327 +2 x9328 -1 x9065 -1 x9066 -1 x9067 -1 x9068 -1 x9069 -1 x9070 -1 x9071 -1 x9072 >= 0 ;
+2 x9329 +2 x9330 +2 x9331 +2 x9332 -1 x9069 -1 x9070 -1 x9071 -1 x9072 -1 x9073 -1 x9074 -1 x9075 -1 x9076 >= 0 ;
+2 x9333 +2 x9334 +2 x9335 +2 x9336 -1 x9073 -1 x9074 -1 x9075 -1 x9076 -1 x9077 -1 x9078 -1 x9079 -1 x9080 >= 0 ;
+2 x9337 +2 x9338 +2 x9339 +2 x9340 -1 x9077 -1 x9078 -1 x9079 -1 x9080 -1 x9081 -1 x9082 -1 x9083 -1 x9084 >= 0 ;
+2 x9341 +2 x9342 +2 x9343 +2 x9344 -1 x9081 -1 x9082 -1 x9083 -1 x9084 -1 x9085 -1 x9086 -1 x9087 -1 x9088 >= 0 ;
+2 x9345 +2 x9346 +2 x9347 +2 x9348 -1 x9085 -1 x9086 -1 x9087 -1 x9088 -1 x9089 -1 x9090 -1 x9091 -1 x9092 >= 0 ;
+2 x9349 +2 x9350 +2 x9351 +2 x9352 -1 x9089 -1 x9090 -1 x9091 -1 x9092 -1 x9093 -1 x9094 -1 x9095 -1 x9096 >= 0 ;
+2 x9353 +2 x9354 +2 x9355 +2 x9356 -1 x9093 -1 x9094 -1 x9095 -1 x9096 -1 x9097 -1 x9098 -1 x9099 -1 x9100 >= 0 ;
+2 x9357 +2 x9358 +2 x9359 +2 x9360 -1 x9097 -1 x9098 -1 x9099 -1 x9100 -1 x9101 -1 x9102 -1 x9103 -1 x9104 >= 0 ;
+2 x9361 +2 x9362 +2 x9363 +2 x9364 -1 x9101 -1 x9102 -1 x9103 -1 x9104 -1 x9105 -1 x9106 -1 x9107 -1 x9108 >= 0 ;
+2 x9365 +2 x9366 +2 x9367 +2 x9368 -1 x9105 -1 x9106 -1 x9107 -1 x9108 -1 x9109 -1 x9110 -1 x9111 -1 x9112 >= 0 ;
+2 x9369 +2 x9370 +2 x9371 +2 x9372 -1 x9109 -1 x9110 -1 x9111 -1 x9112 -1 x9113 -1 x9114 -1 x9115 -1 x9116 >= 0 ;
+2 x9373 +2 x9374 +2 x9375 +2 x9376 -1 x9113 -1 x9114 -1 x9115 -1 x9116 -1 x9117 -1 x9118 -1 x9119 -1 x9120 >= 0 ;
+2 x9377 +2 x9378 +2 x9379 +2 x9380 -1 x9117 -1 x9118 -1 x9119 -1 x9120 -1 x9121 -1 x9122 -1 x9123 -1 x9124 >= 0 ;
+2 x9381 +2 x9382 +2 x9383 +2 x9384 -1 x9121 -1 x9122 -1 x9123 -1 x9124 -1 x9125 -1 x9126 -1 x9127 -1 x9128 >= 0 ;
+2 x9385 +2 x9386 +2 x9387 +2 x9388 -1 x9125 -1 x9126 -1 x9127 -1 x9128 -1 x9129 -1 x9130 -1 x9131 -1 x9132 >= 0 ;
+2 x9389 +2 x9390 +2 x9391 +2 x9392 -1 x9129 -1 x9130 -1 x9131 -1 x9132 -1 x9133 -1 x9134 -1 x9135 -1 x9136 >= 0 ;
+2 x9393 +2 x9394 +2 x9395 +2 x9396 -1 x9133 -1 x9134 -1 x9135 -1 x9136 -1 x9137 -1 x9138 -1 x9139 -1 x9140 >= 0 ;
+2 x9397 +2 x9398 +2 x9399 +2 x9400 -1 x9137 -1 x9138 -1 x9139 -1 x9140 -1 x9141 -1 x9142 -1 x9143 -1 x9144 >= 0 ;
+2 x9401 +2 x9402 +2 x9403 +2 x9404 -1 x9141 -1 x9142 -1 x9143 -1 x9144 -1 x9145 -1 x9146 -1 x9147 -1 x9148 >= 0 ;
+2 x9405 +2 x9406 +2 x9407 +2 x9408 -1 x9145 -1 x9146 -1 x9147 -1 x9148 -1 x9149 -1 x9150 -1 x9151 -1 x9152 >= 0 ;
+2 x9409 +2 x9410 +2 x9411 +2 x9412 -1 x9149 -1 x9150 -1 x9151 -1 x9152 -1 x9153 -1 x9154 -1 x9155 -1 x9156 >= 0 ;
+2 x9413 +2 x9414 +2 x9415 +2 x9416 -1 x9153 -1 x9154 -1 x9155 -1 x9156 -1 x9157 -1 x9158 -1 x9159 -1 x9160 >= 0 ;
+2 x9417 +2 x9418 +2 x9419 +2 x9420 -1 x9157 -1 x9158 -1 x9159 -1 x9160 -1 x9161 -1 x9162 -1 x9163 -1 x9164 >= 0 ;
+2 x9421 +2 x9422 +2 x9423 +2 x9424 -1 x9161 -1 x9162 -1 x9163 -1 x9164 -1 x9165 -1 x9166 -1 x9167 -1 x9168 >= 0 ;
+2 x9425 +2 x9426 +2 x9427 +2 x9428 -1 x9165 -1 x9166 -1 x9167 -1 x9168 -1 x9169 -1 x9170 -1 x9171 -1 x9172 >= 0 ;
+2 x9429 +2 x9430 +2 x9431 +2 x9432 -1 x9169 -1 x9170 -1 x9171 -1 x9172 -1 x9173 -1 x9174 -1 x9175 -1 x9176 >= 0 ;
+2 x9433 +2 x9434 +2 x9435 +2 x9436 -1 x9173 -1 x9174 -1 x9175 -1 x9176 -1 x9177 -1 x9178 -1 x9179 -1 x9180 >= 0 ;
+2 x9437 +2 x9438 +2 x9439 +2 x9440 -1 x9177 -1 x9178 -1 x9179 -1 x9180 -1 x9181 -1 x9182 -1 x9183 -1 x9184 >= 0 ;
+2 x9441 +2 x9442 +2 x9443 +2 x9444 -1 x9181 -1 x9182 -1 x9183 -1 x9184 -1 x9185 -1 x9186 -1 x9187 -1 x9188 >= 0 ;
+2 x9445 +2 x9446 +2 x9447 +2 x9448 -1 x9185 -1 x9186 -1 x9187 -1 x9188 -1 x9189 -1 x9190 -1 x9191 -1 x9192 >= 0 ;
+2 x9449 +2 x9450 +2 x9451 +2 x9452 -1 x9189 -1 x9190 -1 x9191 -1 x9192 -1 x9193 -1 x9194 -1 x9195 -1 x9196 >= 0 ;
+2 x9453 +2 x9454 +2 x9455 +2 x9456 -1 x9193 -1 x9194 -1 x9195 -1 x9196 -1 x9197 -1 x9198 -1 x9199 -1 x9200 >= 0 ;
+2 x9457 +2 x9458 +2 x9459 +2 x9460 -1 x9197 -1 x9198 -1 x9199 -1 x9200 -1 x9201 -1 x9202 -1 x9203 -1 x9204 >= 0 ;
+2 x9461 +2 x9462 +2 x9463 +2 x9464 -1 x9201 -1 x9202 -1 x9203 -1 x9204 -1 x9205 -1 x9206 -1 x9207 -1 x9208 >= 0 ;
+2 x9465 +2 x9466 +2 x9467 +2 x9468 -1 x9205 -1 x9206 -1 x9207 -1 x9208 -1 x9209 -1 x9210 -1 x9211 -1 x9212 >= 0 ;
+2 x9469 +2 x9470 +2 x9471 +2 x9472 -1 x9209 -1 x9210 -1 x9211 -1 x9212 -1 x9213 -1 x9214 -1 x9215 -1 x9216 >= 0 ;
+2 x9473 +2 x9474 +2 x9475 +2 x9476 -1 x9217 -1 x9218 -1 x9219 -1 x9220 -1 x9469 -1 x9470 -1 x9471 -1 x9472 >= 0 ;
+2 x9477 +2 x9478 +2 x9479 +2 x9480 -1 x9217 -1 x9218 -1 x9219 -1 x9220 -1 x9221 -1 x9222 -1 x9223 -1 x9224 >= 0 ;
+2 x9481 +2 x9482 +2 x9483 +2 x9484 -1 x9221 -1 x9222 -1 x9223 -1 x9224 -1 x9225 -1 x9226 -1 x9227 -1 x9228 >= 0 ;
+2 x9485 +2 x9486 +2 x9487 +2 x9488 -1 x9225 -1 x9226 -1 x9227 -1 x9228 -1 x9229 -1 x9230 -1 x9231 -1 x9232 >= 0 ;
+2 x9489 +2 x9490 +2 x9491 +2 x9492 -1 x9229 -1 x9230 -1 x9231 -1 x9232 -1 x9233 -1 x9234 -1 x9235 -1 x9236 >= 0 ;
+2 x9493 +2 x9494 +2 x9495 +2 x9496 -1 x9233 -1 x9234 -1 x9235 -1 x9236 -1 x9237 -1 x9238 -1 x9239 -1 x9240 >= 0 ;
+2 x9497 +2 x9498 +2 x9499 +2 x9500 -1 x9237 -1 x9238 -1 x9239 -1 x9240 -1 x9241 -1 x9242 -1 x9243 -1 x9244 >= 0 ;
+2 x9501 +2 x9502 +2 x9503 +2 x9504 -1 x9241 -1 x9242 -1 x9243 -1 x9244 -1 x9245 -1 x9246 -1 x9247 -1 x9248 >= 0 ;
+2 x9505 +2 x9506 +2 x9507 +2 x9508 -1 x9245 -1 x9246 -1 x9247 -1 x9248 -1 x9249 -1 x9250 -1 x9251 -1 x9252 >= 0 ;
+2 x9509 +2 x9510 +2 x9511 +2 x9512 -1 x9249 -1 x9250 -1 x9251 -1 x9252 -1 x9253 -1 x9254 -1 x9255 -1 x9256 >= 0 ;
+2 x9513 +2 x9514 +2 x9515 +2 x9516 -1 x9253 -1 x9254 -1 x9255 -1 x9256 -1 x9257 -1 x9258 -1 x9259 -1 x9260 >= 0 ;
+2 x9517 +2 x9518 +2 x9519 +2 x9520 -1 x9257 -1 x9258 -1 x9259 -1 x9260 -1 x9261 -1 x9262 -1 x9263 -1 x9264 >= 0 ;
+2 x9521 +2 x9522 +2 x9523 +2 x9524 -1 x9261 -1 x9262 -1 x9263 -1 x9264 -1 x9265 -1 x9266 -1 x9267 -1 x9268 >= 0 ;
+2 x9525 +2 x9526 +2 x9527 +2 x9528 -1 x9265 -1 x9266 -1 x9267 -1 x9268 -1 x9269 -1 x9270 -1 x9271 -1 x9272 >= 0 ;
+2 x9529 +2 x9530 +2 x9531 +2 x9532 -1 x9269 -1 x9270 -1 x9271 -1 x9272 -1 x9273 -1 x9274 -1 x9275 -1 x9276 >= 0 ;
+2 x9533 +2 x9534 +2 x9535 +2 x9536 -1 x9273 -1 x9274 -1 x9275 -1 x9276 -1 x9277 -1 x9278 -1 x9279 -1 x9280 >= 0 ;
+2 x9537 +2 x9538 +2 x9539 +2 x9540 -1 x9277 -1 x9278 -1 x9279 -1 x9280 -1 x9281 -1 x9282 -1 x9283 -1 x9284 >= 0 ;
+2 x9541 +2 x9542 +2 x9543 +2 x9544 -1 x9281 -1 x9282 -1 x9283 -1 x9284 -1 x9285 -1 x9286 -1 x9287 -1 x9288 >= 0 ;
+2 x9545 +2 x9546 +2 x9547 +2 x9548 -1 x9285 -1 x9286 -1 x9287 -1 x9288 -1 x9289 -1 x9290 -1 x9291 -1 x9292 >= 0 ;
+2 x9549 +2 x9550 +2 x9551 +2 x9552 -1 x9289 -1 x9290 -1 x9291 -1 x9292 -1 x9293 -1 x9294 -1 x9295 -1 x9296 >= 0 ;
+2 x9553 +2 x9554 +2 x9555 +2 x9556 -1 x9293 -1 x9294 -1 x9295 -1 x9296 -1 x9297 -1 x9298 -1 x9299 -1 x9300 >= 0 ;
+2 x9557 +2 x9558 +2 x9559 +2 x9560 -1 x9297 -1 x9298 -1 x9299 -1 x9300 -1 x9301 -1 x9302 -1 x9303 -1 x9304 >= 0 ;
+2 x9561 +2 x9562 +2 x9563 +2 x9564 -1 x9301 -1 x9302 -1 x9303 -1 x9304 -1 x9305 -1 x9306 -1 x9307 -1 x9308 >= 0 ;
+2 x9565 +2 x9566 +2 x9567 +2 x9568 -1 x9305 -1 x9306 -1 x9307 -1 x9308 -1 x9309 -1 x9310 -1 x9311 -1 x9312 >= 0 ;
+2 x9569 +2 x9570 +2 x9571 +2 x9572 -1 x9309 -1 x9310 -1 x9311 -1 x9312 -1 x9313 -1 x9314 -1 x9315 -1 x9316 >= 0 ;
+2 x9573 +2 x9574 +2 x9575 +2 x9576 -1 x9313 -1 x9314 -1 x9315 -1 x9316 -1 x9317 -1 x9318 -1 x9319 -1 x9320 >= 0 ;
+2 x9577 +2 x9578 +2 x9579 +2 x9580 -1 x9317 -1 x9318 -1 x9319 -1 x9320 -1 x9321 -1 x9322 -1 x9323 -1 x9324 >= 0 ;
+2 x9581 +2 x9582 +2 x9583 +2 x9584 -1 x9321 -1 x9322 -1 x9323 -1 x9324 -1 x9325 -1 x9326 -1 x9327 -1 x9328 >= 0 ;
+2 x9585 +2 x9586 +2 x9587 +2 x9588 -1 x9325 -1 x9326 -1 x9327 -1 x9328 -1 x9329 -1 x9330 -1 x9331 -1 x9332 >= 0 ;
+2 x9589 +2 x9590 +2 x9591 +2 x9592 -1 x9329 -1 x9330 -1 x9331 -1 x9332 -1 x9333 -1 x9334 -1 x9335 -1 x9336 >= 0 ;
+2 x9593 +2 x9594 +2 x9595 +2 x9596 -1 x9333 -1 x9334 -1 x9335 -1 x9336 -1 x9337 -1 x9338 -1 x9339 -1 x9340 >= 0 ;
+2 x9597 +2 x9598 +2 x9599 +2 x9600 -1 x9337 -1 x9338 -1 x9339 -1 x9340 -1 x9341 -1 x9342 -1 x9343 -1 x9344 >= 0 ;
+2 x9601 +2 x9602 +2 x9603 +2 x9604 -1 x9341 -1 x9342 -1 x9343 -1 x9344 -1 x9345 -1 x9346 -1 x9347 -1 x9348 >= 0 ;
+2 x9605 +2 x9606 +2 x9607 +2 x9608 -1 x9345 -1 x9346 -1 x9347 -1 x9348 -1 x9349 -1 x9350 -1 x9351 -1 x9352 >= 0 ;
+2 x9609 +2 x9610 +2 x9611 +2 x9612 -1 x9349 -1 x9350 -1 x9351 -1 x9352 -1 x9353 -1 x9354 -1 x9355 -1 x9356 >= 0 ;
+2 x9613 +2 x9614 +2 x9615 +2 x9616 -1 x9353 -1 x9354 -1 x9355 -1 x9356 -1 x9357 -1 x9358 -1 x9359 -1 x9360 >= 0 ;
+2 x9617 +2 x9618 +2 x9619 +2 x9620 -1 x9357 -1 x9358 -1 x9359 -1 x9360 -1 x9361 -1 x9362 -1 x9363 -1 x9364 >= 0 ;
+2 x9621 +2 x9622 +2 x9623 +2 x9624 -1 x9361 -1 x9362 -1 x9363 -1 x9364 -1 x9365 -1 x9366 -1 x9367 -1 x9368 >= 0 ;
+2 x9625 +2 x9626 +2 x9627 +2 x9628 -1 x9365 -1 x9366 -1 x9367 -1 x9368 -1 x9369 -1 x9370 -1 x9371 -1 x9372 >= 0 ;
+2 x9629 +2 x9630 +2 x9631 +2 x9632 -1 x9369 -1 x9370 -1 x9371 -1 x9372 -1 x9373 -1 x9374 -1 x9375 -1 x9376 >= 0 ;
+2 x9633 +2 x9634 +2 x9635 +2 x9636 -1 x9373 -1 x9374 -1 x9375 -1 x9376 -1 x9377 -1 x9378 -1 x9379 -1 x9380 >= 0 ;
+2 x9637 +2 x9638 +2 x9639 +2 x9640 -1 x9377 -1 x9378 -1 x9379 -1 x9380 -1 x9381 -1 x9382 -1 x9383 -1 x9384 >= 0 ;
+2 x9641 +2 x9642 +2 x9643 +2 x9644 -1 x9381 -1 x9382 -1 x9383 -1 x9384 -1 x9385 -1 x9386 -1 x9387 -1 x9388 >= 0 ;
+2 x9645 +2 x9646 +2 x9647 +2 x9648 -1 x9385 -1 x9386 -1 x9387 -1 x9388 -1 x9389 -1 x9390 -1 x9391 -1 x9392 >= 0 ;
+2 x9649 +2 x9650 +2 x9651 +2 x9652 -1 x9389 -1 x9390 -1 x9391 -1 x9392 -1 x9393 -1 x9394 -1 x9395 -1 x9396 >= 0 ;
+2 x9653 +2 x9654 +2 x9655 +2 x9656 -1 x9393 -1 x9394 -1 x9395 -1 x9396 -1 x9397 -1 x9398 -1 x9399 -1 x9400 >= 0 ;
+2 x9657 +2 x9658 +2 x9659 +2 x9660 -1 x9397 -1 x9398 -1 x9399 -1 x9400 -1 x9401 -1 x9402 -1 x9403 -1 x9404 >= 0 ;
+2 x9661 +2 x9662 +2 x9663 +2 x9664 -1 x9401 -1 x9402 -1 x9403 -1 x9404 -1 x9405 -1 x9406 -1 x9407 -1 x9408 >= 0 ;
+2 x9665 +2 x9666 +2 x9667 +2 x9668 -1 x9405 -1 x9406 -1 x9407 -1 x9408 -1 x9409 -1 x9410 -1 x9411 -1 x9412 >= 0 ;
+2 x9669 +2 x9670 +2 x9671 +2 x9672 -1 x9409 -1 x9410 -1 x9411 -1 x9412 -1 x9413 -1 x9414 -1 x9415 -1 x9416 >= 0 ;
+2 x9673 +2 x9674 +2 x9675 +2 x9676 -1 x9413 -1 x9414 -1 x9415 -1 x9416 -1 x9417 -1 x9418 -1 x9419 -1 x9420 >= 0 ;
+2 x9677 +2 x9678 +2 x9679 +2 x9680 -1 x9417 -1 x9418 -1 x9419 -1 x9420 -1 x9421 -1 x9422 -1 x9423 -1 x9424 >= 0 ;
+2 x9681 +2 x9682 +2 x9683 +2 x9684 -1 x9421 -1 x9422 -1 x9423 -1 x9424 -1 x9425 -1 x9426 -1 x9427 -1 x9428 >= 0 ;
+2 x9685 +2 x9686 +2 x9687 +2 x9688 -1 x9425 -1 x9426 -1 x9427 -1 x9428 -1 x9429 -1 x9430 -1 x9431 -1 x9432 >= 0 ;
+2 x9689 +2 x9690 +2 x9691 +2 x9692 -1 x9429 -1 x9430 -1 x9431 -1 x9432 -1 x9433 -1 x9434 -1 x9435 -1 x9436 >= 0 ;
+2 x9693 +2 x9694 +2 x9695 +2 x9696 -1 x9433 -1 x9434 -1 x9435 -1 x9436 -1 x9437 -1 x9438 -1 x9439 -1 x9440 >= 0 ;
+2 x9697 +2 x9698 +2 x9699 +2 x9700 -1 x9437 -1 x9438 -1 x9439 -1 x9440 -1 x9441 -1 x9442 -1 x9443 -1 x9444 >= 0 ;
+2 x9701 +2 x9702 +2 x9703 +2 x9704 -1 x9441 -1 x9442 -1 x9443 -1 x9444 -1 x9445 -1 x9446 -1 x9447 -1 x9448 >= 0 ;
+2 x9705 +2 x9706 +2 x9707 +2 x9708 -1 x9445 -1 x9446 -1 x9447 -1 x9448 -1 x9449 -1 x9450 -1 x9451 -1 x9452 >= 0 ;
+2 x9709 +2 x9710 +2 x9711 +2 x9712 -1 x9449 -1 x9450 -1 x9451 -1 x9452 -1 x9453 -1 x9454 -1 x9455 -1 x9456 >= 0 ;
+2 x9713 +2 x9714 +2 x9715 +2 x9716 -1 x9453 -1 x9454 -1 x9455 -1 x9456 -1 x9457 -1 x9458 -1 x9459 -1 x9460 >= 0 ;
+2 x9717 +2 x9718 +2 x9719 +2 x9720 -1 x9457 -1 x9458 -1 x9459 -1 x9460 -1 x9461 -1 x9462 -1 x9463 -1 x9464 >= 0 ;
+2 x9721 +2 x9722 +2 x9723 +2 x9724 -1 x9461 -1 x9462 -1 x9463 -1 x9464 -1 x9465 -1 x9466 -1 x9467 -1 x9468 >= 0 ;
+2 x9725 +2 x9726 +2 x9727 +2 x9728 -1 x9465 -1 x9466 -1 x9467 -1 x9468 -1 x9469 -1 x9470 -1 x9471 -1 x9472 >= 0 ;
+2 x9729 +2 x9730 +2 x9731 +2 x9732 -1 x9473 -1 x9474 -1 x9475 -1 x9476 -1 x9725 -1 x9726 -1 x9727 -1 x9728 >= 0 ;
+2 x9733 +2 x9734 +2 x9735 +2 x9736 -1 x9473 -1 x9474 -1 x9475 -1 x9476 -1 x9477 -1 x9478 -1 x9479 -1 x9480 >= 0 ;
+2 x9737 +2 x9738 +2 x9739 +2 x9740 -1 x9477 -1 x9478 -1 x9479 -1 x9480 -1 x9481 -1 x9482 -1 x9483 -1 x9484 >= 0 ;
+2 x9741 +2 x9742 +2 x9743 +2 x9744 -1 x9481 -1 x9482 -1 x9483 -1 x9484 -1 x9485 -1 x9486 -1 x9487 -1 x9488 >= 0 ;
+2 x9745 +2 x9746 +2 x9747 +2 x9748 -1 x9485 -1 x9486 -1 x9487 -1 x9488 -1 x9489 -1 x9490 -1 x9491 -1 x9492 >= 0 ;
+2 x9749 +2 x9750 +2 x9751 +2 x9752 -1 x9489 -1 x9490 -1 x9491 -1 x9492 -1 x9493 -1 x9494 -1 x9495 -1 x9496 >= 0 ;
+2 x9753 +2 x9754 +2 x9755 +2 x9756 -1 x9493 -1 x9494 -1 x9495 -1 x9496 -1 x9497 -1 x9498 -1 x9499 -1 x9500 >= 0 ;
+2 x9757 +2 x9758 +2 x9759 +2 x9760 -1 x9497 -1 x9498 -1 x9499 -1 x9500 -1 x9501 -1 x9502 -1 x9503 -1 x9504 >= 0 ;
+2 x9761 +2 x9762 +2 x9763 +2 x9764 -1 x9501 -1 x9502 -1 x9503 -1 x9504 -1 x9505 -1 x9506 -1 x9507 -1 x9508 >= 0 ;
+2 x9765 +2 x9766 +2 x9767 +2 x9768 -1 x9505 -1 x9506 -1 x9507 -1 x9508 -1 x9509 -1 x9510 -1 x9511 -1 x9512 >= 0 ;
+2 x9769 +2 x9770 +2 x9771 +2 x9772 -1 x9509 -1 x9510 -1 x9511 -1 x9512 -1 x9513 -1 x9514 -1 x9515 -1 x9516 >= 0 ;
+2 x9773 +2 x9774 +2 x9775 +2 x9776 -1 x9513 -1 x9514 -1 x9515 -1 x9516 -1 x9517 -1 x9518 -1 x9519 -1 x9520 >= 0 ;
+2 x9777 +2 x9778 +2 x9779 +2 x9780 -1 x9517 -1 x9518 -1 x9519 -1 x9520 -1 x9521 -1 x9522 -1 x9523 -1 x9524 >= 0 ;
+2 x9781 +2 x9782 +2 x9783 +2 x9784 -1 x9521 -1 x9522 -1 x9523 -1 x9524 -1 x9525 -1 x9526 -1 x9527 -1 x9528 >= 0 ;
+2 x9785 +2 x9786 +2 x9787 +2 x9788 -1 x9525 -1 x9526 -1 x9527 -1 x9528 -1 x9529 -1 x9530 -1 x9531 -1 x9532 >= 0 ;
+2 x9789 +2 x9790 +2 x9791 +2 x9792 -1 x9529 -1 x9530 -1 x9531 -1 x9532 -1 x9533 -1 x9534 -1 x9535 -1 x9536 >= 0 ;
+2 x9793 +2 x9794 +2 x9795 +2 x9796 -1 x9533 -1 x9534 -1 x9535 -1 x9536 -1 x9537 -1 x9538 -1 x9539 -1 x9540 >= 0 ;
+2 x9797 +2 x9798 +2 x9799 +2 x9800 -1 x9537 -1 x9538 -1 x9539 -1 x9540 -1 x9541 -1 x9542 -1 x9543 -1 x9544 >= 0 ;
+2 x9801 +2 x9802 +2 x9803 +2 x9804 -1 x9541 -1 x9542 -1 x9543 -1 x9544 -1 x9545 -1 x9546 -1 x9547 -1 x9548 >= 0 ;
+2 x9805 +2 x9806 +2 x9807 +2 x9808 -1 x9545 -1 x9546 -1 x9547 -1 x9548 -1 x9549 -1 x9550 -1 x9551 -1 x9552 >= 0 ;
+2 x9809 +2 x9810 +2 x9811 +2 x9812 -1 x9549 -1 x9550 -1 x9551 -1 x9552 -1 x9553 -1 x9554 -1 x9555 -1 x9556 >= 0 ;
+2 x9813 +2 x9814 +2 x9815 +2 x9816 -1 x9553 -1 x9554 -1 x9555 -1 x9556 -1 x9557 -1 x9558 -1 x9559 -1 x9560 >= 0 ;
+2 x9817 +2 x9818 +2 x9819 +2 x9820 -1 x9557 -1 x9558 -1 x9559 -1 x9560 -1 x9561 -1 x9562 -1 x9563 -1 x9564 >= 0 ;
+2 x9821 +2 x9822 +2 x9823 +2 x9824 -1 x9561 -1 x9562 -1 x9563 -1 x9564 -1 x9565 -1 x9566 -1 x9567 -1 x9568 >= 0 ;
+2 x9825 +2 x9826 +2 x9827 +2 x9828 -1 x9565 -1 x9566 -1 x9567 -1 x9568 -1 x9569 -1 x9570 -1 x9571 -1 x9572 >= 0 ;
+2 x9829 +2 x9830 +2 x9831 +2 x9832 -1 x9569 -1 x9570 -1 x9571 -1 x9572 -1 x9573 -1 x9574 -1 x9575 -1 x9576 >= 0 ;
+2 x9833 +2 x9834 +2 x9835 +2 x9836 -1 x9573 -1 x9574 -1 x9575 -1 x9576 -1 x9577 -1 x9578 -1 x9579 -1 x9580 >= 0 ;
+2 x9837 +2 x9838 +2 x9839 +2 x9840 -1 x9577 -1 x9578 -1 x9579 -1 x9580 -1 x9581 -1 x9582 -1 x9583 -1 x9584 >= 0 ;
+2 x9841 +2 x9842 +2 x9843 +2 x9844 -1 x9581 -1 x9582 -1 x9583 -1 x9584 -1 x9585 -1 x9586 -1 x9587 -1 x9588 >= 0 ;
+2 x9845 +2 x9846 +2 x9847 +2 x9848 -1 x9585 -1 x9586 -1 x9587 -1 x9588 -1 x9589 -1 x9590 -1 x9591 -1 x9592 >= 0 ;
+2 x9849 +2 x9850 +2 x9851 +2 x9852 -1 x9589 -1 x9590 -1 x9591 -1 x9592 -1 x9593 -1 x9594 -1 x9595 -1 x9596 >= 0 ;
+2 x9853 +2 x9854 +2 x9855 +2 x9856 -1 x9593 -1 x9594 -1 x9595 -1 x9596 -1 x9597 -1 x9598 -1 x9599 -1 x9600 >= 0 ;
+2 x9857 +2 x9858 +2 x9859 +2 x9860 -1 x9597 -1 x9598 -1 x9599 -1 x9600 -1 x9601 -1 x9602 -1 x9603 -1 x9604 >= 0 ;
+2 x9861 +2 x9862 +2 x9863 +2 x9864 -1 x9601 -1 x9602 -1 x9603 -1 x9604 -1 x9605 -1 x9606 -1 x9607 -1 x9608 >= 0 ;
+2 x9865 +2 x9866 +2 x9867 +2 x9868 -1 x9605 -1 x9606 -1 x9607 -1 x9608 -1 x9609 -1 x9610 -1 x9611 -1 x9612 >= 0 ;
+2 x9869 +2 x9870 +2 x9871 +2 x9872 -1 x9609 -1 x9610 -1 x9611 -1 x9612 -1 x9613 -1 x9614 -1 x9615 -1 x9616 >= 0 ;
+2 x9873 +2 x9874 +2 x9875 +2 x9876 -1 x9613 -1 x9614 -1 x9615 -1 x9616 -1 x9617 -1 x9618 -1 x9619 -1 x9620 >= 0 ;
+2 x9877 +2 x9878 +2 x9879 +2 x9880 -1 x9617 -1 x9618 -1 x9619 -1 x9620 -1 x9621 -1 x9622 -1 x9623 -1 x9624 >= 0 ;
+2 x9881 +2 x9882 +2 x9883 +2 x9884 -1 x9621 -1 x9622 -1 x9623 -1 x9624 -1 x9625 -1 x9626 -1 x9627 -1 x9628 >= 0 ;
+2 x9885 +2 x9886 +2 x9887 +2 x9888 -1 x9625 -1 x9626 -1 x9627 -1 x9628 -1 x9629 -1 x9630 -1 x9631 -1 x9632 >= 0 ;
+2 x9889 +2 x9890 +2 x9891 +2 x9892 -1 x9629 -1 x9630 -1 x9631 -1 x9632 -1 x9633 -1 x9634 -1 x9635 -1 x9636 >= 0 ;
+2 x9893 +2 x9894 +2 x9895 +2 x9896 -1 x9633 -1 x9634 -1 x9635 -1 x9636 -1 x9637 -1 x9638 -1 x9639 -1 x9640 >= 0 ;
+2 x9897 +2 x9898 +2 x9899 +2 x9900 -1 x9637 -1 x9638 -1 x9639 -1 x9640 -1 x9641 -1 x9642 -1 x9643 -1 x9644 >= 0 ;
+2 x9901 +2 x9902 +2 x9903 +2 x9904 -1 x9641 -1 x9642 -1 x9643 -1 x9644 -1 x9645 -1 x9646 -1 x9647 -1 x9648 >= 0 ;
+2 x9905 +2 x9906 +2 x9907 +2 x9908 -1 x9645 -1 x9646 -1 x9647 -1 x9648 -1 x9649 -1 x9650 -1 x9651 -1 x9652 >= 0 ;
+2 x9909 +2 x9910 +2 x9911 +2 x9912 -1 x9649 -1 x9650 -1 x9651 -1 x9652 -1 x9653 -1 x9654 -1 x9655 -1 x9656 >= 0 ;
+2 x9913 +2 x9914 +2 x9915 +2 x9916 -1 x9653 -1 x9654 -1 x9655 -1 x9656 -1 x9657 -1 x9658 -1 x9659 -1 x9660 >= 0 ;
+2 x9917 +2 x9918 +2 x9919 +2 x9920 -1 x9657 -1 x9658 -1 x9659 -1 x9660 -1 x9661 -1 x9662 -1 x9663 -1 x9664 >= 0 ;
+2 x9921 +2 x9922 +2 x9923 +2 x9924 -1 x9661 -1 x9662 -1 x9663 -1 x9664 -1 x9665 -1 x9666 -1 x9667 -1 x9668 >= 0 ;
+2 x9925 +2 x9926 +2 x9927 +2 x9928 -1 x9665 -1 x9666 -1 x9667 -1 x9668 -1 x9669 -1 x9670 -1 x9671 -1 x9672 >= 0 ;
+2 x9929 +2 x9930 +2 x9931 +2 x9932 -1 x9669 -1 x9670 -1 x9671 -1 x9672 -1 x9673 -1 x9674 -1 x9675 -1 x9676 >= 0 ;
+2 x9933 +2 x9934 +2 x9935 +2 x9936 -1 x9673 -1 x9674 -1 x9675 -1 x9676 -1 x9677 -1 x9678 -1 x9679 -1 x9680 >= 0 ;
+2 x9937 +2 x9938 +2 x9939 +2 x9940 -1 x9677 -1 x9678 -1 x9679 -1 x9680 -1 x9681 -1 x9682 -1 x9683 -1 x9684 >= 0 ;
+2 x9941 +2 x9942 +2 x9943 +2 x9944 -1 x9681 -1 x9682 -1 x9683 -1 x9684 -1 x9685 -1 x9686 -1 x9687 -1 x9688 >= 0 ;
+2 x9945 +2 x9946 +2 x9947 +2 x9948 -1 x9685 -1 x9686 -1 x9687 -1 x9688 -1 x9689 -1 x9690 -1 x9691 -1 x9692 >= 0 ;
+2 x9949 +2 x9950 +2 x9951 +2 x9952 -1 x9689 -1 x9690 -1 x9691 -1 x9692 -1 x9693 -1 x9694 -1 x9695 -1 x9696 >= 0 ;
+2 x9953 +2 x9954 +2 x9955 +2 x9956 -1 x9693 -1 x9694 -1 x9695 -1 x9696 -1 x9697 -1 x9698 -1 x9699 -1 x9700 >= 0 ;
+2 x9957 +2 x9958 +2 x9959 +2 x9960 -1 x9697 -1 x9698 -1 x9699 -1 x9700 -1 x9701 -1 x9702 -1 x9703 -1 x9704 >= 0 ;
+2 x9961 +2 x9962 +2 x9963 +2 x9964 -1 x9701 -1 x9702 -1 x9703 -1 x9704 -1 x9705 -1 x9706 -1 x9707 -1 x9708 >= 0 ;
+2 x9965 +2 x9966 +2 x9967 +2 x9968 -1 x9705 -1 x9706 -1 x9707 -1 x9708 -1 x9709 -1 x9710 -1 x9711 -1 x9712 >= 0 ;
+2 x9969 +2 x9970 +2 x9971 +2 x9972 -1 x9709 -1 x9710 -1 x9711 -1 x9712 -1 x9713 -1 x9714 -1 x9715 -1 x9716 >= 0 ;
+2 x9973 +2 x9974 +2 x9975 +2 x9976 -1 x9713 -1 x9714 -1 x9715 -1 x9716 -1 x9717 -1 x9718 -1 x9719 -1 x9720 >= 0 ;
+2 x9977 +2 x9978 +2 x9979 +2 x9980 -1 x9717 -1 x9718 -1 x9719 -1 x9720 -1 x9721 -1 x9722 -1 x9723 -1 x9724 >= 0 ;
+2 x9981 +2 x9982 +2 x9983 +2 x9984 -1 x9721 -1 x9722 -1 x9723 -1 x9724 -1 x9725 -1 x9726 -1 x9727 -1 x9728 >= 0 ;
+2 x9985 +2 x9986 +2 x9987 +2 x9988 -1 x9729 -1 x9730 -1 x9731 -1 x9732 -1 x9981 -1 x9982 -1 x9983 -1 x9984 >= 0 ;
+2 x9989 +2 x9990 +2 x9991 +2 x9992 -1 x9729 -1 x9730 -1 x9731 -1 x9732 -1 x9733 -1 x9734 -1 x9735 -1 x9736 >= 0 ;
+2 x9993 +2 x9994 +2 x9995 +2 x9996 -1 x9733 -1 x9734 -1 x9735 -1 x9736 -1 x9737 -1 x9738 -1 x9739 -1 x9740 >= 0 ;
+2 x9997 +2 x9998 +2 x9999 +2 x10000 -1 x9737 -1 x9738 -1 x9739 -1 x9740 -1 x9741 -1 x9742 -1 x9743 -1 x9744 >= 0 ;
+2 x10001 +2 x10002 +2 x10003 +2 x10004 -1 x9741 -1 x9742 -1 x9743 -1 x9744 -1 x9745 -1 x9746 -1 x9747 -1 x9748 >= 0 ;
+2 x10005 +2 x10006 +2 x10007 +2 x10008 -1 x9745 -1 x9746 -1 x9747 -1 x9748 -1 x9749 -1 x9750 -1 x9751 -1 x9752 >= 0 ;
+2 x10009 +2 x10010 +2 x10011 +2 x10012 -1 x9749 -1 x9750 -1 x9751 -1 x9752 -1 x9753 -1 x9754 -1 x9755 -1 x9756 >= 0 ;
+2 x10013 +2 x10014 +2 x10015 +2 x10016 -1 x9753 -1 x9754 -1 x9755 -1 x9756 -1 x9757 -1 x9758 -1 x9759 -1 x9760 >= 0 ;
+2 x10017 +2 x10018 +2 x10019 +2 x10020 -1 x9757 -1 x9758 -1 x9759 -1 x9760 -1 x9761 -1 x9762 -1 x9763 -1 x9764 >= 0 ;
+2 x10021 +2 x10022 +2 x10023 +2 x10024 -1 x9761 -1 x9762 -1 x9763 -1 x9764 -1 x9765 -1 x9766 -1 x9767 -1 x9768 >= 0 ;
+2 x10025 +2 x10026 +2 x10027 +2 x10028 -1 x9765 -1 x9766 -1 x9767 -1 x9768 -1 x9769 -1 x9770 -1 x9771 -1 x9772 >= 0 ;
+2 x10029 +2 x10030 +2 x10031 +2 x10032 -1 x9769 -1 x9770 -1 x9771 -1 x9772 -1 x9773 -1 x9774 -1 x9775 -1 x9776 >= 0 ;
+2 x10033 +2 x10034 +2 x10035 +2 x10036 -1 x9773 -1 x9774 -1 x9775 -1 x9776 -1 x9777 -1 x9778 -1 x9779 -1 x9780 >= 0 ;
+2 x10037 +2 x10038 +2 x10039 +2 x10040 -1 x9777 -1 x9778 -1 x9779 -1 x9780 -1 x9781 -1 x9782 -1 x9783 -1 x9784 >= 0 ;
+2 x10041 +2 x10042 +2 x10043 +2 x10044 -1 x9781 -1 x9782 -1 x9783 -1 x9784 -1 x9785 -1 x9786 -1 x9787 -1 x9788 >= 0 ;
+2 x10045 +2 x10046 +2 x10047 +2 x10048 -1 x9785 -1 x9786 -1 x9787 -1 x9788 -1 x9789 -1 x9790 -1 x9791 -1 x9792 >= 0 ;
+2 x10049 +2 x10050 +2 x10051 +2 x10052 -1 x9789 -1 x9790 -1 x9791 -1 x9792 -1 x9793 -1 x9794 -1 x9795 -1 x9796 >= 0 ;
+2 x10053 +2 x10054 +2 x10055 +2 x10056 -1 x9793 -1 x9794 -1 x9795 -1 x9796 -1 x9797 -1 x9798 -1 x9799 -1 x9800 >= 0 ;
+2 x10057 +2 x10058 +2 x10059 +2 x10060 -1 x9797 -1 x9798 -1 x9799 -1 x9800 -1 x9801 -1 x9802 -1 x9803 -1 x9804 >= 0 ;
+2 x10061 +2 x10062 +2 x10063 +2 x10064 -1 x9801 -1 x9802 -1 x9803 -1 x9804 -1 x9805 -1 x9806 -1 x9807 -1 x9808 >= 0 ;
+2 x10065 +2 x10066 +2 x10067 +2 x10068 -1 x9805 -1 x9806 -1 x9807 -1 x9808 -1 x9809 -1 x9810 -1 x9811 -1 x9812 >= 0 ;
+2 x10069 +2 x10070 +2 x10071 +2 x10072 -1 x9809 -1 x9810 -1 x9811 -1 x9812 -1 x9813 -1 x9814 -1 x9815 -1 x9816 >= 0 ;
+2 x10073 +2 x10074 +2 x10075 +2 x10076 -1 x9813 -1 x9814 -1 x9815 -1 x9816 -1 x9817 -1 x9818 -1 x9819 -1 x9820 >= 0 ;
+2 x10077 +2 x10078 +2 x10079 +2 x10080 -1 x9817 -1 x9818 -1 x9819 -1 x9820 -1 x9821 -1 x9822 -1 x9823 -1 x9824 >= 0 ;
+2 x10081 +2 x10082 +2 x10083 +2 x10084 -1 x9821 -1 x9822 -1 x9823 -1 x9824 -1 x9825 -1 x9826 -1 x9827 -1 x9828 >= 0 ;
+2 x10085 +2 x10086 +2 x10087 +2 x10088 -1 x9825 -1 x9826 -1 x9827 -1 x9828 -1 x9829 -1 x9830 -1 x9831 -1 x9832 >= 0 ;
+2 x10089 +2 x10090 +2 x10091 +2 x10092 -1 x9829 -1 x9830 -1 x9831 -1 x9832 -1 x9833 -1 x9834 -1 x9835 -1 x9836 >= 0 ;
+2 x10093 +2 x10094 +2 x10095 +2 x10096 -1 x9833 -1 x9834 -1 x9835 -1 x9836 -1 x9837 -1 x9838 -1 x9839 -1 x9840 >= 0 ;
+2 x10097 +2 x10098 +2 x10099 +2 x10100 -1 x9837 -1 x9838 -1 x9839 -1 x9840 -1 x9841 -1 x9842 -1 x9843 -1 x9844 >= 0 ;
+2 x10101 +2 x10102 +2 x10103 +2 x10104 -1 x9841 -1 x9842 -1 x9843 -1 x9844 -1 x9845 -1 x9846 -1 x9847 -1 x9848 >= 0 ;
+2 x10105 +2 x10106 +2 x10107 +2 x10108 -1 x9845 -1 x9846 -1 x9847 -1 x9848 -1 x9849 -1 x9850 -1 x9851 -1 x9852 >= 0 ;
+2 x10109 +2 x10110 +2 x10111 +2 x10112 -1 x9849 -1 x9850 -1 x9851 -1 x9852 -1 x9853 -1 x9854 -1 x9855 -1 x9856 >= 0 ;
+2 x10113 +2 x10114 +2 x10115 +2 x10116 -1 x9853 -1 x9854 -1 x9855 -1 x9856 -1 x9857 -1 x9858 -1 x9859 -1 x9860 >= 0 ;
+2 x10117 +2 x10118 +2 x10119 +2 x10120 -1 x9857 -1 x9858 -1 x9859 -1 x9860 -1 x9861 -1 x9862 -1 x9863 -1 x9864 >= 0 ;
+2 x10121 +2 x10122 +2 x10123 +2 x10124 -1 x9861 -1 x9862 -1 x9863 -1 x9864 -1 x9865 -1 x9866 -1 x9867 -1 x9868 >= 0 ;
+2 x10125 +2 x10126 +2 x10127 +2 x10128 -1 x9865 -1 x9866 -1 x9867 -1 x9868 -1 x9869 -1 x9870 -1 x9871 -1 x9872 >= 0 ;
+2 x10129 +2 x10130 +2 x10131 +2 x10132 -1 x9869 -1 x9870 -1 x9871 -1 x9872 -1 x9873 -1 x9874 -1 x9875 -1 x9876 >= 0 ;
+2 x10133 +2 x10134 +2 x10135 +2 x10136 -1 x9873 -1 x9874 -1 x9875 -1 x9876 -1 x9877 -1 x9878 -1 x9879 -1 x9880 >= 0 ;
+2 x10137 +2 x10138 +2 x10139 +2 x10140 -1 x9877 -1 x9878 -1 x9879 -1 x9880 -1 x9881 -1 x9882 -1 x9883 -1 x9884 >= 0 ;
+2 x10141 +2 x10142 +2 x10143 +2 x10144 -1 x9881 -1 x9882 -1 x9883 -1 x9884 -1 x9885 -1 x9886 -1 x9887 -1 x9888 >= 0 ;
+2 x10145 +2 x10146 +2 x10147 +2 x10148 -1 x9885 -1 x9886 -1 x9887 -1 x9888 -1 x9889 -1 x9890 -1 x9891 -1 x9892 >= 0 ;
+2 x10149 +2 x10150 +2 x10151 +2 x10152 -1 x9889 -1 x9890 -1 x9891 -1 x9892 -1 x9893 -1 x9894 -1 x9895 -1 x9896 >= 0 ;
+2 x10153 +2 x10154 +2 x10155 +2 x10156 -1 x9893 -1 x9894 -1 x9895 -1 x9896 -1 x9897 -1 x9898 -1 x9899 -1 x9900 >= 0 ;
+2 x10157 +2 x10158 +2 x10159 +2 x10160 -1 x9897 -1 x9898 -1 x9899 -1 x9900 -1 x9901 -1 x9902 -1 x9903 -1 x9904 >= 0 ;
+2 x10161 +2 x10162 +2 x10163 +2 x10164 -1 x9901 -1 x9902 -1 x9903 -1 x9904 -1 x9905 -1 x9906 -1 x9907 -1 x9908 >= 0 ;
+2 x10165 +2 x10166 +2 x10167 +2 x10168 -1 x9905 -1 x9906 -1 x9907 -1 x9908 -1 x9909 -1 x9910 -1 x9911 -1 x9912 >= 0 ;
+2 x10169 +2 x10170 +2 x10171 +2 x10172 -1 x9909 -1 x9910 -1 x9911 -1 x9912 -1 x9913 -1 x9914 -1 x9915 -1 x9916 >= 0 ;
+2 x10173 +2 x10174 +2 x10175 +2 x10176 -1 x9913 -1 x9914 -1 x9915 -1 x9916 -1 x9917 -1 x9918 -1 x9919 -1 x9920 >= 0 ;
+2 x10177 +2 x10178 +2 x10179 +2 x10180 -1 x9917 -1 x9918 -1 x9919 -1 x9920 -1 x9921 -1 x9922 -1 x9923 -1 x9924 >= 0 ;
+2 x10181 +2 x10182 +2 x10183 +2 x10184 -1 x9921 -1 x9922 -1 x9923 -1 x9924 -1 x9925 -1 x9926 -1 x9927 -1 x9928 >= 0 ;
+2 x10185 +2 x10186 +2 x10187 +2 x10188 -1 x9925 -1 x9926 -1 x9927 -1 x9928 -1 x9929 -1 x9930 -1 x9931 -1 x9932 >= 0 ;
+2 x10189 +2 x10190 +2 x10191 +2 x10192 -1 x9929 -1 x9930 -1 x9931 -1 x9932 -1 x9933 -1 x9934 -1 x9935 -1 x9936 >= 0 ;
+2 x10193 +2 x10194 +2 x10195 +2 x10196 -1 x9933 -1 x9934 -1 x9935 -1 x9936 -1 x9937 -1 x9938 -1 x9939 -1 x9940 >= 0 ;
+2 x10197 +2 x10198 +2 x10199 +2 x10200 -1 x9937 -1 x9938 -1 x9939 -1 x9940 -1 x9941 -1 x9942 -1 x9943 -1 x9944 >= 0 ;
+2 x10201 +2 x10202 +2 x10203 +2 x10204 -1 x9941 -1 x9942 -1 x9943 -1 x9944 -1 x9945 -1 x9946 -1 x9947 -1 x9948 >= 0 ;
+2 x10205 +2 x10206 +2 x10207 +2 x10208 -1 x9945 -1 x9946 -1 x9947 -1 x9948 -1 x9949 -1 x9950 -1 x9951 -1 x9952 >= 0 ;
+2 x10209 +2 x10210 +2 x10211 +2 x10212 -1 x9949 -1 x9950 -1 x9951 -1 x9952 -1 x9953 -1 x9954 -1 x9955 -1 x9956 >= 0 ;
+2 x10213 +2 x10214 +2 x10215 +2 x10216 -1 x9953 -1 x9954 -1 x9955 -1 x9956 -1 x9957 -1 x9958 -1 x9959 -1 x9960 >= 0 ;
+2 x10217 +2 x10218 +2 x10219 +2 x10220 -1 x9957 -1 x9958 -1 x9959 -1 x9960 -1 x9961 -1 x9962 -1 x9963 -1 x9964 >= 0 ;
+2 x10221 +2 x10222 +2 x10223 +2 x10224 -1 x9961 -1 x9962 -1 x9963 -1 x9964 -1 x9965 -1 x9966 -1 x9967 -1 x9968 >= 0 ;
+2 x10225 +2 x10226 +2 x10227 +2 x10228 -1 x9965 -1 x9966 -1 x9967 -1 x9968 -1 x9969 -1 x9970 -1 x9971 -1 x9972 >= 0 ;
+2 x10229 +2 x10230 +2 x10231 +2 x10232 -1 x9969 -1 x9970 -1 x9971 -1 x9972 -1 x9973 -1 x9974 -1 x9975 -1 x9976 >= 0 ;
+2 x10233 +2 x10234 +2 x10235 +2 x10236 -1 x9973 -1 x9974 -1 x9975 -1 x9976 -1 x9977 -1 x9978 -1 x9979 -1 x9980 >= 0 ;
+2 x10237 +2 x10238 +2 x10239 +2 x10240 -1 x9977 -1 x9978 -1 x9979 -1 x9980 -1 x9981 -1 x9982 -1 x9983 -1 x9984 >= 0 ;
+2 x10241 +2 x10242 +2 x10243 +2 x10244 -1 x9985 -1 x9986 -1 x9987 -1 x9988 -1 x10237 -1 x10238 -1 x10239 -1 x10240 >= 0 ;
+2 x10245 +2 x10246 +2 x10247 +2 x10248 -1 x9985 -1 x9986 -1 x9987 -1 x9988 -1 x9989 -1 x9990 -1 x9991 -1 x9992 >= 0 ;
+2 x10249 +2 x10250 +2 x10251 +2 x10252 -1 x9989 -1 x9990 -1 x9991 -1 x9992 -1 x9993 -1 x9994 -1 x9995 -1 x9996 >= 0 ;
+2 x10253 +2 x10254 +2 x10255 +2 x10256 -1 x9993 -1 x9994 -1 x9995 -1 x9996 -1 x9997 -1 x9998 -1 x9999 -1 x10000 >= 0 ;
+2 x10257 +2 x10258 +2 x10259 +2 x10260 -1 x9997 -1 x9998 -1 x9999 -1 x10000 -1 x10001 -1 x10002 -1 x10003 -1 x10004 >= 0 ;
+2 x10261 +2 x10262 +2 x10263 +2 x10264 -1 x10001 -1 x10002 -1 x10003 -1 x10004 -1 x10005 -1 x10006 -1 x10007 -1 x10008 >= 0 ;
+2 x10265 +2 x10266 +2 x10267 +2 x10268 -1 x10005 -1 x10006 -1 x10007 -1 x10008 -1 x10009 -1 x10010 -1 x10011 -1 x10012 >= 0 ;
+2 x10269 +2 x10270 +2 x10271 +2 x10272 -1 x10009 -1 x10010 -1 x10011 -1 x10012 -1 x10013 -1 x10014 -1 x10015 -1 x10016 >= 0 ;
+2 x10273 +2 x10274 +2 x10275 +2 x10276 -1 x10013 -1 x10014 -1 x10015 -1 x10016 -1 x10017 -1 x10018 -1 x10019 -1 x10020 >= 0 ;
+2 x10277 +2 x10278 +2 x10279 +2 x10280 -1 x10017 -1 x10018 -1 x10019 -1 x10020 -1 x10021 -1 x10022 -1 x10023 -1 x10024 >= 0 ;
+2 x10281 +2 x10282 +2 x10283 +2 x10284 -1 x10021 -1 x10022 -1 x10023 -1 x10024 -1 x10025 -1 x10026 -1 x10027 -1 x10028 >= 0 ;
+2 x10285 +2 x10286 +2 x10287 +2 x10288 -1 x10025 -1 x10026 -1 x10027 -1 x10028 -1 x10029 -1 x10030 -1 x10031 -1 x10032 >= 0 ;
+2 x10289 +2 x10290 +2 x10291 +2 x10292 -1 x10029 -1 x10030 -1 x10031 -1 x10032 -1 x10033 -1 x10034 -1 x10035 -1 x10036 >= 0 ;
+2 x10293 +2 x10294 +2 x10295 +2 x10296 -1 x10033 -1 x10034 -1 x10035 -1 x10036 -1 x10037 -1 x10038 -1 x10039 -1 x10040 >= 0 ;
+2 x10297 +2 x10298 +2 x10299 +2 x10300 -1 x10037 -1 x10038 -1 x10039 -1 x10040 -1 x10041 -1 x10042 -1 x10043 -1 x10044 >= 0 ;
+2 x10301 +2 x10302 +2 x10303 +2 x10304 -1 x10041 -1 x10042 -1 x10043 -1 x10044 -1 x10045 -1 x10046 -1 x10047 -1 x10048 >= 0 ;
+2 x10305 +2 x10306 +2 x10307 +2 x10308 -1 x10045 -1 x10046 -1 x10047 -1 x10048 -1 x10049 -1 x10050 -1 x10051 -1 x10052 >= 0 ;
+2 x10309 +2 x10310 +2 x10311 +2 x10312 -1 x10049 -1 x10050 -1 x10051 -1 x10052 -1 x10053 -1 x10054 -1 x10055 -1 x10056 >= 0 ;
+2 x10313 +2 x10314 +2 x10315 +2 x10316 -1 x10053 -1 x10054 -1 x10055 -1 x10056 -1 x10057 -1 x10058 -1 x10059 -1 x10060 >= 0 ;
+2 x10317 +2 x10318 +2 x10319 +2 x10320 -1 x10057 -1 x10058 -1 x10059 -1 x10060 -1 x10061 -1 x10062 -1 x10063 -1 x10064 >= 0 ;
+2 x10321 +2 x10322 +2 x10323 +2 x10324 -1 x10061 -1 x10062 -1 x10063 -1 x10064 -1 x10065 -1 x10066 -1 x10067 -1 x10068 >= 0 ;
+2 x10325 +2 x10326 +2 x10327 +2 x10328 -1 x10065 -1 x10066 -1 x10067 -1 x10068 -1 x10069 -1 x10070 -1 x10071 -1 x10072 >= 0 ;
+2 x10329 +2 x10330 +2 x10331 +2 x10332 -1 x10069 -1 x10070 -1 x10071 -1 x10072 -1 x10073 -1 x10074 -1 x10075 -1 x10076 >= 0 ;
+2 x10333 +2 x10334 +2 x10335 +2 x10336 -1 x10073 -1 x10074 -1 x10075 -1 x10076 -1 x10077 -1 x10078 -1 x10079 -1 x10080 >= 0 ;
+2 x10337 +2 x10338 +2 x10339 +2 x10340 -1 x10077 -1 x10078 -1 x10079 -1 x10080 -1 x10081 -1 x10082 -1 x10083 -1 x10084 >= 0 ;
+2 x10341 +2 x10342 +2 x10343 +2 x10344 -1 x10081 -1 x10082 -1 x10083 -1 x10084 -1 x10085 -1 x10086 -1 x10087 -1 x10088 >= 0 ;
+2 x10345 +2 x10346 +2 x10347 +2 x10348 -1 x10085 -1 x10086 -1 x10087 -1 x10088 -1 x10089 -1 x10090 -1 x10091 -1 x10092 >= 0 ;
+2 x10349 +2 x10350 +2 x10351 +2 x10352 -1 x10089 -1 x10090 -1 x10091 -1 x10092 -1 x10093 -1 x10094 -1 x10095 -1 x10096 >= 0 ;
+2 x10353 +2 x10354 +2 x10355 +2 x10356 -1 x10093 -1 x10094 -1 x10095 -1 x10096 -1 x10097 -1 x10098 -1 x10099 -1 x10100 >= 0 ;
+2 x10357 +2 x10358 +2 x10359 +2 x10360 -1 x10097 -1 x10098 -1 x10099 -1 x10100 -1 x10101 -1 x10102 -1 x10103 -1 x10104 >= 0 ;
+2 x10361 +2 x10362 +2 x10363 +2 x10364 -1 x10101 -1 x10102 -1 x10103 -1 x10104 -1 x10105 -1 x10106 -1 x10107 -1 x10108 >= 0 ;
+2 x10365 +2 x10366 +2 x10367 +2 x10368 -1 x10105 -1 x10106 -1 x10107 -1 x10108 -1 x10109 -1 x10110 -1 x10111 -1 x10112 >= 0 ;
+2 x10369 +2 x10370 +2 x10371 +2 x10372 -1 x10109 -1 x10110 -1 x10111 -1 x10112 -1 x10113 -1 x10114 -1 x10115 -1 x10116 >= 0 ;
+2 x10373 +2 x10374 +2 x10375 +2 x10376 -1 x10113 -1 x10114 -1 x10115 -1 x10116 -1 x10117 -1 x10118 -1 x10119 -1 x10120 >= 0 ;
+2 x10377 +2 x10378 +2 x10379 +2 x10380 -1 x10117 -1 x10118 -1 x10119 -1 x10120 -1 x10121 -1 x10122 -1 x10123 -1 x10124 >= 0 ;
+2 x10381 +2 x10382 +2 x10383 +2 x10384 -1 x10121 -1 x10122 -1 x10123 -1 x10124 -1 x10125 -1 x10126 -1 x10127 -1 x10128 >= 0 ;
+2 x10385 +2 x10386 +2 x10387 +2 x10388 -1 x10125 -1 x10126 -1 x10127 -1 x10128 -1 x10129 -1 x10130 -1 x10131 -1 x10132 >= 0 ;
+2 x10389 +2 x10390 +2 x10391 +2 x10392 -1 x10129 -1 x10130 -1 x10131 -1 x10132 -1 x10133 -1 x10134 -1 x10135 -1 x10136 >= 0 ;
+2 x10393 +2 x10394 +2 x10395 +2 x10396 -1 x10133 -1 x10134 -1 x10135 -1 x10136 -1 x10137 -1 x10138 -1 x10139 -1 x10140 >= 0 ;
+2 x10397 +2 x10398 +2 x10399 +2 x10400 -1 x10137 -1 x10138 -1 x10139 -1 x10140 -1 x10141 -1 x10142 -1 x10143 -1 x10144 >= 0 ;
+2 x10401 +2 x10402 +2 x10403 +2 x10404 -1 x10141 -1 x10142 -1 x10143 -1 x10144 -1 x10145 -1 x10146 -1 x10147 -1 x10148 >= 0 ;
+2 x10405 +2 x10406 +2 x10407 +2 x10408 -1 x10145 -1 x10146 -1 x10147 -1 x10148 -1 x10149 -1 x10150 -1 x10151 -1 x10152 >= 0 ;
+2 x10409 +2 x10410 +2 x10411 +2 x10412 -1 x10149 -1 x10150 -1 x10151 -1 x10152 -1 x10153 -1 x10154 -1 x10155 -1 x10156 >= 0 ;
+2 x10413 +2 x10414 +2 x10415 +2 x10416 -1 x10153 -1 x10154 -1 x10155 -1 x10156 -1 x10157 -1 x10158 -1 x10159 -1 x10160 >= 0 ;
+2 x10417 +2 x10418 +2 x10419 +2 x10420 -1 x10157 -1 x10158 -1 x10159 -1 x10160 -1 x10161 -1 x10162 -1 x10163 -1 x10164 >= 0 ;
+2 x10421 +2 x10422 +2 x10423 +2 x10424 -1 x10161 -1 x10162 -1 x10163 -1 x10164 -1 x10165 -1 x10166 -1 x10167 -1 x10168 >= 0 ;
+2 x10425 +2 x10426 +2 x10427 +2 x10428 -1 x10165 -1 x10166 -1 x10167 -1 x10168 -1 x10169 -1 x10170 -1 x10171 -1 x10172 >= 0 ;
+2 x10429 +2 x10430 +2 x10431 +2 x10432 -1 x10169 -1 x10170 -1 x10171 -1 x10172 -1 x10173 -1 x10174 -1 x10175 -1 x10176 >= 0 ;
+2 x10433 +2 x10434 +2 x10435 +2 x10436 -1 x10173 -1 x10174 -1 x10175 -1 x10176 -1 x10177 -1 x10178 -1 x10179 -1 x10180 >= 0 ;
+2 x10437 +2 x10438 +2 x10439 +2 x10440 -1 x10177 -1 x10178 -1 x10179 -1 x10180 -1 x10181 -1 x10182 -1 x10183 -1 x10184 >= 0 ;
+2 x10441 +2 x10442 +2 x10443 +2 x10444 -1 x10181 -1 x10182 -1 x10183 -1 x10184 -1 x10185 -1 x10186 -1 x10187 -1 x10188 >= 0 ;
+2 x10445 +2 x10446 +2 x10447 +2 x10448 -1 x10185 -1 x10186 -1 x10187 -1 x10188 -1 x10189 -1 x10190 -1 x10191 -1 x10192 >= 0 ;
+2 x10449 +2 x10450 +2 x10451 +2 x10452 -1 x10189 -1 x10190 -1 x10191 -1 x10192 -1 x10193 -1 x10194 -1 x10195 -1 x10196 >= 0 ;
+2 x10453 +2 x10454 +2 x10455 +2 x10456 -1 x10193 -1 x10194 -1 x10195 -1 x10196 -1 x10197 -1 x10198 -1 x10199 -1 x10200 >= 0 ;
+2 x10457 +2 x10458 +2 x10459 +2 x10460 -1 x10197 -1 x10198 -1 x10199 -1 x10200 -1 x10201 -1 x10202 -1 x10203 -1 x10204 >= 0 ;
+2 x10461 +2 x10462 +2 x10463 +2 x10464 -1 x10201 -1 x10202 -1 x10203 -1 x10204 -1 x10205 -1 x10206 -1 x10207 -1 x10208 >= 0 ;
+2 x10465 +2 x10466 +2 x10467 +2 x10468 -1 x10205 -1 x10206 -1 x10207 -1 x10208 -1 x10209 -1 x10210 -1 x10211 -1 x10212 >= 0 ;
+2 x10469 +2 x10470 +2 x10471 +2 x10472 -1 x10209 -1 x10210 -1 x10211 -1 x10212 -1 x10213 -1 x10214 -1 x10215 -1 x10216 >= 0 ;
+2 x10473 +2 x10474 +2 x10475 +2 x10476 -1 x10213 -1 x10214 -1 x10215 -1 x10216 -1 x10217 -1 x10218 -1 x10219 -1 x10220 >= 0 ;
+2 x10477 +2 x10478 +2 x10479 +2 x10480 -1 x10217 -1 x10218 -1 x10219 -1 x10220 -1 x10221 -1 x10222 -1 x10223 -1 x10224 >= 0 ;
+2 x10481 +2 x10482 +2 x10483 +2 x10484 -1 x10221 -1 x10222 -1 x10223 -1 x10224 -1 x10225 -1 x10226 -1 x10227 -1 x10228 >= 0 ;
+2 x10485 +2 x10486 +2 x10487 +2 x10488 -1 x10225 -1 x10226 -1 x10227 -1 x10228 -1 x10229 -1 x10230 -1 x10231 -1 x10232 >= 0 ;
+2 x10489 +2 x10490 +2 x10491 +2 x10492 -1 x10229 -1 x10230 -1 x10231 -1 x10232 -1 x10233 -1 x10234 -1 x10235 -1 x10236 >= 0 ;
+2 x10493 +2 x10494 +2 x10495 +2 x10496 -1 x10233 -1 x10234 -1 x10235 -1 x10236 -1 x10237 -1 x10238 -1 x10239 -1 x10240 >= 0 ;
+2 x10497 +2 x10498 +2 x10499 +2 x10500 -1 x10241 -1 x10242 -1 x10243 -1 x10244 -1 x10493 -1 x10494 -1 x10495 -1 x10496 >= 0 ;
+2 x10501 +2 x10502 +2 x10503 +2 x10504 -1 x10241 -1 x10242 -1 x10243 -1 x10244 -1 x10245 -1 x10246 -1 x10247 -1 x10248 >= 0 ;
+2 x10505 +2 x10506 +2 x10507 +2 x10508 -1 x10245 -1 x10246 -1 x10247 -1 x10248 -1 x10249 -1 x10250 -1 x10251 -1 x10252 >= 0 ;
+2 x10509 +2 x10510 +2 x10511 +2 x10512 -1 x10249 -1 x10250 -1 x10251 -1 x10252 -1 x10253 -1 x10254 -1 x10255 -1 x10256 >= 0 ;
+2 x10513 +2 x10514 +2 x10515 +2 x10516 -1 x10253 -1 x10254 -1 x10255 -1 x10256 -1 x10257 -1 x10258 -1 x10259 -1 x10260 >= 0 ;
+2 x10517 +2 x10518 +2 x10519 +2 x10520 -1 x10257 -1 x10258 -1 x10259 -1 x10260 -1 x10261 -1 x10262 -1 x10263 -1 x10264 >= 0 ;
+2 x10521 +2 x10522 +2 x10523 +2 x10524 -1 x10261 -1 x10262 -1 x10263 -1 x10264 -1 x10265 -1 x10266 -1 x10267 -1 x10268 >= 0 ;
+2 x10525 +2 x10526 +2 x10527 +2 x10528 -1 x10265 -1 x10266 -1 x10267 -1 x10268 -1 x10269 -1 x10270 -1 x10271 -1 x10272 >= 0 ;
+2 x10529 +2 x10530 +2 x10531 +2 x10532 -1 x10269 -1 x10270 -1 x10271 -1 x10272 -1 x10273 -1 x10274 -1 x10275 -1 x10276 >= 0 ;
+2 x10533 +2 x10534 +2 x10535 +2 x10536 -1 x10273 -1 x10274 -1 x10275 -1 x10276 -1 x10277 -1 x10278 -1 x10279 -1 x10280 >= 0 ;
+2 x10537 +2 x10538 +2 x10539 +2 x10540 -1 x10277 -1 x10278 -1 x10279 -1 x10280 -1 x10281 -1 x10282 -1 x10283 -1 x10284 >= 0 ;
+2 x10541 +2 x10542 +2 x10543 +2 x10544 -1 x10281 -1 x10282 -1 x10283 -1 x10284 -1 x10285 -1 x10286 -1 x10287 -1 x10288 >= 0 ;
+2 x10545 +2 x10546 +2 x10547 +2 x10548 -1 x10285 -1 x10286 -1 x10287 -1 x10288 -1 x10289 -1 x10290 -1 x10291 -1 x10292 >= 0 ;
+2 x10549 +2 x10550 +2 x10551 +2 x10552 -1 x10289 -1 x10290 -1 x10291 -1 x10292 -1 x10293 -1 x10294 -1 x10295 -1 x10296 >= 0 ;
+2 x10553 +2 x10554 +2 x10555 +2 x10556 -1 x10293 -1 x10294 -1 x10295 -1 x10296 -1 x10297 -1 x10298 -1 x10299 -1 x10300 >= 0 ;
+2 x10557 +2 x10558 +2 x10559 +2 x10560 -1 x10297 -1 x10298 -1 x10299 -1 x10300 -1 x10301 -1 x10302 -1 x10303 -1 x10304 >= 0 ;
+2 x10561 +2 x10562 +2 x10563 +2 x10564 -1 x10301 -1 x10302 -1 x10303 -1 x10304 -1 x10305 -1 x10306 -1 x10307 -1 x10308 >= 0 ;
+2 x10565 +2 x10566 +2 x10567 +2 x10568 -1 x10305 -1 x10306 -1 x10307 -1 x10308 -1 x10309 -1 x10310 -1 x10311 -1 x10312 >= 0 ;
+2 x10569 +2 x10570 +2 x10571 +2 x10572 -1 x10309 -1 x10310 -1 x10311 -1 x10312 -1 x10313 -1 x10314 -1 x10315 -1 x10316 >= 0 ;
+2 x10573 +2 x10574 +2 x10575 +2 x10576 -1 x10313 -1 x10314 -1 x10315 -1 x10316 -1 x10317 -1 x10318 -1 x10319 -1 x10320 >= 0 ;
+2 x10577 +2 x10578 +2 x10579 +2 x10580 -1 x10317 -1 x10318 -1 x10319 -1 x10320 -1 x10321 -1 x10322 -1 x10323 -1 x10324 >= 0 ;
+2 x10581 +2 x10582 +2 x10583 +2 x10584 -1 x10321 -1 x10322 -1 x10323 -1 x10324 -1 x10325 -1 x10326 -1 x10327 -1 x10328 >= 0 ;
+2 x10585 +2 x10586 +2 x10587 +2 x10588 -1 x10325 -1 x10326 -1 x10327 -1 x10328 -1 x10329 -1 x10330 -1 x10331 -1 x10332 >= 0 ;
+2 x10589 +2 x10590 +2 x10591 +2 x10592 -1 x10329 -1 x10330 -1 x10331 -1 x10332 -1 x10333 -1 x10334 -1 x10335 -1 x10336 >= 0 ;
+2 x10593 +2 x10594 +2 x10595 +2 x10596 -1 x10333 -1 x10334 -1 x10335 -1 x10336 -1 x10337 -1 x10338 -1 x10339 -1 x10340 >= 0 ;
+2 x10597 +2 x10598 +2 x10599 +2 x10600 -1 x10337 -1 x10338 -1 x10339 -1 x10340 -1 x10341 -1 x10342 -1 x10343 -1 x10344 >= 0 ;
+2 x10601 +2 x10602 +2 x10603 +2 x10604 -1 x10341 -1 x10342 -1 x10343 -1 x10344 -1 x10345 -1 x10346 -1 x10347 -1 x10348 >= 0 ;
+2 x10605 +2 x10606 +2 x10607 +2 x10608 -1 x10345 -1 x10346 -1 x10347 -1 x10348 -1 x10349 -1 x10350 -1 x10351 -1 x10352 >= 0 ;
+2 x10609 +2 x10610 +2 x10611 +2 x10612 -1 x10349 -1 x10350 -1 x10351 -1 x10352 -1 x10353 -1 x10354 -1 x10355 -1 x10356 >= 0 ;
+2 x10613 +2 x10614 +2 x10615 +2 x10616 -1 x10353 -1 x10354 -1 x10355 -1 x10356 -1 x10357 -1 x10358 -1 x10359 -1 x10360 >= 0 ;
+2 x10617 +2 x10618 +2 x10619 +2 x10620 -1 x10357 -1 x10358 -1 x10359 -1 x10360 -1 x10361 -1 x10362 -1 x10363 -1 x10364 >= 0 ;
+2 x10621 +2 x10622 +2 x10623 +2 x10624 -1 x10361 -1 x10362 -1 x10363 -1 x10364 -1 x10365 -1 x10366 -1 x10367 -1 x10368 >= 0 ;
+2 x10625 +2 x10626 +2 x10627 +2 x10628 -1 x10365 -1 x10366 -1 x10367 -1 x10368 -1 x10369 -1 x10370 -1 x10371 -1 x10372 >= 0 ;
+2 x10629 +2 x10630 +2 x10631 +2 x10632 -1 x10369 -1 x10370 -1 x10371 -1 x10372 -1 x10373 -1 x10374 -1 x10375 -1 x10376 >= 0 ;
+2 x10633 +2 x10634 +2 x10635 +2 x10636 -1 x10373 -1 x10374 -1 x10375 -1 x10376 -1 x10377 -1 x10378 -1 x10379 -1 x10380 >= 0 ;
+2 x10637 +2 x10638 +2 x10639 +2 x10640 -1 x10377 -1 x10378 -1 x10379 -1 x10380 -1 x10381 -1 x10382 -1 x10383 -1 x10384 >= 0 ;
+2 x10641 +2 x10642 +2 x10643 +2 x10644 -1 x10381 -1 x10382 -1 x10383 -1 x10384 -1 x10385 -1 x10386 -1 x10387 -1 x10388 >= 0 ;
+2 x10645 +2 x10646 +2 x10647 +2 x10648 -1 x10385 -1 x10386 -1 x10387 -1 x10388 -1 x10389 -1 x10390 -1 x10391 -1 x10392 >= 0 ;
+2 x10649 +2 x10650 +2 x10651 +2 x10652 -1 x10389 -1 x10390 -1 x10391 -1 x10392 -1 x10393 -1 x10394 -1 x10395 -1 x10396 >= 0 ;
+2 x10653 +2 x10654 +2 x10655 +2 x10656 -1 x10393 -1 x10394 -1 x10395 -1 x10396 -1 x10397 -1 x10398 -1 x10399 -1 x10400 >= 0 ;
+2 x10657 +2 x10658 +2 x10659 +2 x10660 -1 x10397 -1 x10398 -1 x10399 -1 x10400 -1 x10401 -1 x10402 -1 x10403 -1 x10404 >= 0 ;
+2 x10661 +2 x10662 +2 x10663 +2 x10664 -1 x10401 -1 x10402 -1 x10403 -1 x10404 -1 x10405 -1 x10406 -1 x10407 -1 x10408 >= 0 ;
+2 x10665 +2 x10666 +2 x10667 +2 x10668 -1 x10405 -1 x10406 -1 x10407 -1 x10408 -1 x10409 -1 x10410 -1 x10411 -1 x10412 >= 0 ;
+2 x10669 +2 x10670 +2 x10671 +2 x10672 -1 x10409 -1 x10410 -1 x10411 -1 x10412 -1 x10413 -1 x10414 -1 x10415 -1 x10416 >= 0 ;
+2 x10673 +2 x10674 +2 x10675 +2 x10676 -1 x10413 -1 x10414 -1 x10415 -1 x10416 -1 x10417 -1 x10418 -1 x10419 -1 x10420 >= 0 ;
+2 x10677 +2 x10678 +2 x10679 +2 x10680 -1 x10417 -1 x10418 -1 x10419 -1 x10420 -1 x10421 -1 x10422 -1 x10423 -1 x10424 >= 0 ;
+2 x10681 +2 x10682 +2 x10683 +2 x10684 -1 x10421 -1 x10422 -1 x10423 -1 x10424 -1 x10425 -1 x10426 -1 x10427 -1 x10428 >= 0 ;
+2 x10685 +2 x10686 +2 x10687 +2 x10688 -1 x10425 -1 x10426 -1 x10427 -1 x10428 -1 x10429 -1 x10430 -1 x10431 -1 x10432 >= 0 ;
+2 x10689 +2 x10690 +2 x10691 +2 x10692 -1 x10429 -1 x10430 -1 x10431 -1 x10432 -1 x10433 -1 x10434 -1 x10435 -1 x10436 >= 0 ;
+2 x10693 +2 x10694 +2 x10695 +2 x10696 -1 x10433 -1 x10434 -1 x10435 -1 x10436 -1 x10437 -1 x10438 -1 x10439 -1 x10440 >= 0 ;
+2 x10697 +2 x10698 +2 x10699 +2 x10700 -1 x10437 -1 x10438 -1 x10439 -1 x10440 -1 x10441 -1 x10442 -1 x10443 -1 x10444 >= 0 ;
+2 x10701 +2 x10702 +2 x10703 +2 x10704 -1 x10441 -1 x10442 -1 x10443 -1 x10444 -1 x10445 -1 x10446 -1 x10447 -1 x10448 >= 0 ;
+2 x10705 +2 x10706 +2 x10707 +2 x10708 -1 x10445 -1 x10446 -1 x10447 -1 x10448 -1 x10449 -1 x10450 -1 x10451 -1 x10452 >= 0 ;
+2 x10709 +2 x10710 +2 x10711 +2 x10712 -1 x10449 -1 x10450 -1 x10451 -1 x10452 -1 x10453 -1 x10454 -1 x10455 -1 x10456 >= 0 ;
+2 x10713 +2 x10714 +2 x10715 +2 x10716 -1 x10453 -1 x10454 -1 x10455 -1 x10456 -1 x10457 -1 x10458 -1 x10459 -1 x10460 >= 0 ;
+2 x10717 +2 x10718 +2 x10719 +2 x10720 -1 x10457 -1 x10458 -1 x10459 -1 x10460 -1 x10461 -1 x10462 -1 x10463 -1 x10464 >= 0 ;
+2 x10721 +2 x10722 +2 x10723 +2 x10724 -1 x10461 -1 x10462 -1 x10463 -1 x10464 -1 x10465 -1 x10466 -1 x10467 -1 x10468 >= 0 ;
+2 x10725 +2 x10726 +2 x10727 +2 x10728 -1 x10465 -1 x10466 -1 x10467 -1 x10468 -1 x10469 -1 x10470 -1 x10471 -1 x10472 >= 0 ;
+2 x10729 +2 x10730 +2 x10731 +2 x10732 -1 x10469 -1 x10470 -1 x10471 -1 x10472 -1 x10473 -1 x10474 -1 x10475 -1 x10476 >= 0 ;
+2 x10733 +2 x10734 +2 x10735 +2 x10736 -1 x10473 -1 x10474 -1 x10475 -1 x10476 -1 x10477 -1 x10478 -1 x10479 -1 x10480 >= 0 ;
+2 x10737 +2 x10738 +2 x10739 +2 x10740 -1 x10477 -1 x10478 -1 x10479 -1 x10480 -1 x10481 -1 x10482 -1 x10483 -1 x10484 >= 0 ;
+2 x10741 +2 x10742 +2 x10743 +2 x10744 -1 x10481 -1 x10482 -1 x10483 -1 x10484 -1 x10485 -1 x10486 -1 x10487 -1 x10488 >= 0 ;
+2 x10745 +2 x10746 +2 x10747 +2 x10748 -1 x10485 -1 x10486 -1 x10487 -1 x10488 -1 x10489 -1 x10490 -1 x10491 -1 x10492 >= 0 ;
+2 x10749 +2 x10750 +2 x10751 +2 x10752 -1 x10489 -1 x10490 -1 x10491 -1 x10492 -1 x10493 -1 x10494 -1 x10495 -1 x10496 >= 0 ;
+2 x10753 +2 x10754 +2 x10755 +2 x10756 -1 x10497 -1 x10498 -1 x10499 -1 x10500 -1 x10749 -1 x10750 -1 x10751 -1 x10752 >= 0 ;
+2 x10757 +2 x10758 +2 x10759 +2 x10760 -1 x10497 -1 x10498 -1 x10499 -1 x10500 -1 x10501 -1 x10502 -1 x10503 -1 x10504 >= 0 ;
+2 x10761 +2 x10762 +2 x10763 +2 x10764 -1 x10501 -1 x10502 -1 x10503 -1 x10504 -1 x10505 -1 x10506 -1 x10507 -1 x10508 >= 0 ;
+2 x10765 +2 x10766 +2 x10767 +2 x10768 -1 x10505 -1 x10506 -1 x10507 -1 x10508 -1 x10509 -1 x10510 -1 x10511 -1 x10512 >= 0 ;
+2 x10769 +2 x10770 +2 x10771 +2 x10772 -1 x10509 -1 x10510 -1 x10511 -1 x10512 -1 x10513 -1 x10514 -1 x10515 -1 x10516 >= 0 ;
+2 x10773 +2 x10774 +2 x10775 +2 x10776 -1 x10513 -1 x10514 -1 x10515 -1 x10516 -1 x10517 -1 x10518 -1 x10519 -1 x10520 >= 0 ;
+2 x10777 +2 x10778 +2 x10779 +2 x10780 -1 x10517 -1 x10518 -1 x10519 -1 x10520 -1 x10521 -1 x10522 -1 x10523 -1 x10524 >= 0 ;
+2 x10781 +2 x10782 +2 x10783 +2 x10784 -1 x10521 -1 x10522 -1 x10523 -1 x10524 -1 x10525 -1 x10526 -1 x10527 -1 x10528 >= 0 ;
+2 x10785 +2 x10786 +2 x10787 +2 x10788 -1 x10525 -1 x10526 -1 x10527 -1 x10528 -1 x10529 -1 x10530 -1 x10531 -1 x10532 >= 0 ;
+2 x10789 +2 x10790 +2 x10791 +2 x10792 -1 x10529 -1 x10530 -1 x10531 -1 x10532 -1 x10533 -1 x10534 -1 x10535 -1 x10536 >= 0 ;
+2 x10793 +2 x10794 +2 x10795 +2 x10796 -1 x10533 -1 x10534 -1 x10535 -1 x10536 -1 x10537 -1 x10538 -1 x10539 -1 x10540 >= 0 ;
+2 x10797 +2 x10798 +2 x10799 +2 x10800 -1 x10537 -1 x10538 -1 x10539 -1 x10540 -1 x10541 -1 x10542 -1 x10543 -1 x10544 >= 0 ;
+2 x10801 +2 x10802 +2 x10803 +2 x10804 -1 x10541 -1 x10542 -1 x10543 -1 x10544 -1 x10545 -1 x10546 -1 x10547 -1 x10548 >= 0 ;
+2 x10805 +2 x10806 +2 x10807 +2 x10808 -1 x10545 -1 x10546 -1 x10547 -1 x10548 -1 x10549 -1 x10550 -1 x10551 -1 x10552 >= 0 ;
+2 x10809 +2 x10810 +2 x10811 +2 x10812 -1 x10549 -1 x10550 -1 x10551 -1 x10552 -1 x10553 -1 x10554 -1 x10555 -1 x10556 >= 0 ;
+2 x10813 +2 x10814 +2 x10815 +2 x10816 -1 x10553 -1 x10554 -1 x10555 -1 x10556 -1 x10557 -1 x10558 -1 x10559 -1 x10560 >= 0 ;
+2 x10817 +2 x10818 +2 x10819 +2 x10820 -1 x10557 -1 x10558 -1 x10559 -1 x10560 -1 x10561 -1 x10562 -1 x10563 -1 x10564 >= 0 ;
+2 x10821 +2 x10822 +2 x10823 +2 x10824 -1 x10561 -1 x10562 -1 x10563 -1 x10564 -1 x10565 -1 x10566 -1 x10567 -1 x10568 >= 0 ;
+2 x10825 +2 x10826 +2 x10827 +2 x10828 -1 x10565 -1 x10566 -1 x10567 -1 x10568 -1 x10569 -1 x10570 -1 x10571 -1 x10572 >= 0 ;
+2 x10829 +2 x10830 +2 x10831 +2 x10832 -1 x10569 -1 x10570 -1 x10571 -1 x10572 -1 x10573 -1 x10574 -1 x10575 -1 x10576 >= 0 ;
+2 x10833 +2 x10834 +2 x10835 +2 x10836 -1 x10573 -1 x10574 -1 x10575 -1 x10576 -1 x10577 -1 x10578 -1 x10579 -1 x10580 >= 0 ;
+2 x10837 +2 x10838 +2 x10839 +2 x10840 -1 x10577 -1 x10578 -1 x10579 -1 x10580 -1 x10581 -1 x10582 -1 x10583 -1 x10584 >= 0 ;
+2 x10841 +2 x10842 +2 x10843 +2 x10844 -1 x10581 -1 x10582 -1 x10583 -1 x10584 -1 x10585 -1 x10586 -1 x10587 -1 x10588 >= 0 ;
+2 x10845 +2 x10846 +2 x10847 +2 x10848 -1 x10585 -1 x10586 -1 x10587 -1 x10588 -1 x10589 -1 x10590 -1 x10591 -1 x10592 >= 0 ;
+2 x10849 +2 x10850 +2 x10851 +2 x10852 -1 x10589 -1 x10590 -1 x10591 -1 x10592 -1 x10593 -1 x10594 -1 x10595 -1 x10596 >= 0 ;
+2 x10853 +2 x10854 +2 x10855 +2 x10856 -1 x10593 -1 x10594 -1 x10595 -1 x10596 -1 x10597 -1 x10598 -1 x10599 -1 x10600 >= 0 ;
+2 x10857 +2 x10858 +2 x10859 +2 x10860 -1 x10597 -1 x10598 -1 x10599 -1 x10600 -1 x10601 -1 x10602 -1 x10603 -1 x10604 >= 0 ;
+2 x10861 +2 x10862 +2 x10863 +2 x10864 -1 x10601 -1 x10602 -1 x10603 -1 x10604 -1 x10605 -1 x10606 -1 x10607 -1 x10608 >= 0 ;
+2 x10865 +2 x10866 +2 x10867 +2 x10868 -1 x10605 -1 x10606 -1 x10607 -1 x10608 -1 x10609 -1 x10610 -1 x10611 -1 x10612 >= 0 ;
+2 x10869 +2 x10870 +2 x10871 +2 x10872 -1 x10609 -1 x10610 -1 x10611 -1 x10612 -1 x10613 -1 x10614 -1 x10615 -1 x10616 >= 0 ;
+2 x10873 +2 x10874 +2 x10875 +2 x10876 -1 x10613 -1 x10614 -1 x10615 -1 x10616 -1 x10617 -1 x10618 -1 x10619 -1 x10620 >= 0 ;
+2 x10877 +2 x10878 +2 x10879 +2 x10880 -1 x10617 -1 x10618 -1 x10619 -1 x10620 -1 x10621 -1 x10622 -1 x10623 -1 x10624 >= 0 ;
+2 x10881 +2 x10882 +2 x10883 +2 x10884 -1 x10621 -1 x10622 -1 x10623 -1 x10624 -1 x10625 -1 x10626 -1 x10627 -1 x10628 >= 0 ;
+2 x10885 +2 x10886 +2 x10887 +2 x10888 -1 x10625 -1 x10626 -1 x10627 -1 x10628 -1 x10629 -1 x10630 -1 x10631 -1 x10632 >= 0 ;
+2 x10889 +2 x10890 +2 x10891 +2 x10892 -1 x10629 -1 x10630 -1 x10631 -1 x10632 -1 x10633 -1 x10634 -1 x10635 -1 x10636 >= 0 ;
+2 x10893 +2 x10894 +2 x10895 +2 x10896 -1 x10633 -1 x10634 -1 x10635 -1 x10636 -1 x10637 -1 x10638 -1 x10639 -1 x10640 >= 0 ;
+2 x10897 +2 x10898 +2 x10899 +2 x10900 -1 x10637 -1 x10638 -1 x10639 -1 x10640 -1 x10641 -1 x10642 -1 x10643 -1 x10644 >= 0 ;
+2 x10901 +2 x10902 +2 x10903 +2 x10904 -1 x10641 -1 x10642 -1 x10643 -1 x10644 -1 x10645 -1 x10646 -1 x10647 -1 x10648 >= 0 ;
+2 x10905 +2 x10906 +2 x10907 +2 x10908 -1 x10645 -1 x10646 -1 x10647 -1 x10648 -1 x10649 -1 x10650 -1 x10651 -1 x10652 >= 0 ;
+2 x10909 +2 x10910 +2 x10911 +2 x10912 -1 x10649 -1 x10650 -1 x10651 -1 x10652 -1 x10653 -1 x10654 -1 x10655 -1 x10656 >= 0 ;
+2 x10913 +2 x10914 +2 x10915 +2 x10916 -1 x10653 -1 x10654 -1 x10655 -1 x10656 -1 x10657 -1 x10658 -1 x10659 -1 x10660 >= 0 ;
+2 x10917 +2 x10918 +2 x10919 +2 x10920 -1 x10657 -1 x10658 -1 x10659 -1 x10660 -1 x10661 -1 x10662 -1 x10663 -1 x10664 >= 0 ;
+2 x10921 +2 x10922 +2 x10923 +2 x10924 -1 x10661 -1 x10662 -1 x10663 -1 x10664 -1 x10665 -1 x10666 -1 x10667 -1 x10668 >= 0 ;
+2 x10925 +2 x10926 +2 x10927 +2 x10928 -1 x10665 -1 x10666 -1 x10667 -1 x10668 -1 x10669 -1 x10670 -1 x10671 -1 x10672 >= 0 ;
+2 x10929 +2 x10930 +2 x10931 +2 x10932 -1 x10669 -1 x10670 -1 x10671 -1 x10672 -1 x10673 -1 x10674 -1 x10675 -1 x10676 >= 0 ;
+2 x10933 +2 x10934 +2 x10935 +2 x10936 -1 x10673 -1 x10674 -1 x10675 -1 x10676 -1 x10677 -1 x10678 -1 x10679 -1 x10680 >= 0 ;
+2 x10937 +2 x10938 +2 x10939 +2 x10940 -1 x10677 -1 x10678 -1 x10679 -1 x10680 -1 x10681 -1 x10682 -1 x10683 -1 x10684 >= 0 ;
+2 x10941 +2 x10942 +2 x10943 +2 x10944 -1 x10681 -1 x10682 -1 x10683 -1 x10684 -1 x10685 -1 x10686 -1 x10687 -1 x10688 >= 0 ;
+2 x10945 +2 x10946 +2 x10947 +2 x10948 -1 x10685 -1 x10686 -1 x10687 -1 x10688 -1 x10689 -1 x10690 -1 x10691 -1 x10692 >= 0 ;
+2 x10949 +2 x10950 +2 x10951 +2 x10952 -1 x10689 -1 x10690 -1 x10691 -1 x10692 -1 x10693 -1 x10694 -1 x10695 -1 x10696 >= 0 ;
+2 x10953 +2 x10954 +2 x10955 +2 x10956 -1 x10693 -1 x10694 -1 x10695 -1 x10696 -1 x10697 -1 x10698 -1 x10699 -1 x10700 >= 0 ;
+2 x10957 +2 x10958 +2 x10959 +2 x10960 -1 x10697 -1 x10698 -1 x10699 -1 x10700 -1 x10701 -1 x10702 -1 x10703 -1 x10704 >= 0 ;
+2 x10961 +2 x10962 +2 x10963 +2 x10964 -1 x10701 -1 x10702 -1 x10703 -1 x10704 -1 x10705 -1 x10706 -1 x10707 -1 x10708 >= 0 ;
+2 x10965 +2 x10966 +2 x10967 +2 x10968 -1 x10705 -1 x10706 -1 x10707 -1 x10708 -1 x10709 -1 x10710 -1 x10711 -1 x10712 >= 0 ;
+2 x10969 +2 x10970 +2 x10971 +2 x10972 -1 x10709 -1 x10710 -1 x10711 -1 x10712 -1 x10713 -1 x10714 -1 x10715 -1 x10716 >= 0 ;
+2 x10973 +2 x10974 +2 x10975 +2 x10976 -1 x10713 -1 x10714 -1 x10715 -1 x10716 -1 x10717 -1 x10718 -1 x10719 -1 x10720 >= 0 ;
+2 x10977 +2 x10978 +2 x10979 +2 x10980 -1 x10717 -1 x10718 -1 x10719 -1 x10720 -1 x10721 -1 x10722 -1 x10723 -1 x10724 >= 0 ;
+2 x10981 +2 x10982 +2 x10983 +2 x10984 -1 x10721 -1 x10722 -1 x10723 -1 x10724 -1 x10725 -1 x10726 -1 x10727 -1 x10728 >= 0 ;
+2 x10985 +2 x10986 +2 x10987 +2 x10988 -1 x10725 -1 x10726 -1 x10727 -1 x10728 -1 x10729 -1 x10730 -1 x10731 -1 x10732 >= 0 ;
+2 x10989 +2 x10990 +2 x10991 +2 x10992 -1 x10729 -1 x10730 -1 x10731 -1 x10732 -1 x10733 -1 x10734 -1 x10735 -1 x10736 >= 0 ;
+2 x10993 +2 x10994 +2 x10995 +2 x10996 -1 x10733 -1 x10734 -1 x10735 -1 x10736 -1 x10737 -1 x10738 -1 x10739 -1 x10740 >= 0 ;
+2 x10997 +2 x10998 +2 x10999 +2 x11000 -1 x10737 -1 x10738 -1 x10739 -1 x10740 -1 x10741 -1 x10742 -1 x10743 -1 x10744 >= 0 ;
+2 x11001 +2 x11002 +2 x11003 +2 x11004 -1 x10741 -1 x10742 -1 x10743 -1 x10744 -1 x10745 -1 x10746 -1 x10747 -1 x10748 >= 0 ;
+2 x11005 +2 x11006 +2 x11007 +2 x11008 -1 x10745 -1 x10746 -1 x10747 -1 x10748 -1 x10749 -1 x10750 -1 x10751 -1 x10752 >= 0 ;
+2 x11009 +2 x11010 +2 x11011 +2 x11012 -1 x10753 -1 x10754 -1 x10755 -1 x10756 -1 x11005 -1 x11006 -1 x11007 -1 x11008 >= 0 ;
+2 x11013 +2 x11014 +2 x11015 +2 x11016 -1 x10753 -1 x10754 -1 x10755 -1 x10756 -1 x10757 -1 x10758 -1 x10759 -1 x10760 >= 0 ;
+2 x11017 +2 x11018 +2 x11019 +2 x11020 -1 x10757 -1 x10758 -1 x10759 -1 x10760 -1 x10761 -1 x10762 -1 x10763 -1 x10764 >= 0 ;
+2 x11021 +2 x11022 +2 x11023 +2 x11024 -1 x10761 -1 x10762 -1 x10763 -1 x10764 -1 x10765 -1 x10766 -1 x10767 -1 x10768 >= 0 ;
+2 x11025 +2 x11026 +2 x11027 +2 x11028 -1 x10765 -1 x10766 -1 x10767 -1 x10768 -1 x10769 -1 x10770 -1 x10771 -1 x10772 >= 0 ;
+2 x11029 +2 x11030 +2 x11031 +2 x11032 -1 x10769 -1 x10770 -1 x10771 -1 x10772 -1 x10773 -1 x10774 -1 x10775 -1 x10776 >= 0 ;
+2 x11033 +2 x11034 +2 x11035 +2 x11036 -1 x10773 -1 x10774 -1 x10775 -1 x10776 -1 x10777 -1 x10778 -1 x10779 -1 x10780 >= 0 ;
+2 x11037 +2 x11038 +2 x11039 +2 x11040 -1 x10777 -1 x10778 -1 x10779 -1 x10780 -1 x10781 -1 x10782 -1 x10783 -1 x10784 >= 0 ;
+2 x11041 +2 x11042 +2 x11043 +2 x11044 -1 x10781 -1 x10782 -1 x10783 -1 x10784 -1 x10785 -1 x10786 -1 x10787 -1 x10788 >= 0 ;
+2 x11045 +2 x11046 +2 x11047 +2 x11048 -1 x10785 -1 x10786 -1 x10787 -1 x10788 -1 x10789 -1 x10790 -1 x10791 -1 x10792 >= 0 ;
+2 x11049 +2 x11050 +2 x11051 +2 x11052 -1 x10789 -1 x10790 -1 x10791 -1 x10792 -1 x10793 -1 x10794 -1 x10795 -1 x10796 >= 0 ;
+2 x11053 +2 x11054 +2 x11055 +2 x11056 -1 x10793 -1 x10794 -1 x10795 -1 x10796 -1 x10797 -1 x10798 -1 x10799 -1 x10800 >= 0 ;
+2 x11057 +2 x11058 +2 x11059 +2 x11060 -1 x10797 -1 x10798 -1 x10799 -1 x10800 -1 x10801 -1 x10802 -1 x10803 -1 x10804 >= 0 ;
+2 x11061 +2 x11062 +2 x11063 +2 x11064 -1 x10801 -1 x10802 -1 x10803 -1 x10804 -1 x10805 -1 x10806 -1 x10807 -1 x10808 >= 0 ;
+2 x11065 +2 x11066 +2 x11067 +2 x11068 -1 x10805 -1 x10806 -1 x10807 -1 x10808 -1 x10809 -1 x10810 -1 x10811 -1 x10812 >= 0 ;
+2 x11069 +2 x11070 +2 x11071 +2 x11072 -1 x10809 -1 x10810 -1 x10811 -1 x10812 -1 x10813 -1 x10814 -1 x10815 -1 x10816 >= 0 ;
+2 x11073 +2 x11074 +2 x11075 +2 x11076 -1 x10813 -1 x10814 -1 x10815 -1 x10816 -1 x10817 -1 x10818 -1 x10819 -1 x10820 >= 0 ;
+2 x11077 +2 x11078 +2 x11079 +2 x11080 -1 x10817 -1 x10818 -1 x10819 -1 x10820 -1 x10821 -1 x10822 -1 x10823 -1 x10824 >= 0 ;
+2 x11081 +2 x11082 +2 x11083 +2 x11084 -1 x10821 -1 x10822 -1 x10823 -1 x10824 -1 x10825 -1 x10826 -1 x10827 -1 x10828 >= 0 ;
+2 x11085 +2 x11086 +2 x11087 +2 x11088 -1 x10825 -1 x10826 -1 x10827 -1 x10828 -1 x10829 -1 x10830 -1 x10831 -1 x10832 >= 0 ;
+2 x11089 +2 x11090 +2 x11091 +2 x11092 -1 x10829 -1 x10830 -1 x10831 -1 x10832 -1 x10833 -1 x10834 -1 x10835 -1 x10836 >= 0 ;
+2 x11093 +2 x11094 +2 x11095 +2 x11096 -1 x10833 -1 x10834 -1 x10835 -1 x10836 -1 x10837 -1 x10838 -1 x10839 -1 x10840 >= 0 ;
+2 x11097 +2 x11098 +2 x11099 +2 x11100 -1 x10837 -1 x10838 -1 x10839 -1 x10840 -1 x10841 -1 x10842 -1 x10843 -1 x10844 >= 0 ;
+2 x11101 +2 x11102 +2 x11103 +2 x11104 -1 x10841 -1 x10842 -1 x10843 -1 x10844 -1 x10845 -1 x10846 -1 x10847 -1 x10848 >= 0 ;
+2 x11105 +2 x11106 +2 x11107 +2 x11108 -1 x10845 -1 x10846 -1 x10847 -1 x10848 -1 x10849 -1 x10850 -1 x10851 -1 x10852 >= 0 ;
+2 x11109 +2 x11110 +2 x11111 +2 x11112 -1 x10849 -1 x10850 -1 x10851 -1 x10852 -1 x10853 -1 x10854 -1 x10855 -1 x10856 >= 0 ;
+2 x11113 +2 x11114 +2 x11115 +2 x11116 -1 x10853 -1 x10854 -1 x10855 -1 x10856 -1 x10857 -1 x10858 -1 x10859 -1 x10860 >= 0 ;
+2 x11117 +2 x11118 +2 x11119 +2 x11120 -1 x10857 -1 x10858 -1 x10859 -1 x10860 -1 x10861 -1 x10862 -1 x10863 -1 x10864 >= 0 ;
+2 x11121 +2 x11122 +2 x11123 +2 x11124 -1 x10861 -1 x10862 -1 x10863 -1 x10864 -1 x10865 -1 x10866 -1 x10867 -1 x10868 >= 0 ;
+2 x11125 +2 x11126 +2 x11127 +2 x11128 -1 x10865 -1 x10866 -1 x10867 -1 x10868 -1 x10869 -1 x10870 -1 x10871 -1 x10872 >= 0 ;
+2 x11129 +2 x11130 +2 x11131 +2 x11132 -1 x10869 -1 x10870 -1 x10871 -1 x10872 -1 x10873 -1 x10874 -1 x10875 -1 x10876 >= 0 ;
+2 x11133 +2 x11134 +2 x11135 +2 x11136 -1 x10873 -1 x10874 -1 x10875 -1 x10876 -1 x10877 -1 x10878 -1 x10879 -1 x10880 >= 0 ;
+2 x11137 +2 x11138 +2 x11139 +2 x11140 -1 x10877 -1 x10878 -1 x10879 -1 x10880 -1 x10881 -1 x10882 -1 x10883 -1 x10884 >= 0 ;
+2 x11141 +2 x11142 +2 x11143 +2 x11144 -1 x10881 -1 x10882 -1 x10883 -1 x10884 -1 x10885 -1 x10886 -1 x10887 -1 x10888 >= 0 ;
+2 x11145 +2 x11146 +2 x11147 +2 x11148 -1 x10885 -1 x10886 -1 x10887 -1 x10888 -1 x10889 -1 x10890 -1 x10891 -1 x10892 >= 0 ;
+2 x11149 +2 x11150 +2 x11151 +2 x11152 -1 x10889 -1 x10890 -1 x10891 -1 x10892 -1 x10893 -1 x10894 -1 x10895 -1 x10896 >= 0 ;
+2 x11153 +2 x11154 +2 x11155 +2 x11156 -1 x10893 -1 x10894 -1 x10895 -1 x10896 -1 x10897 -1 x10898 -1 x10899 -1 x10900 >= 0 ;
+2 x11157 +2 x11158 +2 x11159 +2 x11160 -1 x10897 -1 x10898 -1 x10899 -1 x10900 -1 x10901 -1 x10902 -1 x10903 -1 x10904 >= 0 ;
+2 x11161 +2 x11162 +2 x11163 +2 x11164 -1 x10901 -1 x10902 -1 x10903 -1 x10904 -1 x10905 -1 x10906 -1 x10907 -1 x10908 >= 0 ;
+2 x11165 +2 x11166 +2 x11167 +2 x11168 -1 x10905 -1 x10906 -1 x10907 -1 x10908 -1 x10909 -1 x10910 -1 x10911 -1 x10912 >= 0 ;
+2 x11169 +2 x11170 +2 x11171 +2 x11172 -1 x10909 -1 x10910 -1 x10911 -1 x10912 -1 x10913 -1 x10914 -1 x10915 -1 x10916 >= 0 ;
+2 x11173 +2 x11174 +2 x11175 +2 x11176 -1 x10913 -1 x10914 -1 x10915 -1 x10916 -1 x10917 -1 x10918 -1 x10919 -1 x10920 >= 0 ;
+2 x11177 +2 x11178 +2 x11179 +2 x11180 -1 x10917 -1 x10918 -1 x10919 -1 x10920 -1 x10921 -1 x10922 -1 x10923 -1 x10924 >= 0 ;
+2 x11181 +2 x11182 +2 x11183 +2 x11184 -1 x10921 -1 x10922 -1 x10923 -1 x10924 -1 x10925 -1 x10926 -1 x10927 -1 x10928 >= 0 ;
+2 x11185 +2 x11186 +2 x11187 +2 x11188 -1 x10925 -1 x10926 -1 x10927 -1 x10928 -1 x10929 -1 x10930 -1 x10931 -1 x10932 >= 0 ;
+2 x11189 +2 x11190 +2 x11191 +2 x11192 -1 x10929 -1 x10930 -1 x10931 -1 x10932 -1 x10933 -1 x10934 -1 x10935 -1 x10936 >= 0 ;
+2 x11193 +2 x11194 +2 x11195 +2 x11196 -1 x10933 -1 x10934 -1 x10935 -1 x10936 -1 x10937 -1 x10938 -1 x10939 -1 x10940 >= 0 ;
+2 x11197 +2 x11198 +2 x11199 +2 x11200 -1 x10937 -1 x10938 -1 x10939 -1 x10940 -1 x10941 -1 x10942 -1 x10943 -1 x10944 >= 0 ;
+2 x11201 +2 x11202 +2 x11203 +2 x11204 -1 x10941 -1 x10942 -1 x10943 -1 x10944 -1 x10945 -1 x10946 -1 x10947 -1 x10948 >= 0 ;
+2 x11205 +2 x11206 +2 x11207 +2 x11208 -1 x10945 -1 x10946 -1 x10947 -1 x10948 -1 x10949 -1 x10950 -1 x10951 -1 x10952 >= 0 ;
+2 x11209 +2 x11210 +2 x11211 +2 x11212 -1 x10949 -1 x10950 -1 x10951 -1 x10952 -1 x10953 -1 x10954 -1 x10955 -1 x10956 >= 0 ;
+2 x11213 +2 x11214 +2 x11215 +2 x11216 -1 x10953 -1 x10954 -1 x10955 -1 x10956 -1 x10957 -1 x10958 -1 x10959 -1 x10960 >= 0 ;
+2 x11217 +2 x11218 +2 x11219 +2 x11220 -1 x10957 -1 x10958 -1 x10959 -1 x10960 -1 x10961 -1 x10962 -1 x10963 -1 x10964 >= 0 ;
+2 x11221 +2 x11222 +2 x11223 +2 x11224 -1 x10961 -1 x10962 -1 x10963 -1 x10964 -1 x10965 -1 x10966 -1 x10967 -1 x10968 >= 0 ;
+2 x11225 +2 x11226 +2 x11227 +2 x11228 -1 x10965 -1 x10966 -1 x10967 -1 x10968 -1 x10969 -1 x10970 -1 x10971 -1 x10972 >= 0 ;
+2 x11229 +2 x11230 +2 x11231 +2 x11232 -1 x10969 -1 x10970 -1 x10971 -1 x10972 -1 x10973 -1 x10974 -1 x10975 -1 x10976 >= 0 ;
+2 x11233 +2 x11234 +2 x11235 +2 x11236 -1 x10973 -1 x10974 -1 x10975 -1 x10976 -1 x10977 -1 x10978 -1 x10979 -1 x10980 >= 0 ;
+2 x11237 +2 x11238 +2 x11239 +2 x11240 -1 x10977 -1 x10978 -1 x10979 -1 x10980 -1 x10981 -1 x10982 -1 x10983 -1 x10984 >= 0 ;
+2 x11241 +2 x11242 +2 x11243 +2 x11244 -1 x10981 -1 x10982 -1 x10983 -1 x10984 -1 x10985 -1 x10986 -1 x10987 -1 x10988 >= 0 ;
+2 x11245 +2 x11246 +2 x11247 +2 x11248 -1 x10985 -1 x10986 -1 x10987 -1 x10988 -1 x10989 -1 x10990 -1 x10991 -1 x10992 >= 0 ;
+2 x11249 +2 x11250 +2 x11251 +2 x11252 -1 x10989 -1 x10990 -1 x10991 -1 x10992 -1 x10993 -1 x10994 -1 x10995 -1 x10996 >= 0 ;
+2 x11253 +2 x11254 +2 x11255 +2 x11256 -1 x10993 -1 x10994 -1 x10995 -1 x10996 -1 x10997 -1 x10998 -1 x10999 -1 x11000 >= 0 ;
+2 x11257 +2 x11258 +2 x11259 +2 x11260 -1 x10997 -1 x10998 -1 x10999 -1 x11000 -1 x11001 -1 x11002 -1 x11003 -1 x11004 >= 0 ;
+2 x11261 +2 x11262 +2 x11263 +2 x11264 -1 x11001 -1 x11002 -1 x11003 -1 x11004 -1 x11005 -1 x11006 -1 x11007 -1 x11008 >= 0 ;
+2 x11265 +2 x11266 +2 x11267 +2 x11268 -1 x11009 -1 x11010 -1 x11011 -1 x11012 -1 x11261 -1 x11262 -1 x11263 -1 x11264 >= 0 ;
+2 x11269 +2 x11270 +2 x11271 +2 x11272 -1 x11009 -1 x11010 -1 x11011 -1 x11012 -1 x11013 -1 x11014 -1 x11015 -1 x11016 >= 0 ;
+2 x11273 +2 x11274 +2 x11275 +2 x11276 -1 x11013 -1 x11014 -1 x11015 -1 x11016 -1 x11017 -1 x11018 -1 x11019 -1 x11020 >= 0 ;
+2 x11277 +2 x11278 +2 x11279 +2 x11280 -1 x11017 -1 x11018 -1 x11019 -1 x11020 -1 x11021 -1 x11022 -1 x11023 -1 x11024 >= 0 ;
+2 x11281 +2 x11282 +2 x11283 +2 x11284 -1 x11021 -1 x11022 -1 x11023 -1 x11024 -1 x11025 -1 x11026 -1 x11027 -1 x11028 >= 0 ;
+2 x11285 +2 x11286 +2 x11287 +2 x11288 -1 x11025 -1 x11026 -1 x11027 -1 x11028 -1 x11029 -1 x11030 -1 x11031 -1 x11032 >= 0 ;
+2 x11289 +2 x11290 +2 x11291 +2 x11292 -1 x11029 -1 x11030 -1 x11031 -1 x11032 -1 x11033 -1 x11034 -1 x11035 -1 x11036 >= 0 ;
+2 x11293 +2 x11294 +2 x11295 +2 x11296 -1 x11033 -1 x11034 -1 x11035 -1 x11036 -1 x11037 -1 x11038 -1 x11039 -1 x11040 >= 0 ;
+2 x11297 +2 x11298 +2 x11299 +2 x11300 -1 x11037 -1 x11038 -1 x11039 -1 x11040 -1 x11041 -1 x11042 -1 x11043 -1 x11044 >= 0 ;
+2 x11301 +2 x11302 +2 x11303 +2 x11304 -1 x11041 -1 x11042 -1 x11043 -1 x11044 -1 x11045 -1 x11046 -1 x11047 -1 x11048 >= 0 ;
+2 x11305 +2 x11306 +2 x11307 +2 x11308 -1 x11045 -1 x11046 -1 x11047 -1 x11048 -1 x11049 -1 x11050 -1 x11051 -1 x11052 >= 0 ;
+2 x11309 +2 x11310 +2 x11311 +2 x11312 -1 x11049 -1 x11050 -1 x11051 -1 x11052 -1 x11053 -1 x11054 -1 x11055 -1 x11056 >= 0 ;
+2 x11313 +2 x11314 +2 x11315 +2 x11316 -1 x11053 -1 x11054 -1 x11055 -1 x11056 -1 x11057 -1 x11058 -1 x11059 -1 x11060 >= 0 ;
+2 x11317 +2 x11318 +2 x11319 +2 x11320 -1 x11057 -1 x11058 -1 x11059 -1 x11060 -1 x11061 -1 x11062 -1 x11063 -1 x11064 >= 0 ;
+2 x11321 +2 x11322 +2 x11323 +2 x11324 -1 x11061 -1 x11062 -1 x11063 -1 x11064 -1 x11065 -1 x11066 -1 x11067 -1 x11068 >= 0 ;
+2 x11325 +2 x11326 +2 x11327 +2 x11328 -1 x11065 -1 x11066 -1 x11067 -1 x11068 -1 x11069 -1 x11070 -1 x11071 -1 x11072 >= 0 ;
+2 x11329 +2 x11330 +2 x11331 +2 x11332 -1 x11069 -1 x11070 -1 x11071 -1 x11072 -1 x11073 -1 x11074 -1 x11075 -1 x11076 >= 0 ;
+2 x11333 +2 x11334 +2 x11335 +2 x11336 -1 x11073 -1 x11074 -1 x11075 -1 x11076 -1 x11077 -1 x11078 -1 x11079 -1 x11080 >= 0 ;
+2 x11337 +2 x11338 +2 x11339 +2 x11340 -1 x11077 -1 x11078 -1 x11079 -1 x11080 -1 x11081 -1 x11082 -1 x11083 -1 x11084 >= 0 ;
+2 x11341 +2 x11342 +2 x11343 +2 x11344 -1 x11081 -1 x11082 -1 x11083 -1 x11084 -1 x11085 -1 x11086 -1 x11087 -1 x11088 >= 0 ;
+2 x11345 +2 x11346 +2 x11347 +2 x11348 -1 x11085 -1 x11086 -1 x11087 -1 x11088 -1 x11089 -1 x11090 -1 x11091 -1 x11092 >= 0 ;
+2 x11349 +2 x11350 +2 x11351 +2 x11352 -1 x11089 -1 x11090 -1 x11091 -1 x11092 -1 x11093 -1 x11094 -1 x11095 -1 x11096 >= 0 ;
+2 x11353 +2 x11354 +2 x11355 +2 x11356 -1 x11093 -1 x11094 -1 x11095 -1 x11096 -1 x11097 -1 x11098 -1 x11099 -1 x11100 >= 0 ;
+2 x11357 +2 x11358 +2 x11359 +2 x11360 -1 x11097 -1 x11098 -1 x11099 -1 x11100 -1 x11101 -1 x11102 -1 x11103 -1 x11104 >= 0 ;
+2 x11361 +2 x11362 +2 x11363 +2 x11364 -1 x11101 -1 x11102 -1 x11103 -1 x11104 -1 x11105 -1 x11106 -1 x11107 -1 x11108 >= 0 ;
+2 x11365 +2 x11366 +2 x11367 +2 x11368 -1 x11105 -1 x11106 -1 x11107 -1 x11108 -1 x11109 -1 x11110 -1 x11111 -1 x11112 >= 0 ;
+2 x11369 +2 x11370 +2 x11371 +2 x11372 -1 x11109 -1 x11110 -1 x11111 -1 x11112 -1 x11113 -1 x11114 -1 x11115 -1 x11116 >= 0 ;
+2 x11373 +2 x11374 +2 x11375 +2 x11376 -1 x11113 -1 x11114 -1 x11115 -1 x11116 -1 x11117 -1 x11118 -1 x11119 -1 x11120 >= 0 ;
+2 x11377 +2 x11378 +2 x11379 +2 x11380 -1 x11117 -1 x11118 -1 x11119 -1 x11120 -1 x11121 -1 x11122 -1 x11123 -1 x11124 >= 0 ;
+2 x11381 +2 x11382 +2 x11383 +2 x11384 -1 x11121 -1 x11122 -1 x11123 -1 x11124 -1 x11125 -1 x11126 -1 x11127 -1 x11128 >= 0 ;
+2 x11385 +2 x11386 +2 x11387 +2 x11388 -1 x11125 -1 x11126 -1 x11127 -1 x11128 -1 x11129 -1 x11130 -1 x11131 -1 x11132 >= 0 ;
+2 x11389 +2 x11390 +2 x11391 +2 x11392 -1 x11129 -1 x11130 -1 x11131 -1 x11132 -1 x11133 -1 x11134 -1 x11135 -1 x11136 >= 0 ;
+2 x11393 +2 x11394 +2 x11395 +2 x11396 -1 x11133 -1 x11134 -1 x11135 -1 x11136 -1 x11137 -1 x11138 -1 x11139 -1 x11140 >= 0 ;
+2 x11397 +2 x11398 +2 x11399 +2 x11400 -1 x11137 -1 x11138 -1 x11139 -1 x11140 -1 x11141 -1 x11142 -1 x11143 -1 x11144 >= 0 ;
+2 x11401 +2 x11402 +2 x11403 +2 x11404 -1 x11141 -1 x11142 -1 x11143 -1 x11144 -1 x11145 -1 x11146 -1 x11147 -1 x11148 >= 0 ;
+2 x11405 +2 x11406 +2 x11407 +2 x11408 -1 x11145 -1 x11146 -1 x11147 -1 x11148 -1 x11149 -1 x11150 -1 x11151 -1 x11152 >= 0 ;
+2 x11409 +2 x11410 +2 x11411 +2 x11412 -1 x11149 -1 x11150 -1 x11151 -1 x11152 -1 x11153 -1 x11154 -1 x11155 -1 x11156 >= 0 ;
+2 x11413 +2 x11414 +2 x11415 +2 x11416 -1 x11153 -1 x11154 -1 x11155 -1 x11156 -1 x11157 -1 x11158 -1 x11159 -1 x11160 >= 0 ;
+2 x11417 +2 x11418 +2 x11419 +2 x11420 -1 x11157 -1 x11158 -1 x11159 -1 x11160 -1 x11161 -1 x11162 -1 x11163 -1 x11164 >= 0 ;
+2 x11421 +2 x11422 +2 x11423 +2 x11424 -1 x11161 -1 x11162 -1 x11163 -1 x11164 -1 x11165 -1 x11166 -1 x11167 -1 x11168 >= 0 ;
+2 x11425 +2 x11426 +2 x11427 +2 x11428 -1 x11165 -1 x11166 -1 x11167 -1 x11168 -1 x11169 -1 x11170 -1 x11171 -1 x11172 >= 0 ;
+2 x11429 +2 x11430 +2 x11431 +2 x11432 -1 x11169 -1 x11170 -1 x11171 -1 x11172 -1 x11173 -1 x11174 -1 x11175 -1 x11176 >= 0 ;
+2 x11433 +2 x11434 +2 x11435 +2 x11436 -1 x11173 -1 x11174 -1 x11175 -1 x11176 -1 x11177 -1 x11178 -1 x11179 -1 x11180 >= 0 ;
+2 x11437 +2 x11438 +2 x11439 +2 x11440 -1 x11177 -1 x11178 -1 x11179 -1 x11180 -1 x11181 -1 x11182 -1 x11183 -1 x11184 >= 0 ;
+2 x11441 +2 x11442 +2 x11443 +2 x11444 -1 x11181 -1 x11182 -1 x11183 -1 x11184 -1 x11185 -1 x11186 -1 x11187 -1 x11188 >= 0 ;
+2 x11445 +2 x11446 +2 x11447 +2 x11448 -1 x11185 -1 x11186 -1 x11187 -1 x11188 -1 x11189 -1 x11190 -1 x11191 -1 x11192 >= 0 ;
+2 x11449 +2 x11450 +2 x11451 +2 x11452 -1 x11189 -1 x11190 -1 x11191 -1 x11192 -1 x11193 -1 x11194 -1 x11195 -1 x11196 >= 0 ;
+2 x11453 +2 x11454 +2 x11455 +2 x11456 -1 x11193 -1 x11194 -1 x11195 -1 x11196 -1 x11197 -1 x11198 -1 x11199 -1 x11200 >= 0 ;
+2 x11457 +2 x11458 +2 x11459 +2 x11460 -1 x11197 -1 x11198 -1 x11199 -1 x11200 -1 x11201 -1 x11202 -1 x11203 -1 x11204 >= 0 ;
+2 x11461 +2 x11462 +2 x11463 +2 x11464 -1 x11201 -1 x11202 -1 x11203 -1 x11204 -1 x11205 -1 x11206 -1 x11207 -1 x11208 >= 0 ;
+2 x11465 +2 x11466 +2 x11467 +2 x11468 -1 x11205 -1 x11206 -1 x11207 -1 x11208 -1 x11209 -1 x11210 -1 x11211 -1 x11212 >= 0 ;
+2 x11469 +2 x11470 +2 x11471 +2 x11472 -1 x11209 -1 x11210 -1 x11211 -1 x11212 -1 x11213 -1 x11214 -1 x11215 -1 x11216 >= 0 ;
+2 x11473 +2 x11474 +2 x11475 +2 x11476 -1 x11213 -1 x11214 -1 x11215 -1 x11216 -1 x11217 -1 x11218 -1 x11219 -1 x11220 >= 0 ;
+2 x11477 +2 x11478 +2 x11479 +2 x11480 -1 x11217 -1 x11218 -1 x11219 -1 x11220 -1 x11221 -1 x11222 -1 x11223 -1 x11224 >= 0 ;
+2 x11481 +2 x11482 +2 x11483 +2 x11484 -1 x11221 -1 x11222 -1 x11223 -1 x11224 -1 x11225 -1 x11226 -1 x11227 -1 x11228 >= 0 ;
+2 x11485 +2 x11486 +2 x11487 +2 x11488 -1 x11225 -1 x11226 -1 x11227 -1 x11228 -1 x11229 -1 x11230 -1 x11231 -1 x11232 >= 0 ;
+2 x11489 +2 x11490 +2 x11491 +2 x11492 -1 x11229 -1 x11230 -1 x11231 -1 x11232 -1 x11233 -1 x11234 -1 x11235 -1 x11236 >= 0 ;
+2 x11493 +2 x11494 +2 x11495 +2 x11496 -1 x11233 -1 x11234 -1 x11235 -1 x11236 -1 x11237 -1 x11238 -1 x11239 -1 x11240 >= 0 ;
+2 x11497 +2 x11498 +2 x11499 +2 x11500 -1 x11237 -1 x11238 -1 x11239 -1 x11240 -1 x11241 -1 x11242 -1 x11243 -1 x11244 >= 0 ;
+2 x11501 +2 x11502 +2 x11503 +2 x11504 -1 x11241 -1 x11242 -1 x11243 -1 x11244 -1 x11245 -1 x11246 -1 x11247 -1 x11248 >= 0 ;
+2 x11505 +2 x11506 +2 x11507 +2 x11508 -1 x11245 -1 x11246 -1 x11247 -1 x11248 -1 x11249 -1 x11250 -1 x11251 -1 x11252 >= 0 ;
+2 x11509 +2 x11510 +2 x11511 +2 x11512 -1 x11249 -1 x11250 -1 x11251 -1 x11252 -1 x11253 -1 x11254 -1 x11255 -1 x11256 >= 0 ;
+2 x11513 +2 x11514 +2 x11515 +2 x11516 -1 x11253 -1 x11254 -1 x11255 -1 x11256 -1 x11257 -1 x11258 -1 x11259 -1 x11260 >= 0 ;
+2 x11517 +2 x11518 +2 x11519 +2 x11520 -1 x11257 -1 x11258 -1 x11259 -1 x11260 -1 x11261 -1 x11262 -1 x11263 -1 x11264 >= 0 ;
+2 x11521 +2 x11522 +2 x11523 +2 x11524 -1 x11265 -1 x11266 -1 x11267 -1 x11268 -1 x11517 -1 x11518 -1 x11519 -1 x11520 >= 0 ;
+2 x11525 +2 x11526 +2 x11527 +2 x11528 -1 x11265 -1 x11266 -1 x11267 -1 x11268 -1 x11269 -1 x11270 -1 x11271 -1 x11272 >= 0 ;
+2 x11529 +2 x11530 +2 x11531 +2 x11532 -1 x11269 -1 x11270 -1 x11271 -1 x11272 -1 x11273 -1 x11274 -1 x11275 -1 x11276 >= 0 ;
+2 x11533 +2 x11534 +2 x11535 +2 x11536 -1 x11273 -1 x11274 -1 x11275 -1 x11276 -1 x11277 -1 x11278 -1 x11279 -1 x11280 >= 0 ;
+2 x11537 +2 x11538 +2 x11539 +2 x11540 -1 x11277 -1 x11278 -1 x11279 -1 x11280 -1 x11281 -1 x11282 -1 x11283 -1 x11284 >= 0 ;
+2 x11541 +2 x11542 +2 x11543 +2 x11544 -1 x11281 -1 x11282 -1 x11283 -1 x11284 -1 x11285 -1 x11286 -1 x11287 -1 x11288 >= 0 ;
+2 x11545 +2 x11546 +2 x11547 +2 x11548 -1 x11285 -1 x11286 -1 x11287 -1 x11288 -1 x11289 -1 x11290 -1 x11291 -1 x11292 >= 0 ;
+2 x11549 +2 x11550 +2 x11551 +2 x11552 -1 x11289 -1 x11290 -1 x11291 -1 x11292 -1 x11293 -1 x11294 -1 x11295 -1 x11296 >= 0 ;
+2 x11553 +2 x11554 +2 x11555 +2 x11556 -1 x11293 -1 x11294 -1 x11295 -1 x11296 -1 x11297 -1 x11298 -1 x11299 -1 x11300 >= 0 ;
+2 x11557 +2 x11558 +2 x11559 +2 x11560 -1 x11297 -1 x11298 -1 x11299 -1 x11300 -1 x11301 -1 x11302 -1 x11303 -1 x11304 >= 0 ;
+2 x11561 +2 x11562 +2 x11563 +2 x11564 -1 x11301 -1 x11302 -1 x11303 -1 x11304 -1 x11305 -1 x11306 -1 x11307 -1 x11308 >= 0 ;
+2 x11565 +2 x11566 +2 x11567 +2 x11568 -1 x11305 -1 x11306 -1 x11307 -1 x11308 -1 x11309 -1 x11310 -1 x11311 -1 x11312 >= 0 ;
+2 x11569 +2 x11570 +2 x11571 +2 x11572 -1 x11309 -1 x11310 -1 x11311 -1 x11312 -1 x11313 -1 x11314 -1 x11315 -1 x11316 >= 0 ;
+2 x11573 +2 x11574 +2 x11575 +2 x11576 -1 x11313 -1 x11314 -1 x11315 -1 x11316 -1 x11317 -1 x11318 -1 x11319 -1 x11320 >= 0 ;
+2 x11577 +2 x11578 +2 x11579 +2 x11580 -1 x11317 -1 x11318 -1 x11319 -1 x11320 -1 x11321 -1 x11322 -1 x11323 -1 x11324 >= 0 ;
+2 x11581 +2 x11582 +2 x11583 +2 x11584 -1 x11321 -1 x11322 -1 x11323 -1 x11324 -1 x11325 -1 x11326 -1 x11327 -1 x11328 >= 0 ;
+2 x11585 +2 x11586 +2 x11587 +2 x11588 -1 x11325 -1 x11326 -1 x11327 -1 x11328 -1 x11329 -1 x11330 -1 x11331 -1 x11332 >= 0 ;
+2 x11589 +2 x11590 +2 x11591 +2 x11592 -1 x11329 -1 x11330 -1 x11331 -1 x11332 -1 x11333 -1 x11334 -1 x11335 -1 x11336 >= 0 ;
+2 x11593 +2 x11594 +2 x11595 +2 x11596 -1 x11333 -1 x11334 -1 x11335 -1 x11336 -1 x11337 -1 x11338 -1 x11339 -1 x11340 >= 0 ;
+2 x11597 +2 x11598 +2 x11599 +2 x11600 -1 x11337 -1 x11338 -1 x11339 -1 x11340 -1 x11341 -1 x11342 -1 x11343 -1 x11344 >= 0 ;
+2 x11601 +2 x11602 +2 x11603 +2 x11604 -1 x11341 -1 x11342 -1 x11343 -1 x11344 -1 x11345 -1 x11346 -1 x11347 -1 x11348 >= 0 ;
+2 x11605 +2 x11606 +2 x11607 +2 x11608 -1 x11345 -1 x11346 -1 x11347 -1 x11348 -1 x11349 -1 x11350 -1 x11351 -1 x11352 >= 0 ;
+2 x11609 +2 x11610 +2 x11611 +2 x11612 -1 x11349 -1 x11350 -1 x11351 -1 x11352 -1 x11353 -1 x11354 -1 x11355 -1 x11356 >= 0 ;
+2 x11613 +2 x11614 +2 x11615 +2 x11616 -1 x11353 -1 x11354 -1 x11355 -1 x11356 -1 x11357 -1 x11358 -1 x11359 -1 x11360 >= 0 ;
+2 x11617 +2 x11618 +2 x11619 +2 x11620 -1 x11357 -1 x11358 -1 x11359 -1 x11360 -1 x11361 -1 x11362 -1 x11363 -1 x11364 >= 0 ;
+2 x11621 +2 x11622 +2 x11623 +2 x11624 -1 x11361 -1 x11362 -1 x11363 -1 x11364 -1 x11365 -1 x11366 -1 x11367 -1 x11368 >= 0 ;
+2 x11625 +2 x11626 +2 x11627 +2 x11628 -1 x11365 -1 x11366 -1 x11367 -1 x11368 -1 x11369 -1 x11370 -1 x11371 -1 x11372 >= 0 ;
+2 x11629 +2 x11630 +2 x11631 +2 x11632 -1 x11369 -1 x11370 -1 x11371 -1 x11372 -1 x11373 -1 x11374 -1 x11375 -1 x11376 >= 0 ;
+2 x11633 +2 x11634 +2 x11635 +2 x11636 -1 x11373 -1 x11374 -1 x11375 -1 x11376 -1 x11377 -1 x11378 -1 x11379 -1 x11380 >= 0 ;
+2 x11637 +2 x11638 +2 x11639 +2 x11640 -1 x11377 -1 x11378 -1 x11379 -1 x11380 -1 x11381 -1 x11382 -1 x11383 -1 x11384 >= 0 ;
+2 x11641 +2 x11642 +2 x11643 +2 x11644 -1 x11381 -1 x11382 -1 x11383 -1 x11384 -1 x11385 -1 x11386 -1 x11387 -1 x11388 >= 0 ;
+2 x11645 +2 x11646 +2 x11647 +2 x11648 -1 x11385 -1 x11386 -1 x11387 -1 x11388 -1 x11389 -1 x11390 -1 x11391 -1 x11392 >= 0 ;
+2 x11649 +2 x11650 +2 x11651 +2 x11652 -1 x11389 -1 x11390 -1 x11391 -1 x11392 -1 x11393 -1 x11394 -1 x11395 -1 x11396 >= 0 ;
+2 x11653 +2 x11654 +2 x11655 +2 x11656 -1 x11393 -1 x11394 -1 x11395 -1 x11396 -1 x11397 -1 x11398 -1 x11399 -1 x11400 >= 0 ;
+2 x11657 +2 x11658 +2 x11659 +2 x11660 -1 x11397 -1 x11398 -1 x11399 -1 x11400 -1 x11401 -1 x11402 -1 x11403 -1 x11404 >= 0 ;
+2 x11661 +2 x11662 +2 x11663 +2 x11664 -1 x11401 -1 x11402 -1 x11403 -1 x11404 -1 x11405 -1 x11406 -1 x11407 -1 x11408 >= 0 ;
+2 x11665 +2 x11666 +2 x11667 +2 x11668 -1 x11405 -1 x11406 -1 x11407 -1 x11408 -1 x11409 -1 x11410 -1 x11411 -1 x11412 >= 0 ;
+2 x11669 +2 x11670 +2 x11671 +2 x11672 -1 x11409 -1 x11410 -1 x11411 -1 x11412 -1 x11413 -1 x11414 -1 x11415 -1 x11416 >= 0 ;
+2 x11673 +2 x11674 +2 x11675 +2 x11676 -1 x11413 -1 x11414 -1 x11415 -1 x11416 -1 x11417 -1 x11418 -1 x11419 -1 x11420 >= 0 ;
+2 x11677 +2 x11678 +2 x11679 +2 x11680 -1 x11417 -1 x11418 -1 x11419 -1 x11420 -1 x11421 -1 x11422 -1 x11423 -1 x11424 >= 0 ;
+2 x11681 +2 x11682 +2 x11683 +2 x11684 -1 x11421 -1 x11422 -1 x11423 -1 x11424 -1 x11425 -1 x11426 -1 x11427 -1 x11428 >= 0 ;
+2 x11685 +2 x11686 +2 x11687 +2 x11688 -1 x11425 -1 x11426 -1 x11427 -1 x11428 -1 x11429 -1 x11430 -1 x11431 -1 x11432 >= 0 ;
+2 x11689 +2 x11690 +2 x11691 +2 x11692 -1 x11429 -1 x11430 -1 x11431 -1 x11432 -1 x11433 -1 x11434 -1 x11435 -1 x11436 >= 0 ;
+2 x11693 +2 x11694 +2 x11695 +2 x11696 -1 x11433 -1 x11434 -1 x11435 -1 x11436 -1 x11437 -1 x11438 -1 x11439 -1 x11440 >= 0 ;
+2 x11697 +2 x11698 +2 x11699 +2 x11700 -1 x11437 -1 x11438 -1 x11439 -1 x11440 -1 x11441 -1 x11442 -1 x11443 -1 x11444 >= 0 ;
+2 x11701 +2 x11702 +2 x11703 +2 x11704 -1 x11441 -1 x11442 -1 x11443 -1 x11444 -1 x11445 -1 x11446 -1 x11447 -1 x11448 >= 0 ;
+2 x11705 +2 x11706 +2 x11707 +2 x11708 -1 x11445 -1 x11446 -1 x11447 -1 x11448 -1 x11449 -1 x11450 -1 x11451 -1 x11452 >= 0 ;
+2 x11709 +2 x11710 +2 x11711 +2 x11712 -1 x11449 -1 x11450 -1 x11451 -1 x11452 -1 x11453 -1 x11454 -1 x11455 -1 x11456 >= 0 ;
+2 x11713 +2 x11714 +2 x11715 +2 x11716 -1 x11453 -1 x11454 -1 x11455 -1 x11456 -1 x11457 -1 x11458 -1 x11459 -1 x11460 >= 0 ;
+2 x11717 +2 x11718 +2 x11719 +2 x11720 -1 x11457 -1 x11458 -1 x11459 -1 x11460 -1 x11461 -1 x11462 -1 x11463 -1 x11464 >= 0 ;
+2 x11721 +2 x11722 +2 x11723 +2 x11724 -1 x11461 -1 x11462 -1 x11463 -1 x11464 -1 x11465 -1 x11466 -1 x11467 -1 x11468 >= 0 ;
+2 x11725 +2 x11726 +2 x11727 +2 x11728 -1 x11465 -1 x11466 -1 x11467 -1 x11468 -1 x11469 -1 x11470 -1 x11471 -1 x11472 >= 0 ;
+2 x11729 +2 x11730 +2 x11731 +2 x11732 -1 x11469 -1 x11470 -1 x11471 -1 x11472 -1 x11473 -1 x11474 -1 x11475 -1 x11476 >= 0 ;
+2 x11733 +2 x11734 +2 x11735 +2 x11736 -1 x11473 -1 x11474 -1 x11475 -1 x11476 -1 x11477 -1 x11478 -1 x11479 -1 x11480 >= 0 ;
+2 x11737 +2 x11738 +2 x11739 +2 x11740 -1 x11477 -1 x11478 -1 x11479 -1 x11480 -1 x11481 -1 x11482 -1 x11483 -1 x11484 >= 0 ;
+2 x11741 +2 x11742 +2 x11743 +2 x11744 -1 x11481 -1 x11482 -1 x11483 -1 x11484 -1 x11485 -1 x11486 -1 x11487 -1 x11488 >= 0 ;
+2 x11745 +2 x11746 +2 x11747 +2 x11748 -1 x11485 -1 x11486 -1 x11487 -1 x11488 -1 x11489 -1 x11490 -1 x11491 -1 x11492 >= 0 ;
+2 x11749 +2 x11750 +2 x11751 +2 x11752 -1 x11489 -1 x11490 -1 x11491 -1 x11492 -1 x11493 -1 x11494 -1 x11495 -1 x11496 >= 0 ;
+2 x11753 +2 x11754 +2 x11755 +2 x11756 -1 x11493 -1 x11494 -1 x11495 -1 x11496 -1 x11497 -1 x11498 -1 x11499 -1 x11500 >= 0 ;
+2 x11757 +2 x11758 +2 x11759 +2 x11760 -1 x11497 -1 x11498 -1 x11499 -1 x11500 -1 x11501 -1 x11502 -1 x11503 -1 x11504 >= 0 ;
+2 x11761 +2 x11762 +2 x11763 +2 x11764 -1 x11501 -1 x11502 -1 x11503 -1 x11504 -1 x11505 -1 x11506 -1 x11507 -1 x11508 >= 0 ;
+2 x11765 +2 x11766 +2 x11767 +2 x11768 -1 x11505 -1 x11506 -1 x11507 -1 x11508 -1 x11509 -1 x11510 -1 x11511 -1 x11512 >= 0 ;
+2 x11769 +2 x11770 +2 x11771 +2 x11772 -1 x11509 -1 x11510 -1 x11511 -1 x11512 -1 x11513 -1 x11514 -1 x11515 -1 x11516 >= 0 ;
+2 x11773 +2 x11774 +2 x11775 +2 x11776 -1 x11513 -1 x11514 -1 x11515 -1 x11516 -1 x11517 -1 x11518 -1 x11519 -1 x11520 >= 0 ;
+2 x11777 +2 x11778 +2 x11779 +2 x11780 -1 x11521 -1 x11522 -1 x11523 -1 x11524 -1 x11773 -1 x11774 -1 x11775 -1 x11776 >= 0 ;
+2 x11781 +2 x11782 +2 x11783 +2 x11784 -1 x11521 -1 x11522 -1 x11523 -1 x11524 -1 x11525 -1 x11526 -1 x11527 -1 x11528 >= 0 ;
+2 x11785 +2 x11786 +2 x11787 +2 x11788 -1 x11525 -1 x11526 -1 x11527 -1 x11528 -1 x11529 -1 x11530 -1 x11531 -1 x11532 >= 0 ;
+2 x11789 +2 x11790 +2 x11791 +2 x11792 -1 x11529 -1 x11530 -1 x11531 -1 x11532 -1 x11533 -1 x11534 -1 x11535 -1 x11536 >= 0 ;
+2 x11793 +2 x11794 +2 x11795 +2 x11796 -1 x11533 -1 x11534 -1 x11535 -1 x11536 -1 x11537 -1 x11538 -1 x11539 -1 x11540 >= 0 ;
+2 x11797 +2 x11798 +2 x11799 +2 x11800 -1 x11537 -1 x11538 -1 x11539 -1 x11540 -1 x11541 -1 x11542 -1 x11543 -1 x11544 >= 0 ;
+2 x11801 +2 x11802 +2 x11803 +2 x11804 -1 x11541 -1 x11542 -1 x11543 -1 x11544 -1 x11545 -1 x11546 -1 x11547 -1 x11548 >= 0 ;
+2 x11805 +2 x11806 +2 x11807 +2 x11808 -1 x11545 -1 x11546 -1 x11547 -1 x11548 -1 x11549 -1 x11550 -1 x11551 -1 x11552 >= 0 ;
+2 x11809 +2 x11810 +2 x11811 +2 x11812 -1 x11549 -1 x11550 -1 x11551 -1 x11552 -1 x11553 -1 x11554 -1 x11555 -1 x11556 >= 0 ;
+2 x11813 +2 x11814 +2 x11815 +2 x11816 -1 x11553 -1 x11554 -1 x11555 -1 x11556 -1 x11557 -1 x11558 -1 x11559 -1 x11560 >= 0 ;
+2 x11817 +2 x11818 +2 x11819 +2 x11820 -1 x11557 -1 x11558 -1 x11559 -1 x11560 -1 x11561 -1 x11562 -1 x11563 -1 x11564 >= 0 ;
+2 x11821 +2 x11822 +2 x11823 +2 x11824 -1 x11561 -1 x11562 -1 x11563 -1 x11564 -1 x11565 -1 x11566 -1 x11567 -1 x11568 >= 0 ;
+2 x11825 +2 x11826 +2 x11827 +2 x11828 -1 x11565 -1 x11566 -1 x11567 -1 x11568 -1 x11569 -1 x11570 -1 x11571 -1 x11572 >= 0 ;
+2 x11829 +2 x11830 +2 x11831 +2 x11832 -1 x11569 -1 x11570 -1 x11571 -1 x11572 -1 x11573 -1 x11574 -1 x11575 -1 x11576 >= 0 ;
+2 x11833 +2 x11834 +2 x11835 +2 x11836 -1 x11573 -1 x11574 -1 x11575 -1 x11576 -1 x11577 -1 x11578 -1 x11579 -1 x11580 >= 0 ;
+2 x11837 +2 x11838 +2 x11839 +2 x11840 -1 x11577 -1 x11578 -1 x11579 -1 x11580 -1 x11581 -1 x11582 -1 x11583 -1 x11584 >= 0 ;
+2 x11841 +2 x11842 +2 x11843 +2 x11844 -1 x11581 -1 x11582 -1 x11583 -1 x11584 -1 x11585 -1 x11586 -1 x11587 -1 x11588 >= 0 ;
+2 x11845 +2 x11846 +2 x11847 +2 x11848 -1 x11585 -1 x11586 -1 x11587 -1 x11588 -1 x11589 -1 x11590 -1 x11591 -1 x11592 >= 0 ;
+2 x11849 +2 x11850 +2 x11851 +2 x11852 -1 x11589 -1 x11590 -1 x11591 -1 x11592 -1 x11593 -1 x11594 -1 x11595 -1 x11596 >= 0 ;
+2 x11853 +2 x11854 +2 x11855 +2 x11856 -1 x11593 -1 x11594 -1 x11595 -1 x11596 -1 x11597 -1 x11598 -1 x11599 -1 x11600 >= 0 ;
+2 x11857 +2 x11858 +2 x11859 +2 x11860 -1 x11597 -1 x11598 -1 x11599 -1 x11600 -1 x11601 -1 x11602 -1 x11603 -1 x11604 >= 0 ;
+2 x11861 +2 x11862 +2 x11863 +2 x11864 -1 x11601 -1 x11602 -1 x11603 -1 x11604 -1 x11605 -1 x11606 -1 x11607 -1 x11608 >= 0 ;
+2 x11865 +2 x11866 +2 x11867 +2 x11868 -1 x11605 -1 x11606 -1 x11607 -1 x11608 -1 x11609 -1 x11610 -1 x11611 -1 x11612 >= 0 ;
+2 x11869 +2 x11870 +2 x11871 +2 x11872 -1 x11609 -1 x11610 -1 x11611 -1 x11612 -1 x11613 -1 x11614 -1 x11615 -1 x11616 >= 0 ;
+2 x11873 +2 x11874 +2 x11875 +2 x11876 -1 x11613 -1 x11614 -1 x11615 -1 x11616 -1 x11617 -1 x11618 -1 x11619 -1 x11620 >= 0 ;
+2 x11877 +2 x11878 +2 x11879 +2 x11880 -1 x11617 -1 x11618 -1 x11619 -1 x11620 -1 x11621 -1 x11622 -1 x11623 -1 x11624 >= 0 ;
+2 x11881 +2 x11882 +2 x11883 +2 x11884 -1 x11621 -1 x11622 -1 x11623 -1 x11624 -1 x11625 -1 x11626 -1 x11627 -1 x11628 >= 0 ;
+2 x11885 +2 x11886 +2 x11887 +2 x11888 -1 x11625 -1 x11626 -1 x11627 -1 x11628 -1 x11629 -1 x11630 -1 x11631 -1 x11632 >= 0 ;
+2 x11889 +2 x11890 +2 x11891 +2 x11892 -1 x11629 -1 x11630 -1 x11631 -1 x11632 -1 x11633 -1 x11634 -1 x11635 -1 x11636 >= 0 ;
+2 x11893 +2 x11894 +2 x11895 +2 x11896 -1 x11633 -1 x11634 -1 x11635 -1 x11636 -1 x11637 -1 x11638 -1 x11639 -1 x11640 >= 0 ;
+2 x11897 +2 x11898 +2 x11899 +2 x11900 -1 x11637 -1 x11638 -1 x11639 -1 x11640 -1 x11641 -1 x11642 -1 x11643 -1 x11644 >= 0 ;
+2 x11901 +2 x11902 +2 x11903 +2 x11904 -1 x11641 -1 x11642 -1 x11643 -1 x11644 -1 x11645 -1 x11646 -1 x11647 -1 x11648 >= 0 ;
+2 x11905 +2 x11906 +2 x11907 +2 x11908 -1 x11645 -1 x11646 -1 x11647 -1 x11648 -1 x11649 -1 x11650 -1 x11651 -1 x11652 >= 0 ;
+2 x11909 +2 x11910 +2 x11911 +2 x11912 -1 x11649 -1 x11650 -1 x11651 -1 x11652 -1 x11653 -1 x11654 -1 x11655 -1 x11656 >= 0 ;
+2 x11913 +2 x11914 +2 x11915 +2 x11916 -1 x11653 -1 x11654 -1 x11655 -1 x11656 -1 x11657 -1 x11658 -1 x11659 -1 x11660 >= 0 ;
+2 x11917 +2 x11918 +2 x11919 +2 x11920 -1 x11657 -1 x11658 -1 x11659 -1 x11660 -1 x11661 -1 x11662 -1 x11663 -1 x11664 >= 0 ;
+2 x11921 +2 x11922 +2 x11923 +2 x11924 -1 x11661 -1 x11662 -1 x11663 -1 x11664 -1 x11665 -1 x11666 -1 x11667 -1 x11668 >= 0 ;
+2 x11925 +2 x11926 +2 x11927 +2 x11928 -1 x11665 -1 x11666 -1 x11667 -1 x11668 -1 x11669 -1 x11670 -1 x11671 -1 x11672 >= 0 ;
+2 x11929 +2 x11930 +2 x11931 +2 x11932 -1 x11669 -1 x11670 -1 x11671 -1 x11672 -1 x11673 -1 x11674 -1 x11675 -1 x11676 >= 0 ;
+2 x11933 +2 x11934 +2 x11935 +2 x11936 -1 x11673 -1 x11674 -1 x11675 -1 x11676 -1 x11677 -1 x11678 -1 x11679 -1 x11680 >= 0 ;
+2 x11937 +2 x11938 +2 x11939 +2 x11940 -1 x11677 -1 x11678 -1 x11679 -1 x11680 -1 x11681 -1 x11682 -1 x11683 -1 x11684 >= 0 ;
+2 x11941 +2 x11942 +2 x11943 +2 x11944 -1 x11681 -1 x11682 -1 x11683 -1 x11684 -1 x11685 -1 x11686 -1 x11687 -1 x11688 >= 0 ;
+2 x11945 +2 x11946 +2 x11947 +2 x11948 -1 x11685 -1 x11686 -1 x11687 -1 x11688 -1 x11689 -1 x11690 -1 x11691 -1 x11692 >= 0 ;
+2 x11949 +2 x11950 +2 x11951 +2 x11952 -1 x11689 -1 x11690 -1 x11691 -1 x11692 -1 x11693 -1 x11694 -1 x11695 -1 x11696 >= 0 ;
+2 x11953 +2 x11954 +2 x11955 +2 x11956 -1 x11693 -1 x11694 -1 x11695 -1 x11696 -1 x11697 -1 x11698 -1 x11699 -1 x11700 >= 0 ;
+2 x11957 +2 x11958 +2 x11959 +2 x11960 -1 x11697 -1 x11698 -1 x11699 -1 x11700 -1 x11701 -1 x11702 -1 x11703 -1 x11704 >= 0 ;
+2 x11961 +2 x11962 +2 x11963 +2 x11964 -1 x11701 -1 x11702 -1 x11703 -1 x11704 -1 x11705 -1 x11706 -1 x11707 -1 x11708 >= 0 ;
+2 x11965 +2 x11966 +2 x11967 +2 x11968 -1 x11705 -1 x11706 -1 x11707 -1 x11708 -1 x11709 -1 x11710 -1 x11711 -1 x11712 >= 0 ;
+2 x11969 +2 x11970 +2 x11971 +2 x11972 -1 x11709 -1 x11710 -1 x11711 -1 x11712 -1 x11713 -1 x11714 -1 x11715 -1 x11716 >= 0 ;
+2 x11973 +2 x11974 +2 x11975 +2 x11976 -1 x11713 -1 x11714 -1 x11715 -1 x11716 -1 x11717 -1 x11718 -1 x11719 -1 x11720 >= 0 ;
+2 x11977 +2 x11978 +2 x11979 +2 x11980 -1 x11717 -1 x11718 -1 x11719 -1 x11720 -1 x11721 -1 x11722 -1 x11723 -1 x11724 >= 0 ;
+2 x11981 +2 x11982 +2 x11983 +2 x11984 -1 x11721 -1 x11722 -1 x11723 -1 x11724 -1 x11725 -1 x11726 -1 x11727 -1 x11728 >= 0 ;
+2 x11985 +2 x11986 +2 x11987 +2 x11988 -1 x11725 -1 x11726 -1 x11727 -1 x11728 -1 x11729 -1 x11730 -1 x11731 -1 x11732 >= 0 ;
+2 x11989 +2 x11990 +2 x11991 +2 x11992 -1 x11729 -1 x11730 -1 x11731 -1 x11732 -1 x11733 -1 x11734 -1 x11735 -1 x11736 >= 0 ;
+2 x11993 +2 x11994 +2 x11995 +2 x11996 -1 x11733 -1 x11734 -1 x11735 -1 x11736 -1 x11737 -1 x11738 -1 x11739 -1 x11740 >= 0 ;
+2 x11997 +2 x11998 +2 x11999 +2 x12000 -1 x11737 -1 x11738 -1 x11739 -1 x11740 -1 x11741 -1 x11742 -1 x11743 -1 x11744 >= 0 ;
+2 x12001 +2 x12002 +2 x12003 +2 x12004 -1 x11741 -1 x11742 -1 x11743 -1 x11744 -1 x11745 -1 x11746 -1 x11747 -1 x11748 >= 0 ;
+2 x12005 +2 x12006 +2 x12007 +2 x12008 -1 x11745 -1 x11746 -1 x11747 -1 x11748 -1 x11749 -1 x11750 -1 x11751 -1 x11752 >= 0 ;
+2 x12009 +2 x12010 +2 x12011 +2 x12012 -1 x11749 -1 x11750 -1 x11751 -1 x11752 -1 x11753 -1 x11754 -1 x11755 -1 x11756 >= 0 ;
+2 x12013 +2 x12014 +2 x12015 +2 x12016 -1 x11753 -1 x11754 -1 x11755 -1 x11756 -1 x11757 -1 x11758 -1 x11759 -1 x11760 >= 0 ;
+2 x12017 +2 x12018 +2 x12019 +2 x12020 -1 x11757 -1 x11758 -1 x11759 -1 x11760 -1 x11761 -1 x11762 -1 x11763 -1 x11764 >= 0 ;
+2 x12021 +2 x12022 +2 x12023 +2 x12024 -1 x11761 -1 x11762 -1 x11763 -1 x11764 -1 x11765 -1 x11766 -1 x11767 -1 x11768 >= 0 ;
+2 x12025 +2 x12026 +2 x12027 +2 x12028 -1 x11765 -1 x11766 -1 x11767 -1 x11768 -1 x11769 -1 x11770 -1 x11771 -1 x11772 >= 0 ;
+2 x12029 +2 x12030 +2 x12031 +2 x12032 -1 x11769 -1 x11770 -1 x11771 -1 x11772 -1 x11773 -1 x11774 -1 x11775 -1 x11776 >= 0 ;
+2 x12033 +2 x12034 +2 x12035 +2 x12036 -1 x11777 -1 x11778 -1 x11779 -1 x11780 -1 x12029 -1 x12030 -1 x12031 -1 x12032 >= 0 ;
+2 x12037 +2 x12038 +2 x12039 +2 x12040 -1 x11777 -1 x11778 -1 x11779 -1 x11780 -1 x11781 -1 x11782 -1 x11783 -1 x11784 >= 0 ;
+2 x12041 +2 x12042 +2 x12043 +2 x12044 -1 x11781 -1 x11782 -1 x11783 -1 x11784 -1 x11785 -1 x11786 -1 x11787 -1 x11788 >= 0 ;
+2 x12045 +2 x12046 +2 x12047 +2 x12048 -1 x11785 -1 x11786 -1 x11787 -1 x11788 -1 x11789 -1 x11790 -1 x11791 -1 x11792 >= 0 ;
+2 x12049 +2 x12050 +2 x12051 +2 x12052 -1 x11789 -1 x11790 -1 x11791 -1 x11792 -1 x11793 -1 x11794 -1 x11795 -1 x11796 >= 0 ;
+2 x12053 +2 x12054 +2 x12055 +2 x12056 -1 x11793 -1 x11794 -1 x11795 -1 x11796 -1 x11797 -1 x11798 -1 x11799 -1 x11800 >= 0 ;
+2 x12057 +2 x12058 +2 x12059 +2 x12060 -1 x11797 -1 x11798 -1 x11799 -1 x11800 -1 x11801 -1 x11802 -1 x11803 -1 x11804 >= 0 ;
+2 x12061 +2 x12062 +2 x12063 +2 x12064 -1 x11801 -1 x11802 -1 x11803 -1 x11804 -1 x11805 -1 x11806 -1 x11807 -1 x11808 >= 0 ;
+2 x12065 +2 x12066 +2 x12067 +2 x12068 -1 x11805 -1 x11806 -1 x11807 -1 x11808 -1 x11809 -1 x11810 -1 x11811 -1 x11812 >= 0 ;
+2 x12069 +2 x12070 +2 x12071 +2 x12072 -1 x11809 -1 x11810 -1 x11811 -1 x11812 -1 x11813 -1 x11814 -1 x11815 -1 x11816 >= 0 ;
+2 x12073 +2 x12074 +2 x12075 +2 x12076 -1 x11813 -1 x11814 -1 x11815 -1 x11816 -1 x11817 -1 x11818 -1 x11819 -1 x11820 >= 0 ;
+2 x12077 +2 x12078 +2 x12079 +2 x12080 -1 x11817 -1 x11818 -1 x11819 -1 x11820 -1 x11821 -1 x11822 -1 x11823 -1 x11824 >= 0 ;
+2 x12081 +2 x12082 +2 x12083 +2 x12084 -1 x11821 -1 x11822 -1 x11823 -1 x11824 -1 x11825 -1 x11826 -1 x11827 -1 x11828 >= 0 ;
+2 x12085 +2 x12086 +2 x12087 +2 x12088 -1 x11825 -1 x11826 -1 x11827 -1 x11828 -1 x11829 -1 x11830 -1 x11831 -1 x11832 >= 0 ;
+2 x12089 +2 x12090 +2 x12091 +2 x12092 -1 x11829 -1 x11830 -1 x11831 -1 x11832 -1 x11833 -1 x11834 -1 x11835 -1 x11836 >= 0 ;
+2 x12093 +2 x12094 +2 x12095 +2 x12096 -1 x11833 -1 x11834 -1 x11835 -1 x11836 -1 x11837 -1 x11838 -1 x11839 -1 x11840 >= 0 ;
+2 x12097 +2 x12098 +2 x12099 +2 x12100 -1 x11837 -1 x11838 -1 x11839 -1 x11840 -1 x11841 -1 x11842 -1 x11843 -1 x11844 >= 0 ;
+2 x12101 +2 x12102 +2 x12103 +2 x12104 -1 x11841 -1 x11842 -1 x11843 -1 x11844 -1 x11845 -1 x11846 -1 x11847 -1 x11848 >= 0 ;
+2 x12105 +2 x12106 +2 x12107 +2 x12108 -1 x11845 -1 x11846 -1 x11847 -1 x11848 -1 x11849 -1 x11850 -1 x11851 -1 x11852 >= 0 ;
+2 x12109 +2 x12110 +2 x12111 +2 x12112 -1 x11849 -1 x11850 -1 x11851 -1 x11852 -1 x11853 -1 x11854 -1 x11855 -1 x11856 >= 0 ;
+2 x12113 +2 x12114 +2 x12115 +2 x12116 -1 x11853 -1 x11854 -1 x11855 -1 x11856 -1 x11857 -1 x11858 -1 x11859 -1 x11860 >= 0 ;
+2 x12117 +2 x12118 +2 x12119 +2 x12120 -1 x11857 -1 x11858 -1 x11859 -1 x11860 -1 x11861 -1 x11862 -1 x11863 -1 x11864 >= 0 ;
+2 x12121 +2 x12122 +2 x12123 +2 x12124 -1 x11861 -1 x11862 -1 x11863 -1 x11864 -1 x11865 -1 x11866 -1 x11867 -1 x11868 >= 0 ;
+2 x12125 +2 x12126 +2 x12127 +2 x12128 -1 x11865 -1 x11866 -1 x11867 -1 x11868 -1 x11869 -1 x11870 -1 x11871 -1 x11872 >= 0 ;
+2 x12129 +2 x12130 +2 x12131 +2 x12132 -1 x11869 -1 x11870 -1 x11871 -1 x11872 -1 x11873 -1 x11874 -1 x11875 -1 x11876 >= 0 ;
+2 x12133 +2 x12134 +2 x12135 +2 x12136 -1 x11873 -1 x11874 -1 x11875 -1 x11876 -1 x11877 -1 x11878 -1 x11879 -1 x11880 >= 0 ;
+2 x12137 +2 x12138 +2 x12139 +2 x12140 -1 x11877 -1 x11878 -1 x11879 -1 x11880 -1 x11881 -1 x11882 -1 x11883 -1 x11884 >= 0 ;
+2 x12141 +2 x12142 +2 x12143 +2 x12144 -1 x11881 -1 x11882 -1 x11883 -1 x11884 -1 x11885 -1 x11886 -1 x11887 -1 x11888 >= 0 ;
+2 x12145 +2 x12146 +2 x12147 +2 x12148 -1 x11885 -1 x11886 -1 x11887 -1 x11888 -1 x11889 -1 x11890 -1 x11891 -1 x11892 >= 0 ;
+2 x12149 +2 x12150 +2 x12151 +2 x12152 -1 x11889 -1 x11890 -1 x11891 -1 x11892 -1 x11893 -1 x11894 -1 x11895 -1 x11896 >= 0 ;
+2 x12153 +2 x12154 +2 x12155 +2 x12156 -1 x11893 -1 x11894 -1 x11895 -1 x11896 -1 x11897 -1 x11898 -1 x11899 -1 x11900 >= 0 ;
+2 x12157 +2 x12158 +2 x12159 +2 x12160 -1 x11897 -1 x11898 -1 x11899 -1 x11900 -1 x11901 -1 x11902 -1 x11903 -1 x11904 >= 0 ;
+2 x12161 +2 x12162 +2 x12163 +2 x12164 -1 x11901 -1 x11902 -1 x11903 -1 x11904 -1 x11905 -1 x11906 -1 x11907 -1 x11908 >= 0 ;
+2 x12165 +2 x12166 +2 x12167 +2 x12168 -1 x11905 -1 x11906 -1 x11907 -1 x11908 -1 x11909 -1 x11910 -1 x11911 -1 x11912 >= 0 ;
+2 x12169 +2 x12170 +2 x12171 +2 x12172 -1 x11909 -1 x11910 -1 x11911 -1 x11912 -1 x11913 -1 x11914 -1 x11915 -1 x11916 >= 0 ;
+2 x12173 +2 x12174 +2 x12175 +2 x12176 -1 x11913 -1 x11914 -1 x11915 -1 x11916 -1 x11917 -1 x11918 -1 x11919 -1 x11920 >= 0 ;
+2 x12177 +2 x12178 +2 x12179 +2 x12180 -1 x11917 -1 x11918 -1 x11919 -1 x11920 -1 x11921 -1 x11922 -1 x11923 -1 x11924 >= 0 ;
+2 x12181 +2 x12182 +2 x12183 +2 x12184 -1 x11921 -1 x11922 -1 x11923 -1 x11924 -1 x11925 -1 x11926 -1 x11927 -1 x11928 >= 0 ;
+2 x12185 +2 x12186 +2 x12187 +2 x12188 -1 x11925 -1 x11926 -1 x11927 -1 x11928 -1 x11929 -1 x11930 -1 x11931 -1 x11932 >= 0 ;
+2 x12189 +2 x12190 +2 x12191 +2 x12192 -1 x11929 -1 x11930 -1 x11931 -1 x11932 -1 x11933 -1 x11934 -1 x11935 -1 x11936 >= 0 ;
+2 x12193 +2 x12194 +2 x12195 +2 x12196 -1 x11933 -1 x11934 -1 x11935 -1 x11936 -1 x11937 -1 x11938 -1 x11939 -1 x11940 >= 0 ;
+2 x12197 +2 x12198 +2 x12199 +2 x12200 -1 x11937 -1 x11938 -1 x11939 -1 x11940 -1 x11941 -1 x11942 -1 x11943 -1 x11944 >= 0 ;
+2 x12201 +2 x12202 +2 x12203 +2 x12204 -1 x11941 -1 x11942 -1 x11943 -1 x11944 -1 x11945 -1 x11946 -1 x11947 -1 x11948 >= 0 ;
+2 x12205 +2 x12206 +2 x12207 +2 x12208 -1 x11945 -1 x11946 -1 x11947 -1 x11948 -1 x11949 -1 x11950 -1 x11951 -1 x11952 >= 0 ;
+2 x12209 +2 x12210 +2 x12211 +2 x12212 -1 x11949 -1 x11950 -1 x11951 -1 x11952 -1 x11953 -1 x11954 -1 x11955 -1 x11956 >= 0 ;
+2 x12213 +2 x12214 +2 x12215 +2 x12216 -1 x11953 -1 x11954 -1 x11955 -1 x11956 -1 x11957 -1 x11958 -1 x11959 -1 x11960 >= 0 ;
+2 x12217 +2 x12218 +2 x12219 +2 x12220 -1 x11957 -1 x11958 -1 x11959 -1 x11960 -1 x11961 -1 x11962 -1 x11963 -1 x11964 >= 0 ;
+2 x12221 +2 x12222 +2 x12223 +2 x12224 -1 x11961 -1 x11962 -1 x11963 -1 x11964 -1 x11965 -1 x11966 -1 x11967 -1 x11968 >= 0 ;
+2 x12225 +2 x12226 +2 x12227 +2 x12228 -1 x11965 -1 x11966 -1 x11967 -1 x11968 -1 x11969 -1 x11970 -1 x11971 -1 x11972 >= 0 ;
+2 x12229 +2 x12230 +2 x12231 +2 x12232 -1 x11969 -1 x11970 -1 x11971 -1 x11972 -1 x11973 -1 x11974 -1 x11975 -1 x11976 >= 0 ;
+2 x12233 +2 x12234 +2 x12235 +2 x12236 -1 x11973 -1 x11974 -1 x11975 -1 x11976 -1 x11977 -1 x11978 -1 x11979 -1 x11980 >= 0 ;
+2 x12237 +2 x12238 +2 x12239 +2 x12240 -1 x11977 -1 x11978 -1 x11979 -1 x11980 -1 x11981 -1 x11982 -1 x11983 -1 x11984 >= 0 ;
+2 x12241 +2 x12242 +2 x12243 +2 x12244 -1 x11981 -1 x11982 -1 x11983 -1 x11984 -1 x11985 -1 x11986 -1 x11987 -1 x11988 >= 0 ;
+2 x12245 +2 x12246 +2 x12247 +2 x12248 -1 x11985 -1 x11986 -1 x11987 -1 x11988 -1 x11989 -1 x11990 -1 x11991 -1 x11992 >= 0 ;
+2 x12249 +2 x12250 +2 x12251 +2 x12252 -1 x11989 -1 x11990 -1 x11991 -1 x11992 -1 x11993 -1 x11994 -1 x11995 -1 x11996 >= 0 ;
+2 x12253 +2 x12254 +2 x12255 +2 x12256 -1 x11993 -1 x11994 -1 x11995 -1 x11996 -1 x11997 -1 x11998 -1 x11999 -1 x12000 >= 0 ;
+2 x12257 +2 x12258 +2 x12259 +2 x12260 -1 x11997 -1 x11998 -1 x11999 -1 x12000 -1 x12001 -1 x12002 -1 x12003 -1 x12004 >= 0 ;
+2 x12261 +2 x12262 +2 x12263 +2 x12264 -1 x12001 -1 x12002 -1 x12003 -1 x12004 -1 x12005 -1 x12006 -1 x12007 -1 x12008 >= 0 ;
+2 x12265 +2 x12266 +2 x12267 +2 x12268 -1 x12005 -1 x12006 -1 x12007 -1 x12008 -1 x12009 -1 x12010 -1 x12011 -1 x12012 >= 0 ;
+2 x12269 +2 x12270 +2 x12271 +2 x12272 -1 x12009 -1 x12010 -1 x12011 -1 x12012 -1 x12013 -1 x12014 -1 x12015 -1 x12016 >= 0 ;
+2 x12273 +2 x12274 +2 x12275 +2 x12276 -1 x12013 -1 x12014 -1 x12015 -1 x12016 -1 x12017 -1 x12018 -1 x12019 -1 x12020 >= 0 ;
+2 x12277 +2 x12278 +2 x12279 +2 x12280 -1 x12017 -1 x12018 -1 x12019 -1 x12020 -1 x12021 -1 x12022 -1 x12023 -1 x12024 >= 0 ;
+2 x12281 +2 x12282 +2 x12283 +2 x12284 -1 x12021 -1 x12022 -1 x12023 -1 x12024 -1 x12025 -1 x12026 -1 x12027 -1 x12028 >= 0 ;
+2 x12285 +2 x12286 +2 x12287 +2 x12288 -1 x12025 -1 x12026 -1 x12027 -1 x12028 -1 x12029 -1 x12030 -1 x12031 -1 x12032 >= 0 ;
+2 x12289 +2 x12290 +2 x12291 +2 x12292 -1 x12033 -1 x12034 -1 x12035 -1 x12036 -1 x12285 -1 x12286 -1 x12287 -1 x12288 >= 0 ;
+2 x12293 +2 x12294 +2 x12295 +2 x12296 -1 x12033 -1 x12034 -1 x12035 -1 x12036 -1 x12037 -1 x12038 -1 x12039 -1 x12040 >= 0 ;
+2 x12297 +2 x12298 +2 x12299 +2 x12300 -1 x12037 -1 x12038 -1 x12039 -1 x12040 -1 x12041 -1 x12042 -1 x12043 -1 x12044 >= 0 ;
+2 x12301 +2 x12302 +2 x12303 +2 x12304 -1 x12041 -1 x12042 -1 x12043 -1 x12044 -1 x12045 -1 x12046 -1 x12047 -1 x12048 >= 0 ;
+2 x12305 +2 x12306 +2 x12307 +2 x12308 -1 x12045 -1 x12046 -1 x12047 -1 x12048 -1 x12049 -1 x12050 -1 x12051 -1 x12052 >= 0 ;
+2 x12309 +2 x12310 +2 x12311 +2 x12312 -1 x12049 -1 x12050 -1 x12051 -1 x12052 -1 x12053 -1 x12054 -1 x12055 -1 x12056 >= 0 ;
+2 x12313 +2 x12314 +2 x12315 +2 x12316 -1 x12053 -1 x12054 -1 x12055 -1 x12056 -1 x12057 -1 x12058 -1 x12059 -1 x12060 >= 0 ;
+2 x12317 +2 x12318 +2 x12319 +2 x12320 -1 x12057 -1 x12058 -1 x12059 -1 x12060 -1 x12061 -1 x12062 -1 x12063 -1 x12064 >= 0 ;
+2 x12321 +2 x12322 +2 x12323 +2 x12324 -1 x12061 -1 x12062 -1 x12063 -1 x12064 -1 x12065 -1 x12066 -1 x12067 -1 x12068 >= 0 ;
+2 x12325 +2 x12326 +2 x12327 +2 x12328 -1 x12065 -1 x12066 -1 x12067 -1 x12068 -1 x12069 -1 x12070 -1 x12071 -1 x12072 >= 0 ;
+2 x12329 +2 x12330 +2 x12331 +2 x12332 -1 x12069 -1 x12070 -1 x12071 -1 x12072 -1 x12073 -1 x12074 -1 x12075 -1 x12076 >= 0 ;
+2 x12333 +2 x12334 +2 x12335 +2 x12336 -1 x12073 -1 x12074 -1 x12075 -1 x12076 -1 x12077 -1 x12078 -1 x12079 -1 x12080 >= 0 ;
+2 x12337 +2 x12338 +2 x12339 +2 x12340 -1 x12077 -1 x12078 -1 x12079 -1 x12080 -1 x12081 -1 x12082 -1 x12083 -1 x12084 >= 0 ;
+2 x12341 +2 x12342 +2 x12343 +2 x12344 -1 x12081 -1 x12082 -1 x12083 -1 x12084 -1 x12085 -1 x12086 -1 x12087 -1 x12088 >= 0 ;
+2 x12345 +2 x12346 +2 x12347 +2 x12348 -1 x12085 -1 x12086 -1 x12087 -1 x12088 -1 x12089 -1 x12090 -1 x12091 -1 x12092 >= 0 ;
+2 x12349 +2 x12350 +2 x12351 +2 x12352 -1 x12089 -1 x12090 -1 x12091 -1 x12092 -1 x12093 -1 x12094 -1 x12095 -1 x12096 >= 0 ;
+2 x12353 +2 x12354 +2 x12355 +2 x12356 -1 x12093 -1 x12094 -1 x12095 -1 x12096 -1 x12097 -1 x12098 -1 x12099 -1 x12100 >= 0 ;
+2 x12357 +2 x12358 +2 x12359 +2 x12360 -1 x12097 -1 x12098 -1 x12099 -1 x12100 -1 x12101 -1 x12102 -1 x12103 -1 x12104 >= 0 ;
+2 x12361 +2 x12362 +2 x12363 +2 x12364 -1 x12101 -1 x12102 -1 x12103 -1 x12104 -1 x12105 -1 x12106 -1 x12107 -1 x12108 >= 0 ;
+2 x12365 +2 x12366 +2 x12367 +2 x12368 -1 x12105 -1 x12106 -1 x12107 -1 x12108 -1 x12109 -1 x12110 -1 x12111 -1 x12112 >= 0 ;
+2 x12369 +2 x12370 +2 x12371 +2 x12372 -1 x12109 -1 x12110 -1 x12111 -1 x12112 -1 x12113 -1 x12114 -1 x12115 -1 x12116 >= 0 ;
+2 x12373 +2 x12374 +2 x12375 +2 x12376 -1 x12113 -1 x12114 -1 x12115 -1 x12116 -1 x12117 -1 x12118 -1 x12119 -1 x12120 >= 0 ;
+2 x12377 +2 x12378 +2 x12379 +2 x12380 -1 x12117 -1 x12118 -1 x12119 -1 x12120 -1 x12121 -1 x12122 -1 x12123 -1 x12124 >= 0 ;
+2 x12381 +2 x12382 +2 x12383 +2 x12384 -1 x12121 -1 x12122 -1 x12123 -1 x12124 -1 x12125 -1 x12126 -1 x12127 -1 x12128 >= 0 ;
+2 x12385 +2 x12386 +2 x12387 +2 x12388 -1 x12125 -1 x12126 -1 x12127 -1 x12128 -1 x12129 -1 x12130 -1 x12131 -1 x12132 >= 0 ;
+2 x12389 +2 x12390 +2 x12391 +2 x12392 -1 x12129 -1 x12130 -1 x12131 -1 x12132 -1 x12133 -1 x12134 -1 x12135 -1 x12136 >= 0 ;
+2 x12393 +2 x12394 +2 x12395 +2 x12396 -1 x12133 -1 x12134 -1 x12135 -1 x12136 -1 x12137 -1 x12138 -1 x12139 -1 x12140 >= 0 ;
+2 x12397 +2 x12398 +2 x12399 +2 x12400 -1 x12137 -1 x12138 -1 x12139 -1 x12140 -1 x12141 -1 x12142 -1 x12143 -1 x12144 >= 0 ;
+2 x12401 +2 x12402 +2 x12403 +2 x12404 -1 x12141 -1 x12142 -1 x12143 -1 x12144 -1 x12145 -1 x12146 -1 x12147 -1 x12148 >= 0 ;
+2 x12405 +2 x12406 +2 x12407 +2 x12408 -1 x12145 -1 x12146 -1 x12147 -1 x12148 -1 x12149 -1 x12150 -1 x12151 -1 x12152 >= 0 ;
+2 x12409 +2 x12410 +2 x12411 +2 x12412 -1 x12149 -1 x12150 -1 x12151 -1 x12152 -1 x12153 -1 x12154 -1 x12155 -1 x12156 >= 0 ;
+2 x12413 +2 x12414 +2 x12415 +2 x12416 -1 x12153 -1 x12154 -1 x12155 -1 x12156 -1 x12157 -1 x12158 -1 x12159 -1 x12160 >= 0 ;
+2 x12417 +2 x12418 +2 x12419 +2 x12420 -1 x12157 -1 x12158 -1 x12159 -1 x12160 -1 x12161 -1 x12162 -1 x12163 -1 x12164 >= 0 ;
+2 x12421 +2 x12422 +2 x12423 +2 x12424 -1 x12161 -1 x12162 -1 x12163 -1 x12164 -1 x12165 -1 x12166 -1 x12167 -1 x12168 >= 0 ;
+2 x12425 +2 x12426 +2 x12427 +2 x12428 -1 x12165 -1 x12166 -1 x12167 -1 x12168 -1 x12169 -1 x12170 -1 x12171 -1 x12172 >= 0 ;
+2 x12429 +2 x12430 +2 x12431 +2 x12432 -1 x12169 -1 x12170 -1 x12171 -1 x12172 -1 x12173 -1 x12174 -1 x12175 -1 x12176 >= 0 ;
+2 x12433 +2 x12434 +2 x12435 +2 x12436 -1 x12173 -1 x12174 -1 x12175 -1 x12176 -1 x12177 -1 x12178 -1 x12179 -1 x12180 >= 0 ;
+2 x12437 +2 x12438 +2 x12439 +2 x12440 -1 x12177 -1 x12178 -1 x12179 -1 x12180 -1 x12181 -1 x12182 -1 x12183 -1 x12184 >= 0 ;
+2 x12441 +2 x12442 +2 x12443 +2 x12444 -1 x12181 -1 x12182 -1 x12183 -1 x12184 -1 x12185 -1 x12186 -1 x12187 -1 x12188 >= 0 ;
+2 x12445 +2 x12446 +2 x12447 +2 x12448 -1 x12185 -1 x12186 -1 x12187 -1 x12188 -1 x12189 -1 x12190 -1 x12191 -1 x12192 >= 0 ;
+2 x12449 +2 x12450 +2 x12451 +2 x12452 -1 x12189 -1 x12190 -1 x12191 -1 x12192 -1 x12193 -1 x12194 -1 x12195 -1 x12196 >= 0 ;
+2 x12453 +2 x12454 +2 x12455 +2 x12456 -1 x12193 -1 x12194 -1 x12195 -1 x12196 -1 x12197 -1 x12198 -1 x12199 -1 x12200 >= 0 ;
+2 x12457 +2 x12458 +2 x12459 +2 x12460 -1 x12197 -1 x12198 -1 x12199 -1 x12200 -1 x12201 -1 x12202 -1 x12203 -1 x12204 >= 0 ;
+2 x12461 +2 x12462 +2 x12463 +2 x12464 -1 x12201 -1 x12202 -1 x12203 -1 x12204 -1 x12205 -1 x12206 -1 x12207 -1 x12208 >= 0 ;
+2 x12465 +2 x12466 +2 x12467 +2 x12468 -1 x12205 -1 x12206 -1 x12207 -1 x12208 -1 x12209 -1 x12210 -1 x12211 -1 x12212 >= 0 ;
+2 x12469 +2 x12470 +2 x12471 +2 x12472 -1 x12209 -1 x12210 -1 x12211 -1 x12212 -1 x12213 -1 x12214 -1 x12215 -1 x12216 >= 0 ;
+2 x12473 +2 x12474 +2 x12475 +2 x12476 -1 x12213 -1 x12214 -1 x12215 -1 x12216 -1 x12217 -1 x12218 -1 x12219 -1 x12220 >= 0 ;
+2 x12477 +2 x12478 +2 x12479 +2 x12480 -1 x12217 -1 x12218 -1 x12219 -1 x12220 -1 x12221 -1 x12222 -1 x12223 -1 x12224 >= 0 ;
+2 x12481 +2 x12482 +2 x12483 +2 x12484 -1 x12221 -1 x12222 -1 x12223 -1 x12224 -1 x12225 -1 x12226 -1 x12227 -1 x12228 >= 0 ;
+2 x12485 +2 x12486 +2 x12487 +2 x12488 -1 x12225 -1 x12226 -1 x12227 -1 x12228 -1 x12229 -1 x12230 -1 x12231 -1 x12232 >= 0 ;
+2 x12489 +2 x12490 +2 x12491 +2 x12492 -1 x12229 -1 x12230 -1 x12231 -1 x12232 -1 x12233 -1 x12234 -1 x12235 -1 x12236 >= 0 ;
+2 x12493 +2 x12494 +2 x12495 +2 x12496 -1 x12233 -1 x12234 -1 x12235 -1 x12236 -1 x12237 -1 x12238 -1 x12239 -1 x12240 >= 0 ;
+2 x12497 +2 x12498 +2 x12499 +2 x12500 -1 x12237 -1 x12238 -1 x12239 -1 x12240 -1 x12241 -1 x12242 -1 x12243 -1 x12244 >= 0 ;
+2 x12501 +2 x12502 +2 x12503 +2 x12504 -1 x12241 -1 x12242 -1 x12243 -1 x12244 -1 x12245 -1 x12246 -1 x12247 -1 x12248 >= 0 ;
+2 x12505 +2 x12506 +2 x12507 +2 x12508 -1 x12245 -1 x12246 -1 x12247 -1 x12248 -1 x12249 -1 x12250 -1 x12251 -1 x12252 >= 0 ;
+2 x12509 +2 x12510 +2 x12511 +2 x12512 -1 x12249 -1 x12250 -1 x12251 -1 x12252 -1 x12253 -1 x12254 -1 x12255 -1 x12256 >= 0 ;
+2 x12513 +2 x12514 +2 x12515 +2 x12516 -1 x12253 -1 x12254 -1 x12255 -1 x12256 -1 x12257 -1 x12258 -1 x12259 -1 x12260 >= 0 ;
+2 x12517 +2 x12518 +2 x12519 +2 x12520 -1 x12257 -1 x12258 -1 x12259 -1 x12260 -1 x12261 -1 x12262 -1 x12263 -1 x12264 >= 0 ;
+2 x12521 +2 x12522 +2 x12523 +2 x12524 -1 x12261 -1 x12262 -1 x12263 -1 x12264 -1 x12265 -1 x12266 -1 x12267 -1 x12268 >= 0 ;
+2 x12525 +2 x12526 +2 x12527 +2 x12528 -1 x12265 -1 x12266 -1 x12267 -1 x12268 -1 x12269 -1 x12270 -1 x12271 -1 x12272 >= 0 ;
+2 x12529 +2 x12530 +2 x12531 +2 x12532 -1 x12269 -1 x12270 -1 x12271 -1 x12272 -1 x12273 -1 x12274 -1 x12275 -1 x12276 >= 0 ;
+2 x12533 +2 x12534 +2 x12535 +2 x12536 -1 x12273 -1 x12274 -1 x12275 -1 x12276 -1 x12277 -1 x12278 -1 x12279 -1 x12280 >= 0 ;
+2 x12537 +2 x12538 +2 x12539 +2 x12540 -1 x12277 -1 x12278 -1 x12279 -1 x12280 -1 x12281 -1 x12282 -1 x12283 -1 x12284 >= 0 ;
+2 x12541 +2 x12542 +2 x12543 +2 x12544 -1 x12281 -1 x12282 -1 x12283 -1 x12284 -1 x12285 -1 x12286 -1 x12287 -1 x12288 >= 0 ;
+2 x12545 +2 x12546 +2 x12547 +2 x12548 -1 x12289 -1 x12290 -1 x12291 -1 x12292 -1 x12541 -1 x12542 -1 x12543 -1 x12544 >= 0 ;
+2 x12549 +2 x12550 +2 x12551 +2 x12552 -1 x12289 -1 x12290 -1 x12291 -1 x12292 -1 x12293 -1 x12294 -1 x12295 -1 x12296 >= 0 ;
+2 x12553 +2 x12554 +2 x12555 +2 x12556 -1 x12293 -1 x12294 -1 x12295 -1 x12296 -1 x12297 -1 x12298 -1 x12299 -1 x12300 >= 0 ;
+2 x12557 +2 x12558 +2 x12559 +2 x12560 -1 x12297 -1 x12298 -1 x12299 -1 x12300 -1 x12301 -1 x12302 -1 x12303 -1 x12304 >= 0 ;
+2 x12561 +2 x12562 +2 x12563 +2 x12564 -1 x12301 -1 x12302 -1 x12303 -1 x12304 -1 x12305 -1 x12306 -1 x12307 -1 x12308 >= 0 ;
+2 x12565 +2 x12566 +2 x12567 +2 x12568 -1 x12305 -1 x12306 -1 x12307 -1 x12308 -1 x12309 -1 x12310 -1 x12311 -1 x12312 >= 0 ;
+2 x12569 +2 x12570 +2 x12571 +2 x12572 -1 x12309 -1 x12310 -1 x12311 -1 x12312 -1 x12313 -1 x12314 -1 x12315 -1 x12316 >= 0 ;
+2 x12573 +2 x12574 +2 x12575 +2 x12576 -1 x12313 -1 x12314 -1 x12315 -1 x12316 -1 x12317 -1 x12318 -1 x12319 -1 x12320 >= 0 ;
+2 x12577 +2 x12578 +2 x12579 +2 x12580 -1 x12317 -1 x12318 -1 x12319 -1 x12320 -1 x12321 -1 x12322 -1 x12323 -1 x12324 >= 0 ;
+2 x12581 +2 x12582 +2 x12583 +2 x12584 -1 x12321 -1 x12322 -1 x12323 -1 x12324 -1 x12325 -1 x12326 -1 x12327 -1 x12328 >= 0 ;
+2 x12585 +2 x12586 +2 x12587 +2 x12588 -1 x12325 -1 x12326 -1 x12327 -1 x12328 -1 x12329 -1 x12330 -1 x12331 -1 x12332 >= 0 ;
+2 x12589 +2 x12590 +2 x12591 +2 x12592 -1 x12329 -1 x12330 -1 x12331 -1 x12332 -1 x12333 -1 x12334 -1 x12335 -1 x12336 >= 0 ;
+2 x12593 +2 x12594 +2 x12595 +2 x12596 -1 x12333 -1 x12334 -1 x12335 -1 x12336 -1 x12337 -1 x12338 -1 x12339 -1 x12340 >= 0 ;
+2 x12597 +2 x12598 +2 x12599 +2 x12600 -1 x12337 -1 x12338 -1 x12339 -1 x12340 -1 x12341 -1 x12342 -1 x12343 -1 x12344 >= 0 ;
+2 x12601 +2 x12602 +2 x12603 +2 x12604 -1 x12341 -1 x12342 -1 x12343 -1 x12344 -1 x12345 -1 x12346 -1 x12347 -1 x12348 >= 0 ;
+2 x12605 +2 x12606 +2 x12607 +2 x12608 -1 x12345 -1 x12346 -1 x12347 -1 x12348 -1 x12349 -1 x12350 -1 x12351 -1 x12352 >= 0 ;
+2 x12609 +2 x12610 +2 x12611 +2 x12612 -1 x12349 -1 x12350 -1 x12351 -1 x12352 -1 x12353 -1 x12354 -1 x12355 -1 x12356 >= 0 ;
+2 x12613 +2 x12614 +2 x12615 +2 x12616 -1 x12353 -1 x12354 -1 x12355 -1 x12356 -1 x12357 -1 x12358 -1 x12359 -1 x12360 >= 0 ;
+2 x12617 +2 x12618 +2 x12619 +2 x12620 -1 x12357 -1 x12358 -1 x12359 -1 x12360 -1 x12361 -1 x12362 -1 x12363 -1 x12364 >= 0 ;
+2 x12621 +2 x12622 +2 x12623 +2 x12624 -1 x12361 -1 x12362 -1 x12363 -1 x12364 -1 x12365 -1 x12366 -1 x12367 -1 x12368 >= 0 ;
+2 x12625 +2 x12626 +2 x12627 +2 x12628 -1 x12365 -1 x12366 -1 x12367 -1 x12368 -1 x12369 -1 x12370 -1 x12371 -1 x12372 >= 0 ;
+2 x12629 +2 x12630 +2 x12631 +2 x12632 -1 x12369 -1 x12370 -1 x12371 -1 x12372 -1 x12373 -1 x12374 -1 x12375 -1 x12376 >= 0 ;
+2 x12633 +2 x12634 +2 x12635 +2 x12636 -1 x12373 -1 x12374 -1 x12375 -1 x12376 -1 x12377 -1 x12378 -1 x12379 -1 x12380 >= 0 ;
+2 x12637 +2 x12638 +2 x12639 +2 x12640 -1 x12377 -1 x12378 -1 x12379 -1 x12380 -1 x12381 -1 x12382 -1 x12383 -1 x12384 >= 0 ;
+2 x12641 +2 x12642 +2 x12643 +2 x12644 -1 x12381 -1 x12382 -1 x12383 -1 x12384 -1 x12385 -1 x12386 -1 x12387 -1 x12388 >= 0 ;
+2 x12645 +2 x12646 +2 x12647 +2 x12648 -1 x12385 -1 x12386 -1 x12387 -1 x12388 -1 x12389 -1 x12390 -1 x12391 -1 x12392 >= 0 ;
+2 x12649 +2 x12650 +2 x12651 +2 x12652 -1 x12389 -1 x12390 -1 x12391 -1 x12392 -1 x12393 -1 x12394 -1 x12395 -1 x12396 >= 0 ;
+2 x12653 +2 x12654 +2 x12655 +2 x12656 -1 x12393 -1 x12394 -1 x12395 -1 x12396 -1 x12397 -1 x12398 -1 x12399 -1 x12400 >= 0 ;
+2 x12657 +2 x12658 +2 x12659 +2 x12660 -1 x12397 -1 x12398 -1 x12399 -1 x12400 -1 x12401 -1 x12402 -1 x12403 -1 x12404 >= 0 ;
+2 x12661 +2 x12662 +2 x12663 +2 x12664 -1 x12401 -1 x12402 -1 x12403 -1 x12404 -1 x12405 -1 x12406 -1 x12407 -1 x12408 >= 0 ;
+2 x12665 +2 x12666 +2 x12667 +2 x12668 -1 x12405 -1 x12406 -1 x12407 -1 x12408 -1 x12409 -1 x12410 -1 x12411 -1 x12412 >= 0 ;
+2 x12669 +2 x12670 +2 x12671 +2 x12672 -1 x12409 -1 x12410 -1 x12411 -1 x12412 -1 x12413 -1 x12414 -1 x12415 -1 x12416 >= 0 ;
+2 x12673 +2 x12674 +2 x12675 +2 x12676 -1 x12413 -1 x12414 -1 x12415 -1 x12416 -1 x12417 -1 x12418 -1 x12419 -1 x12420 >= 0 ;
+2 x12677 +2 x12678 +2 x12679 +2 x12680 -1 x12417 -1 x12418 -1 x12419 -1 x12420 -1 x12421 -1 x12422 -1 x12423 -1 x12424 >= 0 ;
+2 x12681 +2 x12682 +2 x12683 +2 x12684 -1 x12421 -1 x12422 -1 x12423 -1 x12424 -1 x12425 -1 x12426 -1 x12427 -1 x12428 >= 0 ;
+2 x12685 +2 x12686 +2 x12687 +2 x12688 -1 x12425 -1 x12426 -1 x12427 -1 x12428 -1 x12429 -1 x12430 -1 x12431 -1 x12432 >= 0 ;
+2 x12689 +2 x12690 +2 x12691 +2 x12692 -1 x12429 -1 x12430 -1 x12431 -1 x12432 -1 x12433 -1 x12434 -1 x12435 -1 x12436 >= 0 ;
+2 x12693 +2 x12694 +2 x12695 +2 x12696 -1 x12433 -1 x12434 -1 x12435 -1 x12436 -1 x12437 -1 x12438 -1 x12439 -1 x12440 >= 0 ;
+2 x12697 +2 x12698 +2 x12699 +2 x12700 -1 x12437 -1 x12438 -1 x12439 -1 x12440 -1 x12441 -1 x12442 -1 x12443 -1 x12444 >= 0 ;
+2 x12701 +2 x12702 +2 x12703 +2 x12704 -1 x12441 -1 x12442 -1 x12443 -1 x12444 -1 x12445 -1 x12446 -1 x12447 -1 x12448 >= 0 ;
+2 x12705 +2 x12706 +2 x12707 +2 x12708 -1 x12445 -1 x12446 -1 x12447 -1 x12448 -1 x12449 -1 x12450 -1 x12451 -1 x12452 >= 0 ;
+2 x12709 +2 x12710 +2 x12711 +2 x12712 -1 x12449 -1 x12450 -1 x12451 -1 x12452 -1 x12453 -1 x12454 -1 x12455 -1 x12456 >= 0 ;
+2 x12713 +2 x12714 +2 x12715 +2 x12716 -1 x12453 -1 x12454 -1 x12455 -1 x12456 -1 x12457 -1 x12458 -1 x12459 -1 x12460 >= 0 ;
+2 x12717 +2 x12718 +2 x12719 +2 x12720 -1 x12457 -1 x12458 -1 x12459 -1 x12460 -1 x12461 -1 x12462 -1 x12463 -1 x12464 >= 0 ;
+2 x12721 +2 x12722 +2 x12723 +2 x12724 -1 x12461 -1 x12462 -1 x12463 -1 x12464 -1 x12465 -1 x12466 -1 x12467 -1 x12468 >= 0 ;
+2 x12725 +2 x12726 +2 x12727 +2 x12728 -1 x12465 -1 x12466 -1 x12467 -1 x12468 -1 x12469 -1 x12470 -1 x12471 -1 x12472 >= 0 ;
+2 x12729 +2 x12730 +2 x12731 +2 x12732 -1 x12469 -1 x12470 -1 x12471 -1 x12472 -1 x12473 -1 x12474 -1 x12475 -1 x12476 >= 0 ;
+2 x12733 +2 x12734 +2 x12735 +2 x12736 -1 x12473 -1 x12474 -1 x12475 -1 x12476 -1 x12477 -1 x12478 -1 x12479 -1 x12480 >= 0 ;
+2 x12737 +2 x12738 +2 x12739 +2 x12740 -1 x12477 -1 x12478 -1 x12479 -1 x12480 -1 x12481 -1 x12482 -1 x12483 -1 x12484 >= 0 ;
+2 x12741 +2 x12742 +2 x12743 +2 x12744 -1 x12481 -1 x12482 -1 x12483 -1 x12484 -1 x12485 -1 x12486 -1 x12487 -1 x12488 >= 0 ;
+2 x12745 +2 x12746 +2 x12747 +2 x12748 -1 x12485 -1 x12486 -1 x12487 -1 x12488 -1 x12489 -1 x12490 -1 x12491 -1 x12492 >= 0 ;
+2 x12749 +2 x12750 +2 x12751 +2 x12752 -1 x12489 -1 x12490 -1 x12491 -1 x12492 -1 x12493 -1 x12494 -1 x12495 -1 x12496 >= 0 ;
+2 x12753 +2 x12754 +2 x12755 +2 x12756 -1 x12493 -1 x12494 -1 x12495 -1 x12496 -1 x12497 -1 x12498 -1 x12499 -1 x12500 >= 0 ;
+2 x12757 +2 x12758 +2 x12759 +2 x12760 -1 x12497 -1 x12498 -1 x12499 -1 x12500 -1 x12501 -1 x12502 -1 x12503 -1 x12504 >= 0 ;
+2 x12761 +2 x12762 +2 x12763 +2 x12764 -1 x12501 -1 x12502 -1 x12503 -1 x12504 -1 x12505 -1 x12506 -1 x12507 -1 x12508 >= 0 ;
+2 x12765 +2 x12766 +2 x12767 +2 x12768 -1 x12505 -1 x12506 -1 x12507 -1 x12508 -1 x12509 -1 x12510 -1 x12511 -1 x12512 >= 0 ;
+2 x12769 +2 x12770 +2 x12771 +2 x12772 -1 x12509 -1 x12510 -1 x12511 -1 x12512 -1 x12513 -1 x12514 -1 x12515 -1 x12516 >= 0 ;
+2 x12773 +2 x12774 +2 x12775 +2 x12776 -1 x12513 -1 x12514 -1 x12515 -1 x12516 -1 x12517 -1 x12518 -1 x12519 -1 x12520 >= 0 ;
+2 x12777 +2 x12778 +2 x12779 +2 x12780 -1 x12517 -1 x12518 -1 x12519 -1 x12520 -1 x12521 -1 x12522 -1 x12523 -1 x12524 >= 0 ;
+2 x12781 +2 x12782 +2 x12783 +2 x12784 -1 x12521 -1 x12522 -1 x12523 -1 x12524 -1 x12525 -1 x12526 -1 x12527 -1 x12528 >= 0 ;
+2 x12785 +2 x12786 +2 x12787 +2 x12788 -1 x12525 -1 x12526 -1 x12527 -1 x12528 -1 x12529 -1 x12530 -1 x12531 -1 x12532 >= 0 ;
+2 x12789 +2 x12790 +2 x12791 +2 x12792 -1 x12529 -1 x12530 -1 x12531 -1 x12532 -1 x12533 -1 x12534 -1 x12535 -1 x12536 >= 0 ;
+2 x12793 +2 x12794 +2 x12795 +2 x12796 -1 x12533 -1 x12534 -1 x12535 -1 x12536 -1 x12537 -1 x12538 -1 x12539 -1 x12540 >= 0 ;
+2 x12797 +2 x12798 +2 x12799 +2 x12800 -1 x12537 -1 x12538 -1 x12539 -1 x12540 -1 x12541 -1 x12542 -1 x12543 -1 x12544 >= 0 ;
+2 x12801 +2 x12802 +2 x12803 +2 x12804 -1 x12545 -1 x12546 -1 x12547 -1 x12548 -1 x12797 -1 x12798 -1 x12799 -1 x12800 >= 0 ;
+2 x12805 +2 x12806 +2 x12807 +2 x12808 -1 x12545 -1 x12546 -1 x12547 -1 x12548 -1 x12549 -1 x12550 -1 x12551 -1 x12552 >= 0 ;
+2 x12809 +2 x12810 +2 x12811 +2 x12812 -1 x12549 -1 x12550 -1 x12551 -1 x12552 -1 x12553 -1 x12554 -1 x12555 -1 x12556 >= 0 ;
+2 x12813 +2 x12814 +2 x12815 +2 x12816 -1 x12553 -1 x12554 -1 x12555 -1 x12556 -1 x12557 -1 x12558 -1 x12559 -1 x12560 >= 0 ;
+2 x12817 +2 x12818 +2 x12819 +2 x12820 -1 x12557 -1 x12558 -1 x12559 -1 x12560 -1 x12561 -1 x12562 -1 x12563 -1 x12564 >= 0 ;
+2 x12821 +2 x12822 +2 x12823 +2 x12824 -1 x12561 -1 x12562 -1 x12563 -1 x12564 -1 x12565 -1 x12566 -1 x12567 -1 x12568 >= 0 ;
+2 x12825 +2 x12826 +2 x12827 +2 x12828 -1 x12565 -1 x12566 -1 x12567 -1 x12568 -1 x12569 -1 x12570 -1 x12571 -1 x12572 >= 0 ;
+2 x12829 +2 x12830 +2 x12831 +2 x12832 -1 x12569 -1 x12570 -1 x12571 -1 x12572 -1 x12573 -1 x12574 -1 x12575 -1 x12576 >= 0 ;
+2 x12833 +2 x12834 +2 x12835 +2 x12836 -1 x12573 -1 x12574 -1 x12575 -1 x12576 -1 x12577 -1 x12578 -1 x12579 -1 x12580 >= 0 ;
+2 x12837 +2 x12838 +2 x12839 +2 x12840 -1 x12577 -1 x12578 -1 x12579 -1 x12580 -1 x12581 -1 x12582 -1 x12583 -1 x12584 >= 0 ;
+2 x12841 +2 x12842 +2 x12843 +2 x12844 -1 x12581 -1 x12582 -1 x12583 -1 x12584 -1 x12585 -1 x12586 -1 x12587 -1 x12588 >= 0 ;
+2 x12845 +2 x12846 +2 x12847 +2 x12848 -1 x12585 -1 x12586 -1 x12587 -1 x12588 -1 x12589 -1 x12590 -1 x12591 -1 x12592 >= 0 ;
+2 x12849 +2 x12850 +2 x12851 +2 x12852 -1 x12589 -1 x12590 -1 x12591 -1 x12592 -1 x12593 -1 x12594 -1 x12595 -1 x12596 >= 0 ;
+2 x12853 +2 x12854 +2 x12855 +2 x12856 -1 x12593 -1 x12594 -1 x12595 -1 x12596 -1 x12597 -1 x12598 -1 x12599 -1 x12600 >= 0 ;
+2 x12857 +2 x12858 +2 x12859 +2 x12860 -1 x12597 -1 x12598 -1 x12599 -1 x12600 -1 x12601 -1 x12602 -1 x12603 -1 x12604 >= 0 ;
+2 x12861 +2 x12862 +2 x12863 +2 x12864 -1 x12601 -1 x12602 -1 x12603 -1 x12604 -1 x12605 -1 x12606 -1 x12607 -1 x12608 >= 0 ;
+2 x12865 +2 x12866 +2 x12867 +2 x12868 -1 x12605 -1 x12606 -1 x12607 -1 x12608 -1 x12609 -1 x12610 -1 x12611 -1 x12612 >= 0 ;
+2 x12869 +2 x12870 +2 x12871 +2 x12872 -1 x12609 -1 x12610 -1 x12611 -1 x12612 -1 x12613 -1 x12614 -1 x12615 -1 x12616 >= 0 ;
+2 x12873 +2 x12874 +2 x12875 +2 x12876 -1 x12613 -1 x12614 -1 x12615 -1 x12616 -1 x12617 -1 x12618 -1 x12619 -1 x12620 >= 0 ;
+2 x12877 +2 x12878 +2 x12879 +2 x12880 -1 x12617 -1 x12618 -1 x12619 -1 x12620 -1 x12621 -1 x12622 -1 x12623 -1 x12624 >= 0 ;
+2 x12881 +2 x12882 +2 x12883 +2 x12884 -1 x12621 -1 x12622 -1 x12623 -1 x12624 -1 x12625 -1 x12626 -1 x12627 -1 x12628 >= 0 ;
+2 x12885 +2 x12886 +2 x12887 +2 x12888 -1 x12625 -1 x12626 -1 x12627 -1 x12628 -1 x12629 -1 x12630 -1 x12631 -1 x12632 >= 0 ;
+2 x12889 +2 x12890 +2 x12891 +2 x12892 -1 x12629 -1 x12630 -1 x12631 -1 x12632 -1 x12633 -1 x12634 -1 x12635 -1 x12636 >= 0 ;
+2 x12893 +2 x12894 +2 x12895 +2 x12896 -1 x12633 -1 x12634 -1 x12635 -1 x12636 -1 x12637 -1 x12638 -1 x12639 -1 x12640 >= 0 ;
+2 x12897 +2 x12898 +2 x12899 +2 x12900 -1 x12637 -1 x12638 -1 x12639 -1 x12640 -1 x12641 -1 x12642 -1 x12643 -1 x12644 >= 0 ;
+2 x12901 +2 x12902 +2 x12903 +2 x12904 -1 x12641 -1 x12642 -1 x12643 -1 x12644 -1 x12645 -1 x12646 -1 x12647 -1 x12648 >= 0 ;
+2 x12905 +2 x12906 +2 x12907 +2 x12908 -1 x12645 -1 x12646 -1 x12647 -1 x12648 -1 x12649 -1 x12650 -1 x12651 -1 x12652 >= 0 ;
+2 x12909 +2 x12910 +2 x12911 +2 x12912 -1 x12649 -1 x12650 -1 x12651 -1 x12652 -1 x12653 -1 x12654 -1 x12655 -1 x12656 >= 0 ;
+2 x12913 +2 x12914 +2 x12915 +2 x12916 -1 x12653 -1 x12654 -1 x12655 -1 x12656 -1 x12657 -1 x12658 -1 x12659 -1 x12660 >= 0 ;
+2 x12917 +2 x12918 +2 x12919 +2 x12920 -1 x12657 -1 x12658 -1 x12659 -1 x12660 -1 x12661 -1 x12662 -1 x12663 -1 x12664 >= 0 ;
+2 x12921 +2 x12922 +2 x12923 +2 x12924 -1 x12661 -1 x12662 -1 x12663 -1 x12664 -1 x12665 -1 x12666 -1 x12667 -1 x12668 >= 0 ;
+2 x12925 +2 x12926 +2 x12927 +2 x12928 -1 x12665 -1 x12666 -1 x12667 -1 x12668 -1 x12669 -1 x12670 -1 x12671 -1 x12672 >= 0 ;
+2 x12929 +2 x12930 +2 x12931 +2 x12932 -1 x12669 -1 x12670 -1 x12671 -1 x12672 -1 x12673 -1 x12674 -1 x12675 -1 x12676 >= 0 ;
+2 x12933 +2 x12934 +2 x12935 +2 x12936 -1 x12673 -1 x12674 -1 x12675 -1 x12676 -1 x12677 -1 x12678 -1 x12679 -1 x12680 >= 0 ;
+2 x12937 +2 x12938 +2 x12939 +2 x12940 -1 x12677 -1 x12678 -1 x12679 -1 x12680 -1 x12681 -1 x12682 -1 x12683 -1 x12684 >= 0 ;
+2 x12941 +2 x12942 +2 x12943 +2 x12944 -1 x12681 -1 x12682 -1 x12683 -1 x12684 -1 x12685 -1 x12686 -1 x12687 -1 x12688 >= 0 ;
+2 x12945 +2 x12946 +2 x12947 +2 x12948 -1 x12685 -1 x12686 -1 x12687 -1 x12688 -1 x12689 -1 x12690 -1 x12691 -1 x12692 >= 0 ;
+2 x12949 +2 x12950 +2 x12951 +2 x12952 -1 x12689 -1 x12690 -1 x12691 -1 x12692 -1 x12693 -1 x12694 -1 x12695 -1 x12696 >= 0 ;
+2 x12953 +2 x12954 +2 x12955 +2 x12956 -1 x12693 -1 x12694 -1 x12695 -1 x12696 -1 x12697 -1 x12698 -1 x12699 -1 x12700 >= 0 ;
+2 x12957 +2 x12958 +2 x12959 +2 x12960 -1 x12697 -1 x12698 -1 x12699 -1 x12700 -1 x12701 -1 x12702 -1 x12703 -1 x12704 >= 0 ;
+2 x12961 +2 x12962 +2 x12963 +2 x12964 -1 x12701 -1 x12702 -1 x12703 -1 x12704 -1 x12705 -1 x12706 -1 x12707 -1 x12708 >= 0 ;
+2 x12965 +2 x12966 +2 x12967 +2 x12968 -1 x12705 -1 x12706 -1 x12707 -1 x12708 -1 x12709 -1 x12710 -1 x12711 -1 x12712 >= 0 ;
+2 x12969 +2 x12970 +2 x12971 +2 x12972 -1 x12709 -1 x12710 -1 x12711 -1 x12712 -1 x12713 -1 x12714 -1 x12715 -1 x12716 >= 0 ;
+2 x12973 +2 x12974 +2 x12975 +2 x12976 -1 x12713 -1 x12714 -1 x12715 -1 x12716 -1 x12717 -1 x12718 -1 x12719 -1 x12720 >= 0 ;
+2 x12977 +2 x12978 +2 x12979 +2 x12980 -1 x12717 -1 x12718 -1 x12719 -1 x12720 -1 x12721 -1 x12722 -1 x12723 -1 x12724 >= 0 ;
+2 x12981 +2 x12982 +2 x12983 +2 x12984 -1 x12721 -1 x12722 -1 x12723 -1 x12724 -1 x12725 -1 x12726 -1 x12727 -1 x12728 >= 0 ;
+2 x12985 +2 x12986 +2 x12987 +2 x12988 -1 x12725 -1 x12726 -1 x12727 -1 x12728 -1 x12729 -1 x12730 -1 x12731 -1 x12732 >= 0 ;
+2 x12989 +2 x12990 +2 x12991 +2 x12992 -1 x12729 -1 x12730 -1 x12731 -1 x12732 -1 x12733 -1 x12734 -1 x12735 -1 x12736 >= 0 ;
+2 x12993 +2 x12994 +2 x12995 +2 x12996 -1 x12733 -1 x12734 -1 x12735 -1 x12736 -1 x12737 -1 x12738 -1 x12739 -1 x12740 >= 0 ;
+2 x12997 +2 x12998 +2 x12999 +2 x13000 -1 x12737 -1 x12738 -1 x12739 -1 x12740 -1 x12741 -1 x12742 -1 x12743 -1 x12744 >= 0 ;
+2 x13001 +2 x13002 +2 x13003 +2 x13004 -1 x12741 -1 x12742 -1 x12743 -1 x12744 -1 x12745 -1 x12746 -1 x12747 -1 x12748 >= 0 ;
+2 x13005 +2 x13006 +2 x13007 +2 x13008 -1 x12745 -1 x12746 -1 x12747 -1 x12748 -1 x12749 -1 x12750 -1 x12751 -1 x12752 >= 0 ;
+2 x13009 +2 x13010 +2 x13011 +2 x13012 -1 x12749 -1 x12750 -1 x12751 -1 x12752 -1 x12753 -1 x12754 -1 x12755 -1 x12756 >= 0 ;
+2 x13013 +2 x13014 +2 x13015 +2 x13016 -1 x12753 -1 x12754 -1 x12755 -1 x12756 -1 x12757 -1 x12758 -1 x12759 -1 x12760 >= 0 ;
+2 x13017 +2 x13018 +2 x13019 +2 x13020 -1 x12757 -1 x12758 -1 x12759 -1 x12760 -1 x12761 -1 x12762 -1 x12763 -1 x12764 >= 0 ;
+2 x13021 +2 x13022 +2 x13023 +2 x13024 -1 x12761 -1 x12762 -1 x12763 -1 x12764 -1 x12765 -1 x12766 -1 x12767 -1 x12768 >= 0 ;
+2 x13025 +2 x13026 +2 x13027 +2 x13028 -1 x12765 -1 x12766 -1 x12767 -1 x12768 -1 x12769 -1 x12770 -1 x12771 -1 x12772 >= 0 ;
+2 x13029 +2 x13030 +2 x13031 +2 x13032 -1 x12769 -1 x12770 -1 x12771 -1 x12772 -1 x12773 -1 x12774 -1 x12775 -1 x12776 >= 0 ;
+2 x13033 +2 x13034 +2 x13035 +2 x13036 -1 x12773 -1 x12774 -1 x12775 -1 x12776 -1 x12777 -1 x12778 -1 x12779 -1 x12780 >= 0 ;
+2 x13037 +2 x13038 +2 x13039 +2 x13040 -1 x12777 -1 x12778 -1 x12779 -1 x12780 -1 x12781 -1 x12782 -1 x12783 -1 x12784 >= 0 ;
+2 x13041 +2 x13042 +2 x13043 +2 x13044 -1 x12781 -1 x12782 -1 x12783 -1 x12784 -1 x12785 -1 x12786 -1 x12787 -1 x12788 >= 0 ;
+2 x13045 +2 x13046 +2 x13047 +2 x13048 -1 x12785 -1 x12786 -1 x12787 -1 x12788 -1 x12789 -1 x12790 -1 x12791 -1 x12792 >= 0 ;
+2 x13049 +2 x13050 +2 x13051 +2 x13052 -1 x12789 -1 x12790 -1 x12791 -1 x12792 -1 x12793 -1 x12794 -1 x12795 -1 x12796 >= 0 ;
+2 x13053 +2 x13054 +2 x13055 +2 x13056 -1 x12793 -1 x12794 -1 x12795 -1 x12796 -1 x12797 -1 x12798 -1 x12799 -1 x12800 >= 0 ;
+2 x13057 +2 x13058 +2 x13059 +2 x13060 -1 x12801 -1 x12802 -1 x12803 -1 x12804 -1 x13053 -1 x13054 -1 x13055 -1 x13056 >= 0 ;
+2 x13061 +2 x13062 +2 x13063 +2 x13064 -1 x12801 -1 x12802 -1 x12803 -1 x12804 -1 x12805 -1 x12806 -1 x12807 -1 x12808 >= 0 ;
+2 x13065 +2 x13066 +2 x13067 +2 x13068 -1 x12805 -1 x12806 -1 x12807 -1 x12808 -1 x12809 -1 x12810 -1 x12811 -1 x12812 >= 0 ;
+2 x13069 +2 x13070 +2 x13071 +2 x13072 -1 x12809 -1 x12810 -1 x12811 -1 x12812 -1 x12813 -1 x12814 -1 x12815 -1 x12816 >= 0 ;
+2 x13073 +2 x13074 +2 x13075 +2 x13076 -1 x12813 -1 x12814 -1 x12815 -1 x12816 -1 x12817 -1 x12818 -1 x12819 -1 x12820 >= 0 ;
+2 x13077 +2 x13078 +2 x13079 +2 x13080 -1 x12817 -1 x12818 -1 x12819 -1 x12820 -1 x12821 -1 x12822 -1 x12823 -1 x12824 >= 0 ;
+2 x13081 +2 x13082 +2 x13083 +2 x13084 -1 x12821 -1 x12822 -1 x12823 -1 x12824 -1 x12825 -1 x12826 -1 x12827 -1 x12828 >= 0 ;
+2 x13085 +2 x13086 +2 x13087 +2 x13088 -1 x12825 -1 x12826 -1 x12827 -1 x12828 -1 x12829 -1 x12830 -1 x12831 -1 x12832 >= 0 ;
+2 x13089 +2 x13090 +2 x13091 +2 x13092 -1 x12829 -1 x12830 -1 x12831 -1 x12832 -1 x12833 -1 x12834 -1 x12835 -1 x12836 >= 0 ;
+2 x13093 +2 x13094 +2 x13095 +2 x13096 -1 x12833 -1 x12834 -1 x12835 -1 x12836 -1 x12837 -1 x12838 -1 x12839 -1 x12840 >= 0 ;
+2 x13097 +2 x13098 +2 x13099 +2 x13100 -1 x12837 -1 x12838 -1 x12839 -1 x12840 -1 x12841 -1 x12842 -1 x12843 -1 x12844 >= 0 ;
+2 x13101 +2 x13102 +2 x13103 +2 x13104 -1 x12841 -1 x12842 -1 x12843 -1 x12844 -1 x12845 -1 x12846 -1 x12847 -1 x12848 >= 0 ;
+2 x13105 +2 x13106 +2 x13107 +2 x13108 -1 x12845 -1 x12846 -1 x12847 -1 x12848 -1 x12849 -1 x12850 -1 x12851 -1 x12852 >= 0 ;
+2 x13109 +2 x13110 +2 x13111 +2 x13112 -1 x12849 -1 x12850 -1 x12851 -1 x12852 -1 x12853 -1 x12854 -1 x12855 -1 x12856 >= 0 ;
+2 x13113 +2 x13114 +2 x13115 +2 x13116 -1 x12853 -1 x12854 -1 x12855 -1 x12856 -1 x12857 -1 x12858 -1 x12859 -1 x12860 >= 0 ;
+2 x13117 +2 x13118 +2 x13119 +2 x13120 -1 x12857 -1 x12858 -1 x12859 -1 x12860 -1 x12861 -1 x12862 -1 x12863 -1 x12864 >= 0 ;
+2 x13121 +2 x13122 +2 x13123 +2 x13124 -1 x12861 -1 x12862 -1 x12863 -1 x12864 -1 x12865 -1 x12866 -1 x12867 -1 x12868 >= 0 ;
+2 x13125 +2 x13126 +2 x13127 +2 x13128 -1 x12865 -1 x12866 -1 x12867 -1 x12868 -1 x12869 -1 x12870 -1 x12871 -1 x12872 >= 0 ;
+2 x13129 +2 x13130 +2 x13131 +2 x13132 -1 x12869 -1 x12870 -1 x12871 -1 x12872 -1 x12873 -1 x12874 -1 x12875 -1 x12876 >= 0 ;
+2 x13133 +2 x13134 +2 x13135 +2 x13136 -1 x12873 -1 x12874 -1 x12875 -1 x12876 -1 x12877 -1 x12878 -1 x12879 -1 x12880 >= 0 ;
+2 x13137 +2 x13138 +2 x13139 +2 x13140 -1 x12877 -1 x12878 -1 x12879 -1 x12880 -1 x12881 -1 x12882 -1 x12883 -1 x12884 >= 0 ;
+2 x13141 +2 x13142 +2 x13143 +2 x13144 -1 x12881 -1 x12882 -1 x12883 -1 x12884 -1 x12885 -1 x12886 -1 x12887 -1 x12888 >= 0 ;
+2 x13145 +2 x13146 +2 x13147 +2 x13148 -1 x12885 -1 x12886 -1 x12887 -1 x12888 -1 x12889 -1 x12890 -1 x12891 -1 x12892 >= 0 ;
+2 x13149 +2 x13150 +2 x13151 +2 x13152 -1 x12889 -1 x12890 -1 x12891 -1 x12892 -1 x12893 -1 x12894 -1 x12895 -1 x12896 >= 0 ;
+2 x13153 +2 x13154 +2 x13155 +2 x13156 -1 x12893 -1 x12894 -1 x12895 -1 x12896 -1 x12897 -1 x12898 -1 x12899 -1 x12900 >= 0 ;
+2 x13157 +2 x13158 +2 x13159 +2 x13160 -1 x12897 -1 x12898 -1 x12899 -1 x12900 -1 x12901 -1 x12902 -1 x12903 -1 x12904 >= 0 ;
+2 x13161 +2 x13162 +2 x13163 +2 x13164 -1 x12901 -1 x12902 -1 x12903 -1 x12904 -1 x12905 -1 x12906 -1 x12907 -1 x12908 >= 0 ;
+2 x13165 +2 x13166 +2 x13167 +2 x13168 -1 x12905 -1 x12906 -1 x12907 -1 x12908 -1 x12909 -1 x12910 -1 x12911 -1 x12912 >= 0 ;
+2 x13169 +2 x13170 +2 x13171 +2 x13172 -1 x12909 -1 x12910 -1 x12911 -1 x12912 -1 x12913 -1 x12914 -1 x12915 -1 x12916 >= 0 ;
+2 x13173 +2 x13174 +2 x13175 +2 x13176 -1 x12913 -1 x12914 -1 x12915 -1 x12916 -1 x12917 -1 x12918 -1 x12919 -1 x12920 >= 0 ;
+2 x13177 +2 x13178 +2 x13179 +2 x13180 -1 x12917 -1 x12918 -1 x12919 -1 x12920 -1 x12921 -1 x12922 -1 x12923 -1 x12924 >= 0 ;
+2 x13181 +2 x13182 +2 x13183 +2 x13184 -1 x12921 -1 x12922 -1 x12923 -1 x12924 -1 x12925 -1 x12926 -1 x12927 -1 x12928 >= 0 ;
+2 x13185 +2 x13186 +2 x13187 +2 x13188 -1 x12925 -1 x12926 -1 x12927 -1 x12928 -1 x12929 -1 x12930 -1 x12931 -1 x12932 >= 0 ;
+2 x13189 +2 x13190 +2 x13191 +2 x13192 -1 x12929 -1 x12930 -1 x12931 -1 x12932 -1 x12933 -1 x12934 -1 x12935 -1 x12936 >= 0 ;
+2 x13193 +2 x13194 +2 x13195 +2 x13196 -1 x12933 -1 x12934 -1 x12935 -1 x12936 -1 x12937 -1 x12938 -1 x12939 -1 x12940 >= 0 ;
+2 x13197 +2 x13198 +2 x13199 +2 x13200 -1 x12937 -1 x12938 -1 x12939 -1 x12940 -1 x12941 -1 x12942 -1 x12943 -1 x12944 >= 0 ;
+2 x13201 +2 x13202 +2 x13203 +2 x13204 -1 x12941 -1 x12942 -1 x12943 -1 x12944 -1 x12945 -1 x12946 -1 x12947 -1 x12948 >= 0 ;
+2 x13205 +2 x13206 +2 x13207 +2 x13208 -1 x12945 -1 x12946 -1 x12947 -1 x12948 -1 x12949 -1 x12950 -1 x12951 -1 x12952 >= 0 ;
+2 x13209 +2 x13210 +2 x13211 +2 x13212 -1 x12949 -1 x12950 -1 x12951 -1 x12952 -1 x12953 -1 x12954 -1 x12955 -1 x12956 >= 0 ;
+2 x13213 +2 x13214 +2 x13215 +2 x13216 -1 x12953 -1 x12954 -1 x12955 -1 x12956 -1 x12957 -1 x12958 -1 x12959 -1 x12960 >= 0 ;
+2 x13217 +2 x13218 +2 x13219 +2 x13220 -1 x12957 -1 x12958 -1 x12959 -1 x12960 -1 x12961 -1 x12962 -1 x12963 -1 x12964 >= 0 ;
+2 x13221 +2 x13222 +2 x13223 +2 x13224 -1 x12961 -1 x12962 -1 x12963 -1 x12964 -1 x12965 -1 x12966 -1 x12967 -1 x12968 >= 0 ;
+2 x13225 +2 x13226 +2 x13227 +2 x13228 -1 x12965 -1 x12966 -1 x12967 -1 x12968 -1 x12969 -1 x12970 -1 x12971 -1 x12972 >= 0 ;
+2 x13229 +2 x13230 +2 x13231 +2 x13232 -1 x12969 -1 x12970 -1 x12971 -1 x12972 -1 x12973 -1 x12974 -1 x12975 -1 x12976 >= 0 ;
+2 x13233 +2 x13234 +2 x13235 +2 x13236 -1 x12973 -1 x12974 -1 x12975 -1 x12976 -1 x12977 -1 x12978 -1 x12979 -1 x12980 >= 0 ;
+2 x13237 +2 x13238 +2 x13239 +2 x13240 -1 x12977 -1 x12978 -1 x12979 -1 x12980 -1 x12981 -1 x12982 -1 x12983 -1 x12984 >= 0 ;
+2 x13241 +2 x13242 +2 x13243 +2 x13244 -1 x12981 -1 x12982 -1 x12983 -1 x12984 -1 x12985 -1 x12986 -1 x12987 -1 x12988 >= 0 ;
+2 x13245 +2 x13246 +2 x13247 +2 x13248 -1 x12985 -1 x12986 -1 x12987 -1 x12988 -1 x12989 -1 x12990 -1 x12991 -1 x12992 >= 0 ;
+2 x13249 +2 x13250 +2 x13251 +2 x13252 -1 x12989 -1 x12990 -1 x12991 -1 x12992 -1 x12993 -1 x12994 -1 x12995 -1 x12996 >= 0 ;
+2 x13253 +2 x13254 +2 x13255 +2 x13256 -1 x12993 -1 x12994 -1 x12995 -1 x12996 -1 x12997 -1 x12998 -1 x12999 -1 x13000 >= 0 ;
+2 x13257 +2 x13258 +2 x13259 +2 x13260 -1 x12997 -1 x12998 -1 x12999 -1 x13000 -1 x13001 -1 x13002 -1 x13003 -1 x13004 >= 0 ;
+2 x13261 +2 x13262 +2 x13263 +2 x13264 -1 x13001 -1 x13002 -1 x13003 -1 x13004 -1 x13005 -1 x13006 -1 x13007 -1 x13008 >= 0 ;
+2 x13265 +2 x13266 +2 x13267 +2 x13268 -1 x13005 -1 x13006 -1 x13007 -1 x13008 -1 x13009 -1 x13010 -1 x13011 -1 x13012 >= 0 ;
+2 x13269 +2 x13270 +2 x13271 +2 x13272 -1 x13009 -1 x13010 -1 x13011 -1 x13012 -1 x13013 -1 x13014 -1 x13015 -1 x13016 >= 0 ;
+2 x13273 +2 x13274 +2 x13275 +2 x13276 -1 x13013 -1 x13014 -1 x13015 -1 x13016 -1 x13017 -1 x13018 -1 x13019 -1 x13020 >= 0 ;
+2 x13277 +2 x13278 +2 x13279 +2 x13280 -1 x13017 -1 x13018 -1 x13019 -1 x13020 -1 x13021 -1 x13022 -1 x13023 -1 x13024 >= 0 ;
+2 x13281 +2 x13282 +2 x13283 +2 x13284 -1 x13021 -1 x13022 -1 x13023 -1 x13024 -1 x13025 -1 x13026 -1 x13027 -1 x13028 >= 0 ;
+2 x13285 +2 x13286 +2 x13287 +2 x13288 -1 x13025 -1 x13026 -1 x13027 -1 x13028 -1 x13029 -1 x13030 -1 x13031 -1 x13032 >= 0 ;
+2 x13289 +2 x13290 +2 x13291 +2 x13292 -1 x13029 -1 x13030 -1 x13031 -1 x13032 -1 x13033 -1 x13034 -1 x13035 -1 x13036 >= 0 ;
+2 x13293 +2 x13294 +2 x13295 +2 x13296 -1 x13033 -1 x13034 -1 x13035 -1 x13036 -1 x13037 -1 x13038 -1 x13039 -1 x13040 >= 0 ;
+2 x13297 +2 x13298 +2 x13299 +2 x13300 -1 x13037 -1 x13038 -1 x13039 -1 x13040 -1 x13041 -1 x13042 -1 x13043 -1 x13044 >= 0 ;
+2 x13301 +2 x13302 +2 x13303 +2 x13304 -1 x13041 -1 x13042 -1 x13043 -1 x13044 -1 x13045 -1 x13046 -1 x13047 -1 x13048 >= 0 ;
+2 x13305 +2 x13306 +2 x13307 +2 x13308 -1 x13045 -1 x13046 -1 x13047 -1 x13048 -1 x13049 -1 x13050 -1 x13051 -1 x13052 >= 0 ;
+2 x13309 +2 x13310 +2 x13311 +2 x13312 -1 x13049 -1 x13050 -1 x13051 -1 x13052 -1 x13053 -1 x13054 -1 x13055 -1 x13056 >= 0 ;
+2 x13313 +2 x13314 +2 x13315 +2 x13316 -1 x13057 -1 x13058 -1 x13059 -1 x13060 -1 x13309 -1 x13310 -1 x13311 -1 x13312 >= 0 ;
+2 x13317 +2 x13318 +2 x13319 +2 x13320 -1 x13057 -1 x13058 -1 x13059 -1 x13060 -1 x13061 -1 x13062 -1 x13063 -1 x13064 >= 0 ;
+2 x13321 +2 x13322 +2 x13323 +2 x13324 -1 x13061 -1 x13062 -1 x13063 -1 x13064 -1 x13065 -1 x13066 -1 x13067 -1 x13068 >= 0 ;
+2 x13325 +2 x13326 +2 x13327 +2 x13328 -1 x13065 -1 x13066 -1 x13067 -1 x13068 -1 x13069 -1 x13070 -1 x13071 -1 x13072 >= 0 ;
+2 x13329 +2 x13330 +2 x13331 +2 x13332 -1 x13069 -1 x13070 -1 x13071 -1 x13072 -1 x13073 -1 x13074 -1 x13075 -1 x13076 >= 0 ;
+2 x13333 +2 x13334 +2 x13335 +2 x13336 -1 x13073 -1 x13074 -1 x13075 -1 x13076 -1 x13077 -1 x13078 -1 x13079 -1 x13080 >= 0 ;
+2 x13337 +2 x13338 +2 x13339 +2 x13340 -1 x13077 -1 x13078 -1 x13079 -1 x13080 -1 x13081 -1 x13082 -1 x13083 -1 x13084 >= 0 ;
+2 x13341 +2 x13342 +2 x13343 +2 x13344 -1 x13081 -1 x13082 -1 x13083 -1 x13084 -1 x13085 -1 x13086 -1 x13087 -1 x13088 >= 0 ;
+2 x13345 +2 x13346 +2 x13347 +2 x13348 -1 x13085 -1 x13086 -1 x13087 -1 x13088 -1 x13089 -1 x13090 -1 x13091 -1 x13092 >= 0 ;
+2 x13349 +2 x13350 +2 x13351 +2 x13352 -1 x13089 -1 x13090 -1 x13091 -1 x13092 -1 x13093 -1 x13094 -1 x13095 -1 x13096 >= 0 ;
+2 x13353 +2 x13354 +2 x13355 +2 x13356 -1 x13093 -1 x13094 -1 x13095 -1 x13096 -1 x13097 -1 x13098 -1 x13099 -1 x13100 >= 0 ;
+2 x13357 +2 x13358 +2 x13359 +2 x13360 -1 x13097 -1 x13098 -1 x13099 -1 x13100 -1 x13101 -1 x13102 -1 x13103 -1 x13104 >= 0 ;
+2 x13361 +2 x13362 +2 x13363 +2 x13364 -1 x13101 -1 x13102 -1 x13103 -1 x13104 -1 x13105 -1 x13106 -1 x13107 -1 x13108 >= 0 ;
+2 x13365 +2 x13366 +2 x13367 +2 x13368 -1 x13105 -1 x13106 -1 x13107 -1 x13108 -1 x13109 -1 x13110 -1 x13111 -1 x13112 >= 0 ;
+2 x13369 +2 x13370 +2 x13371 +2 x13372 -1 x13109 -1 x13110 -1 x13111 -1 x13112 -1 x13113 -1 x13114 -1 x13115 -1 x13116 >= 0 ;
+2 x13373 +2 x13374 +2 x13375 +2 x13376 -1 x13113 -1 x13114 -1 x13115 -1 x13116 -1 x13117 -1 x13118 -1 x13119 -1 x13120 >= 0 ;
+2 x13377 +2 x13378 +2 x13379 +2 x13380 -1 x13117 -1 x13118 -1 x13119 -1 x13120 -1 x13121 -1 x13122 -1 x13123 -1 x13124 >= 0 ;
+2 x13381 +2 x13382 +2 x13383 +2 x13384 -1 x13121 -1 x13122 -1 x13123 -1 x13124 -1 x13125 -1 x13126 -1 x13127 -1 x13128 >= 0 ;
+2 x13385 +2 x13386 +2 x13387 +2 x13388 -1 x13125 -1 x13126 -1 x13127 -1 x13128 -1 x13129 -1 x13130 -1 x13131 -1 x13132 >= 0 ;
+2 x13389 +2 x13390 +2 x13391 +2 x13392 -1 x13129 -1 x13130 -1 x13131 -1 x13132 -1 x13133 -1 x13134 -1 x13135 -1 x13136 >= 0 ;
+2 x13393 +2 x13394 +2 x13395 +2 x13396 -1 x13133 -1 x13134 -1 x13135 -1 x13136 -1 x13137 -1 x13138 -1 x13139 -1 x13140 >= 0 ;
+2 x13397 +2 x13398 +2 x13399 +2 x13400 -1 x13137 -1 x13138 -1 x13139 -1 x13140 -1 x13141 -1 x13142 -1 x13143 -1 x13144 >= 0 ;
+2 x13401 +2 x13402 +2 x13403 +2 x13404 -1 x13141 -1 x13142 -1 x13143 -1 x13144 -1 x13145 -1 x13146 -1 x13147 -1 x13148 >= 0 ;
+2 x13405 +2 x13406 +2 x13407 +2 x13408 -1 x13145 -1 x13146 -1 x13147 -1 x13148 -1 x13149 -1 x13150 -1 x13151 -1 x13152 >= 0 ;
+2 x13409 +2 x13410 +2 x13411 +2 x13412 -1 x13149 -1 x13150 -1 x13151 -1 x13152 -1 x13153 -1 x13154 -1 x13155 -1 x13156 >= 0 ;
+2 x13413 +2 x13414 +2 x13415 +2 x13416 -1 x13153 -1 x13154 -1 x13155 -1 x13156 -1 x13157 -1 x13158 -1 x13159 -1 x13160 >= 0 ;
+2 x13417 +2 x13418 +2 x13419 +2 x13420 -1 x13157 -1 x13158 -1 x13159 -1 x13160 -1 x13161 -1 x13162 -1 x13163 -1 x13164 >= 0 ;
+2 x13421 +2 x13422 +2 x13423 +2 x13424 -1 x13161 -1 x13162 -1 x13163 -1 x13164 -1 x13165 -1 x13166 -1 x13167 -1 x13168 >= 0 ;
+2 x13425 +2 x13426 +2 x13427 +2 x13428 -1 x13165 -1 x13166 -1 x13167 -1 x13168 -1 x13169 -1 x13170 -1 x13171 -1 x13172 >= 0 ;
+2 x13429 +2 x13430 +2 x13431 +2 x13432 -1 x13169 -1 x13170 -1 x13171 -1 x13172 -1 x13173 -1 x13174 -1 x13175 -1 x13176 >= 0 ;
+2 x13433 +2 x13434 +2 x13435 +2 x13436 -1 x13173 -1 x13174 -1 x13175 -1 x13176 -1 x13177 -1 x13178 -1 x13179 -1 x13180 >= 0 ;
+2 x13437 +2 x13438 +2 x13439 +2 x13440 -1 x13177 -1 x13178 -1 x13179 -1 x13180 -1 x13181 -1 x13182 -1 x13183 -1 x13184 >= 0 ;
+2 x13441 +2 x13442 +2 x13443 +2 x13444 -1 x13181 -1 x13182 -1 x13183 -1 x13184 -1 x13185 -1 x13186 -1 x13187 -1 x13188 >= 0 ;
+2 x13445 +2 x13446 +2 x13447 +2 x13448 -1 x13185 -1 x13186 -1 x13187 -1 x13188 -1 x13189 -1 x13190 -1 x13191 -1 x13192 >= 0 ;
+2 x13449 +2 x13450 +2 x13451 +2 x13452 -1 x13189 -1 x13190 -1 x13191 -1 x13192 -1 x13193 -1 x13194 -1 x13195 -1 x13196 >= 0 ;
+2 x13453 +2 x13454 +2 x13455 +2 x13456 -1 x13193 -1 x13194 -1 x13195 -1 x13196 -1 x13197 -1 x13198 -1 x13199 -1 x13200 >= 0 ;
+2 x13457 +2 x13458 +2 x13459 +2 x13460 -1 x13197 -1 x13198 -1 x13199 -1 x13200 -1 x13201 -1 x13202 -1 x13203 -1 x13204 >= 0 ;
+2 x13461 +2 x13462 +2 x13463 +2 x13464 -1 x13201 -1 x13202 -1 x13203 -1 x13204 -1 x13205 -1 x13206 -1 x13207 -1 x13208 >= 0 ;
+2 x13465 +2 x13466 +2 x13467 +2 x13468 -1 x13205 -1 x13206 -1 x13207 -1 x13208 -1 x13209 -1 x13210 -1 x13211 -1 x13212 >= 0 ;
+2 x13469 +2 x13470 +2 x13471 +2 x13472 -1 x13209 -1 x13210 -1 x13211 -1 x13212 -1 x13213 -1 x13214 -1 x13215 -1 x13216 >= 0 ;
+2 x13473 +2 x13474 +2 x13475 +2 x13476 -1 x13213 -1 x13214 -1 x13215 -1 x13216 -1 x13217 -1 x13218 -1 x13219 -1 x13220 >= 0 ;
+2 x13477 +2 x13478 +2 x13479 +2 x13480 -1 x13217 -1 x13218 -1 x13219 -1 x13220 -1 x13221 -1 x13222 -1 x13223 -1 x13224 >= 0 ;
+2 x13481 +2 x13482 +2 x13483 +2 x13484 -1 x13221 -1 x13222 -1 x13223 -1 x13224 -1 x13225 -1 x13226 -1 x13227 -1 x13228 >= 0 ;
+2 x13485 +2 x13486 +2 x13487 +2 x13488 -1 x13225 -1 x13226 -1 x13227 -1 x13228 -1 x13229 -1 x13230 -1 x13231 -1 x13232 >= 0 ;
+2 x13489 +2 x13490 +2 x13491 +2 x13492 -1 x13229 -1 x13230 -1 x13231 -1 x13232 -1 x13233 -1 x13234 -1 x13235 -1 x13236 >= 0 ;
+2 x13493 +2 x13494 +2 x13495 +2 x13496 -1 x13233 -1 x13234 -1 x13235 -1 x13236 -1 x13237 -1 x13238 -1 x13239 -1 x13240 >= 0 ;
+2 x13497 +2 x13498 +2 x13499 +2 x13500 -1 x13237 -1 x13238 -1 x13239 -1 x13240 -1 x13241 -1 x13242 -1 x13243 -1 x13244 >= 0 ;
+2 x13501 +2 x13502 +2 x13503 +2 x13504 -1 x13241 -1 x13242 -1 x13243 -1 x13244 -1 x13245 -1 x13246 -1 x13247 -1 x13248 >= 0 ;
+2 x13505 +2 x13506 +2 x13507 +2 x13508 -1 x13245 -1 x13246 -1 x13247 -1 x13248 -1 x13249 -1 x13250 -1 x13251 -1 x13252 >= 0 ;
+2 x13509 +2 x13510 +2 x13511 +2 x13512 -1 x13249 -1 x13250 -1 x13251 -1 x13252 -1 x13253 -1 x13254 -1 x13255 -1 x13256 >= 0 ;
+2 x13513 +2 x13514 +2 x13515 +2 x13516 -1 x13253 -1 x13254 -1 x13255 -1 x13256 -1 x13257 -1 x13258 -1 x13259 -1 x13260 >= 0 ;
+2 x13517 +2 x13518 +2 x13519 +2 x13520 -1 x13257 -1 x13258 -1 x13259 -1 x13260 -1 x13261 -1 x13262 -1 x13263 -1 x13264 >= 0 ;
+2 x13521 +2 x13522 +2 x13523 +2 x13524 -1 x13261 -1 x13262 -1 x13263 -1 x13264 -1 x13265 -1 x13266 -1 x13267 -1 x13268 >= 0 ;
+2 x13525 +2 x13526 +2 x13527 +2 x13528 -1 x13265 -1 x13266 -1 x13267 -1 x13268 -1 x13269 -1 x13270 -1 x13271 -1 x13272 >= 0 ;
+2 x13529 +2 x13530 +2 x13531 +2 x13532 -1 x13269 -1 x13270 -1 x13271 -1 x13272 -1 x13273 -1 x13274 -1 x13275 -1 x13276 >= 0 ;
+2 x13533 +2 x13534 +2 x13535 +2 x13536 -1 x13273 -1 x13274 -1 x13275 -1 x13276 -1 x13277 -1 x13278 -1 x13279 -1 x13280 >= 0 ;
+2 x13537 +2 x13538 +2 x13539 +2 x13540 -1 x13277 -1 x13278 -1 x13279 -1 x13280 -1 x13281 -1 x13282 -1 x13283 -1 x13284 >= 0 ;
+2 x13541 +2 x13542 +2 x13543 +2 x13544 -1 x13281 -1 x13282 -1 x13283 -1 x13284 -1 x13285 -1 x13286 -1 x13287 -1 x13288 >= 0 ;
+2 x13545 +2 x13546 +2 x13547 +2 x13548 -1 x13285 -1 x13286 -1 x13287 -1 x13288 -1 x13289 -1 x13290 -1 x13291 -1 x13292 >= 0 ;
+2 x13549 +2 x13550 +2 x13551 +2 x13552 -1 x13289 -1 x13290 -1 x13291 -1 x13292 -1 x13293 -1 x13294 -1 x13295 -1 x13296 >= 0 ;
+2 x13553 +2 x13554 +2 x13555 +2 x13556 -1 x13293 -1 x13294 -1 x13295 -1 x13296 -1 x13297 -1 x13298 -1 x13299 -1 x13300 >= 0 ;
+2 x13557 +2 x13558 +2 x13559 +2 x13560 -1 x13297 -1 x13298 -1 x13299 -1 x13300 -1 x13301 -1 x13302 -1 x13303 -1 x13304 >= 0 ;
+2 x13561 +2 x13562 +2 x13563 +2 x13564 -1 x13301 -1 x13302 -1 x13303 -1 x13304 -1 x13305 -1 x13306 -1 x13307 -1 x13308 >= 0 ;
+2 x13565 +2 x13566 +2 x13567 +2 x13568 -1 x13305 -1 x13306 -1 x13307 -1 x13308 -1 x13309 -1 x13310 -1 x13311 -1 x13312 >= 0 ;
+2 x13569 +2 x13570 +2 x13571 +2 x13572 -1 x13313 -1 x13314 -1 x13315 -1 x13316 -1 x13565 -1 x13566 -1 x13567 -1 x13568 >= 0 ;
+2 x13573 +2 x13574 +2 x13575 +2 x13576 -1 x13313 -1 x13314 -1 x13315 -1 x13316 -1 x13317 -1 x13318 -1 x13319 -1 x13320 >= 0 ;
+2 x13577 +2 x13578 +2 x13579 +2 x13580 -1 x13317 -1 x13318 -1 x13319 -1 x13320 -1 x13321 -1 x13322 -1 x13323 -1 x13324 >= 0 ;
+2 x13581 +2 x13582 +2 x13583 +2 x13584 -1 x13321 -1 x13322 -1 x13323 -1 x13324 -1 x13325 -1 x13326 -1 x13327 -1 x13328 >= 0 ;
+2 x13585 +2 x13586 +2 x13587 +2 x13588 -1 x13325 -1 x13326 -1 x13327 -1 x13328 -1 x13329 -1 x13330 -1 x13331 -1 x13332 >= 0 ;
+2 x13589 +2 x13590 +2 x13591 +2 x13592 -1 x13329 -1 x13330 -1 x13331 -1 x13332 -1 x13333 -1 x13334 -1 x13335 -1 x13336 >= 0 ;
+2 x13593 +2 x13594 +2 x13595 +2 x13596 -1 x13333 -1 x13334 -1 x13335 -1 x13336 -1 x13337 -1 x13338 -1 x13339 -1 x13340 >= 0 ;
+2 x13597 +2 x13598 +2 x13599 +2 x13600 -1 x13337 -1 x13338 -1 x13339 -1 x13340 -1 x13341 -1 x13342 -1 x13343 -1 x13344 >= 0 ;
+2 x13601 +2 x13602 +2 x13603 +2 x13604 -1 x13341 -1 x13342 -1 x13343 -1 x13344 -1 x13345 -1 x13346 -1 x13347 -1 x13348 >= 0 ;
+2 x13605 +2 x13606 +2 x13607 +2 x13608 -1 x13345 -1 x13346 -1 x13347 -1 x13348 -1 x13349 -1 x13350 -1 x13351 -1 x13352 >= 0 ;
+2 x13609 +2 x13610 +2 x13611 +2 x13612 -1 x13349 -1 x13350 -1 x13351 -1 x13352 -1 x13353 -1 x13354 -1 x13355 -1 x13356 >= 0 ;
+2 x13613 +2 x13614 +2 x13615 +2 x13616 -1 x13353 -1 x13354 -1 x13355 -1 x13356 -1 x13357 -1 x13358 -1 x13359 -1 x13360 >= 0 ;
+2 x13617 +2 x13618 +2 x13619 +2 x13620 -1 x13357 -1 x13358 -1 x13359 -1 x13360 -1 x13361 -1 x13362 -1 x13363 -1 x13364 >= 0 ;
+2 x13621 +2 x13622 +2 x13623 +2 x13624 -1 x13361 -1 x13362 -1 x13363 -1 x13364 -1 x13365 -1 x13366 -1 x13367 -1 x13368 >= 0 ;
+2 x13625 +2 x13626 +2 x13627 +2 x13628 -1 x13365 -1 x13366 -1 x13367 -1 x13368 -1 x13369 -1 x13370 -1 x13371 -1 x13372 >= 0 ;
+2 x13629 +2 x13630 +2 x13631 +2 x13632 -1 x13369 -1 x13370 -1 x13371 -1 x13372 -1 x13373 -1 x13374 -1 x13375 -1 x13376 >= 0 ;
+2 x13633 +2 x13634 +2 x13635 +2 x13636 -1 x13373 -1 x13374 -1 x13375 -1 x13376 -1 x13377 -1 x13378 -1 x13379 -1 x13380 >= 0 ;
+2 x13637 +2 x13638 +2 x13639 +2 x13640 -1 x13377 -1 x13378 -1 x13379 -1 x13380 -1 x13381 -1 x13382 -1 x13383 -1 x13384 >= 0 ;
+2 x13641 +2 x13642 +2 x13643 +2 x13644 -1 x13381 -1 x13382 -1 x13383 -1 x13384 -1 x13385 -1 x13386 -1 x13387 -1 x13388 >= 0 ;
+2 x13645 +2 x13646 +2 x13647 +2 x13648 -1 x13385 -1 x13386 -1 x13387 -1 x13388 -1 x13389 -1 x13390 -1 x13391 -1 x13392 >= 0 ;
+2 x13649 +2 x13650 +2 x13651 +2 x13652 -1 x13389 -1 x13390 -1 x13391 -1 x13392 -1 x13393 -1 x13394 -1 x13395 -1 x13396 >= 0 ;
+2 x13653 +2 x13654 +2 x13655 +2 x13656 -1 x13393 -1 x13394 -1 x13395 -1 x13396 -1 x13397 -1 x13398 -1 x13399 -1 x13400 >= 0 ;
+2 x13657 +2 x13658 +2 x13659 +2 x13660 -1 x13397 -1 x13398 -1 x13399 -1 x13400 -1 x13401 -1 x13402 -1 x13403 -1 x13404 >= 0 ;
+2 x13661 +2 x13662 +2 x13663 +2 x13664 -1 x13401 -1 x13402 -1 x13403 -1 x13404 -1 x13405 -1 x13406 -1 x13407 -1 x13408 >= 0 ;
+2 x13665 +2 x13666 +2 x13667 +2 x13668 -1 x13405 -1 x13406 -1 x13407 -1 x13408 -1 x13409 -1 x13410 -1 x13411 -1 x13412 >= 0 ;
+2 x13669 +2 x13670 +2 x13671 +2 x13672 -1 x13409 -1 x13410 -1 x13411 -1 x13412 -1 x13413 -1 x13414 -1 x13415 -1 x13416 >= 0 ;
+2 x13673 +2 x13674 +2 x13675 +2 x13676 -1 x13413 -1 x13414 -1 x13415 -1 x13416 -1 x13417 -1 x13418 -1 x13419 -1 x13420 >= 0 ;
+2 x13677 +2 x13678 +2 x13679 +2 x13680 -1 x13417 -1 x13418 -1 x13419 -1 x13420 -1 x13421 -1 x13422 -1 x13423 -1 x13424 >= 0 ;
+2 x13681 +2 x13682 +2 x13683 +2 x13684 -1 x13421 -1 x13422 -1 x13423 -1 x13424 -1 x13425 -1 x13426 -1 x13427 -1 x13428 >= 0 ;
+2 x13685 +2 x13686 +2 x13687 +2 x13688 -1 x13425 -1 x13426 -1 x13427 -1 x13428 -1 x13429 -1 x13430 -1 x13431 -1 x13432 >= 0 ;
+2 x13689 +2 x13690 +2 x13691 +2 x13692 -1 x13429 -1 x13430 -1 x13431 -1 x13432 -1 x13433 -1 x13434 -1 x13435 -1 x13436 >= 0 ;
+2 x13693 +2 x13694 +2 x13695 +2 x13696 -1 x13433 -1 x13434 -1 x13435 -1 x13436 -1 x13437 -1 x13438 -1 x13439 -1 x13440 >= 0 ;
+2 x13697 +2 x13698 +2 x13699 +2 x13700 -1 x13437 -1 x13438 -1 x13439 -1 x13440 -1 x13441 -1 x13442 -1 x13443 -1 x13444 >= 0 ;
+2 x13701 +2 x13702 +2 x13703 +2 x13704 -1 x13441 -1 x13442 -1 x13443 -1 x13444 -1 x13445 -1 x13446 -1 x13447 -1 x13448 >= 0 ;
+2 x13705 +2 x13706 +2 x13707 +2 x13708 -1 x13445 -1 x13446 -1 x13447 -1 x13448 -1 x13449 -1 x13450 -1 x13451 -1 x13452 >= 0 ;
+2 x13709 +2 x13710 +2 x13711 +2 x13712 -1 x13449 -1 x13450 -1 x13451 -1 x13452 -1 x13453 -1 x13454 -1 x13455 -1 x13456 >= 0 ;
+2 x13713 +2 x13714 +2 x13715 +2 x13716 -1 x13453 -1 x13454 -1 x13455 -1 x13456 -1 x13457 -1 x13458 -1 x13459 -1 x13460 >= 0 ;
+2 x13717 +2 x13718 +2 x13719 +2 x13720 -1 x13457 -1 x13458 -1 x13459 -1 x13460 -1 x13461 -1 x13462 -1 x13463 -1 x13464 >= 0 ;
+2 x13721 +2 x13722 +2 x13723 +2 x13724 -1 x13461 -1 x13462 -1 x13463 -1 x13464 -1 x13465 -1 x13466 -1 x13467 -1 x13468 >= 0 ;
+2 x13725 +2 x13726 +2 x13727 +2 x13728 -1 x13465 -1 x13466 -1 x13467 -1 x13468 -1 x13469 -1 x13470 -1 x13471 -1 x13472 >= 0 ;
+2 x13729 +2 x13730 +2 x13731 +2 x13732 -1 x13469 -1 x13470 -1 x13471 -1 x13472 -1 x13473 -1 x13474 -1 x13475 -1 x13476 >= 0 ;
+2 x13733 +2 x13734 +2 x13735 +2 x13736 -1 x13473 -1 x13474 -1 x13475 -1 x13476 -1 x13477 -1 x13478 -1 x13479 -1 x13480 >= 0 ;
+2 x13737 +2 x13738 +2 x13739 +2 x13740 -1 x13477 -1 x13478 -1 x13479 -1 x13480 -1 x13481 -1 x13482 -1 x13483 -1 x13484 >= 0 ;
+2 x13741 +2 x13742 +2 x13743 +2 x13744 -1 x13481 -1 x13482 -1 x13483 -1 x13484 -1 x13485 -1 x13486 -1 x13487 -1 x13488 >= 0 ;
+2 x13745 +2 x13746 +2 x13747 +2 x13748 -1 x13485 -1 x13486 -1 x13487 -1 x13488 -1 x13489 -1 x13490 -1 x13491 -1 x13492 >= 0 ;
+2 x13749 +2 x13750 +2 x13751 +2 x13752 -1 x13489 -1 x13490 -1 x13491 -1 x13492 -1 x13493 -1 x13494 -1 x13495 -1 x13496 >= 0 ;
+2 x13753 +2 x13754 +2 x13755 +2 x13756 -1 x13493 -1 x13494 -1 x13495 -1 x13496 -1 x13497 -1 x13498 -1 x13499 -1 x13500 >= 0 ;
+2 x13757 +2 x13758 +2 x13759 +2 x13760 -1 x13497 -1 x13498 -1 x13499 -1 x13500 -1 x13501 -1 x13502 -1 x13503 -1 x13504 >= 0 ;
+2 x13761 +2 x13762 +2 x13763 +2 x13764 -1 x13501 -1 x13502 -1 x13503 -1 x13504 -1 x13505 -1 x13506 -1 x13507 -1 x13508 >= 0 ;
+2 x13765 +2 x13766 +2 x13767 +2 x13768 -1 x13505 -1 x13506 -1 x13507 -1 x13508 -1 x13509 -1 x13510 -1 x13511 -1 x13512 >= 0 ;
+2 x13769 +2 x13770 +2 x13771 +2 x13772 -1 x13509 -1 x13510 -1 x13511 -1 x13512 -1 x13513 -1 x13514 -1 x13515 -1 x13516 >= 0 ;
+2 x13773 +2 x13774 +2 x13775 +2 x13776 -1 x13513 -1 x13514 -1 x13515 -1 x13516 -1 x13517 -1 x13518 -1 x13519 -1 x13520 >= 0 ;
+2 x13777 +2 x13778 +2 x13779 +2 x13780 -1 x13517 -1 x13518 -1 x13519 -1 x13520 -1 x13521 -1 x13522 -1 x13523 -1 x13524 >= 0 ;
+2 x13781 +2 x13782 +2 x13783 +2 x13784 -1 x13521 -1 x13522 -1 x13523 -1 x13524 -1 x13525 -1 x13526 -1 x13527 -1 x13528 >= 0 ;
+2 x13785 +2 x13786 +2 x13787 +2 x13788 -1 x13525 -1 x13526 -1 x13527 -1 x13528 -1 x13529 -1 x13530 -1 x13531 -1 x13532 >= 0 ;
+2 x13789 +2 x13790 +2 x13791 +2 x13792 -1 x13529 -1 x13530 -1 x13531 -1 x13532 -1 x13533 -1 x13534 -1 x13535 -1 x13536 >= 0 ;
+2 x13793 +2 x13794 +2 x13795 +2 x13796 -1 x13533 -1 x13534 -1 x13535 -1 x13536 -1 x13537 -1 x13538 -1 x13539 -1 x13540 >= 0 ;
+2 x13797 +2 x13798 +2 x13799 +2 x13800 -1 x13537 -1 x13538 -1 x13539 -1 x13540 -1 x13541 -1 x13542 -1 x13543 -1 x13544 >= 0 ;
+2 x13801 +2 x13802 +2 x13803 +2 x13804 -1 x13541 -1 x13542 -1 x13543 -1 x13544 -1 x13545 -1 x13546 -1 x13547 -1 x13548 >= 0 ;
+2 x13805 +2 x13806 +2 x13807 +2 x13808 -1 x13545 -1 x13546 -1 x13547 -1 x13548 -1 x13549 -1 x13550 -1 x13551 -1 x13552 >= 0 ;
+2 x13809 +2 x13810 +2 x13811 +2 x13812 -1 x13549 -1 x13550 -1 x13551 -1 x13552 -1 x13553 -1 x13554 -1 x13555 -1 x13556 >= 0 ;
+2 x13813 +2 x13814 +2 x13815 +2 x13816 -1 x13553 -1 x13554 -1 x13555 -1 x13556 -1 x13557 -1 x13558 -1 x13559 -1 x13560 >= 0 ;
+2 x13817 +2 x13818 +2 x13819 +2 x13820 -1 x13557 -1 x13558 -1 x13559 -1 x13560 -1 x13561 -1 x13562 -1 x13563 -1 x13564 >= 0 ;
+2 x13821 +2 x13822 +2 x13823 +2 x13824 -1 x13561 -1 x13562 -1 x13563 -1 x13564 -1 x13565 -1 x13566 -1 x13567 -1 x13568 >= 0 ;
+2 x13825 +2 x13826 +2 x13827 +2 x13828 -1 x13569 -1 x13570 -1 x13571 -1 x13572 -1 x13821 -1 x13822 -1 x13823 -1 x13824 >= 0 ;
+2 x13829 +2 x13830 +2 x13831 +2 x13832 -1 x13569 -1 x13570 -1 x13571 -1 x13572 -1 x13573 -1 x13574 -1 x13575 -1 x13576 >= 0 ;
+2 x13833 +2 x13834 +2 x13835 +2 x13836 -1 x13573 -1 x13574 -1 x13575 -1 x13576 -1 x13577 -1 x13578 -1 x13579 -1 x13580 >= 0 ;
+2 x13837 +2 x13838 +2 x13839 +2 x13840 -1 x13577 -1 x13578 -1 x13579 -1 x13580 -1 x13581 -1 x13582 -1 x13583 -1 x13584 >= 0 ;
+2 x13841 +2 x13842 +2 x13843 +2 x13844 -1 x13581 -1 x13582 -1 x13583 -1 x13584 -1 x13585 -1 x13586 -1 x13587 -1 x13588 >= 0 ;
+2 x13845 +2 x13846 +2 x13847 +2 x13848 -1 x13585 -1 x13586 -1 x13587 -1 x13588 -1 x13589 -1 x13590 -1 x13591 -1 x13592 >= 0 ;
+2 x13849 +2 x13850 +2 x13851 +2 x13852 -1 x13589 -1 x13590 -1 x13591 -1 x13592 -1 x13593 -1 x13594 -1 x13595 -1 x13596 >= 0 ;
+2 x13853 +2 x13854 +2 x13855 +2 x13856 -1 x13593 -1 x13594 -1 x13595 -1 x13596 -1 x13597 -1 x13598 -1 x13599 -1 x13600 >= 0 ;
+2 x13857 +2 x13858 +2 x13859 +2 x13860 -1 x13597 -1 x13598 -1 x13599 -1 x13600 -1 x13601 -1 x13602 -1 x13603 -1 x13604 >= 0 ;
+2 x13861 +2 x13862 +2 x13863 +2 x13864 -1 x13601 -1 x13602 -1 x13603 -1 x13604 -1 x13605 -1 x13606 -1 x13607 -1 x13608 >= 0 ;
+2 x13865 +2 x13866 +2 x13867 +2 x13868 -1 x13605 -1 x13606 -1 x13607 -1 x13608 -1 x13609 -1 x13610 -1 x13611 -1 x13612 >= 0 ;
+2 x13869 +2 x13870 +2 x13871 +2 x13872 -1 x13609 -1 x13610 -1 x13611 -1 x13612 -1 x13613 -1 x13614 -1 x13615 -1 x13616 >= 0 ;
+2 x13873 +2 x13874 +2 x13875 +2 x13876 -1 x13613 -1 x13614 -1 x13615 -1 x13616 -1 x13617 -1 x13618 -1 x13619 -1 x13620 >= 0 ;
+2 x13877 +2 x13878 +2 x13879 +2 x13880 -1 x13617 -1 x13618 -1 x13619 -1 x13620 -1 x13621 -1 x13622 -1 x13623 -1 x13624 >= 0 ;
+2 x13881 +2 x13882 +2 x13883 +2 x13884 -1 x13621 -1 x13622 -1 x13623 -1 x13624 -1 x13625 -1 x13626 -1 x13627 -1 x13628 >= 0 ;
+2 x13885 +2 x13886 +2 x13887 +2 x13888 -1 x13625 -1 x13626 -1 x13627 -1 x13628 -1 x13629 -1 x13630 -1 x13631 -1 x13632 >= 0 ;
+2 x13889 +2 x13890 +2 x13891 +2 x13892 -1 x13629 -1 x13630 -1 x13631 -1 x13632 -1 x13633 -1 x13634 -1 x13635 -1 x13636 >= 0 ;
+2 x13893 +2 x13894 +2 x13895 +2 x13896 -1 x13633 -1 x13634 -1 x13635 -1 x13636 -1 x13637 -1 x13638 -1 x13639 -1 x13640 >= 0 ;
+2 x13897 +2 x13898 +2 x13899 +2 x13900 -1 x13637 -1 x13638 -1 x13639 -1 x13640 -1 x13641 -1 x13642 -1 x13643 -1 x13644 >= 0 ;
+2 x13901 +2 x13902 +2 x13903 +2 x13904 -1 x13641 -1 x13642 -1 x13643 -1 x13644 -1 x13645 -1 x13646 -1 x13647 -1 x13648 >= 0 ;
+2 x13905 +2 x13906 +2 x13907 +2 x13908 -1 x13645 -1 x13646 -1 x13647 -1 x13648 -1 x13649 -1 x13650 -1 x13651 -1 x13652 >= 0 ;
+2 x13909 +2 x13910 +2 x13911 +2 x13912 -1 x13649 -1 x13650 -1 x13651 -1 x13652 -1 x13653 -1 x13654 -1 x13655 -1 x13656 >= 0 ;
+2 x13913 +2 x13914 +2 x13915 +2 x13916 -1 x13653 -1 x13654 -1 x13655 -1 x13656 -1 x13657 -1 x13658 -1 x13659 -1 x13660 >= 0 ;
+2 x13917 +2 x13918 +2 x13919 +2 x13920 -1 x13657 -1 x13658 -1 x13659 -1 x13660 -1 x13661 -1 x13662 -1 x13663 -1 x13664 >= 0 ;
+2 x13921 +2 x13922 +2 x13923 +2 x13924 -1 x13661 -1 x13662 -1 x13663 -1 x13664 -1 x13665 -1 x13666 -1 x13667 -1 x13668 >= 0 ;
+2 x13925 +2 x13926 +2 x13927 +2 x13928 -1 x13665 -1 x13666 -1 x13667 -1 x13668 -1 x13669 -1 x13670 -1 x13671 -1 x13672 >= 0 ;
+2 x13929 +2 x13930 +2 x13931 +2 x13932 -1 x13669 -1 x13670 -1 x13671 -1 x13672 -1 x13673 -1 x13674 -1 x13675 -1 x13676 >= 0 ;
+2 x13933 +2 x13934 +2 x13935 +2 x13936 -1 x13673 -1 x13674 -1 x13675 -1 x13676 -1 x13677 -1 x13678 -1 x13679 -1 x13680 >= 0 ;
+2 x13937 +2 x13938 +2 x13939 +2 x13940 -1 x13677 -1 x13678 -1 x13679 -1 x13680 -1 x13681 -1 x13682 -1 x13683 -1 x13684 >= 0 ;
+2 x13941 +2 x13942 +2 x13943 +2 x13944 -1 x13681 -1 x13682 -1 x13683 -1 x13684 -1 x13685 -1 x13686 -1 x13687 -1 x13688 >= 0 ;
+2 x13945 +2 x13946 +2 x13947 +2 x13948 -1 x13685 -1 x13686 -1 x13687 -1 x13688 -1 x13689 -1 x13690 -1 x13691 -1 x13692 >= 0 ;
+2 x13949 +2 x13950 +2 x13951 +2 x13952 -1 x13689 -1 x13690 -1 x13691 -1 x13692 -1 x13693 -1 x13694 -1 x13695 -1 x13696 >= 0 ;
+2 x13953 +2 x13954 +2 x13955 +2 x13956 -1 x13693 -1 x13694 -1 x13695 -1 x13696 -1 x13697 -1 x13698 -1 x13699 -1 x13700 >= 0 ;
+2 x13957 +2 x13958 +2 x13959 +2 x13960 -1 x13697 -1 x13698 -1 x13699 -1 x13700 -1 x13701 -1 x13702 -1 x13703 -1 x13704 >= 0 ;
+2 x13961 +2 x13962 +2 x13963 +2 x13964 -1 x13701 -1 x13702 -1 x13703 -1 x13704 -1 x13705 -1 x13706 -1 x13707 -1 x13708 >= 0 ;
+2 x13965 +2 x13966 +2 x13967 +2 x13968 -1 x13705 -1 x13706 -1 x13707 -1 x13708 -1 x13709 -1 x13710 -1 x13711 -1 x13712 >= 0 ;
+2 x13969 +2 x13970 +2 x13971 +2 x13972 -1 x13709 -1 x13710 -1 x13711 -1 x13712 -1 x13713 -1 x13714 -1 x13715 -1 x13716 >= 0 ;
+2 x13973 +2 x13974 +2 x13975 +2 x13976 -1 x13713 -1 x13714 -1 x13715 -1 x13716 -1 x13717 -1 x13718 -1 x13719 -1 x13720 >= 0 ;
+2 x13977 +2 x13978 +2 x13979 +2 x13980 -1 x13717 -1 x13718 -1 x13719 -1 x13720 -1 x13721 -1 x13722 -1 x13723 -1 x13724 >= 0 ;
+2 x13981 +2 x13982 +2 x13983 +2 x13984 -1 x13721 -1 x13722 -1 x13723 -1 x13724 -1 x13725 -1 x13726 -1 x13727 -1 x13728 >= 0 ;
+2 x13985 +2 x13986 +2 x13987 +2 x13988 -1 x13725 -1 x13726 -1 x13727 -1 x13728 -1 x13729 -1 x13730 -1 x13731 -1 x13732 >= 0 ;
+2 x13989 +2 x13990 +2 x13991 +2 x13992 -1 x13729 -1 x13730 -1 x13731 -1 x13732 -1 x13733 -1 x13734 -1 x13735 -1 x13736 >= 0 ;
+2 x13993 +2 x13994 +2 x13995 +2 x13996 -1 x13733 -1 x13734 -1 x13735 -1 x13736 -1 x13737 -1 x13738 -1 x13739 -1 x13740 >= 0 ;
+2 x13997 +2 x13998 +2 x13999 +2 x14000 -1 x13737 -1 x13738 -1 x13739 -1 x13740 -1 x13741 -1 x13742 -1 x13743 -1 x13744 >= 0 ;
+2 x14001 +2 x14002 +2 x14003 +2 x14004 -1 x13741 -1 x13742 -1 x13743 -1 x13744 -1 x13745 -1 x13746 -1 x13747 -1 x13748 >= 0 ;
+2 x14005 +2 x14006 +2 x14007 +2 x14008 -1 x13745 -1 x13746 -1 x13747 -1 x13748 -1 x13749 -1 x13750 -1 x13751 -1 x13752 >= 0 ;
+2 x14009 +2 x14010 +2 x14011 +2 x14012 -1 x13749 -1 x13750 -1 x13751 -1 x13752 -1 x13753 -1 x13754 -1 x13755 -1 x13756 >= 0 ;
+2 x14013 +2 x14014 +2 x14015 +2 x14016 -1 x13753 -1 x13754 -1 x13755 -1 x13756 -1 x13757 -1 x13758 -1 x13759 -1 x13760 >= 0 ;
+2 x14017 +2 x14018 +2 x14019 +2 x14020 -1 x13757 -1 x13758 -1 x13759 -1 x13760 -1 x13761 -1 x13762 -1 x13763 -1 x13764 >= 0 ;
+2 x14021 +2 x14022 +2 x14023 +2 x14024 -1 x13761 -1 x13762 -1 x13763 -1 x13764 -1 x13765 -1 x13766 -1 x13767 -1 x13768 >= 0 ;
+2 x14025 +2 x14026 +2 x14027 +2 x14028 -1 x13765 -1 x13766 -1 x13767 -1 x13768 -1 x13769 -1 x13770 -1 x13771 -1 x13772 >= 0 ;
+2 x14029 +2 x14030 +2 x14031 +2 x14032 -1 x13769 -1 x13770 -1 x13771 -1 x13772 -1 x13773 -1 x13774 -1 x13775 -1 x13776 >= 0 ;
+2 x14033 +2 x14034 +2 x14035 +2 x14036 -1 x13773 -1 x13774 -1 x13775 -1 x13776 -1 x13777 -1 x13778 -1 x13779 -1 x13780 >= 0 ;
+2 x14037 +2 x14038 +2 x14039 +2 x14040 -1 x13777 -1 x13778 -1 x13779 -1 x13780 -1 x13781 -1 x13782 -1 x13783 -1 x13784 >= 0 ;
+2 x14041 +2 x14042 +2 x14043 +2 x14044 -1 x13781 -1 x13782 -1 x13783 -1 x13784 -1 x13785 -1 x13786 -1 x13787 -1 x13788 >= 0 ;
+2 x14045 +2 x14046 +2 x14047 +2 x14048 -1 x13785 -1 x13786 -1 x13787 -1 x13788 -1 x13789 -1 x13790 -1 x13791 -1 x13792 >= 0 ;
+2 x14049 +2 x14050 +2 x14051 +2 x14052 -1 x13789 -1 x13790 -1 x13791 -1 x13792 -1 x13793 -1 x13794 -1 x13795 -1 x13796 >= 0 ;
+2 x14053 +2 x14054 +2 x14055 +2 x14056 -1 x13793 -1 x13794 -1 x13795 -1 x13796 -1 x13797 -1 x13798 -1 x13799 -1 x13800 >= 0 ;
+2 x14057 +2 x14058 +2 x14059 +2 x14060 -1 x13797 -1 x13798 -1 x13799 -1 x13800 -1 x13801 -1 x13802 -1 x13803 -1 x13804 >= 0 ;
+2 x14061 +2 x14062 +2 x14063 +2 x14064 -1 x13801 -1 x13802 -1 x13803 -1 x13804 -1 x13805 -1 x13806 -1 x13807 -1 x13808 >= 0 ;
+2 x14065 +2 x14066 +2 x14067 +2 x14068 -1 x13805 -1 x13806 -1 x13807 -1 x13808 -1 x13809 -1 x13810 -1 x13811 -1 x13812 >= 0 ;
+2 x14069 +2 x14070 +2 x14071 +2 x14072 -1 x13809 -1 x13810 -1 x13811 -1 x13812 -1 x13813 -1 x13814 -1 x13815 -1 x13816 >= 0 ;
+2 x14073 +2 x14074 +2 x14075 +2 x14076 -1 x13813 -1 x13814 -1 x13815 -1 x13816 -1 x13817 -1 x13818 -1 x13819 -1 x13820 >= 0 ;
+2 x14077 +2 x14078 +2 x14079 +2 x14080 -1 x13817 -1 x13818 -1 x13819 -1 x13820 -1 x13821 -1 x13822 -1 x13823 -1 x13824 >= 0 ;
+2 x14081 +2 x14082 +2 x14083 +2 x14084 -1 x13825 -1 x13826 -1 x13827 -1 x13828 -1 x14077 -1 x14078 -1 x14079 -1 x14080 >= 0 ;
+2 x14085 +2 x14086 +2 x14087 +2 x14088 -1 x13825 -1 x13826 -1 x13827 -1 x13828 -1 x13829 -1 x13830 -1 x13831 -1 x13832 >= 0 ;
+2 x14089 +2 x14090 +2 x14091 +2 x14092 -1 x13829 -1 x13830 -1 x13831 -1 x13832 -1 x13833 -1 x13834 -1 x13835 -1 x13836 >= 0 ;
+2 x14093 +2 x14094 +2 x14095 +2 x14096 -1 x13833 -1 x13834 -1 x13835 -1 x13836 -1 x13837 -1 x13838 -1 x13839 -1 x13840 >= 0 ;
+2 x14097 +2 x14098 +2 x14099 +2 x14100 -1 x13837 -1 x13838 -1 x13839 -1 x13840 -1 x13841 -1 x13842 -1 x13843 -1 x13844 >= 0 ;
+2 x14101 +2 x14102 +2 x14103 +2 x14104 -1 x13841 -1 x13842 -1 x13843 -1 x13844 -1 x13845 -1 x13846 -1 x13847 -1 x13848 >= 0 ;
+2 x14105 +2 x14106 +2 x14107 +2 x14108 -1 x13845 -1 x13846 -1 x13847 -1 x13848 -1 x13849 -1 x13850 -1 x13851 -1 x13852 >= 0 ;
+2 x14109 +2 x14110 +2 x14111 +2 x14112 -1 x13849 -1 x13850 -1 x13851 -1 x13852 -1 x13853 -1 x13854 -1 x13855 -1 x13856 >= 0 ;
+2 x14113 +2 x14114 +2 x14115 +2 x14116 -1 x13853 -1 x13854 -1 x13855 -1 x13856 -1 x13857 -1 x13858 -1 x13859 -1 x13860 >= 0 ;
+2 x14117 +2 x14118 +2 x14119 +2 x14120 -1 x13857 -1 x13858 -1 x13859 -1 x13860 -1 x13861 -1 x13862 -1 x13863 -1 x13864 >= 0 ;
+2 x14121 +2 x14122 +2 x14123 +2 x14124 -1 x13861 -1 x13862 -1 x13863 -1 x13864 -1 x13865 -1 x13866 -1 x13867 -1 x13868 >= 0 ;
+2 x14125 +2 x14126 +2 x14127 +2 x14128 -1 x13865 -1 x13866 -1 x13867 -1 x13868 -1 x13869 -1 x13870 -1 x13871 -1 x13872 >= 0 ;
+2 x14129 +2 x14130 +2 x14131 +2 x14132 -1 x13869 -1 x13870 -1 x13871 -1 x13872 -1 x13873 -1 x13874 -1 x13875 -1 x13876 >= 0 ;
+2 x14133 +2 x14134 +2 x14135 +2 x14136 -1 x13873 -1 x13874 -1 x13875 -1 x13876 -1 x13877 -1 x13878 -1 x13879 -1 x13880 >= 0 ;
+2 x14137 +2 x14138 +2 x14139 +2 x14140 -1 x13877 -1 x13878 -1 x13879 -1 x13880 -1 x13881 -1 x13882 -1 x13883 -1 x13884 >= 0 ;
+2 x14141 +2 x14142 +2 x14143 +2 x14144 -1 x13881 -1 x13882 -1 x13883 -1 x13884 -1 x13885 -1 x13886 -1 x13887 -1 x13888 >= 0 ;
+2 x14145 +2 x14146 +2 x14147 +2 x14148 -1 x13885 -1 x13886 -1 x13887 -1 x13888 -1 x13889 -1 x13890 -1 x13891 -1 x13892 >= 0 ;
+2 x14149 +2 x14150 +2 x14151 +2 x14152 -1 x13889 -1 x13890 -1 x13891 -1 x13892 -1 x13893 -1 x13894 -1 x13895 -1 x13896 >= 0 ;
+2 x14153 +2 x14154 +2 x14155 +2 x14156 -1 x13893 -1 x13894 -1 x13895 -1 x13896 -1 x13897 -1 x13898 -1 x13899 -1 x13900 >= 0 ;
+2 x14157 +2 x14158 +2 x14159 +2 x14160 -1 x13897 -1 x13898 -1 x13899 -1 x13900 -1 x13901 -1 x13902 -1 x13903 -1 x13904 >= 0 ;
+2 x14161 +2 x14162 +2 x14163 +2 x14164 -1 x13901 -1 x13902 -1 x13903 -1 x13904 -1 x13905 -1 x13906 -1 x13907 -1 x13908 >= 0 ;
+2 x14165 +2 x14166 +2 x14167 +2 x14168 -1 x13905 -1 x13906 -1 x13907 -1 x13908 -1 x13909 -1 x13910 -1 x13911 -1 x13912 >= 0 ;
+2 x14169 +2 x14170 +2 x14171 +2 x14172 -1 x13909 -1 x13910 -1 x13911 -1 x13912 -1 x13913 -1 x13914 -1 x13915 -1 x13916 >= 0 ;
+2 x14173 +2 x14174 +2 x14175 +2 x14176 -1 x13913 -1 x13914 -1 x13915 -1 x13916 -1 x13917 -1 x13918 -1 x13919 -1 x13920 >= 0 ;
+2 x14177 +2 x14178 +2 x14179 +2 x14180 -1 x13917 -1 x13918 -1 x13919 -1 x13920 -1 x13921 -1 x13922 -1 x13923 -1 x13924 >= 0 ;
+2 x14181 +2 x14182 +2 x14183 +2 x14184 -1 x13921 -1 x13922 -1 x13923 -1 x13924 -1 x13925 -1 x13926 -1 x13927 -1 x13928 >= 0 ;
+2 x14185 +2 x14186 +2 x14187 +2 x14188 -1 x13925 -1 x13926 -1 x13927 -1 x13928 -1 x13929 -1 x13930 -1 x13931 -1 x13932 >= 0 ;
+2 x14189 +2 x14190 +2 x14191 +2 x14192 -1 x13929 -1 x13930 -1 x13931 -1 x13932 -1 x13933 -1 x13934 -1 x13935 -1 x13936 >= 0 ;
+2 x14193 +2 x14194 +2 x14195 +2 x14196 -1 x13933 -1 x13934 -1 x13935 -1 x13936 -1 x13937 -1 x13938 -1 x13939 -1 x13940 >= 0 ;
+2 x14197 +2 x14198 +2 x14199 +2 x14200 -1 x13937 -1 x13938 -1 x13939 -1 x13940 -1 x13941 -1 x13942 -1 x13943 -1 x13944 >= 0 ;
+2 x14201 +2 x14202 +2 x14203 +2 x14204 -1 x13941 -1 x13942 -1 x13943 -1 x13944 -1 x13945 -1 x13946 -1 x13947 -1 x13948 >= 0 ;
+2 x14205 +2 x14206 +2 x14207 +2 x14208 -1 x13945 -1 x13946 -1 x13947 -1 x13948 -1 x13949 -1 x13950 -1 x13951 -1 x13952 >= 0 ;
+2 x14209 +2 x14210 +2 x14211 +2 x14212 -1 x13949 -1 x13950 -1 x13951 -1 x13952 -1 x13953 -1 x13954 -1 x13955 -1 x13956 >= 0 ;
+2 x14213 +2 x14214 +2 x14215 +2 x14216 -1 x13953 -1 x13954 -1 x13955 -1 x13956 -1 x13957 -1 x13958 -1 x13959 -1 x13960 >= 0 ;
+2 x14217 +2 x14218 +2 x14219 +2 x14220 -1 x13957 -1 x13958 -1 x13959 -1 x13960 -1 x13961 -1 x13962 -1 x13963 -1 x13964 >= 0 ;
+2 x14221 +2 x14222 +2 x14223 +2 x14224 -1 x13961 -1 x13962 -1 x13963 -1 x13964 -1 x13965 -1 x13966 -1 x13967 -1 x13968 >= 0 ;
+2 x14225 +2 x14226 +2 x14227 +2 x14228 -1 x13965 -1 x13966 -1 x13967 -1 x13968 -1 x13969 -1 x13970 -1 x13971 -1 x13972 >= 0 ;
+2 x14229 +2 x14230 +2 x14231 +2 x14232 -1 x13969 -1 x13970 -1 x13971 -1 x13972 -1 x13973 -1 x13974 -1 x13975 -1 x13976 >= 0 ;
+2 x14233 +2 x14234 +2 x14235 +2 x14236 -1 x13973 -1 x13974 -1 x13975 -1 x13976 -1 x13977 -1 x13978 -1 x13979 -1 x13980 >= 0 ;
+2 x14237 +2 x14238 +2 x14239 +2 x14240 -1 x13977 -1 x13978 -1 x13979 -1 x13980 -1 x13981 -1 x13982 -1 x13983 -1 x13984 >= 0 ;
+2 x14241 +2 x14242 +2 x14243 +2 x14244 -1 x13981 -1 x13982 -1 x13983 -1 x13984 -1 x13985 -1 x13986 -1 x13987 -1 x13988 >= 0 ;
+2 x14245 +2 x14246 +2 x14247 +2 x14248 -1 x13985 -1 x13986 -1 x13987 -1 x13988 -1 x13989 -1 x13990 -1 x13991 -1 x13992 >= 0 ;
+2 x14249 +2 x14250 +2 x14251 +2 x14252 -1 x13989 -1 x13990 -1 x13991 -1 x13992 -1 x13993 -1 x13994 -1 x13995 -1 x13996 >= 0 ;
+2 x14253 +2 x14254 +2 x14255 +2 x14256 -1 x13993 -1 x13994 -1 x13995 -1 x13996 -1 x13997 -1 x13998 -1 x13999 -1 x14000 >= 0 ;
+2 x14257 +2 x14258 +2 x14259 +2 x14260 -1 x13997 -1 x13998 -1 x13999 -1 x14000 -1 x14001 -1 x14002 -1 x14003 -1 x14004 >= 0 ;
+2 x14261 +2 x14262 +2 x14263 +2 x14264 -1 x14001 -1 x14002 -1 x14003 -1 x14004 -1 x14005 -1 x14006 -1 x14007 -1 x14008 >= 0 ;
+2 x14265 +2 x14266 +2 x14267 +2 x14268 -1 x14005 -1 x14006 -1 x14007 -1 x14008 -1 x14009 -1 x14010 -1 x14011 -1 x14012 >= 0 ;
+2 x14269 +2 x14270 +2 x14271 +2 x14272 -1 x14009 -1 x14010 -1 x14011 -1 x14012 -1 x14013 -1 x14014 -1 x14015 -1 x14016 >= 0 ;
+2 x14273 +2 x14274 +2 x14275 +2 x14276 -1 x14013 -1 x14014 -1 x14015 -1 x14016 -1 x14017 -1 x14018 -1 x14019 -1 x14020 >= 0 ;
+2 x14277 +2 x14278 +2 x14279 +2 x14280 -1 x14017 -1 x14018 -1 x14019 -1 x14020 -1 x14021 -1 x14022 -1 x14023 -1 x14024 >= 0 ;
+2 x14281 +2 x14282 +2 x14283 +2 x14284 -1 x14021 -1 x14022 -1 x14023 -1 x14024 -1 x14025 -1 x14026 -1 x14027 -1 x14028 >= 0 ;
+2 x14285 +2 x14286 +2 x14287 +2 x14288 -1 x14025 -1 x14026 -1 x14027 -1 x14028 -1 x14029 -1 x14030 -1 x14031 -1 x14032 >= 0 ;
+2 x14289 +2 x14290 +2 x14291 +2 x14292 -1 x14029 -1 x14030 -1 x14031 -1 x14032 -1 x14033 -1 x14034 -1 x14035 -1 x14036 >= 0 ;
+2 x14293 +2 x14294 +2 x14295 +2 x14296 -1 x14033 -1 x14034 -1 x14035 -1 x14036 -1 x14037 -1 x14038 -1 x14039 -1 x14040 >= 0 ;
+2 x14297 +2 x14298 +2 x14299 +2 x14300 -1 x14037 -1 x14038 -1 x14039 -1 x14040 -1 x14041 -1 x14042 -1 x14043 -1 x14044 >= 0 ;
+2 x14301 +2 x14302 +2 x14303 +2 x14304 -1 x14041 -1 x14042 -1 x14043 -1 x14044 -1 x14045 -1 x14046 -1 x14047 -1 x14048 >= 0 ;
+2 x14305 +2 x14306 +2 x14307 +2 x14308 -1 x14045 -1 x14046 -1 x14047 -1 x14048 -1 x14049 -1 x14050 -1 x14051 -1 x14052 >= 0 ;
+2 x14309 +2 x14310 +2 x14311 +2 x14312 -1 x14049 -1 x14050 -1 x14051 -1 x14052 -1 x14053 -1 x14054 -1 x14055 -1 x14056 >= 0 ;
+2 x14313 +2 x14314 +2 x14315 +2 x14316 -1 x14053 -1 x14054 -1 x14055 -1 x14056 -1 x14057 -1 x14058 -1 x14059 -1 x14060 >= 0 ;
+2 x14317 +2 x14318 +2 x14319 +2 x14320 -1 x14057 -1 x14058 -1 x14059 -1 x14060 -1 x14061 -1 x14062 -1 x14063 -1 x14064 >= 0 ;
+2 x14321 +2 x14322 +2 x14323 +2 x14324 -1 x14061 -1 x14062 -1 x14063 -1 x14064 -1 x14065 -1 x14066 -1 x14067 -1 x14068 >= 0 ;
+2 x14325 +2 x14326 +2 x14327 +2 x14328 -1 x14065 -1 x14066 -1 x14067 -1 x14068 -1 x14069 -1 x14070 -1 x14071 -1 x14072 >= 0 ;
+2 x14329 +2 x14330 +2 x14331 +2 x14332 -1 x14069 -1 x14070 -1 x14071 -1 x14072 -1 x14073 -1 x14074 -1 x14075 -1 x14076 >= 0 ;
+2 x14333 +2 x14334 +2 x14335 +2 x14336 -1 x14073 -1 x14074 -1 x14075 -1 x14076 -1 x14077 -1 x14078 -1 x14079 -1 x14080 >= 0 ;
+2 x14337 +2 x14338 +2 x14339 +2 x14340 -1 x14081 -1 x14082 -1 x14083 -1 x14084 -1 x14333 -1 x14334 -1 x14335 -1 x14336 >= 0 ;
+2 x14341 +2 x14342 +2 x14343 +2 x14344 -1 x14081 -1 x14082 -1 x14083 -1 x14084 -1 x14085 -1 x14086 -1 x14087 -1 x14088 >= 0 ;
+2 x14345 +2 x14346 +2 x14347 +2 x14348 -1 x14085 -1 x14086 -1 x14087 -1 x14088 -1 x14089 -1 x14090 -1 x14091 -1 x14092 >= 0 ;
+2 x14349 +2 x14350 +2 x14351 +2 x14352 -1 x14089 -1 x14090 -1 x14091 -1 x14092 -1 x14093 -1 x14094 -1 x14095 -1 x14096 >= 0 ;
+2 x14353 +2 x14354 +2 x14355 +2 x14356 -1 x14093 -1 x14094 -1 x14095 -1 x14096 -1 x14097 -1 x14098 -1 x14099 -1 x14100 >= 0 ;
+2 x14357 +2 x14358 +2 x14359 +2 x14360 -1 x14097 -1 x14098 -1 x14099 -1 x14100 -1 x14101 -1 x14102 -1 x14103 -1 x14104 >= 0 ;
+2 x14361 +2 x14362 +2 x14363 +2 x14364 -1 x14101 -1 x14102 -1 x14103 -1 x14104 -1 x14105 -1 x14106 -1 x14107 -1 x14108 >= 0 ;
+2 x14365 +2 x14366 +2 x14367 +2 x14368 -1 x14105 -1 x14106 -1 x14107 -1 x14108 -1 x14109 -1 x14110 -1 x14111 -1 x14112 >= 0 ;
+2 x14369 +2 x14370 +2 x14371 +2 x14372 -1 x14109 -1 x14110 -1 x14111 -1 x14112 -1 x14113 -1 x14114 -1 x14115 -1 x14116 >= 0 ;
+2 x14373 +2 x14374 +2 x14375 +2 x14376 -1 x14113 -1 x14114 -1 x14115 -1 x14116 -1 x14117 -1 x14118 -1 x14119 -1 x14120 >= 0 ;
+2 x14377 +2 x14378 +2 x14379 +2 x14380 -1 x14117 -1 x14118 -1 x14119 -1 x14120 -1 x14121 -1 x14122 -1 x14123 -1 x14124 >= 0 ;
+2 x14381 +2 x14382 +2 x14383 +2 x14384 -1 x14121 -1 x14122 -1 x14123 -1 x14124 -1 x14125 -1 x14126 -1 x14127 -1 x14128 >= 0 ;
+2 x14385 +2 x14386 +2 x14387 +2 x14388 -1 x14125 -1 x14126 -1 x14127 -1 x14128 -1 x14129 -1 x14130 -1 x14131 -1 x14132 >= 0 ;
+2 x14389 +2 x14390 +2 x14391 +2 x14392 -1 x14129 -1 x14130 -1 x14131 -1 x14132 -1 x14133 -1 x14134 -1 x14135 -1 x14136 >= 0 ;
+2 x14393 +2 x14394 +2 x14395 +2 x14396 -1 x14133 -1 x14134 -1 x14135 -1 x14136 -1 x14137 -1 x14138 -1 x14139 -1 x14140 >= 0 ;
+2 x14397 +2 x14398 +2 x14399 +2 x14400 -1 x14137 -1 x14138 -1 x14139 -1 x14140 -1 x14141 -1 x14142 -1 x14143 -1 x14144 >= 0 ;
+2 x14401 +2 x14402 +2 x14403 +2 x14404 -1 x14141 -1 x14142 -1 x14143 -1 x14144 -1 x14145 -1 x14146 -1 x14147 -1 x14148 >= 0 ;
+2 x14405 +2 x14406 +2 x14407 +2 x14408 -1 x14145 -1 x14146 -1 x14147 -1 x14148 -1 x14149 -1 x14150 -1 x14151 -1 x14152 >= 0 ;
+2 x14409 +2 x14410 +2 x14411 +2 x14412 -1 x14149 -1 x14150 -1 x14151 -1 x14152 -1 x14153 -1 x14154 -1 x14155 -1 x14156 >= 0 ;
+2 x14413 +2 x14414 +2 x14415 +2 x14416 -1 x14153 -1 x14154 -1 x14155 -1 x14156 -1 x14157 -1 x14158 -1 x14159 -1 x14160 >= 0 ;
+2 x14417 +2 x14418 +2 x14419 +2 x14420 -1 x14157 -1 x14158 -1 x14159 -1 x14160 -1 x14161 -1 x14162 -1 x14163 -1 x14164 >= 0 ;
+2 x14421 +2 x14422 +2 x14423 +2 x14424 -1 x14161 -1 x14162 -1 x14163 -1 x14164 -1 x14165 -1 x14166 -1 x14167 -1 x14168 >= 0 ;
+2 x14425 +2 x14426 +2 x14427 +2 x14428 -1 x14165 -1 x14166 -1 x14167 -1 x14168 -1 x14169 -1 x14170 -1 x14171 -1 x14172 >= 0 ;
+2 x14429 +2 x14430 +2 x14431 +2 x14432 -1 x14169 -1 x14170 -1 x14171 -1 x14172 -1 x14173 -1 x14174 -1 x14175 -1 x14176 >= 0 ;
+2 x14433 +2 x14434 +2 x14435 +2 x14436 -1 x14173 -1 x14174 -1 x14175 -1 x14176 -1 x14177 -1 x14178 -1 x14179 -1 x14180 >= 0 ;
+2 x14437 +2 x14438 +2 x14439 +2 x14440 -1 x14177 -1 x14178 -1 x14179 -1 x14180 -1 x14181 -1 x14182 -1 x14183 -1 x14184 >= 0 ;
+2 x14441 +2 x14442 +2 x14443 +2 x14444 -1 x14181 -1 x14182 -1 x14183 -1 x14184 -1 x14185 -1 x14186 -1 x14187 -1 x14188 >= 0 ;
+2 x14445 +2 x14446 +2 x14447 +2 x14448 -1 x14185 -1 x14186 -1 x14187 -1 x14188 -1 x14189 -1 x14190 -1 x14191 -1 x14192 >= 0 ;
+2 x14449 +2 x14450 +2 x14451 +2 x14452 -1 x14189 -1 x14190 -1 x14191 -1 x14192 -1 x14193 -1 x14194 -1 x14195 -1 x14196 >= 0 ;
+2 x14453 +2 x14454 +2 x14455 +2 x14456 -1 x14193 -1 x14194 -1 x14195 -1 x14196 -1 x14197 -1 x14198 -1 x14199 -1 x14200 >= 0 ;
+2 x14457 +2 x14458 +2 x14459 +2 x14460 -1 x14197 -1 x14198 -1 x14199 -1 x14200 -1 x14201 -1 x14202 -1 x14203 -1 x14204 >= 0 ;
+2 x14461 +2 x14462 +2 x14463 +2 x14464 -1 x14201 -1 x14202 -1 x14203 -1 x14204 -1 x14205 -1 x14206 -1 x14207 -1 x14208 >= 0 ;
+2 x14465 +2 x14466 +2 x14467 +2 x14468 -1 x14205 -1 x14206 -1 x14207 -1 x14208 -1 x14209 -1 x14210 -1 x14211 -1 x14212 >= 0 ;
+2 x14469 +2 x14470 +2 x14471 +2 x14472 -1 x14209 -1 x14210 -1 x14211 -1 x14212 -1 x14213 -1 x14214 -1 x14215 -1 x14216 >= 0 ;
+2 x14473 +2 x14474 +2 x14475 +2 x14476 -1 x14213 -1 x14214 -1 x14215 -1 x14216 -1 x14217 -1 x14218 -1 x14219 -1 x14220 >= 0 ;
+2 x14477 +2 x14478 +2 x14479 +2 x14480 -1 x14217 -1 x14218 -1 x14219 -1 x14220 -1 x14221 -1 x14222 -1 x14223 -1 x14224 >= 0 ;
+2 x14481 +2 x14482 +2 x14483 +2 x14484 -1 x14221 -1 x14222 -1 x14223 -1 x14224 -1 x14225 -1 x14226 -1 x14227 -1 x14228 >= 0 ;
+2 x14485 +2 x14486 +2 x14487 +2 x14488 -1 x14225 -1 x14226 -1 x14227 -1 x14228 -1 x14229 -1 x14230 -1 x14231 -1 x14232 >= 0 ;
+2 x14489 +2 x14490 +2 x14491 +2 x14492 -1 x14229 -1 x14230 -1 x14231 -1 x14232 -1 x14233 -1 x14234 -1 x14235 -1 x14236 >= 0 ;
+2 x14493 +2 x14494 +2 x14495 +2 x14496 -1 x14233 -1 x14234 -1 x14235 -1 x14236 -1 x14237 -1 x14238 -1 x14239 -1 x14240 >= 0 ;
+2 x14497 +2 x14498 +2 x14499 +2 x14500 -1 x14237 -1 x14238 -1 x14239 -1 x14240 -1 x14241 -1 x14242 -1 x14243 -1 x14244 >= 0 ;
+2 x14501 +2 x14502 +2 x14503 +2 x14504 -1 x14241 -1 x14242 -1 x14243 -1 x14244 -1 x14245 -1 x14246 -1 x14247 -1 x14248 >= 0 ;
+2 x14505 +2 x14506 +2 x14507 +2 x14508 -1 x14245 -1 x14246 -1 x14247 -1 x14248 -1 x14249 -1 x14250 -1 x14251 -1 x14252 >= 0 ;
+2 x14509 +2 x14510 +2 x14511 +2 x14512 -1 x14249 -1 x14250 -1 x14251 -1 x14252 -1 x14253 -1 x14254 -1 x14255 -1 x14256 >= 0 ;
+2 x14513 +2 x14514 +2 x14515 +2 x14516 -1 x14253 -1 x14254 -1 x14255 -1 x14256 -1 x14257 -1 x14258 -1 x14259 -1 x14260 >= 0 ;
+2 x14517 +2 x14518 +2 x14519 +2 x14520 -1 x14257 -1 x14258 -1 x14259 -1 x14260 -1 x14261 -1 x14262 -1 x14263 -1 x14264 >= 0 ;
+2 x14521 +2 x14522 +2 x14523 +2 x14524 -1 x14261 -1 x14262 -1 x14263 -1 x14264 -1 x14265 -1 x14266 -1 x14267 -1 x14268 >= 0 ;
+2 x14525 +2 x14526 +2 x14527 +2 x14528 -1 x14265 -1 x14266 -1 x14267 -1 x14268 -1 x14269 -1 x14270 -1 x14271 -1 x14272 >= 0 ;
+2 x14529 +2 x14530 +2 x14531 +2 x14532 -1 x14269 -1 x14270 -1 x14271 -1 x14272 -1 x14273 -1 x14274 -1 x14275 -1 x14276 >= 0 ;
+2 x14533 +2 x14534 +2 x14535 +2 x14536 -1 x14273 -1 x14274 -1 x14275 -1 x14276 -1 x14277 -1 x14278 -1 x14279 -1 x14280 >= 0 ;
+2 x14537 +2 x14538 +2 x14539 +2 x14540 -1 x14277 -1 x14278 -1 x14279 -1 x14280 -1 x14281 -1 x14282 -1 x14283 -1 x14284 >= 0 ;
+2 x14541 +2 x14542 +2 x14543 +2 x14544 -1 x14281 -1 x14282 -1 x14283 -1 x14284 -1 x14285 -1 x14286 -1 x14287 -1 x14288 >= 0 ;
+2 x14545 +2 x14546 +2 x14547 +2 x14548 -1 x14285 -1 x14286 -1 x14287 -1 x14288 -1 x14289 -1 x14290 -1 x14291 -1 x14292 >= 0 ;
+2 x14549 +2 x14550 +2 x14551 +2 x14552 -1 x14289 -1 x14290 -1 x14291 -1 x14292 -1 x14293 -1 x14294 -1 x14295 -1 x14296 >= 0 ;
+2 x14553 +2 x14554 +2 x14555 +2 x14556 -1 x14293 -1 x14294 -1 x14295 -1 x14296 -1 x14297 -1 x14298 -1 x14299 -1 x14300 >= 0 ;
+2 x14557 +2 x14558 +2 x14559 +2 x14560 -1 x14297 -1 x14298 -1 x14299 -1 x14300 -1 x14301 -1 x14302 -1 x14303 -1 x14304 >= 0 ;
+2 x14561 +2 x14562 +2 x14563 +2 x14564 -1 x14301 -1 x14302 -1 x14303 -1 x14304 -1 x14305 -1 x14306 -1 x14307 -1 x14308 >= 0 ;
+2 x14565 +2 x14566 +2 x14567 +2 x14568 -1 x14305 -1 x14306 -1 x14307 -1 x14308 -1 x14309 -1 x14310 -1 x14311 -1 x14312 >= 0 ;
+2 x14569 +2 x14570 +2 x14571 +2 x14572 -1 x14309 -1 x14310 -1 x14311 -1 x14312 -1 x14313 -1 x14314 -1 x14315 -1 x14316 >= 0 ;
+2 x14573 +2 x14574 +2 x14575 +2 x14576 -1 x14313 -1 x14314 -1 x14315 -1 x14316 -1 x14317 -1 x14318 -1 x14319 -1 x14320 >= 0 ;
+2 x14577 +2 x14578 +2 x14579 +2 x14580 -1 x14317 -1 x14318 -1 x14319 -1 x14320 -1 x14321 -1 x14322 -1 x14323 -1 x14324 >= 0 ;
+2 x14581 +2 x14582 +2 x14583 +2 x14584 -1 x14321 -1 x14322 -1 x14323 -1 x14324 -1 x14325 -1 x14326 -1 x14327 -1 x14328 >= 0 ;
+2 x14585 +2 x14586 +2 x14587 +2 x14588 -1 x14325 -1 x14326 -1 x14327 -1 x14328 -1 x14329 -1 x14330 -1 x14331 -1 x14332 >= 0 ;
+2 x14589 +2 x14590 +2 x14591 +2 x14592 -1 x14329 -1 x14330 -1 x14331 -1 x14332 -1 x14333 -1 x14334 -1 x14335 -1 x14336 >= 0 ;
+2 x14593 +2 x14594 +2 x14595 +2 x14596 -1 x14337 -1 x14338 -1 x14339 -1 x14340 -1 x14589 -1 x14590 -1 x14591 -1 x14592 >= 0 ;
+2 x14597 +2 x14598 +2 x14599 +2 x14600 -1 x14337 -1 x14338 -1 x14339 -1 x14340 -1 x14341 -1 x14342 -1 x14343 -1 x14344 >= 0 ;
+2 x14601 +2 x14602 +2 x14603 +2 x14604 -1 x14341 -1 x14342 -1 x14343 -1 x14344 -1 x14345 -1 x14346 -1 x14347 -1 x14348 >= 0 ;
+2 x14605 +2 x14606 +2 x14607 +2 x14608 -1 x14345 -1 x14346 -1 x14347 -1 x14348 -1 x14349 -1 x14350 -1 x14351 -1 x14352 >= 0 ;
+2 x14609 +2 x14610 +2 x14611 +2 x14612 -1 x14349 -1 x14350 -1 x14351 -1 x14352 -1 x14353 -1 x14354 -1 x14355 -1 x14356 >= 0 ;
+2 x14613 +2 x14614 +2 x14615 +2 x14616 -1 x14353 -1 x14354 -1 x14355 -1 x14356 -1 x14357 -1 x14358 -1 x14359 -1 x14360 >= 0 ;
+2 x14617 +2 x14618 +2 x14619 +2 x14620 -1 x14357 -1 x14358 -1 x14359 -1 x14360 -1 x14361 -1 x14362 -1 x14363 -1 x14364 >= 0 ;
+2 x14621 +2 x14622 +2 x14623 +2 x14624 -1 x14361 -1 x14362 -1 x14363 -1 x14364 -1 x14365 -1 x14366 -1 x14367 -1 x14368 >= 0 ;
+2 x14625 +2 x14626 +2 x14627 +2 x14628 -1 x14365 -1 x14366 -1 x14367 -1 x14368 -1 x14369 -1 x14370 -1 x14371 -1 x14372 >= 0 ;
+2 x14629 +2 x14630 +2 x14631 +2 x14632 -1 x14369 -1 x14370 -1 x14371 -1 x14372 -1 x14373 -1 x14374 -1 x14375 -1 x14376 >= 0 ;
+2 x14633 +2 x14634 +2 x14635 +2 x14636 -1 x14373 -1 x14374 -1 x14375 -1 x14376 -1 x14377 -1 x14378 -1 x14379 -1 x14380 >= 0 ;
+2 x14637 +2 x14638 +2 x14639 +2 x14640 -1 x14377 -1 x14378 -1 x14379 -1 x14380 -1 x14381 -1 x14382 -1 x14383 -1 x14384 >= 0 ;
+2 x14641 +2 x14642 +2 x14643 +2 x14644 -1 x14381 -1 x14382 -1 x14383 -1 x14384 -1 x14385 -1 x14386 -1 x14387 -1 x14388 >= 0 ;
+2 x14645 +2 x14646 +2 x14647 +2 x14648 -1 x14385 -1 x14386 -1 x14387 -1 x14388 -1 x14389 -1 x14390 -1 x14391 -1 x14392 >= 0 ;
+2 x14649 +2 x14650 +2 x14651 +2 x14652 -1 x14389 -1 x14390 -1 x14391 -1 x14392 -1 x14393 -1 x14394 -1 x14395 -1 x14396 >= 0 ;
+2 x14653 +2 x14654 +2 x14655 +2 x14656 -1 x14393 -1 x14394 -1 x14395 -1 x14396 -1 x14397 -1 x14398 -1 x14399 -1 x14400 >= 0 ;
+2 x14657 +2 x14658 +2 x14659 +2 x14660 -1 x14397 -1 x14398 -1 x14399 -1 x14400 -1 x14401 -1 x14402 -1 x14403 -1 x14404 >= 0 ;
+2 x14661 +2 x14662 +2 x14663 +2 x14664 -1 x14401 -1 x14402 -1 x14403 -1 x14404 -1 x14405 -1 x14406 -1 x14407 -1 x14408 >= 0 ;
+2 x14665 +2 x14666 +2 x14667 +2 x14668 -1 x14405 -1 x14406 -1 x14407 -1 x14408 -1 x14409 -1 x14410 -1 x14411 -1 x14412 >= 0 ;
+2 x14669 +2 x14670 +2 x14671 +2 x14672 -1 x14409 -1 x14410 -1 x14411 -1 x14412 -1 x14413 -1 x14414 -1 x14415 -1 x14416 >= 0 ;
+2 x14673 +2 x14674 +2 x14675 +2 x14676 -1 x14413 -1 x14414 -1 x14415 -1 x14416 -1 x14417 -1 x14418 -1 x14419 -1 x14420 >= 0 ;
+2 x14677 +2 x14678 +2 x14679 +2 x14680 -1 x14417 -1 x14418 -1 x14419 -1 x14420 -1 x14421 -1 x14422 -1 x14423 -1 x14424 >= 0 ;
+2 x14681 +2 x14682 +2 x14683 +2 x14684 -1 x14421 -1 x14422 -1 x14423 -1 x14424 -1 x14425 -1 x14426 -1 x14427 -1 x14428 >= 0 ;
+2 x14685 +2 x14686 +2 x14687 +2 x14688 -1 x14425 -1 x14426 -1 x14427 -1 x14428 -1 x14429 -1 x14430 -1 x14431 -1 x14432 >= 0 ;
+2 x14689 +2 x14690 +2 x14691 +2 x14692 -1 x14429 -1 x14430 -1 x14431 -1 x14432 -1 x14433 -1 x14434 -1 x14435 -1 x14436 >= 0 ;
+2 x14693 +2 x14694 +2 x14695 +2 x14696 -1 x14433 -1 x14434 -1 x14435 -1 x14436 -1 x14437 -1 x14438 -1 x14439 -1 x14440 >= 0 ;
+2 x14697 +2 x14698 +2 x14699 +2 x14700 -1 x14437 -1 x14438 -1 x14439 -1 x14440 -1 x14441 -1 x14442 -1 x14443 -1 x14444 >= 0 ;
+2 x14701 +2 x14702 +2 x14703 +2 x14704 -1 x14441 -1 x14442 -1 x14443 -1 x14444 -1 x14445 -1 x14446 -1 x14447 -1 x14448 >= 0 ;
+2 x14705 +2 x14706 +2 x14707 +2 x14708 -1 x14445 -1 x14446 -1 x14447 -1 x14448 -1 x14449 -1 x14450 -1 x14451 -1 x14452 >= 0 ;
+2 x14709 +2 x14710 +2 x14711 +2 x14712 -1 x14449 -1 x14450 -1 x14451 -1 x14452 -1 x14453 -1 x14454 -1 x14455 -1 x14456 >= 0 ;
+2 x14713 +2 x14714 +2 x14715 +2 x14716 -1 x14453 -1 x14454 -1 x14455 -1 x14456 -1 x14457 -1 x14458 -1 x14459 -1 x14460 >= 0 ;
+2 x14717 +2 x14718 +2 x14719 +2 x14720 -1 x14457 -1 x14458 -1 x14459 -1 x14460 -1 x14461 -1 x14462 -1 x14463 -1 x14464 >= 0 ;
+2 x14721 +2 x14722 +2 x14723 +2 x14724 -1 x14461 -1 x14462 -1 x14463 -1 x14464 -1 x14465 -1 x14466 -1 x14467 -1 x14468 >= 0 ;
+2 x14725 +2 x14726 +2 x14727 +2 x14728 -1 x14465 -1 x14466 -1 x14467 -1 x14468 -1 x14469 -1 x14470 -1 x14471 -1 x14472 >= 0 ;
+2 x14729 +2 x14730 +2 x14731 +2 x14732 -1 x14469 -1 x14470 -1 x14471 -1 x14472 -1 x14473 -1 x14474 -1 x14475 -1 x14476 >= 0 ;
+2 x14733 +2 x14734 +2 x14735 +2 x14736 -1 x14473 -1 x14474 -1 x14475 -1 x14476 -1 x14477 -1 x14478 -1 x14479 -1 x14480 >= 0 ;
+2 x14737 +2 x14738 +2 x14739 +2 x14740 -1 x14477 -1 x14478 -1 x14479 -1 x14480 -1 x14481 -1 x14482 -1 x14483 -1 x14484 >= 0 ;
+2 x14741 +2 x14742 +2 x14743 +2 x14744 -1 x14481 -1 x14482 -1 x14483 -1 x14484 -1 x14485 -1 x14486 -1 x14487 -1 x14488 >= 0 ;
+2 x14745 +2 x14746 +2 x14747 +2 x14748 -1 x14485 -1 x14486 -1 x14487 -1 x14488 -1 x14489 -1 x14490 -1 x14491 -1 x14492 >= 0 ;
+2 x14749 +2 x14750 +2 x14751 +2 x14752 -1 x14489 -1 x14490 -1 x14491 -1 x14492 -1 x14493 -1 x14494 -1 x14495 -1 x14496 >= 0 ;
+2 x14753 +2 x14754 +2 x14755 +2 x14756 -1 x14493 -1 x14494 -1 x14495 -1 x14496 -1 x14497 -1 x14498 -1 x14499 -1 x14500 >= 0 ;
+2 x14757 +2 x14758 +2 x14759 +2 x14760 -1 x14497 -1 x14498 -1 x14499 -1 x14500 -1 x14501 -1 x14502 -1 x14503 -1 x14504 >= 0 ;
+2 x14761 +2 x14762 +2 x14763 +2 x14764 -1 x14501 -1 x14502 -1 x14503 -1 x14504 -1 x14505 -1 x14506 -1 x14507 -1 x14508 >= 0 ;
+2 x14765 +2 x14766 +2 x14767 +2 x14768 -1 x14505 -1 x14506 -1 x14507 -1 x14508 -1 x14509 -1 x14510 -1 x14511 -1 x14512 >= 0 ;
+2 x14769 +2 x14770 +2 x14771 +2 x14772 -1 x14509 -1 x14510 -1 x14511 -1 x14512 -1 x14513 -1 x14514 -1 x14515 -1 x14516 >= 0 ;
+2 x14773 +2 x14774 +2 x14775 +2 x14776 -1 x14513 -1 x14514 -1 x14515 -1 x14516 -1 x14517 -1 x14518 -1 x14519 -1 x14520 >= 0 ;
+2 x14777 +2 x14778 +2 x14779 +2 x14780 -1 x14517 -1 x14518 -1 x14519 -1 x14520 -1 x14521 -1 x14522 -1 x14523 -1 x14524 >= 0 ;
+2 x14781 +2 x14782 +2 x14783 +2 x14784 -1 x14521 -1 x14522 -1 x14523 -1 x14524 -1 x14525 -1 x14526 -1 x14527 -1 x14528 >= 0 ;
+2 x14785 +2 x14786 +2 x14787 +2 x14788 -1 x14525 -1 x14526 -1 x14527 -1 x14528 -1 x14529 -1 x14530 -1 x14531 -1 x14532 >= 0 ;
+2 x14789 +2 x14790 +2 x14791 +2 x14792 -1 x14529 -1 x14530 -1 x14531 -1 x14532 -1 x14533 -1 x14534 -1 x14535 -1 x14536 >= 0 ;
+2 x14793 +2 x14794 +2 x14795 +2 x14796 -1 x14533 -1 x14534 -1 x14535 -1 x14536 -1 x14537 -1 x14538 -1 x14539 -1 x14540 >= 0 ;
+2 x14797 +2 x14798 +2 x14799 +2 x14800 -1 x14537 -1 x14538 -1 x14539 -1 x14540 -1 x14541 -1 x14542 -1 x14543 -1 x14544 >= 0 ;
+2 x14801 +2 x14802 +2 x14803 +2 x14804 -1 x14541 -1 x14542 -1 x14543 -1 x14544 -1 x14545 -1 x14546 -1 x14547 -1 x14548 >= 0 ;
+2 x14805 +2 x14806 +2 x14807 +2 x14808 -1 x14545 -1 x14546 -1 x14547 -1 x14548 -1 x14549 -1 x14550 -1 x14551 -1 x14552 >= 0 ;
+2 x14809 +2 x14810 +2 x14811 +2 x14812 -1 x14549 -1 x14550 -1 x14551 -1 x14552 -1 x14553 -1 x14554 -1 x14555 -1 x14556 >= 0 ;
+2 x14813 +2 x14814 +2 x14815 +2 x14816 -1 x14553 -1 x14554 -1 x14555 -1 x14556 -1 x14557 -1 x14558 -1 x14559 -1 x14560 >= 0 ;
+2 x14817 +2 x14818 +2 x14819 +2 x14820 -1 x14557 -1 x14558 -1 x14559 -1 x14560 -1 x14561 -1 x14562 -1 x14563 -1 x14564 >= 0 ;
+2 x14821 +2 x14822 +2 x14823 +2 x14824 -1 x14561 -1 x14562 -1 x14563 -1 x14564 -1 x14565 -1 x14566 -1 x14567 -1 x14568 >= 0 ;
+2 x14825 +2 x14826 +2 x14827 +2 x14828 -1 x14565 -1 x14566 -1 x14567 -1 x14568 -1 x14569 -1 x14570 -1 x14571 -1 x14572 >= 0 ;
+2 x14829 +2 x14830 +2 x14831 +2 x14832 -1 x14569 -1 x14570 -1 x14571 -1 x14572 -1 x14573 -1 x14574 -1 x14575 -1 x14576 >= 0 ;
+2 x14833 +2 x14834 +2 x14835 +2 x14836 -1 x14573 -1 x14574 -1 x14575 -1 x14576 -1 x14577 -1 x14578 -1 x14579 -1 x14580 >= 0 ;
+2 x14837 +2 x14838 +2 x14839 +2 x14840 -1 x14577 -1 x14578 -1 x14579 -1 x14580 -1 x14581 -1 x14582 -1 x14583 -1 x14584 >= 0 ;
+2 x14841 +2 x14842 +2 x14843 +2 x14844 -1 x14581 -1 x14582 -1 x14583 -1 x14584 -1 x14585 -1 x14586 -1 x14587 -1 x14588 >= 0 ;
+2 x14845 +2 x14846 +2 x14847 +2 x14848 -1 x14585 -1 x14586 -1 x14587 -1 x14588 -1 x14589 -1 x14590 -1 x14591 -1 x14592 >= 0 ;
+2 x14849 +2 x14850 +2 x14851 +2 x14852 -1 x14593 -1 x14594 -1 x14595 -1 x14596 -1 x14845 -1 x14846 -1 x14847 -1 x14848 >= 0 ;
+2 x14853 +2 x14854 +2 x14855 +2 x14856 -1 x14593 -1 x14594 -1 x14595 -1 x14596 -1 x14597 -1 x14598 -1 x14599 -1 x14600 >= 0 ;
+2 x14857 +2 x14858 +2 x14859 +2 x14860 -1 x14597 -1 x14598 -1 x14599 -1 x14600 -1 x14601 -1 x14602 -1 x14603 -1 x14604 >= 0 ;
+2 x14861 +2 x14862 +2 x14863 +2 x14864 -1 x14601 -1 x14602 -1 x14603 -1 x14604 -1 x14605 -1 x14606 -1 x14607 -1 x14608 >= 0 ;
+2 x14865 +2 x14866 +2 x14867 +2 x14868 -1 x14605 -1 x14606 -1 x14607 -1 x14608 -1 x14609 -1 x14610 -1 x14611 -1 x14612 >= 0 ;
+2 x14869 +2 x14870 +2 x14871 +2 x14872 -1 x14609 -1 x14610 -1 x14611 -1 x14612 -1 x14613 -1 x14614 -1 x14615 -1 x14616 >= 0 ;
+2 x14873 +2 x14874 +2 x14875 +2 x14876 -1 x14613 -1 x14614 -1 x14615 -1 x14616 -1 x14617 -1 x14618 -1 x14619 -1 x14620 >= 0 ;
+2 x14877 +2 x14878 +2 x14879 +2 x14880 -1 x14617 -1 x14618 -1 x14619 -1 x14620 -1 x14621 -1 x14622 -1 x14623 -1 x14624 >= 0 ;
+2 x14881 +2 x14882 +2 x14883 +2 x14884 -1 x14621 -1 x14622 -1 x14623 -1 x14624 -1 x14625 -1 x14626 -1 x14627 -1 x14628 >= 0 ;
+2 x14885 +2 x14886 +2 x14887 +2 x14888 -1 x14625 -1 x14626 -1 x14627 -1 x14628 -1 x14629 -1 x14630 -1 x14631 -1 x14632 >= 0 ;
+2 x14889 +2 x14890 +2 x14891 +2 x14892 -1 x14629 -1 x14630 -1 x14631 -1 x14632 -1 x14633 -1 x14634 -1 x14635 -1 x14636 >= 0 ;
+2 x14893 +2 x14894 +2 x14895 +2 x14896 -1 x14633 -1 x14634 -1 x14635 -1 x14636 -1 x14637 -1 x14638 -1 x14639 -1 x14640 >= 0 ;
+2 x14897 +2 x14898 +2 x14899 +2 x14900 -1 x14637 -1 x14638 -1 x14639 -1 x14640 -1 x14641 -1 x14642 -1 x14643 -1 x14644 >= 0 ;
+2 x14901 +2 x14902 +2 x14903 +2 x14904 -1 x14641 -1 x14642 -1 x14643 -1 x14644 -1 x14645 -1 x14646 -1 x14647 -1 x14648 >= 0 ;
+2 x14905 +2 x14906 +2 x14907 +2 x14908 -1 x14645 -1 x14646 -1 x14647 -1 x14648 -1 x14649 -1 x14650 -1 x14651 -1 x14652 >= 0 ;
+2 x14909 +2 x14910 +2 x14911 +2 x14912 -1 x14649 -1 x14650 -1 x14651 -1 x14652 -1 x14653 -1 x14654 -1 x14655 -1 x14656 >= 0 ;
+2 x14913 +2 x14914 +2 x14915 +2 x14916 -1 x14653 -1 x14654 -1 x14655 -1 x14656 -1 x14657 -1 x14658 -1 x14659 -1 x14660 >= 0 ;
+2 x14917 +2 x14918 +2 x14919 +2 x14920 -1 x14657 -1 x14658 -1 x14659 -1 x14660 -1 x14661 -1 x14662 -1 x14663 -1 x14664 >= 0 ;
+2 x14921 +2 x14922 +2 x14923 +2 x14924 -1 x14661 -1 x14662 -1 x14663 -1 x14664 -1 x14665 -1 x14666 -1 x14667 -1 x14668 >= 0 ;
+2 x14925 +2 x14926 +2 x14927 +2 x14928 -1 x14665 -1 x14666 -1 x14667 -1 x14668 -1 x14669 -1 x14670 -1 x14671 -1 x14672 >= 0 ;
+2 x14929 +2 x14930 +2 x14931 +2 x14932 -1 x14669 -1 x14670 -1 x14671 -1 x14672 -1 x14673 -1 x14674 -1 x14675 -1 x14676 >= 0 ;
+2 x14933 +2 x14934 +2 x14935 +2 x14936 -1 x14673 -1 x14674 -1 x14675 -1 x14676 -1 x14677 -1 x14678 -1 x14679 -1 x14680 >= 0 ;
+2 x14937 +2 x14938 +2 x14939 +2 x14940 -1 x14677 -1 x14678 -1 x14679 -1 x14680 -1 x14681 -1 x14682 -1 x14683 -1 x14684 >= 0 ;
+2 x14941 +2 x14942 +2 x14943 +2 x14944 -1 x14681 -1 x14682 -1 x14683 -1 x14684 -1 x14685 -1 x14686 -1 x14687 -1 x14688 >= 0 ;
+2 x14945 +2 x14946 +2 x14947 +2 x14948 -1 x14685 -1 x14686 -1 x14687 -1 x14688 -1 x14689 -1 x14690 -1 x14691 -1 x14692 >= 0 ;
+2 x14949 +2 x14950 +2 x14951 +2 x14952 -1 x14689 -1 x14690 -1 x14691 -1 x14692 -1 x14693 -1 x14694 -1 x14695 -1 x14696 >= 0 ;
+2 x14953 +2 x14954 +2 x14955 +2 x14956 -1 x14693 -1 x14694 -1 x14695 -1 x14696 -1 x14697 -1 x14698 -1 x14699 -1 x14700 >= 0 ;
+2 x14957 +2 x14958 +2 x14959 +2 x14960 -1 x14697 -1 x14698 -1 x14699 -1 x14700 -1 x14701 -1 x14702 -1 x14703 -1 x14704 >= 0 ;
+2 x14961 +2 x14962 +2 x14963 +2 x14964 -1 x14701 -1 x14702 -1 x14703 -1 x14704 -1 x14705 -1 x14706 -1 x14707 -1 x14708 >= 0 ;
+2 x14965 +2 x14966 +2 x14967 +2 x14968 -1 x14705 -1 x14706 -1 x14707 -1 x14708 -1 x14709 -1 x14710 -1 x14711 -1 x14712 >= 0 ;
+2 x14969 +2 x14970 +2 x14971 +2 x14972 -1 x14709 -1 x14710 -1 x14711 -1 x14712 -1 x14713 -1 x14714 -1 x14715 -1 x14716 >= 0 ;
+2 x14973 +2 x14974 +2 x14975 +2 x14976 -1 x14713 -1 x14714 -1 x14715 -1 x14716 -1 x14717 -1 x14718 -1 x14719 -1 x14720 >= 0 ;
+2 x14977 +2 x14978 +2 x14979 +2 x14980 -1 x14717 -1 x14718 -1 x14719 -1 x14720 -1 x14721 -1 x14722 -1 x14723 -1 x14724 >= 0 ;
+2 x14981 +2 x14982 +2 x14983 +2 x14984 -1 x14721 -1 x14722 -1 x14723 -1 x14724 -1 x14725 -1 x14726 -1 x14727 -1 x14728 >= 0 ;
+2 x14985 +2 x14986 +2 x14987 +2 x14988 -1 x14725 -1 x14726 -1 x14727 -1 x14728 -1 x14729 -1 x14730 -1 x14731 -1 x14732 >= 0 ;
+2 x14989 +2 x14990 +2 x14991 +2 x14992 -1 x14729 -1 x14730 -1 x14731 -1 x14732 -1 x14733 -1 x14734 -1 x14735 -1 x14736 >= 0 ;
+2 x14993 +2 x14994 +2 x14995 +2 x14996 -1 x14733 -1 x14734 -1 x14735 -1 x14736 -1 x14737 -1 x14738 -1 x14739 -1 x14740 >= 0 ;
+2 x14997 +2 x14998 +2 x14999 +2 x15000 -1 x14737 -1 x14738 -1 x14739 -1 x14740 -1 x14741 -1 x14742 -1 x14743 -1 x14744 >= 0 ;
+2 x15001 +2 x15002 +2 x15003 +2 x15004 -1 x14741 -1 x14742 -1 x14743 -1 x14744 -1 x14745 -1 x14746 -1 x14747 -1 x14748 >= 0 ;
+2 x15005 +2 x15006 +2 x15007 +2 x15008 -1 x14745 -1 x14746 -1 x14747 -1 x14748 -1 x14749 -1 x14750 -1 x14751 -1 x14752 >= 0 ;
+2 x15009 +2 x15010 +2 x15011 +2 x15012 -1 x14749 -1 x14750 -1 x14751 -1 x14752 -1 x14753 -1 x14754 -1 x14755 -1 x14756 >= 0 ;
+2 x15013 +2 x15014 +2 x15015 +2 x15016 -1 x14753 -1 x14754 -1 x14755 -1 x14756 -1 x14757 -1 x14758 -1 x14759 -1 x14760 >= 0 ;
+2 x15017 +2 x15018 +2 x15019 +2 x15020 -1 x14757 -1 x14758 -1 x14759 -1 x14760 -1 x14761 -1 x14762 -1 x14763 -1 x14764 >= 0 ;
+2 x15021 +2 x15022 +2 x15023 +2 x15024 -1 x14761 -1 x14762 -1 x14763 -1 x14764 -1 x14765 -1 x14766 -1 x14767 -1 x14768 >= 0 ;
+2 x15025 +2 x15026 +2 x15027 +2 x15028 -1 x14765 -1 x14766 -1 x14767 -1 x14768 -1 x14769 -1 x14770 -1 x14771 -1 x14772 >= 0 ;
+2 x15029 +2 x15030 +2 x15031 +2 x15032 -1 x14769 -1 x14770 -1 x14771 -1 x14772 -1 x14773 -1 x14774 -1 x14775 -1 x14776 >= 0 ;
+2 x15033 +2 x15034 +2 x15035 +2 x15036 -1 x14773 -1 x14774 -1 x14775 -1 x14776 -1 x14777 -1 x14778 -1 x14779 -1 x14780 >= 0 ;
+2 x15037 +2 x15038 +2 x15039 +2 x15040 -1 x14777 -1 x14778 -1 x14779 -1 x14780 -1 x14781 -1 x14782 -1 x14783 -1 x14784 >= 0 ;
+2 x15041 +2 x15042 +2 x15043 +2 x15044 -1 x14781 -1 x14782 -1 x14783 -1 x14784 -1 x14785 -1 x14786 -1 x14787 -1 x14788 >= 0 ;
+2 x15045 +2 x15046 +2 x15047 +2 x15048 -1 x14785 -1 x14786 -1 x14787 -1 x14788 -1 x14789 -1 x14790 -1 x14791 -1 x14792 >= 0 ;
+2 x15049 +2 x15050 +2 x15051 +2 x15052 -1 x14789 -1 x14790 -1 x14791 -1 x14792 -1 x14793 -1 x14794 -1 x14795 -1 x14796 >= 0 ;
+2 x15053 +2 x15054 +2 x15055 +2 x15056 -1 x14793 -1 x14794 -1 x14795 -1 x14796 -1 x14797 -1 x14798 -1 x14799 -1 x14800 >= 0 ;
+2 x15057 +2 x15058 +2 x15059 +2 x15060 -1 x14797 -1 x14798 -1 x14799 -1 x14800 -1 x14801 -1 x14802 -1 x14803 -1 x14804 >= 0 ;
+2 x15061 +2 x15062 +2 x15063 +2 x15064 -1 x14801 -1 x14802 -1 x14803 -1 x14804 -1 x14805 -1 x14806 -1 x14807 -1 x14808 >= 0 ;
+2 x15065 +2 x15066 +2 x15067 +2 x15068 -1 x14805 -1 x14806 -1 x14807 -1 x14808 -1 x14809 -1 x14810 -1 x14811 -1 x14812 >= 0 ;
+2 x15069 +2 x15070 +2 x15071 +2 x15072 -1 x14809 -1 x14810 -1 x14811 -1 x14812 -1 x14813 -1 x14814 -1 x14815 -1 x14816 >= 0 ;
+2 x15073 +2 x15074 +2 x15075 +2 x15076 -1 x14813 -1 x14814 -1 x14815 -1 x14816 -1 x14817 -1 x14818 -1 x14819 -1 x14820 >= 0 ;
+2 x15077 +2 x15078 +2 x15079 +2 x15080 -1 x14817 -1 x14818 -1 x14819 -1 x14820 -1 x14821 -1 x14822 -1 x14823 -1 x14824 >= 0 ;
+2 x15081 +2 x15082 +2 x15083 +2 x15084 -1 x14821 -1 x14822 -1 x14823 -1 x14824 -1 x14825 -1 x14826 -1 x14827 -1 x14828 >= 0 ;
+2 x15085 +2 x15086 +2 x15087 +2 x15088 -1 x14825 -1 x14826 -1 x14827 -1 x14828 -1 x14829 -1 x14830 -1 x14831 -1 x14832 >= 0 ;
+2 x15089 +2 x15090 +2 x15091 +2 x15092 -1 x14829 -1 x14830 -1 x14831 -1 x14832 -1 x14833 -1 x14834 -1 x14835 -1 x14836 >= 0 ;
+2 x15093 +2 x15094 +2 x15095 +2 x15096 -1 x14833 -1 x14834 -1 x14835 -1 x14836 -1 x14837 -1 x14838 -1 x14839 -1 x14840 >= 0 ;
+2 x15097 +2 x15098 +2 x15099 +2 x15100 -1 x14837 -1 x14838 -1 x14839 -1 x14840 -1 x14841 -1 x14842 -1 x14843 -1 x14844 >= 0 ;
+2 x15101 +2 x15102 +2 x15103 +2 x15104 -1 x14841 -1 x14842 -1 x14843 -1 x14844 -1 x14845 -1 x14846 -1 x14847 -1 x14848 >= 0 ;
+2 x15105 +2 x15106 +2 x15107 +2 x15108 -1 x14849 -1 x14850 -1 x14851 -1 x14852 -1 x15101 -1 x15102 -1 x15103 -1 x15104 >= 0 ;
+2 x15109 +2 x15110 +2 x15111 +2 x15112 -1 x14849 -1 x14850 -1 x14851 -1 x14852 -1 x14853 -1 x14854 -1 x14855 -1 x14856 >= 0 ;
+2 x15113 +2 x15114 +2 x15115 +2 x15116 -1 x14853 -1 x14854 -1 x14855 -1 x14856 -1 x14857 -1 x14858 -1 x14859 -1 x14860 >= 0 ;
+2 x15117 +2 x15118 +2 x15119 +2 x15120 -1 x14857 -1 x14858 -1 x14859 -1 x14860 -1 x14861 -1 x14862 -1 x14863 -1 x14864 >= 0 ;
+2 x15121 +2 x15122 +2 x15123 +2 x15124 -1 x14861 -1 x14862 -1 x14863 -1 x14864 -1 x14865 -1 x14866 -1 x14867 -1 x14868 >= 0 ;
+2 x15125 +2 x15126 +2 x15127 +2 x15128 -1 x14865 -1 x14866 -1 x14867 -1 x14868 -1 x14869 -1 x14870 -1 x14871 -1 x14872 >= 0 ;
+2 x15129 +2 x15130 +2 x15131 +2 x15132 -1 x14869 -1 x14870 -1 x14871 -1 x14872 -1 x14873 -1 x14874 -1 x14875 -1 x14876 >= 0 ;
+2 x15133 +2 x15134 +2 x15135 +2 x15136 -1 x14873 -1 x14874 -1 x14875 -1 x14876 -1 x14877 -1 x14878 -1 x14879 -1 x14880 >= 0 ;
+2 x15137 +2 x15138 +2 x15139 +2 x15140 -1 x14877 -1 x14878 -1 x14879 -1 x14880 -1 x14881 -1 x14882 -1 x14883 -1 x14884 >= 0 ;
+2 x15141 +2 x15142 +2 x15143 +2 x15144 -1 x14881 -1 x14882 -1 x14883 -1 x14884 -1 x14885 -1 x14886 -1 x14887 -1 x14888 >= 0 ;
+2 x15145 +2 x15146 +2 x15147 +2 x15148 -1 x14885 -1 x14886 -1 x14887 -1 x14888 -1 x14889 -1 x14890 -1 x14891 -1 x14892 >= 0 ;
+2 x15149 +2 x15150 +2 x15151 +2 x15152 -1 x14889 -1 x14890 -1 x14891 -1 x14892 -1 x14893 -1 x14894 -1 x14895 -1 x14896 >= 0 ;
+2 x15153 +2 x15154 +2 x15155 +2 x15156 -1 x14893 -1 x14894 -1 x14895 -1 x14896 -1 x14897 -1 x14898 -1 x14899 -1 x14900 >= 0 ;
+2 x15157 +2 x15158 +2 x15159 +2 x15160 -1 x14897 -1 x14898 -1 x14899 -1 x14900 -1 x14901 -1 x14902 -1 x14903 -1 x14904 >= 0 ;
+2 x15161 +2 x15162 +2 x15163 +2 x15164 -1 x14901 -1 x14902 -1 x14903 -1 x14904 -1 x14905 -1 x14906 -1 x14907 -1 x14908 >= 0 ;
+2 x15165 +2 x15166 +2 x15167 +2 x15168 -1 x14905 -1 x14906 -1 x14907 -1 x14908 -1 x14909 -1 x14910 -1 x14911 -1 x14912 >= 0 ;
+2 x15169 +2 x15170 +2 x15171 +2 x15172 -1 x14909 -1 x14910 -1 x14911 -1 x14912 -1 x14913 -1 x14914 -1 x14915 -1 x14916 >= 0 ;
+2 x15173 +2 x15174 +2 x15175 +2 x15176 -1 x14913 -1 x14914 -1 x14915 -1 x14916 -1 x14917 -1 x14918 -1 x14919 -1 x14920 >= 0 ;
+2 x15177 +2 x15178 +2 x15179 +2 x15180 -1 x14917 -1 x14918 -1 x14919 -1 x14920 -1 x14921 -1 x14922 -1 x14923 -1 x14924 >= 0 ;
+2 x15181 +2 x15182 +2 x15183 +2 x15184 -1 x14921 -1 x14922 -1 x14923 -1 x14924 -1 x14925 -1 x14926 -1 x14927 -1 x14928 >= 0 ;
+2 x15185 +2 x15186 +2 x15187 +2 x15188 -1 x14925 -1 x14926 -1 x14927 -1 x14928 -1 x14929 -1 x14930 -1 x14931 -1 x14932 >= 0 ;
+2 x15189 +2 x15190 +2 x15191 +2 x15192 -1 x14929 -1 x14930 -1 x14931 -1 x14932 -1 x14933 -1 x14934 -1 x14935 -1 x14936 >= 0 ;
+2 x15193 +2 x15194 +2 x15195 +2 x15196 -1 x14933 -1 x14934 -1 x14935 -1 x14936 -1 x14937 -1 x14938 -1 x14939 -1 x14940 >= 0 ;
+2 x15197 +2 x15198 +2 x15199 +2 x15200 -1 x14937 -1 x14938 -1 x14939 -1 x14940 -1 x14941 -1 x14942 -1 x14943 -1 x14944 >= 0 ;
+2 x15201 +2 x15202 +2 x15203 +2 x15204 -1 x14941 -1 x14942 -1 x14943 -1 x14944 -1 x14945 -1 x14946 -1 x14947 -1 x14948 >= 0 ;
+2 x15205 +2 x15206 +2 x15207 +2 x15208 -1 x14945 -1 x14946 -1 x14947 -1 x14948 -1 x14949 -1 x14950 -1 x14951 -1 x14952 >= 0 ;
+2 x15209 +2 x15210 +2 x15211 +2 x15212 -1 x14949 -1 x14950 -1 x14951 -1 x14952 -1 x14953 -1 x14954 -1 x14955 -1 x14956 >= 0 ;
+2 x15213 +2 x15214 +2 x15215 +2 x15216 -1 x14953 -1 x14954 -1 x14955 -1 x14956 -1 x14957 -1 x14958 -1 x14959 -1 x14960 >= 0 ;
+2 x15217 +2 x15218 +2 x15219 +2 x15220 -1 x14957 -1 x14958 -1 x14959 -1 x14960 -1 x14961 -1 x14962 -1 x14963 -1 x14964 >= 0 ;
+2 x15221 +2 x15222 +2 x15223 +2 x15224 -1 x14961 -1 x14962 -1 x14963 -1 x14964 -1 x14965 -1 x14966 -1 x14967 -1 x14968 >= 0 ;
+2 x15225 +2 x15226 +2 x15227 +2 x15228 -1 x14965 -1 x14966 -1 x14967 -1 x14968 -1 x14969 -1 x14970 -1 x14971 -1 x14972 >= 0 ;
+2 x15229 +2 x15230 +2 x15231 +2 x15232 -1 x14969 -1 x14970 -1 x14971 -1 x14972 -1 x14973 -1 x14974 -1 x14975 -1 x14976 >= 0 ;
+2 x15233 +2 x15234 +2 x15235 +2 x15236 -1 x14973 -1 x14974 -1 x14975 -1 x14976 -1 x14977 -1 x14978 -1 x14979 -1 x14980 >= 0 ;
+2 x15237 +2 x15238 +2 x15239 +2 x15240 -1 x14977 -1 x14978 -1 x14979 -1 x14980 -1 x14981 -1 x14982 -1 x14983 -1 x14984 >= 0 ;
+2 x15241 +2 x15242 +2 x15243 +2 x15244 -1 x14981 -1 x14982 -1 x14983 -1 x14984 -1 x14985 -1 x14986 -1 x14987 -1 x14988 >= 0 ;
+2 x15245 +2 x15246 +2 x15247 +2 x15248 -1 x14985 -1 x14986 -1 x14987 -1 x14988 -1 x14989 -1 x14990 -1 x14991 -1 x14992 >= 0 ;
+2 x15249 +2 x15250 +2 x15251 +2 x15252 -1 x14989 -1 x14990 -1 x14991 -1 x14992 -1 x14993 -1 x14994 -1 x14995 -1 x14996 >= 0 ;
+2 x15253 +2 x15254 +2 x15255 +2 x15256 -1 x14993 -1 x14994 -1 x14995 -1 x14996 -1 x14997 -1 x14998 -1 x14999 -1 x15000 >= 0 ;
+2 x15257 +2 x15258 +2 x15259 +2 x15260 -1 x14997 -1 x14998 -1 x14999 -1 x15000 -1 x15001 -1 x15002 -1 x15003 -1 x15004 >= 0 ;
+2 x15261 +2 x15262 +2 x15263 +2 x15264 -1 x15001 -1 x15002 -1 x15003 -1 x15004 -1 x15005 -1 x15006 -1 x15007 -1 x15008 >= 0 ;
+2 x15265 +2 x15266 +2 x15267 +2 x15268 -1 x15005 -1 x15006 -1 x15007 -1 x15008 -1 x15009 -1 x15010 -1 x15011 -1 x15012 >= 0 ;
+2 x15269 +2 x15270 +2 x15271 +2 x15272 -1 x15009 -1 x15010 -1 x15011 -1 x15012 -1 x15013 -1 x15014 -1 x15015 -1 x15016 >= 0 ;
+2 x15273 +2 x15274 +2 x15275 +2 x15276 -1 x15013 -1 x15014 -1 x15015 -1 x15016 -1 x15017 -1 x15018 -1 x15019 -1 x15020 >= 0 ;
+2 x15277 +2 x15278 +2 x15279 +2 x15280 -1 x15017 -1 x15018 -1 x15019 -1 x15020 -1 x15021 -1 x15022 -1 x15023 -1 x15024 >= 0 ;
+2 x15281 +2 x15282 +2 x15283 +2 x15284 -1 x15021 -1 x15022 -1 x15023 -1 x15024 -1 x15025 -1 x15026 -1 x15027 -1 x15028 >= 0 ;
+2 x15285 +2 x15286 +2 x15287 +2 x15288 -1 x15025 -1 x15026 -1 x15027 -1 x15028 -1 x15029 -1 x15030 -1 x15031 -1 x15032 >= 0 ;
+2 x15289 +2 x15290 +2 x15291 +2 x15292 -1 x15029 -1 x15030 -1 x15031 -1 x15032 -1 x15033 -1 x15034 -1 x15035 -1 x15036 >= 0 ;
+2 x15293 +2 x15294 +2 x15295 +2 x15296 -1 x15033 -1 x15034 -1 x15035 -1 x15036 -1 x15037 -1 x15038 -1 x15039 -1 x15040 >= 0 ;
+2 x15297 +2 x15298 +2 x15299 +2 x15300 -1 x15037 -1 x15038 -1 x15039 -1 x15040 -1 x15041 -1 x15042 -1 x15043 -1 x15044 >= 0 ;
+2 x15301 +2 x15302 +2 x15303 +2 x15304 -1 x15041 -1 x15042 -1 x15043 -1 x15044 -1 x15045 -1 x15046 -1 x15047 -1 x15048 >= 0 ;
+2 x15305 +2 x15306 +2 x15307 +2 x15308 -1 x15045 -1 x15046 -1 x15047 -1 x15048 -1 x15049 -1 x15050 -1 x15051 -1 x15052 >= 0 ;
+2 x15309 +2 x15310 +2 x15311 +2 x15312 -1 x15049 -1 x15050 -1 x15051 -1 x15052 -1 x15053 -1 x15054 -1 x15055 -1 x15056 >= 0 ;
+2 x15313 +2 x15314 +2 x15315 +2 x15316 -1 x15053 -1 x15054 -1 x15055 -1 x15056 -1 x15057 -1 x15058 -1 x15059 -1 x15060 >= 0 ;
+2 x15317 +2 x15318 +2 x15319 +2 x15320 -1 x15057 -1 x15058 -1 x15059 -1 x15060 -1 x15061 -1 x15062 -1 x15063 -1 x15064 >= 0 ;
+2 x15321 +2 x15322 +2 x15323 +2 x15324 -1 x15061 -1 x15062 -1 x15063 -1 x15064 -1 x15065 -1 x15066 -1 x15067 -1 x15068 >= 0 ;
+2 x15325 +2 x15326 +2 x15327 +2 x15328 -1 x15065 -1 x15066 -1 x15067 -1 x15068 -1 x15069 -1 x15070 -1 x15071 -1 x15072 >= 0 ;
+2 x15329 +2 x15330 +2 x15331 +2 x15332 -1 x15069 -1 x15070 -1 x15071 -1 x15072 -1 x15073 -1 x15074 -1 x15075 -1 x15076 >= 0 ;
+2 x15333 +2 x15334 +2 x15335 +2 x15336 -1 x15073 -1 x15074 -1 x15075 -1 x15076 -1 x15077 -1 x15078 -1 x15079 -1 x15080 >= 0 ;
+2 x15337 +2 x15338 +2 x15339 +2 x15340 -1 x15077 -1 x15078 -1 x15079 -1 x15080 -1 x15081 -1 x15082 -1 x15083 -1 x15084 >= 0 ;
+2 x15341 +2 x15342 +2 x15343 +2 x15344 -1 x15081 -1 x15082 -1 x15083 -1 x15084 -1 x15085 -1 x15086 -1 x15087 -1 x15088 >= 0 ;
+2 x15345 +2 x15346 +2 x15347 +2 x15348 -1 x15085 -1 x15086 -1 x15087 -1 x15088 -1 x15089 -1 x15090 -1 x15091 -1 x15092 >= 0 ;
+2 x15349 +2 x15350 +2 x15351 +2 x15352 -1 x15089 -1 x15090 -1 x15091 -1 x15092 -1 x15093 -1 x15094 -1 x15095 -1 x15096 >= 0 ;
+2 x15353 +2 x15354 +2 x15355 +2 x15356 -1 x15093 -1 x15094 -1 x15095 -1 x15096 -1 x15097 -1 x15098 -1 x15099 -1 x15100 >= 0 ;
+2 x15357 +2 x15358 +2 x15359 +2 x15360 -1 x15097 -1 x15098 -1 x15099 -1 x15100 -1 x15101 -1 x15102 -1 x15103 -1 x15104 >= 0 ;
+2 x15361 +2 x15362 +2 x15363 +2 x15364 -1 x15105 -1 x15106 -1 x15107 -1 x15108 -1 x15357 -1 x15358 -1 x15359 -1 x15360 >= 0 ;
+2 x15365 +2 x15366 +2 x15367 +2 x15368 -1 x15105 -1 x15106 -1 x15107 -1 x15108 -1 x15109 -1 x15110 -1 x15111 -1 x15112 >= 0 ;
+2 x15369 +2 x15370 +2 x15371 +2 x15372 -1 x15109 -1 x15110 -1 x15111 -1 x15112 -1 x15113 -1 x15114 -1 x15115 -1 x15116 >= 0 ;
+2 x15373 +2 x15374 +2 x15375 +2 x15376 -1 x15113 -1 x15114 -1 x15115 -1 x15116 -1 x15117 -1 x15118 -1 x15119 -1 x15120 >= 0 ;
+2 x15377 +2 x15378 +2 x15379 +2 x15380 -1 x15117 -1 x15118 -1 x15119 -1 x15120 -1 x15121 -1 x15122 -1 x15123 -1 x15124 >= 0 ;
+2 x15381 +2 x15382 +2 x15383 +2 x15384 -1 x15121 -1 x15122 -1 x15123 -1 x15124 -1 x15125 -1 x15126 -1 x15127 -1 x15128 >= 0 ;
+2 x15385 +2 x15386 +2 x15387 +2 x15388 -1 x15125 -1 x15126 -1 x15127 -1 x15128 -1 x15129 -1 x15130 -1 x15131 -1 x15132 >= 0 ;
+2 x15389 +2 x15390 +2 x15391 +2 x15392 -1 x15129 -1 x15130 -1 x15131 -1 x15132 -1 x15133 -1 x15134 -1 x15135 -1 x15136 >= 0 ;
+2 x15393 +2 x15394 +2 x15395 +2 x15396 -1 x15133 -1 x15134 -1 x15135 -1 x15136 -1 x15137 -1 x15138 -1 x15139 -1 x15140 >= 0 ;
+2 x15397 +2 x15398 +2 x15399 +2 x15400 -1 x15137 -1 x15138 -1 x15139 -1 x15140 -1 x15141 -1 x15142 -1 x15143 -1 x15144 >= 0 ;
+2 x15401 +2 x15402 +2 x15403 +2 x15404 -1 x15141 -1 x15142 -1 x15143 -1 x15144 -1 x15145 -1 x15146 -1 x15147 -1 x15148 >= 0 ;
+2 x15405 +2 x15406 +2 x15407 +2 x15408 -1 x15145 -1 x15146 -1 x15147 -1 x15148 -1 x15149 -1 x15150 -1 x15151 -1 x15152 >= 0 ;
+2 x15409 +2 x15410 +2 x15411 +2 x15412 -1 x15149 -1 x15150 -1 x15151 -1 x15152 -1 x15153 -1 x15154 -1 x15155 -1 x15156 >= 0 ;
+2 x15413 +2 x15414 +2 x15415 +2 x15416 -1 x15153 -1 x15154 -1 x15155 -1 x15156 -1 x15157 -1 x15158 -1 x15159 -1 x15160 >= 0 ;
+2 x15417 +2 x15418 +2 x15419 +2 x15420 -1 x15157 -1 x15158 -1 x15159 -1 x15160 -1 x15161 -1 x15162 -1 x15163 -1 x15164 >= 0 ;
+2 x15421 +2 x15422 +2 x15423 +2 x15424 -1 x15161 -1 x15162 -1 x15163 -1 x15164 -1 x15165 -1 x15166 -1 x15167 -1 x15168 >= 0 ;
+2 x15425 +2 x15426 +2 x15427 +2 x15428 -1 x15165 -1 x15166 -1 x15167 -1 x15168 -1 x15169 -1 x15170 -1 x15171 -1 x15172 >= 0 ;
+2 x15429 +2 x15430 +2 x15431 +2 x15432 -1 x15169 -1 x15170 -1 x15171 -1 x15172 -1 x15173 -1 x15174 -1 x15175 -1 x15176 >= 0 ;
+2 x15433 +2 x15434 +2 x15435 +2 x15436 -1 x15173 -1 x15174 -1 x15175 -1 x15176 -1 x15177 -1 x15178 -1 x15179 -1 x15180 >= 0 ;
+2 x15437 +2 x15438 +2 x15439 +2 x15440 -1 x15177 -1 x15178 -1 x15179 -1 x15180 -1 x15181 -1 x15182 -1 x15183 -1 x15184 >= 0 ;
+2 x15441 +2 x15442 +2 x15443 +2 x15444 -1 x15181 -1 x15182 -1 x15183 -1 x15184 -1 x15185 -1 x15186 -1 x15187 -1 x15188 >= 0 ;
+2 x15445 +2 x15446 +2 x15447 +2 x15448 -1 x15185 -1 x15186 -1 x15187 -1 x15188 -1 x15189 -1 x15190 -1 x15191 -1 x15192 >= 0 ;
+2 x15449 +2 x15450 +2 x15451 +2 x15452 -1 x15189 -1 x15190 -1 x15191 -1 x15192 -1 x15193 -1 x15194 -1 x15195 -1 x15196 >= 0 ;
+2 x15453 +2 x15454 +2 x15455 +2 x15456 -1 x15193 -1 x15194 -1 x15195 -1 x15196 -1 x15197 -1 x15198 -1 x15199 -1 x15200 >= 0 ;
+2 x15457 +2 x15458 +2 x15459 +2 x15460 -1 x15197 -1 x15198 -1 x15199 -1 x15200 -1 x15201 -1 x15202 -1 x15203 -1 x15204 >= 0 ;
+2 x15461 +2 x15462 +2 x15463 +2 x15464 -1 x15201 -1 x15202 -1 x15203 -1 x15204 -1 x15205 -1 x15206 -1 x15207 -1 x15208 >= 0 ;
+2 x15465 +2 x15466 +2 x15467 +2 x15468 -1 x15205 -1 x15206 -1 x15207 -1 x15208 -1 x15209 -1 x15210 -1 x15211 -1 x15212 >= 0 ;
+2 x15469 +2 x15470 +2 x15471 +2 x15472 -1 x15209 -1 x15210 -1 x15211 -1 x15212 -1 x15213 -1 x15214 -1 x15215 -1 x15216 >= 0 ;
+2 x15473 +2 x15474 +2 x15475 +2 x15476 -1 x15213 -1 x15214 -1 x15215 -1 x15216 -1 x15217 -1 x15218 -1 x15219 -1 x15220 >= 0 ;
+2 x15477 +2 x15478 +2 x15479 +2 x15480 -1 x15217 -1 x15218 -1 x15219 -1 x15220 -1 x15221 -1 x15222 -1 x15223 -1 x15224 >= 0 ;
+2 x15481 +2 x15482 +2 x15483 +2 x15484 -1 x15221 -1 x15222 -1 x15223 -1 x15224 -1 x15225 -1 x15226 -1 x15227 -1 x15228 >= 0 ;
+2 x15485 +2 x15486 +2 x15487 +2 x15488 -1 x15225 -1 x15226 -1 x15227 -1 x15228 -1 x15229 -1 x15230 -1 x15231 -1 x15232 >= 0 ;
+2 x15489 +2 x15490 +2 x15491 +2 x15492 -1 x15229 -1 x15230 -1 x15231 -1 x15232 -1 x15233 -1 x15234 -1 x15235 -1 x15236 >= 0 ;
+2 x15493 +2 x15494 +2 x15495 +2 x15496 -1 x15233 -1 x15234 -1 x15235 -1 x15236 -1 x15237 -1 x15238 -1 x15239 -1 x15240 >= 0 ;
+2 x15497 +2 x15498 +2 x15499 +2 x15500 -1 x15237 -1 x15238 -1 x15239 -1 x15240 -1 x15241 -1 x15242 -1 x15243 -1 x15244 >= 0 ;
+2 x15501 +2 x15502 +2 x15503 +2 x15504 -1 x15241 -1 x15242 -1 x15243 -1 x15244 -1 x15245 -1 x15246 -1 x15247 -1 x15248 >= 0 ;
+2 x15505 +2 x15506 +2 x15507 +2 x15508 -1 x15245 -1 x15246 -1 x15247 -1 x15248 -1 x15249 -1 x15250 -1 x15251 -1 x15252 >= 0 ;
+2 x15509 +2 x15510 +2 x15511 +2 x15512 -1 x15249 -1 x15250 -1 x15251 -1 x15252 -1 x15253 -1 x15254 -1 x15255 -1 x15256 >= 0 ;
+2 x15513 +2 x15514 +2 x15515 +2 x15516 -1 x15253 -1 x15254 -1 x15255 -1 x15256 -1 x15257 -1 x15258 -1 x15259 -1 x15260 >= 0 ;
+2 x15517 +2 x15518 +2 x15519 +2 x15520 -1 x15257 -1 x15258 -1 x15259 -1 x15260 -1 x15261 -1 x15262 -1 x15263 -1 x15264 >= 0 ;
+2 x15521 +2 x15522 +2 x15523 +2 x15524 -1 x15261 -1 x15262 -1 x15263 -1 x15264 -1 x15265 -1 x15266 -1 x15267 -1 x15268 >= 0 ;
+2 x15525 +2 x15526 +2 x15527 +2 x15528 -1 x15265 -1 x15266 -1 x15267 -1 x15268 -1 x15269 -1 x15270 -1 x15271 -1 x15272 >= 0 ;
+2 x15529 +2 x15530 +2 x15531 +2 x15532 -1 x15269 -1 x15270 -1 x15271 -1 x15272 -1 x15273 -1 x15274 -1 x15275 -1 x15276 >= 0 ;
+2 x15533 +2 x15534 +2 x15535 +2 x15536 -1 x15273 -1 x15274 -1 x15275 -1 x15276 -1 x15277 -1 x15278 -1 x15279 -1 x15280 >= 0 ;
+2 x15537 +2 x15538 +2 x15539 +2 x15540 -1 x15277 -1 x15278 -1 x15279 -1 x15280 -1 x15281 -1 x15282 -1 x15283 -1 x15284 >= 0 ;
+2 x15541 +2 x15542 +2 x15543 +2 x15544 -1 x15281 -1 x15282 -1 x15283 -1 x15284 -1 x15285 -1 x15286 -1 x15287 -1 x15288 >= 0 ;
+2 x15545 +2 x15546 +2 x15547 +2 x15548 -1 x15285 -1 x15286 -1 x15287 -1 x15288 -1 x15289 -1 x15290 -1 x15291 -1 x15292 >= 0 ;
+2 x15549 +2 x15550 +2 x15551 +2 x15552 -1 x15289 -1 x15290 -1 x15291 -1 x15292 -1 x15293 -1 x15294 -1 x15295 -1 x15296 >= 0 ;
+2 x15553 +2 x15554 +2 x15555 +2 x15556 -1 x15293 -1 x15294 -1 x15295 -1 x15296 -1 x15297 -1 x15298 -1 x15299 -1 x15300 >= 0 ;
+2 x15557 +2 x15558 +2 x15559 +2 x15560 -1 x15297 -1 x15298 -1 x15299 -1 x15300 -1 x15301 -1 x15302 -1 x15303 -1 x15304 >= 0 ;
+2 x15561 +2 x15562 +2 x15563 +2 x15564 -1 x15301 -1 x15302 -1 x15303 -1 x15304 -1 x15305 -1 x15306 -1 x15307 -1 x15308 >= 0 ;
+2 x15565 +2 x15566 +2 x15567 +2 x15568 -1 x15305 -1 x15306 -1 x15307 -1 x15308 -1 x15309 -1 x15310 -1 x15311 -1 x15312 >= 0 ;
+2 x15569 +2 x15570 +2 x15571 +2 x15572 -1 x15309 -1 x15310 -1 x15311 -1 x15312 -1 x15313 -1 x15314 -1 x15315 -1 x15316 >= 0 ;
+2 x15573 +2 x15574 +2 x15575 +2 x15576 -1 x15313 -1 x15314 -1 x15315 -1 x15316 -1 x15317 -1 x15318 -1 x15319 -1 x15320 >= 0 ;
+2 x15577 +2 x15578 +2 x15579 +2 x15580 -1 x15317 -1 x15318 -1 x15319 -1 x15320 -1 x15321 -1 x15322 -1 x15323 -1 x15324 >= 0 ;
+2 x15581 +2 x15582 +2 x15583 +2 x15584 -1 x15321 -1 x15322 -1 x15323 -1 x15324 -1 x15325 -1 x15326 -1 x15327 -1 x15328 >= 0 ;
+2 x15585 +2 x15586 +2 x15587 +2 x15588 -1 x15325 -1 x15326 -1 x15327 -1 x15328 -1 x15329 -1 x15330 -1 x15331 -1 x15332 >= 0 ;
+2 x15589 +2 x15590 +2 x15591 +2 x15592 -1 x15329 -1 x15330 -1 x15331 -1 x15332 -1 x15333 -1 x15334 -1 x15335 -1 x15336 >= 0 ;
+2 x15593 +2 x15594 +2 x15595 +2 x15596 -1 x15333 -1 x15334 -1 x15335 -1 x15336 -1 x15337 -1 x15338 -1 x15339 -1 x15340 >= 0 ;
+2 x15597 +2 x15598 +2 x15599 +2 x15600 -1 x15337 -1 x15338 -1 x15339 -1 x15340 -1 x15341 -1 x15342 -1 x15343 -1 x15344 >= 0 ;
+2 x15601 +2 x15602 +2 x15603 +2 x15604 -1 x15341 -1 x15342 -1 x15343 -1 x15344 -1 x15345 -1 x15346 -1 x15347 -1 x15348 >= 0 ;
+2 x15605 +2 x15606 +2 x15607 +2 x15608 -1 x15345 -1 x15346 -1 x15347 -1 x15348 -1 x15349 -1 x15350 -1 x15351 -1 x15352 >= 0 ;
+2 x15609 +2 x15610 +2 x15611 +2 x15612 -1 x15349 -1 x15350 -1 x15351 -1 x15352 -1 x15353 -1 x15354 -1 x15355 -1 x15356 >= 0 ;
+2 x15613 +2 x15614 +2 x15615 +2 x15616 -1 x15353 -1 x15354 -1 x15355 -1 x15356 -1 x15357 -1 x15358 -1 x15359 -1 x15360 >= 0 ;
+2 x15617 +2 x15618 +2 x15619 +2 x15620 -1 x15361 -1 x15362 -1 x15363 -1 x15364 -1 x15613 -1 x15614 -1 x15615 -1 x15616 >= 0 ;
+2 x15621 +2 x15622 +2 x15623 +2 x15624 -1 x15361 -1 x15362 -1 x15363 -1 x15364 -1 x15365 -1 x15366 -1 x15367 -1 x15368 >= 0 ;
+2 x15625 +2 x15626 +2 x15627 +2 x15628 -1 x15365 -1 x15366 -1 x15367 -1 x15368 -1 x15369 -1 x15370 -1 x15371 -1 x15372 >= 0 ;
+2 x15629 +2 x15630 +2 x15631 +2 x15632 -1 x15369 -1 x15370 -1 x15371 -1 x15372 -1 x15373 -1 x15374 -1 x15375 -1 x15376 >= 0 ;
+2 x15633 +2 x15634 +2 x15635 +2 x15636 -1 x15373 -1 x15374 -1 x15375 -1 x15376 -1 x15377 -1 x15378 -1 x15379 -1 x15380 >= 0 ;
+2 x15637 +2 x15638 +2 x15639 +2 x15640 -1 x15377 -1 x15378 -1 x15379 -1 x15380 -1 x15381 -1 x15382 -1 x15383 -1 x15384 >= 0 ;
+2 x15641 +2 x15642 +2 x15643 +2 x15644 -1 x15381 -1 x15382 -1 x15383 -1 x15384 -1 x15385 -1 x15386 -1 x15387 -1 x15388 >= 0 ;
+2 x15645 +2 x15646 +2 x15647 +2 x15648 -1 x15385 -1 x15386 -1 x15387 -1 x15388 -1 x15389 -1 x15390 -1 x15391 -1 x15392 >= 0 ;
+2 x15649 +2 x15650 +2 x15651 +2 x15652 -1 x15389 -1 x15390 -1 x15391 -1 x15392 -1 x15393 -1 x15394 -1 x15395 -1 x15396 >= 0 ;
+2 x15653 +2 x15654 +2 x15655 +2 x15656 -1 x15393 -1 x15394 -1 x15395 -1 x15396 -1 x15397 -1 x15398 -1 x15399 -1 x15400 >= 0 ;
+2 x15657 +2 x15658 +2 x15659 +2 x15660 -1 x15397 -1 x15398 -1 x15399 -1 x15400 -1 x15401 -1 x15402 -1 x15403 -1 x15404 >= 0 ;
+2 x15661 +2 x15662 +2 x15663 +2 x15664 -1 x15401 -1 x15402 -1 x15403 -1 x15404 -1 x15405 -1 x15406 -1 x15407 -1 x15408 >= 0 ;
+2 x15665 +2 x15666 +2 x15667 +2 x15668 -1 x15405 -1 x15406 -1 x15407 -1 x15408 -1 x15409 -1 x15410 -1 x15411 -1 x15412 >= 0 ;
+2 x15669 +2 x15670 +2 x15671 +2 x15672 -1 x15409 -1 x15410 -1 x15411 -1 x15412 -1 x15413 -1 x15414 -1 x15415 -1 x15416 >= 0 ;
+2 x15673 +2 x15674 +2 x15675 +2 x15676 -1 x15413 -1 x15414 -1 x15415 -1 x15416 -1 x15417 -1 x15418 -1 x15419 -1 x15420 >= 0 ;
+2 x15677 +2 x15678 +2 x15679 +2 x15680 -1 x15417 -1 x15418 -1 x15419 -1 x15420 -1 x15421 -1 x15422 -1 x15423 -1 x15424 >= 0 ;
+2 x15681 +2 x15682 +2 x15683 +2 x15684 -1 x15421 -1 x15422 -1 x15423 -1 x15424 -1 x15425 -1 x15426 -1 x15427 -1 x15428 >= 0 ;
+2 x15685 +2 x15686 +2 x15687 +2 x15688 -1 x15425 -1 x15426 -1 x15427 -1 x15428 -1 x15429 -1 x15430 -1 x15431 -1 x15432 >= 0 ;
+2 x15689 +2 x15690 +2 x15691 +2 x15692 -1 x15429 -1 x15430 -1 x15431 -1 x15432 -1 x15433 -1 x15434 -1 x15435 -1 x15436 >= 0 ;
+2 x15693 +2 x15694 +2 x15695 +2 x15696 -1 x15433 -1 x15434 -1 x15435 -1 x15436 -1 x15437 -1 x15438 -1 x15439 -1 x15440 >= 0 ;
+2 x15697 +2 x15698 +2 x15699 +2 x15700 -1 x15437 -1 x15438 -1 x15439 -1 x15440 -1 x15441 -1 x15442 -1 x15443 -1 x15444 >= 0 ;
+2 x15701 +2 x15702 +2 x15703 +2 x15704 -1 x15441 -1 x15442 -1 x15443 -1 x15444 -1 x15445 -1 x15446 -1 x15447 -1 x15448 >= 0 ;
+2 x15705 +2 x15706 +2 x15707 +2 x15708 -1 x15445 -1 x15446 -1 x15447 -1 x15448 -1 x15449 -1 x15450 -1 x15451 -1 x15452 >= 0 ;
+2 x15709 +2 x15710 +2 x15711 +2 x15712 -1 x15449 -1 x15450 -1 x15451 -1 x15452 -1 x15453 -1 x15454 -1 x15455 -1 x15456 >= 0 ;
+2 x15713 +2 x15714 +2 x15715 +2 x15716 -1 x15453 -1 x15454 -1 x15455 -1 x15456 -1 x15457 -1 x15458 -1 x15459 -1 x15460 >= 0 ;
+2 x15717 +2 x15718 +2 x15719 +2 x15720 -1 x15457 -1 x15458 -1 x15459 -1 x15460 -1 x15461 -1 x15462 -1 x15463 -1 x15464 >= 0 ;
+2 x15721 +2 x15722 +2 x15723 +2 x15724 -1 x15461 -1 x15462 -1 x15463 -1 x15464 -1 x15465 -1 x15466 -1 x15467 -1 x15468 >= 0 ;
+2 x15725 +2 x15726 +2 x15727 +2 x15728 -1 x15465 -1 x15466 -1 x15467 -1 x15468 -1 x15469 -1 x15470 -1 x15471 -1 x15472 >= 0 ;
+2 x15729 +2 x15730 +2 x15731 +2 x15732 -1 x15469 -1 x15470 -1 x15471 -1 x15472 -1 x15473 -1 x15474 -1 x15475 -1 x15476 >= 0 ;
+2 x15733 +2 x15734 +2 x15735 +2 x15736 -1 x15473 -1 x15474 -1 x15475 -1 x15476 -1 x15477 -1 x15478 -1 x15479 -1 x15480 >= 0 ;
+2 x15737 +2 x15738 +2 x15739 +2 x15740 -1 x15477 -1 x15478 -1 x15479 -1 x15480 -1 x15481 -1 x15482 -1 x15483 -1 x15484 >= 0 ;
+2 x15741 +2 x15742 +2 x15743 +2 x15744 -1 x15481 -1 x15482 -1 x15483 -1 x15484 -1 x15485 -1 x15486 -1 x15487 -1 x15488 >= 0 ;
+2 x15745 +2 x15746 +2 x15747 +2 x15748 -1 x15485 -1 x15486 -1 x15487 -1 x15488 -1 x15489 -1 x15490 -1 x15491 -1 x15492 >= 0 ;
+2 x15749 +2 x15750 +2 x15751 +2 x15752 -1 x15489 -1 x15490 -1 x15491 -1 x15492 -1 x15493 -1 x15494 -1 x15495 -1 x15496 >= 0 ;
+2 x15753 +2 x15754 +2 x15755 +2 x15756 -1 x15493 -1 x15494 -1 x15495 -1 x15496 -1 x15497 -1 x15498 -1 x15499 -1 x15500 >= 0 ;
+2 x15757 +2 x15758 +2 x15759 +2 x15760 -1 x15497 -1 x15498 -1 x15499 -1 x15500 -1 x15501 -1 x15502 -1 x15503 -1 x15504 >= 0 ;
+2 x15761 +2 x15762 +2 x15763 +2 x15764 -1 x15501 -1 x15502 -1 x15503 -1 x15504 -1 x15505 -1 x15506 -1 x15507 -1 x15508 >= 0 ;
+2 x15765 +2 x15766 +2 x15767 +2 x15768 -1 x15505 -1 x15506 -1 x15507 -1 x15508 -1 x15509 -1 x15510 -1 x15511 -1 x15512 >= 0 ;
+2 x15769 +2 x15770 +2 x15771 +2 x15772 -1 x15509 -1 x15510 -1 x15511 -1 x15512 -1 x15513 -1 x15514 -1 x15515 -1 x15516 >= 0 ;
+2 x15773 +2 x15774 +2 x15775 +2 x15776 -1 x15513 -1 x15514 -1 x15515 -1 x15516 -1 x15517 -1 x15518 -1 x15519 -1 x15520 >= 0 ;
+2 x15777 +2 x15778 +2 x15779 +2 x15780 -1 x15517 -1 x15518 -1 x15519 -1 x15520 -1 x15521 -1 x15522 -1 x15523 -1 x15524 >= 0 ;
+2 x15781 +2 x15782 +2 x15783 +2 x15784 -1 x15521 -1 x15522 -1 x15523 -1 x15524 -1 x15525 -1 x15526 -1 x15527 -1 x15528 >= 0 ;
+2 x15785 +2 x15786 +2 x15787 +2 x15788 -1 x15525 -1 x15526 -1 x15527 -1 x15528 -1 x15529 -1 x15530 -1 x15531 -1 x15532 >= 0 ;
+2 x15789 +2 x15790 +2 x15791 +2 x15792 -1 x15529 -1 x15530 -1 x15531 -1 x15532 -1 x15533 -1 x15534 -1 x15535 -1 x15536 >= 0 ;
+2 x15793 +2 x15794 +2 x15795 +2 x15796 -1 x15533 -1 x15534 -1 x15535 -1 x15536 -1 x15537 -1 x15538 -1 x15539 -1 x15540 >= 0 ;
+2 x15797 +2 x15798 +2 x15799 +2 x15800 -1 x15537 -1 x15538 -1 x15539 -1 x15540 -1 x15541 -1 x15542 -1 x15543 -1 x15544 >= 0 ;
+2 x15801 +2 x15802 +2 x15803 +2 x15804 -1 x15541 -1 x15542 -1 x15543 -1 x15544 -1 x15545 -1 x15546 -1 x15547 -1 x15548 >= 0 ;
+2 x15805 +2 x15806 +2 x15807 +2 x15808 -1 x15545 -1 x15546 -1 x15547 -1 x15548 -1 x15549 -1 x15550 -1 x15551 -1 x15552 >= 0 ;
+2 x15809 +2 x15810 +2 x15811 +2 x15812 -1 x15549 -1 x15550 -1 x15551 -1 x15552 -1 x15553 -1 x15554 -1 x15555 -1 x15556 >= 0 ;
+2 x15813 +2 x15814 +2 x15815 +2 x15816 -1 x15553 -1 x15554 -1 x15555 -1 x15556 -1 x15557 -1 x15558 -1 x15559 -1 x15560 >= 0 ;
+2 x15817 +2 x15818 +2 x15819 +2 x15820 -1 x15557 -1 x15558 -1 x15559 -1 x15560 -1 x15561 -1 x15562 -1 x15563 -1 x15564 >= 0 ;
+2 x15821 +2 x15822 +2 x15823 +2 x15824 -1 x15561 -1 x15562 -1 x15563 -1 x15564 -1 x15565 -1 x15566 -1 x15567 -1 x15568 >= 0 ;
+2 x15825 +2 x15826 +2 x15827 +2 x15828 -1 x15565 -1 x15566 -1 x15567 -1 x15568 -1 x15569 -1 x15570 -1 x15571 -1 x15572 >= 0 ;
+2 x15829 +2 x15830 +2 x15831 +2 x15832 -1 x15569 -1 x15570 -1 x15571 -1 x15572 -1 x15573 -1 x15574 -1 x15575 -1 x15576 >= 0 ;
+2 x15833 +2 x15834 +2 x15835 +2 x15836 -1 x15573 -1 x15574 -1 x15575 -1 x15576 -1 x15577 -1 x15578 -1 x15579 -1 x15580 >= 0 ;
+2 x15837 +2 x15838 +2 x15839 +2 x15840 -1 x15577 -1 x15578 -1 x15579 -1 x15580 -1 x15581 -1 x15582 -1 x15583 -1 x15584 >= 0 ;
+2 x15841 +2 x15842 +2 x15843 +2 x15844 -1 x15581 -1 x15582 -1 x15583 -1 x15584 -1 x15585 -1 x15586 -1 x15587 -1 x15588 >= 0 ;
+2 x15845 +2 x15846 +2 x15847 +2 x15848 -1 x15585 -1 x15586 -1 x15587 -1 x15588 -1 x15589 -1 x15590 -1 x15591 -1 x15592 >= 0 ;
+2 x15849 +2 x15850 +2 x15851 +2 x15852 -1 x15589 -1 x15590 -1 x15591 -1 x15592 -1 x15593 -1 x15594 -1 x15595 -1 x15596 >= 0 ;
+2 x15853 +2 x15854 +2 x15855 +2 x15856 -1 x15593 -1 x15594 -1 x15595 -1 x15596 -1 x15597 -1 x15598 -1 x15599 -1 x15600 >= 0 ;
+2 x15857 +2 x15858 +2 x15859 +2 x15860 -1 x15597 -1 x15598 -1 x15599 -1 x15600 -1 x15601 -1 x15602 -1 x15603 -1 x15604 >= 0 ;
+2 x15861 +2 x15862 +2 x15863 +2 x15864 -1 x15601 -1 x15602 -1 x15603 -1 x15604 -1 x15605 -1 x15606 -1 x15607 -1 x15608 >= 0 ;
+2 x15865 +2 x15866 +2 x15867 +2 x15868 -1 x15605 -1 x15606 -1 x15607 -1 x15608 -1 x15609 -1 x15610 -1 x15611 -1 x15612 >= 0 ;
+2 x15869 +2 x15870 +2 x15871 +2 x15872 -1 x15609 -1 x15610 -1 x15611 -1 x15612 -1 x15613 -1 x15614 -1 x15615 -1 x15616 >= 0 ;
+2 x15873 +2 x15874 +2 x15875 +2 x15876 -1 x15617 -1 x15618 -1 x15619 -1 x15620 -1 x15869 -1 x15870 -1 x15871 -1 x15872 >= 0 ;
+2 x15877 +2 x15878 +2 x15879 +2 x15880 -1 x15617 -1 x15618 -1 x15619 -1 x15620 -1 x15621 -1 x15622 -1 x15623 -1 x15624 >= 0 ;
+2 x15881 +2 x15882 +2 x15883 +2 x15884 -1 x15621 -1 x15622 -1 x15623 -1 x15624 -1 x15625 -1 x15626 -1 x15627 -1 x15628 >= 0 ;
+2 x15885 +2 x15886 +2 x15887 +2 x15888 -1 x15625 -1 x15626 -1 x15627 -1 x15628 -1 x15629 -1 x15630 -1 x15631 -1 x15632 >= 0 ;
+2 x15889 +2 x15890 +2 x15891 +2 x15892 -1 x15629 -1 x15630 -1 x15631 -1 x15632 -1 x15633 -1 x15634 -1 x15635 -1 x15636 >= 0 ;
+2 x15893 +2 x15894 +2 x15895 +2 x15896 -1 x15633 -1 x15634 -1 x15635 -1 x15636 -1 x15637 -1 x15638 -1 x15639 -1 x15640 >= 0 ;
+2 x15897 +2 x15898 +2 x15899 +2 x15900 -1 x15637 -1 x15638 -1 x15639 -1 x15640 -1 x15641 -1 x15642 -1 x15643 -1 x15644 >= 0 ;
+2 x15901 +2 x15902 +2 x15903 +2 x15904 -1 x15641 -1 x15642 -1 x15643 -1 x15644 -1 x15645 -1 x15646 -1 x15647 -1 x15648 >= 0 ;
+2 x15905 +2 x15906 +2 x15907 +2 x15908 -1 x15645 -1 x15646 -1 x15647 -1 x15648 -1 x15649 -1 x15650 -1 x15651 -1 x15652 >= 0 ;
+2 x15909 +2 x15910 +2 x15911 +2 x15912 -1 x15649 -1 x15650 -1 x15651 -1 x15652 -1 x15653 -1 x15654 -1 x15655 -1 x15656 >= 0 ;
+2 x15913 +2 x15914 +2 x15915 +2 x15916 -1 x15653 -1 x15654 -1 x15655 -1 x15656 -1 x15657 -1 x15658 -1 x15659 -1 x15660 >= 0 ;
+2 x15917 +2 x15918 +2 x15919 +2 x15920 -1 x15657 -1 x15658 -1 x15659 -1 x15660 -1 x15661 -1 x15662 -1 x15663 -1 x15664 >= 0 ;
+2 x15921 +2 x15922 +2 x15923 +2 x15924 -1 x15661 -1 x15662 -1 x15663 -1 x15664 -1 x15665 -1 x15666 -1 x15667 -1 x15668 >= 0 ;
+2 x15925 +2 x15926 +2 x15927 +2 x15928 -1 x15665 -1 x15666 -1 x15667 -1 x15668 -1 x15669 -1 x15670 -1 x15671 -1 x15672 >= 0 ;
+2 x15929 +2 x15930 +2 x15931 +2 x15932 -1 x15669 -1 x15670 -1 x15671 -1 x15672 -1 x15673 -1 x15674 -1 x15675 -1 x15676 >= 0 ;
+2 x15933 +2 x15934 +2 x15935 +2 x15936 -1 x15673 -1 x15674 -1 x15675 -1 x15676 -1 x15677 -1 x15678 -1 x15679 -1 x15680 >= 0 ;
+2 x15937 +2 x15938 +2 x15939 +2 x15940 -1 x15677 -1 x15678 -1 x15679 -1 x15680 -1 x15681 -1 x15682 -1 x15683 -1 x15684 >= 0 ;
+2 x15941 +2 x15942 +2 x15943 +2 x15944 -1 x15681 -1 x15682 -1 x15683 -1 x15684 -1 x15685 -1 x15686 -1 x15687 -1 x15688 >= 0 ;
+2 x15945 +2 x15946 +2 x15947 +2 x15948 -1 x15685 -1 x15686 -1 x15687 -1 x15688 -1 x15689 -1 x15690 -1 x15691 -1 x15692 >= 0 ;
+2 x15949 +2 x15950 +2 x15951 +2 x15952 -1 x15689 -1 x15690 -1 x15691 -1 x15692 -1 x15693 -1 x15694 -1 x15695 -1 x15696 >= 0 ;
+2 x15953 +2 x15954 +2 x15955 +2 x15956 -1 x15693 -1 x15694 -1 x15695 -1 x15696 -1 x15697 -1 x15698 -1 x15699 -1 x15700 >= 0 ;
+2 x15957 +2 x15958 +2 x15959 +2 x15960 -1 x15697 -1 x15698 -1 x15699 -1 x15700 -1 x15701 -1 x15702 -1 x15703 -1 x15704 >= 0 ;
+2 x15961 +2 x15962 +2 x15963 +2 x15964 -1 x15701 -1 x15702 -1 x15703 -1 x15704 -1 x15705 -1 x15706 -1 x15707 -1 x15708 >= 0 ;
+2 x15965 +2 x15966 +2 x15967 +2 x15968 -1 x15705 -1 x15706 -1 x15707 -1 x15708 -1 x15709 -1 x15710 -1 x15711 -1 x15712 >= 0 ;
+2 x15969 +2 x15970 +2 x15971 +2 x15972 -1 x15709 -1 x15710 -1 x15711 -1 x15712 -1 x15713 -1 x15714 -1 x15715 -1 x15716 >= 0 ;
+2 x15973 +2 x15974 +2 x15975 +2 x15976 -1 x15713 -1 x15714 -1 x15715 -1 x15716 -1 x15717 -1 x15718 -1 x15719 -1 x15720 >= 0 ;
+2 x15977 +2 x15978 +2 x15979 +2 x15980 -1 x15717 -1 x15718 -1 x15719 -1 x15720 -1 x15721 -1 x15722 -1 x15723 -1 x15724 >= 0 ;
+2 x15981 +2 x15982 +2 x15983 +2 x15984 -1 x15721 -1 x15722 -1 x15723 -1 x15724 -1 x15725 -1 x15726 -1 x15727 -1 x15728 >= 0 ;
+2 x15985 +2 x15986 +2 x15987 +2 x15988 -1 x15725 -1 x15726 -1 x15727 -1 x15728 -1 x15729 -1 x15730 -1 x15731 -1 x15732 >= 0 ;
+2 x15989 +2 x15990 +2 x15991 +2 x15992 -1 x15729 -1 x15730 -1 x15731 -1 x15732 -1 x15733 -1 x15734 -1 x15735 -1 x15736 >= 0 ;
+2 x15993 +2 x15994 +2 x15995 +2 x15996 -1 x15733 -1 x15734 -1 x15735 -1 x15736 -1 x15737 -1 x15738 -1 x15739 -1 x15740 >= 0 ;
+2 x15997 +2 x15998 +2 x15999 +2 x16000 -1 x15737 -1 x15738 -1 x15739 -1 x15740 -1 x15741 -1 x15742 -1 x15743 -1 x15744 >= 0 ;
+2 x16001 +2 x16002 +2 x16003 +2 x16004 -1 x15741 -1 x15742 -1 x15743 -1 x15744 -1 x15745 -1 x15746 -1 x15747 -1 x15748 >= 0 ;
+2 x16005 +2 x16006 +2 x16007 +2 x16008 -1 x15745 -1 x15746 -1 x15747 -1 x15748 -1 x15749 -1 x15750 -1 x15751 -1 x15752 >= 0 ;
+2 x16009 +2 x16010 +2 x16011 +2 x16012 -1 x15749 -1 x15750 -1 x15751 -1 x15752 -1 x15753 -1 x15754 -1 x15755 -1 x15756 >= 0 ;
+2 x16013 +2 x16014 +2 x16015 +2 x16016 -1 x15753 -1 x15754 -1 x15755 -1 x15756 -1 x15757 -1 x15758 -1 x15759 -1 x15760 >= 0 ;
+2 x16017 +2 x16018 +2 x16019 +2 x16020 -1 x15757 -1 x15758 -1 x15759 -1 x15760 -1 x15761 -1 x15762 -1 x15763 -1 x15764 >= 0 ;
+2 x16021 +2 x16022 +2 x16023 +2 x16024 -1 x15761 -1 x15762 -1 x15763 -1 x15764 -1 x15765 -1 x15766 -1 x15767 -1 x15768 >= 0 ;
+2 x16025 +2 x16026 +2 x16027 +2 x16028 -1 x15765 -1 x15766 -1 x15767 -1 x15768 -1 x15769 -1 x15770 -1 x15771 -1 x15772 >= 0 ;
+2 x16029 +2 x16030 +2 x16031 +2 x16032 -1 x15769 -1 x15770 -1 x15771 -1 x15772 -1 x15773 -1 x15774 -1 x15775 -1 x15776 >= 0 ;
+2 x16033 +2 x16034 +2 x16035 +2 x16036 -1 x15773 -1 x15774 -1 x15775 -1 x15776 -1 x15777 -1 x15778 -1 x15779 -1 x15780 >= 0 ;
+2 x16037 +2 x16038 +2 x16039 +2 x16040 -1 x15777 -1 x15778 -1 x15779 -1 x15780 -1 x15781 -1 x15782 -1 x15783 -1 x15784 >= 0 ;
+2 x16041 +2 x16042 +2 x16043 +2 x16044 -1 x15781 -1 x15782 -1 x15783 -1 x15784 -1 x15785 -1 x15786 -1 x15787 -1 x15788 >= 0 ;
+2 x16045 +2 x16046 +2 x16047 +2 x16048 -1 x15785 -1 x15786 -1 x15787 -1 x15788 -1 x15789 -1 x15790 -1 x15791 -1 x15792 >= 0 ;
+2 x16049 +2 x16050 +2 x16051 +2 x16052 -1 x15789 -1 x15790 -1 x15791 -1 x15792 -1 x15793 -1 x15794 -1 x15795 -1 x15796 >= 0 ;
+2 x16053 +2 x16054 +2 x16055 +2 x16056 -1 x15793 -1 x15794 -1 x15795 -1 x15796 -1 x15797 -1 x15798 -1 x15799 -1 x15800 >= 0 ;
+2 x16057 +2 x16058 +2 x16059 +2 x16060 -1 x15797 -1 x15798 -1 x15799 -1 x15800 -1 x15801 -1 x15802 -1 x15803 -1 x15804 >= 0 ;
+2 x16061 +2 x16062 +2 x16063 +2 x16064 -1 x15801 -1 x15802 -1 x15803 -1 x15804 -1 x15805 -1 x15806 -1 x15807 -1 x15808 >= 0 ;
+2 x16065 +2 x16066 +2 x16067 +2 x16068 -1 x15805 -1 x15806 -1 x15807 -1 x15808 -1 x15809 -1 x15810 -1 x15811 -1 x15812 >= 0 ;
+2 x16069 +2 x16070 +2 x16071 +2 x16072 -1 x15809 -1 x15810 -1 x15811 -1 x15812 -1 x15813 -1 x15814 -1 x15815 -1 x15816 >= 0 ;
+2 x16073 +2 x16074 +2 x16075 +2 x16076 -1 x15813 -1 x15814 -1 x15815 -1 x15816 -1 x15817 -1 x15818 -1 x15819 -1 x15820 >= 0 ;
+2 x16077 +2 x16078 +2 x16079 +2 x16080 -1 x15817 -1 x15818 -1 x15819 -1 x15820 -1 x15821 -1 x15822 -1 x15823 -1 x15824 >= 0 ;
+2 x16081 +2 x16082 +2 x16083 +2 x16084 -1 x15821 -1 x15822 -1 x15823 -1 x15824 -1 x15825 -1 x15826 -1 x15827 -1 x15828 >= 0 ;
+2 x16085 +2 x16086 +2 x16087 +2 x16088 -1 x15825 -1 x15826 -1 x15827 -1 x15828 -1 x15829 -1 x15830 -1 x15831 -1 x15832 >= 0 ;
+2 x16089 +2 x16090 +2 x16091 +2 x16092 -1 x15829 -1 x15830 -1 x15831 -1 x15832 -1 x15833 -1 x15834 -1 x15835 -1 x15836 >= 0 ;
+2 x16093 +2 x16094 +2 x16095 +2 x16096 -1 x15833 -1 x15834 -1 x15835 -1 x15836 -1 x15837 -1 x15838 -1 x15839 -1 x15840 >= 0 ;
+2 x16097 +2 x16098 +2 x16099 +2 x16100 -1 x15837 -1 x15838 -1 x15839 -1 x15840 -1 x15841 -1 x15842 -1 x15843 -1 x15844 >= 0 ;
+2 x16101 +2 x16102 +2 x16103 +2 x16104 -1 x15841 -1 x15842 -1 x15843 -1 x15844 -1 x15845 -1 x15846 -1 x15847 -1 x15848 >= 0 ;
+2 x16105 +2 x16106 +2 x16107 +2 x16108 -1 x15845 -1 x15846 -1 x15847 -1 x15848 -1 x15849 -1 x15850 -1 x15851 -1 x15852 >= 0 ;
+2 x16109 +2 x16110 +2 x16111 +2 x16112 -1 x15849 -1 x15850 -1 x15851 -1 x15852 -1 x15853 -1 x15854 -1 x15855 -1 x15856 >= 0 ;
+2 x16113 +2 x16114 +2 x16115 +2 x16116 -1 x15853 -1 x15854 -1 x15855 -1 x15856 -1 x15857 -1 x15858 -1 x15859 -1 x15860 >= 0 ;
+2 x16117 +2 x16118 +2 x16119 +2 x16120 -1 x15857 -1 x15858 -1 x15859 -1 x15860 -1 x15861 -1 x15862 -1 x15863 -1 x15864 >= 0 ;
+2 x16121 +2 x16122 +2 x16123 +2 x16124 -1 x15861 -1 x15862 -1 x15863 -1 x15864 -1 x15865 -1 x15866 -1 x15867 -1 x15868 >= 0 ;
+2 x16125 +2 x16126 +2 x16127 +2 x16128 -1 x15865 -1 x15866 -1 x15867 -1 x15868 -1 x15869 -1 x15870 -1 x15871 -1 x15872 >= 0 ;
+2 x16129 +2 x16130 +2 x16131 +2 x16132 -1 x15873 -1 x15874 -1 x15875 -1 x15876 -1 x16125 -1 x16126 -1 x16127 -1 x16128 >= 0 ;
+2 x16133 +2 x16134 +2 x16135 +2 x16136 -1 x15873 -1 x15874 -1 x15875 -1 x15876 -1 x15877 -1 x15878 -1 x15879 -1 x15880 >= 0 ;
+2 x16137 +2 x16138 +2 x16139 +2 x16140 -1 x15877 -1 x15878 -1 x15879 -1 x15880 -1 x15881 -1 x15882 -1 x15883 -1 x15884 >= 0 ;
+2 x16141 +2 x16142 +2 x16143 +2 x16144 -1 x15881 -1 x15882 -1 x15883 -1 x15884 -1 x15885 -1 x15886 -1 x15887 -1 x15888 >= 0 ;
+2 x16145 +2 x16146 +2 x16147 +2 x16148 -1 x15885 -1 x15886 -1 x15887 -1 x15888 -1 x15889 -1 x15890 -1 x15891 -1 x15892 >= 0 ;
+2 x16149 +2 x16150 +2 x16151 +2 x16152 -1 x15889 -1 x15890 -1 x15891 -1 x15892 -1 x15893 -1 x15894 -1 x15895 -1 x15896 >= 0 ;
+2 x16153 +2 x16154 +2 x16155 +2 x16156 -1 x15893 -1 x15894 -1 x15895 -1 x15896 -1 x15897 -1 x15898 -1 x15899 -1 x15900 >= 0 ;
+2 x16157 +2 x16158 +2 x16159 +2 x16160 -1 x15897 -1 x15898 -1 x15899 -1 x15900 -1 x15901 -1 x15902 -1 x15903 -1 x15904 >= 0 ;
+2 x16161 +2 x16162 +2 x16163 +2 x16164 -1 x15901 -1 x15902 -1 x15903 -1 x15904 -1 x15905 -1 x15906 -1 x15907 -1 x15908 >= 0 ;
+2 x16165 +2 x16166 +2 x16167 +2 x16168 -1 x15905 -1 x15906 -1 x15907 -1 x15908 -1 x15909 -1 x15910 -1 x15911 -1 x15912 >= 0 ;
+2 x16169 +2 x16170 +2 x16171 +2 x16172 -1 x15909 -1 x15910 -1 x15911 -1 x15912 -1 x15913 -1 x15914 -1 x15915 -1 x15916 >= 0 ;
+2 x16173 +2 x16174 +2 x16175 +2 x16176 -1 x15913 -1 x15914 -1 x15915 -1 x15916 -1 x15917 -1 x15918 -1 x15919 -1 x15920 >= 0 ;
+2 x16177 +2 x16178 +2 x16179 +2 x16180 -1 x15917 -1 x15918 -1 x15919 -1 x15920 -1 x15921 -1 x15922 -1 x15923 -1 x15924 >= 0 ;
+2 x16181 +2 x16182 +2 x16183 +2 x16184 -1 x15921 -1 x15922 -1 x15923 -1 x15924 -1 x15925 -1 x15926 -1 x15927 -1 x15928 >= 0 ;
+2 x16185 +2 x16186 +2 x16187 +2 x16188 -1 x15925 -1 x15926 -1 x15927 -1 x15928 -1 x15929 -1 x15930 -1 x15931 -1 x15932 >= 0 ;
+2 x16189 +2 x16190 +2 x16191 +2 x16192 -1 x15929 -1 x15930 -1 x15931 -1 x15932 -1 x15933 -1 x15934 -1 x15935 -1 x15936 >= 0 ;
+2 x16193 +2 x16194 +2 x16195 +2 x16196 -1 x15933 -1 x15934 -1 x15935 -1 x15936 -1 x15937 -1 x15938 -1 x15939 -1 x15940 >= 0 ;
+2 x16197 +2 x16198 +2 x16199 +2 x16200 -1 x15937 -1 x15938 -1 x15939 -1 x15940 -1 x15941 -1 x15942 -1 x15943 -1 x15944 >= 0 ;
+2 x16201 +2 x16202 +2 x16203 +2 x16204 -1 x15941 -1 x15942 -1 x15943 -1 x15944 -1 x15945 -1 x15946 -1 x15947 -1 x15948 >= 0 ;
+2 x16205 +2 x16206 +2 x16207 +2 x16208 -1 x15945 -1 x15946 -1 x15947 -1 x15948 -1 x15949 -1 x15950 -1 x15951 -1 x15952 >= 0 ;
+2 x16209 +2 x16210 +2 x16211 +2 x16212 -1 x15949 -1 x15950 -1 x15951 -1 x15952 -1 x15953 -1 x15954 -1 x15955 -1 x15956 >= 0 ;
+2 x16213 +2 x16214 +2 x16215 +2 x16216 -1 x15953 -1 x15954 -1 x15955 -1 x15956 -1 x15957 -1 x15958 -1 x15959 -1 x15960 >= 0 ;
+2 x16217 +2 x16218 +2 x16219 +2 x16220 -1 x15957 -1 x15958 -1 x15959 -1 x15960 -1 x15961 -1 x15962 -1 x15963 -1 x15964 >= 0 ;
+2 x16221 +2 x16222 +2 x16223 +2 x16224 -1 x15961 -1 x15962 -1 x15963 -1 x15964 -1 x15965 -1 x15966 -1 x15967 -1 x15968 >= 0 ;
+2 x16225 +2 x16226 +2 x16227 +2 x16228 -1 x15965 -1 x15966 -1 x15967 -1 x15968 -1 x15969 -1 x15970 -1 x15971 -1 x15972 >= 0 ;
+2 x16229 +2 x16230 +2 x16231 +2 x16232 -1 x15969 -1 x15970 -1 x15971 -1 x15972 -1 x15973 -1 x15974 -1 x15975 -1 x15976 >= 0 ;
+2 x16233 +2 x16234 +2 x16235 +2 x16236 -1 x15973 -1 x15974 -1 x15975 -1 x15976 -1 x15977 -1 x15978 -1 x15979 -1 x15980 >= 0 ;
+2 x16237 +2 x16238 +2 x16239 +2 x16240 -1 x15977 -1 x15978 -1 x15979 -1 x15980 -1 x15981 -1 x15982 -1 x15983 -1 x15984 >= 0 ;
+2 x16241 +2 x16242 +2 x16243 +2 x16244 -1 x15981 -1 x15982 -1 x15983 -1 x15984 -1 x15985 -1 x15986 -1 x15987 -1 x15988 >= 0 ;
+2 x16245 +2 x16246 +2 x16247 +2 x16248 -1 x15985 -1 x15986 -1 x15987 -1 x15988 -1 x15989 -1 x15990 -1 x15991 -1 x15992 >= 0 ;
+2 x16249 +2 x16250 +2 x16251 +2 x16252 -1 x15989 -1 x15990 -1 x15991 -1 x15992 -1 x15993 -1 x15994 -1 x15995 -1 x15996 >= 0 ;
+2 x16253 +2 x16254 +2 x16255 +2 x16256 -1 x15993 -1 x15994 -1 x15995 -1 x15996 -1 x15997 -1 x15998 -1 x15999 -1 x16000 >= 0 ;
+2 x16257 +2 x16258 +2 x16259 +2 x16260 -1 x15997 -1 x15998 -1 x15999 -1 x16000 -1 x16001 -1 x16002 -1 x16003 -1 x16004 >= 0 ;
+2 x16261 +2 x16262 +2 x16263 +2 x16264 -1 x16001 -1 x16002 -1 x16003 -1 x16004 -1 x16005 -1 x16006 -1 x16007 -1 x16008 >= 0 ;
+2 x16265 +2 x16266 +2 x16267 +2 x16268 -1 x16005 -1 x16006 -1 x16007 -1 x16008 -1 x16009 -1 x16010 -1 x16011 -1 x16012 >= 0 ;
+2 x16269 +2 x16270 +2 x16271 +2 x16272 -1 x16009 -1 x16010 -1 x16011 -1 x16012 -1 x16013 -1 x16014 -1 x16015 -1 x16016 >= 0 ;
+2 x16273 +2 x16274 +2 x16275 +2 x16276 -1 x16013 -1 x16014 -1 x16015 -1 x16016 -1 x16017 -1 x16018 -1 x16019 -1 x16020 >= 0 ;
+2 x16277 +2 x16278 +2 x16279 +2 x16280 -1 x16017 -1 x16018 -1 x16019 -1 x16020 -1 x16021 -1 x16022 -1 x16023 -1 x16024 >= 0 ;
+2 x16281 +2 x16282 +2 x16283 +2 x16284 -1 x16021 -1 x16022 -1 x16023 -1 x16024 -1 x16025 -1 x16026 -1 x16027 -1 x16028 >= 0 ;
+2 x16285 +2 x16286 +2 x16287 +2 x16288 -1 x16025 -1 x16026 -1 x16027 -1 x16028 -1 x16029 -1 x16030 -1 x16031 -1 x16032 >= 0 ;
+2 x16289 +2 x16290 +2 x16291 +2 x16292 -1 x16029 -1 x16030 -1 x16031 -1 x16032 -1 x16033 -1 x16034 -1 x16035 -1 x16036 >= 0 ;
+2 x16293 +2 x16294 +2 x16295 +2 x16296 -1 x16033 -1 x16034 -1 x16035 -1 x16036 -1 x16037 -1 x16038 -1 x16039 -1 x16040 >= 0 ;
+2 x16297 +2 x16298 +2 x16299 +2 x16300 -1 x16037 -1 x16038 -1 x16039 -1 x16040 -1 x16041 -1 x16042 -1 x16043 -1 x16044 >= 0 ;
+2 x16301 +2 x16302 +2 x16303 +2 x16304 -1 x16041 -1 x16042 -1 x16043 -1 x16044 -1 x16045 -1 x16046 -1 x16047 -1 x16048 >= 0 ;
+2 x16305 +2 x16306 +2 x16307 +2 x16308 -1 x16045 -1 x16046 -1 x16047 -1 x16048 -1 x16049 -1 x16050 -1 x16051 -1 x16052 >= 0 ;
+2 x16309 +2 x16310 +2 x16311 +2 x16312 -1 x16049 -1 x16050 -1 x16051 -1 x16052 -1 x16053 -1 x16054 -1 x16055 -1 x16056 >= 0 ;
+2 x16313 +2 x16314 +2 x16315 +2 x16316 -1 x16053 -1 x16054 -1 x16055 -1 x16056 -1 x16057 -1 x16058 -1 x16059 -1 x16060 >= 0 ;
+2 x16317 +2 x16318 +2 x16319 +2 x16320 -1 x16057 -1 x16058 -1 x16059 -1 x16060 -1 x16061 -1 x16062 -1 x16063 -1 x16064 >= 0 ;
+2 x16321 +2 x16322 +2 x16323 +2 x16324 -1 x16061 -1 x16062 -1 x16063 -1 x16064 -1 x16065 -1 x16066 -1 x16067 -1 x16068 >= 0 ;
+2 x16325 +2 x16326 +2 x16327 +2 x16328 -1 x16065 -1 x16066 -1 x16067 -1 x16068 -1 x16069 -1 x16070 -1 x16071 -1 x16072 >= 0 ;
+2 x16329 +2 x16330 +2 x16331 +2 x16332 -1 x16069 -1 x16070 -1 x16071 -1 x16072 -1 x16073 -1 x16074 -1 x16075 -1 x16076 >= 0 ;
+2 x16333 +2 x16334 +2 x16335 +2 x16336 -1 x16073 -1 x16074 -1 x16075 -1 x16076 -1 x16077 -1 x16078 -1 x16079 -1 x16080 >= 0 ;
+2 x16337 +2 x16338 +2 x16339 +2 x16340 -1 x16077 -1 x16078 -1 x16079 -1 x16080 -1 x16081 -1 x16082 -1 x16083 -1 x16084 >= 0 ;
+2 x16341 +2 x16342 +2 x16343 +2 x16344 -1 x16081 -1 x16082 -1 x16083 -1 x16084 -1 x16085 -1 x16086 -1 x16087 -1 x16088 >= 0 ;
+2 x16345 +2 x16346 +2 x16347 +2 x16348 -1 x16085 -1 x16086 -1 x16087 -1 x16088 -1 x16089 -1 x16090 -1 x16091 -1 x16092 >= 0 ;
+2 x16349 +2 x16350 +2 x16351 +2 x16352 -1 x16089 -1 x16090 -1 x16091 -1 x16092 -1 x16093 -1 x16094 -1 x16095 -1 x16096 >= 0 ;
+2 x16353 +2 x16354 +2 x16355 +2 x16356 -1 x16093 -1 x16094 -1 x16095 -1 x16096 -1 x16097 -1 x16098 -1 x16099 -1 x16100 >= 0 ;
+2 x16357 +2 x16358 +2 x16359 +2 x16360 -1 x16097 -1 x16098 -1 x16099 -1 x16100 -1 x16101 -1 x16102 -1 x16103 -1 x16104 >= 0 ;
+2 x16361 +2 x16362 +2 x16363 +2 x16364 -1 x16101 -1 x16102 -1 x16103 -1 x16104 -1 x16105 -1 x16106 -1 x16107 -1 x16108 >= 0 ;
+2 x16365 +2 x16366 +2 x16367 +2 x16368 -1 x16105 -1 x16106 -1 x16107 -1 x16108 -1 x16109 -1 x16110 -1 x16111 -1 x16112 >= 0 ;
+2 x16369 +2 x16370 +2 x16371 +2 x16372 -1 x16109 -1 x16110 -1 x16111 -1 x16112 -1 x16113 -1 x16114 -1 x16115 -1 x16116 >= 0 ;
+2 x16373 +2 x16374 +2 x16375 +2 x16376 -1 x16113 -1 x16114 -1 x16115 -1 x16116 -1 x16117 -1 x16118 -1 x16119 -1 x16120 >= 0 ;
+2 x16377 +2 x16378 +2 x16379 +2 x16380 -1 x16117 -1 x16118 -1 x16119 -1 x16120 -1 x16121 -1 x16122 -1 x16123 -1 x16124 >= 0 ;
+2 x16381 +2 x16382 +2 x16383 +2 x16384 -1 x16121 -1 x16122 -1 x16123 -1 x16124 -1 x16125 -1 x16126 -1 x16127 -1 x16128 >= 0 ;
+2 x16385 +2 x16386 +2 x16387 +2 x16388 -1 x16129 -1 x16130 -1 x16131 -1 x16132 -1 x16133 -1 x16134 -1 x16135 -1 x16136 >= 0 ;
+2 x16389 +2 x16390 +2 x16391 +2 x16392 -1 x16137 -1 x16138 -1 x16139 -1 x16140 -1 x16141 -1 x16142 -1 x16143 -1 x16144 >= 0 ;
+2 x16393 +2 x16394 +2 x16395 +2 x16396 -1 x16145 -1 x16146 -1 x16147 -1 x16148 -1 x16149 -1 x16150 -1 x16151 -1 x16152 >= 0 ;
+2 x16397 +2 x16398 +2 x16399 +2 x16400 -1 x16153 -1 x16154 -1 x16155 -1 x16156 -1 x16157 -1 x16158 -1 x16159 -1 x16160 >= 0 ;
+2 x16401 +2 x16402 +2 x16403 +2 x16404 -1 x16161 -1 x16162 -1 x16163 -1 x16164 -1 x16165 -1 x16166 -1 x16167 -1 x16168 >= 0 ;
+2 x16405 +2 x16406 +2 x16407 +2 x16408 -1 x16169 -1 x16170 -1 x16171 -1 x16172 -1 x16173 -1 x16174 -1 x16175 -1 x16176 >= 0 ;
+2 x16409 +2 x16410 +2 x16411 +2 x16412 -1 x16177 -1 x16178 -1 x16179 -1 x16180 -1 x16181 -1 x16182 -1 x16183 -1 x16184 >= 0 ;
+2 x16413 +2 x16414 +2 x16415 +2 x16416 -1 x16185 -1 x16186 -1 x16187 -1 x16188 -1 x16189 -1 x16190 -1 x16191 -1 x16192 >= 0 ;
+2 x16417 +2 x16418 +2 x16419 +2 x16420 -1 x16193 -1 x16194 -1 x16195 -1 x16196 -1 x16197 -1 x16198 -1 x16199 -1 x16200 >= 0 ;
+2 x16421 +2 x16422 +2 x16423 +2 x16424 -1 x16201 -1 x16202 -1 x16203 -1 x16204 -1 x16205 -1 x16206 -1 x16207 -1 x16208 >= 0 ;
+2 x16425 +2 x16426 +2 x16427 +2 x16428 -1 x16209 -1 x16210 -1 x16211 -1 x16212 -1 x16213 -1 x16214 -1 x16215 -1 x16216 >= 0 ;
+2 x16429 +2 x16430 +2 x16431 +2 x16432 -1 x16217 -1 x16218 -1 x16219 -1 x16220 -1 x16221 -1 x16222 -1 x16223 -1 x16224 >= 0 ;
+2 x16433 +2 x16434 +2 x16435 +2 x16436 -1 x16225 -1 x16226 -1 x16227 -1 x16228 -1 x16229 -1 x16230 -1 x16231 -1 x16232 >= 0 ;
+2 x16437 +2 x16438 +2 x16439 +2 x16440 -1 x16233 -1 x16234 -1 x16235 -1 x16236 -1 x16237 -1 x16238 -1 x16239 -1 x16240 >= 0 ;
+2 x16441 +2 x16442 +2 x16443 +2 x16444 -1 x16241 -1 x16242 -1 x16243 -1 x16244 -1 x16245 -1 x16246 -1 x16247 -1 x16248 >= 0 ;
+2 x16445 +2 x16446 +2 x16447 +2 x16448 -1 x16249 -1 x16250 -1 x16251 -1 x16252 -1 x16253 -1 x16254 -1 x16255 -1 x16256 >= 0 ;
+2 x16449 +2 x16450 +2 x16451 +2 x16452 -1 x16257 -1 x16258 -1 x16259 -1 x16260 -1 x16261 -1 x16262 -1 x16263 -1 x16264 >= 0 ;
+2 x16453 +2 x16454 +2 x16455 +2 x16456 -1 x16265 -1 x16266 -1 x16267 -1 x16268 -1 x16269 -1 x16270 -1 x16271 -1 x16272 >= 0 ;
+2 x16457 +2 x16458 +2 x16459 +2 x16460 -1 x16273 -1 x16274 -1 x16275 -1 x16276 -1 x16277 -1 x16278 -1 x16279 -1 x16280 >= 0 ;
+2 x16461 +2 x16462 +2 x16463 +2 x16464 -1 x16281 -1 x16282 -1 x16283 -1 x16284 -1 x16285 -1 x16286 -1 x16287 -1 x16288 >= 0 ;
+2 x16465 +2 x16466 +2 x16467 +2 x16468 -1 x16289 -1 x16290 -1 x16291 -1 x16292 -1 x16293 -1 x16294 -1 x16295 -1 x16296 >= 0 ;
+2 x16469 +2 x16470 +2 x16471 +2 x16472 -1 x16297 -1 x16298 -1 x16299 -1 x16300 -1 x16301 -1 x16302 -1 x16303 -1 x16304 >= 0 ;
+2 x16473 +2 x16474 +2 x16475 +2 x16476 -1 x16305 -1 x16306 -1 x16307 -1 x16308 -1 x16309 -1 x16310 -1 x16311 -1 x16312 >= 0 ;
+2 x16477 +2 x16478 +2 x16479 +2 x16480 -1 x16313 -1 x16314 -1 x16315 -1 x16316 -1 x16317 -1 x16318 -1 x16319 -1 x16320 >= 0 ;
+2 x16481 +2 x16482 +2 x16483 +2 x16484 -1 x16321 -1 x16322 -1 x16323 -1 x16324 -1 x16325 -1 x16326 -1 x16327 -1 x16328 >= 0 ;
+2 x16485 +2 x16486 +2 x16487 +2 x16488 -1 x16329 -1 x16330 -1 x16331 -1 x16332 -1 x16333 -1 x16334 -1 x16335 -1 x16336 >= 0 ;
+2 x16489 +2 x16490 +2 x16491 +2 x16492 -1 x16337 -1 x16338 -1 x16339 -1 x16340 -1 x16341 -1 x16342 -1 x16343 -1 x16344 >= 0 ;
+2 x16493 +2 x16494 +2 x16495 +2 x16496 -1 x16345 -1 x16346 -1 x16347 -1 x16348 -1 x16349 -1 x16350 -1 x16351 -1 x16352 >= 0 ;
+2 x16497 +2 x16498 +2 x16499 +2 x16500 -1 x16353 -1 x16354 -1 x16355 -1 x16356 -1 x16357 -1 x16358 -1 x16359 -1 x16360 >= 0 ;
+2 x16501 +2 x16502 +2 x16503 +2 x16504 -1 x16361 -1 x16362 -1 x16363 -1 x16364 -1 x16365 -1 x16366 -1 x16367 -1 x16368 >= 0 ;
+2 x16505 +2 x16506 +2 x16507 +2 x16508 -1 x16369 -1 x16370 -1 x16371 -1 x16372 -1 x16373 -1 x16374 -1 x16375 -1 x16376 >= 0 ;
+2 x16509 +2 x16510 +2 x16511 +2 x16512 -1 x16377 -1 x16378 -1 x16379 -1 x16380 -1 x16381 -1 x16382 -1 x16383 -1 x16384 >= 0 ;
+2 x16513 +2 x16514 +2 x16515 +2 x16516 -1 x16385 -1 x16386 -1 x16387 -1 x16388 -1 x16389 -1 x16390 -1 x16391 -1 x16392 >= 0 ;
+2 x16517 +2 x16518 +2 x16519 +2 x16520 -1 x16393 -1 x16394 -1 x16395 -1 x16396 -1 x16397 -1 x16398 -1 x16399 -1 x16400 >= 0 ;
+2 x16521 +2 x16522 +2 x16523 +2 x16524 -1 x16401 -1 x16402 -1 x16403 -1 x16404 -1 x16405 -1 x16406 -1 x16407 -1 x16408 >= 0 ;
+2 x16525 +2 x16526 +2 x16527 +2 x16528 -1 x16409 -1 x16410 -1 x16411 -1 x16412 -1 x16413 -1 x16414 -1 x16415 -1 x16416 >= 0 ;
+2 x16529 +2 x16530 +2 x16531 +2 x16532 -1 x16417 -1 x16418 -1 x16419 -1 x16420 -1 x16421 -1 x16422 -1 x16423 -1 x16424 >= 0 ;
+2 x16533 +2 x16534 +2 x16535 +2 x16536 -1 x16425 -1 x16426 -1 x16427 -1 x16428 -1 x16429 -1 x16430 -1 x16431 -1 x16432 >= 0 ;
+2 x16537 +2 x16538 +2 x16539 +2 x16540 -1 x16433 -1 x16434 -1 x16435 -1 x16436 -1 x16437 -1 x16438 -1 x16439 -1 x16440 >= 0 ;
+2 x16541 +2 x16542 +2 x16543 +2 x16544 -1 x16441 -1 x16442 -1 x16443 -1 x16444 -1 x16445 -1 x16446 -1 x16447 -1 x16448 >= 0 ;
+2 x16545 +2 x16546 +2 x16547 +2 x16548 -1 x16449 -1 x16450 -1 x16451 -1 x16452 -1 x16453 -1 x16454 -1 x16455 -1 x16456 >= 0 ;
+2 x16549 +2 x16550 +2 x16551 +2 x16552 -1 x16457 -1 x16458 -1 x16459 -1 x16460 -1 x16461 -1 x16462 -1 x16463 -1 x16464 >= 0 ;
+2 x16553 +2 x16554 +2 x16555 +2 x16556 -1 x16465 -1 x16466 -1 x16467 -1 x16468 -1 x16469 -1 x16470 -1 x16471 -1 x16472 >= 0 ;
+2 x16557 +2 x16558 +2 x16559 +2 x16560 -1 x16473 -1 x16474 -1 x16475 -1 x16476 -1 x16477 -1 x16478 -1 x16479 -1 x16480 >= 0 ;
+2 x16561 +2 x16562 +2 x16563 +2 x16564 -1 x16481 -1 x16482 -1 x16483 -1 x16484 -1 x16485 -1 x16486 -1 x16487 -1 x16488 >= 0 ;
+2 x16565 +2 x16566 +2 x16567 +2 x16568 -1 x16489 -1 x16490 -1 x16491 -1 x16492 -1 x16493 -1 x16494 -1 x16495 -1 x16496 >= 0 ;
+2 x16569 +2 x16570 +2 x16571 +2 x16572 -1 x16497 -1 x16498 -1 x16499 -1 x16500 -1 x16501 -1 x16502 -1 x16503 -1 x16504 >= 0 ;
+2 x16573 +2 x16574 +2 x16575 +2 x16576 -1 x16505 -1 x16506 -1 x16507 -1 x16508 -1 x16509 -1 x16510 -1 x16511 -1 x16512 >= 0 ;
+2 x16577 +2 x16578 +2 x16579 +2 x16580 -1 x16513 -1 x16514 -1 x16515 -1 x16516 -1 x16517 -1 x16518 -1 x16519 -1 x16520 >= 0 ;
+2 x16581 +2 x16582 +2 x16583 +2 x16584 -1 x16521 -1 x16522 -1 x16523 -1 x16524 -1 x16525 -1 x16526 -1 x16527 -1 x16528 >= 0 ;
+2 x16585 +2 x16586 +2 x16587 +2 x16588 -1 x16529 -1 x16530 -1 x16531 -1 x16532 -1 x16533 -1 x16534 -1 x16535 -1 x16536 >= 0 ;
+2 x16589 +2 x16590 +2 x16591 +2 x16592 -1 x16537 -1 x16538 -1 x16539 -1 x16540 -1 x16541 -1 x16542 -1 x16543 -1 x16544 >= 0 ;
+2 x16593 +2 x16594 +2 x16595 +2 x16596 -1 x16545 -1 x16546 -1 x16547 -1 x16548 -1 x16549 -1 x16550 -1 x16551 -1 x16552 >= 0 ;
+2 x16597 +2 x16598 +2 x16599 +2 x16600 -1 x16553 -1 x16554 -1 x16555 -1 x16556 -1 x16557 -1 x16558 -1 x16559 -1 x16560 >= 0 ;
+2 x16601 +2 x16602 +2 x16603 +2 x16604 -1 x16561 -1 x16562 -1 x16563 -1 x16564 -1 x16565 -1 x16566 -1 x16567 -1 x16568 >= 0 ;
+2 x16605 +2 x16606 +2 x16607 +2 x16608 -1 x16569 -1 x16570 -1 x16571 -1 x16572 -1 x16573 -1 x16574 -1 x16575 -1 x16576 >= 0 ;
+2 x16609 +2 x16610 +2 x16611 +2 x16612 -1 x16577 -1 x16578 -1 x16579 -1 x16580 -1 x16581 -1 x16582 -1 x16583 -1 x16584 >= 0 ;
+2 x16613 +2 x16614 +2 x16615 +2 x16616 -1 x16585 -1 x16586 -1 x16587 -1 x16588 -1 x16589 -1 x16590 -1 x16591 -1 x16592 >= 0 ;
+2 x16617 +2 x16618 +2 x16619 +2 x16620 -1 x16593 -1 x16594 -1 x16595 -1 x16596 -1 x16597 -1 x16598 -1 x16599 -1 x16600 >= 0 ;
+2 x16621 +2 x16622 +2 x16623 +2 x16624 -1 x16601 -1 x16602 -1 x16603 -1 x16604 -1 x16605 -1 x16606 -1 x16607 -1 x16608 >= 0 ;
+2 x16625 +2 x16626 +2 x16627 +2 x16628 -1 x16609 -1 x16610 -1 x16611 -1 x16612 -1 x16613 -1 x16614 -1 x16615 -1 x16616 >= 0 ;
+2 x16629 +2 x16630 +2 x16631 +2 x16632 -1 x16617 -1 x16618 -1 x16619 -1 x16620 -1 x16621 -1 x16622 -1 x16623 -1 x16624 >= 0 ;
+2 x16633 +2 x16634 +2 x16635 +2 x16636 -1 x16625 -1 x16626 -1 x16627 -1 x16628 -1 x16629 -1 x16630 -1 x16631 -1 x16632 >= 0 ;
-2 x16633 -2 x16634 -2 x16635 -2 x16636 >= -3 ;
