* #variable= 7 #constraint= 22
****************************************
* begin normalizer comments
* category= DEC-SMALLINT-LIN
* end normalizer comments
****************************************
+1 x2 +1 x1 >= 1 ;
+1 x3 +1 x1 >= 1 ;
+1 x3 +1 x2 >= 1 ;
+1 x4 +1 x1 >= 1 ;
+1 x4 +1 x2 >= 1 ;
+1 x4 +1 x3 >= 1 ;
+1 x5 +1 x1 >= 1 ;
+1 x5 +1 x2 >= 1 ;
+1 x5 +1 x3 >= 1 ;
+1 x5 +1 x4 >= 1 ;
+1 x6 +1 x1 >= 1 ;
+1 x6 +1 x2 >= 1 ;
+1 x6 +1 x3 >= 1 ;
+1 x6 +1 x4 >= 1 ;
+1 x6 +1 x5 >= 1 ;
+1 x7 +1 x1 >= 1 ;
+1 x7 +1 x2 >= 1 ;
+1 x7 +1 x3 >= 1 ;
+1 x7 +1 x4 >= 1 ;
+1 x7 +1 x5 >= 1 ;
+1 x7 +1 x6 >= 1 ;
-2 x1 -2 x2 -2 x3 -2 x4 -2 x5 -2 x6 -2 x7 >= -7 ;
