* #variable= 32004 #constraint= 8002
****************************************
* begin normalizer comments
* category= DEC-SMALLINT-LIN
* end normalizer comments
****************************************
+2 x1 +2 x2 +2 x3 +2 x4 >= 3 ;
+2 x5 +2 x6 +2 x7 +2 x8 >= 3 ;
+2 x9 +2 x10 +2 x11 +2 x12 >= 3 ;
+2 x13 +2 x14 +2 x15 +2 x16 >= 3 ;
+2 x17 +2 x18 +2 x19 +2 x20 >= 3 ;
+2 x21 +2 x22 +2 x23 +2 x24 >= 3 ;
+2 x25 +2 x26 +2 x27 +2 x28 >= 3 ;
+2 x29 +2 x30 +2 x31 +2 x32 >= 3 ;
+2 x33 +2 x34 +2 x35 +2 x36 >= 3 ;
+2 x37 +2 x38 +2 x39 +2 x40 >= 3 ;
+2 x41 +2 x42 +2 x43 +2 x44 >= 3 ;
+2 x45 +2 x46 +2 x47 +2 x48 >= 3 ;
+2 x49 +2 x50 +2 x51 +2 x52 >= 3 ;
+2 x53 +2 x54 +2 x55 +2 x56 >= 3 ;
+2 x57 +2 x58 +2 x59 +2 x60 >= 3 ;
+2 x61 +2 x62 +2 x63 +2 x64 >= 3 ;
+2 x65 +2 x66 +2 x67 +2 x68 >= 3 ;
+2 x69 +2 x70 +2 x71 +2 x72 >= 3 ;
+2 x73 +2 x74 +2 x75 +2 x76 >= 3 ;
+2 x77 +2 x78 +2 x79 +2 x80 >= 3 ;
+2 x81 +2 x82 +2 x83 +2 x84 >= 3 ;
+2 x85 +2 x86 +2 x87 +2 x88 >= 3 ;
+2 x89 +2 x90 +2 x91 +2 x92 >= 3 ;
+2 x93 +2 x94 +2 x95 +2 x96 >= 3 ;
+2 x97 +2 x98 +2 x99 +2 x100 >= 3 ;
+2 x101 +2 x102 +2 x103 +2 x104 >= 3 ;
+2 x105 +2 x106 +2 x107 +2 x108 >= 3 ;
+2 x109 +2 x110 +2 x111 +2 x112 >= 3 ;
+2 x113 +2 x114 +2 x115 +2 x116 >= 3 ;
+2 x117 +2 x118 +2 x119 +2 x120 >= 3 ;
+2 x121 +2 x122 +2 x123 +2 x124 >= 3 ;
+2 x125 +2 x126 +2 x127 +2 x128 >= 3 ;
+2 x129 +2 x130 +2 x131 +2 x132 >= 3 ;
+2 x133 +2 x134 +2 x135 +2 x136 >= 3 ;
+2 x137 +2 x138 +2 x139 +2 x140 >= 3 ;
+2 x141 +2 x142 +2 x143 +2 x144 >= 3 ;
+2 x145 +2 x146 +2 x147 +2 x148 >= 3 ;
+2 x149 +2 x150 +2 x151 +2 x152 >= 3 ;
+2 x153 +2 x154 +2 x155 +2 x156 >= 3 ;
+2 x157 +2 x158 +2 x159 +2 x160 >= 3 ;
+2 x161 +2 x162 +2 x163 +2 x164 >= 3 ;
+2 x165 +2 x166 +2 x167 +2 x168 >= 3 ;
+2 x169 +2 x170 +2 x171 +2 x172 >= 3 ;
+2 x173 +2 x174 +2 x175 +2 x176 >= 3 ;
+2 x177 +2 x178 +2 x179 +2 x180 >= 3 ;
+2 x181 +2 x182 +2 x183 +2 x184 >= 3 ;
+2 x185 +2 x186 +2 x187 +2 x188 >= 3 ;
+2 x189 +2 x190 +2 x191 +2 x192 >= 3 ;
+2 x193 +2 x194 +2 x195 +2 x196 >= 3 ;
+2 x197 +2 x198 +2 x199 +2 x200 >= 3 ;
+2 x201 +2 x202 +2 x203 +2 x204 >= 3 ;
+2 x205 +2 x206 +2 x207 +2 x208 >= 3 ;
+2 x209 +2 x210 +2 x211 +2 x212 >= 3 ;
+2 x213 +2 x214 +2 x215 +2 x216 >= 3 ;
+2 x217 +2 x218 +2 x219 +2 x220 >= 3 ;
+2 x221 +2 x222 +2 x223 +2 x224 >= 3 ;
+2 x225 +2 x226 +2 x227 +2 x228 >= 3 ;
+2 x229 +2 x230 +2 x231 +2 x232 >= 3 ;
+2 x233 +2 x234 +2 x235 +2 x236 >= 3 ;
+2 x237 +2 x238 +2 x239 +2 x240 >= 3 ;
+2 x241 +2 x242 +2 x243 +2 x244 >= 3 ;
+2 x245 +2 x246 +2 x247 +2 x248 >= 3 ;
+2 x249 +2 x250 +2 x251 +2 x252 >= 3 ;
+2 x253 +2 x254 +2 x255 +2 x256 >= 3 ;
+2 x257 +2 x258 +2 x259 +2 x260 >= 3 ;
+2 x261 +2 x262 +2 x263 +2 x264 >= 3 ;
+2 x265 +2 x266 +2 x267 +2 x268 >= 3 ;
+2 x269 +2 x270 +2 x271 +2 x272 >= 3 ;
+2 x273 +2 x274 +2 x275 +2 x276 >= 3 ;
+2 x277 +2 x278 +2 x279 +2 x280 >= 3 ;
+2 x281 +2 x282 +2 x283 +2 x284 >= 3 ;
+2 x285 +2 x286 +2 x287 +2 x288 >= 3 ;
+2 x289 +2 x290 +2 x291 +2 x292 >= 3 ;
+2 x293 +2 x294 +2 x295 +2 x296 >= 3 ;
+2 x297 +2 x298 +2 x299 +2 x300 >= 3 ;
+2 x301 +2 x302 +2 x303 +2 x304 >= 3 ;
+2 x305 +2 x306 +2 x307 +2 x308 >= 3 ;
+2 x309 +2 x310 +2 x311 +2 x312 >= 3 ;
+2 x313 +2 x314 +2 x315 +2 x316 >= 3 ;
+2 x317 +2 x318 +2 x319 +2 x320 >= 3 ;
+2 x321 +2 x322 +2 x323 +2 x324 >= 3 ;
+2 x325 +2 x326 +2 x327 +2 x328 >= 3 ;
+2 x329 +2 x330 +2 x331 +2 x332 >= 3 ;
+2 x333 +2 x334 +2 x335 +2 x336 >= 3 ;
+2 x337 +2 x338 +2 x339 +2 x340 >= 3 ;
+2 x341 +2 x342 +2 x343 +2 x344 >= 3 ;
+2 x345 +2 x346 +2 x347 +2 x348 >= 3 ;
+2 x349 +2 x350 +2 x351 +2 x352 >= 3 ;
+2 x353 +2 x354 +2 x355 +2 x356 >= 3 ;
+2 x357 +2 x358 +2 x359 +2 x360 >= 3 ;
+2 x361 +2 x362 +2 x363 +2 x364 >= 3 ;
+2 x365 +2 x366 +2 x367 +2 x368 >= 3 ;
+2 x369 +2 x370 +2 x371 +2 x372 >= 3 ;
+2 x373 +2 x374 +2 x375 +2 x376 >= 3 ;
+2 x377 +2 x378 +2 x379 +2 x380 >= 3 ;
+2 x381 +2 x382 +2 x383 +2 x384 >= 3 ;
+2 x385 +2 x386 +2 x387 +2 x388 >= 3 ;
+2 x389 +2 x390 +2 x391 +2 x392 >= 3 ;
+2 x393 +2 x394 +2 x395 +2 x396 >= 3 ;
+2 x397 +2 x398 +2 x399 +2 x400 >= 3 ;
+2 x401 +2 x402 +2 x403 +2 x404 >= 3 ;
+2 x405 +2 x406 +2 x407 +2 x408 >= 3 ;
+2 x409 +2 x410 +2 x411 +2 x412 >= 3 ;
+2 x413 +2 x414 +2 x415 +2 x416 >= 3 ;
+2 x417 +2 x418 +2 x419 +2 x420 >= 3 ;
+2 x421 +2 x422 +2 x423 +2 x424 >= 3 ;
+2 x425 +2 x426 +2 x427 +2 x428 >= 3 ;
+2 x429 +2 x430 +2 x431 +2 x432 >= 3 ;
+2 x433 +2 x434 +2 x435 +2 x436 >= 3 ;
+2 x437 +2 x438 +2 x439 +2 x440 >= 3 ;
+2 x441 +2 x442 +2 x443 +2 x444 >= 3 ;
+2 x445 +2 x446 +2 x447 +2 x448 >= 3 ;
+2 x449 +2 x450 +2 x451 +2 x452 >= 3 ;
+2 x453 +2 x454 +2 x455 +2 x456 >= 3 ;
+2 x457 +2 x458 +2 x459 +2 x460 >= 3 ;
+2 x461 +2 x462 +2 x463 +2 x464 >= 3 ;
+2 x465 +2 x466 +2 x467 +2 x468 >= 3 ;
+2 x469 +2 x470 +2 x471 +2 x472 >= 3 ;
+2 x473 +2 x474 +2 x475 +2 x476 >= 3 ;
+2 x477 +2 x478 +2 x479 +2 x480 >= 3 ;
+2 x481 +2 x482 +2 x483 +2 x484 >= 3 ;
+2 x485 +2 x486 +2 x487 +2 x488 >= 3 ;
+2 x489 +2 x490 +2 x491 +2 x492 >= 3 ;
+2 x493 +2 x494 +2 x495 +2 x496 >= 3 ;
+2 x497 +2 x498 +2 x499 +2 x500 >= 3 ;
+2 x501 +2 x502 +2 x503 +2 x504 >= 3 ;
+2 x505 +2 x506 +2 x507 +2 x508 -1 x1 -1 x2 -1 x3 -1 x4 -1 x5 -1 x6 -1 x7 -1 x8 >= 0 ;
+2 x509 +2 x510 +2 x511 +2 x512 -1 x5 -1 x6 -1 x7 -1 x8 -1 x9 -1 x10 -1 x11 -1 x12 >= 0 ;
+2 x513 +2 x514 +2 x515 +2 x516 -1 x9 -1 x10 -1 x11 -1 x12 -1 x13 -1 x14 -1 x15 -1 x16 >= 0 ;
+2 x517 +2 x518 +2 x519 +2 x520 -1 x13 -1 x14 -1 x15 -1 x16 -1 x17 -1 x18 -1 x19 -1 x20 >= 0 ;
+2 x521 +2 x522 +2 x523 +2 x524 -1 x17 -1 x18 -1 x19 -1 x20 -1 x21 -1 x22 -1 x23 -1 x24 >= 0 ;
+2 x525 +2 x526 +2 x527 +2 x528 -1 x21 -1 x22 -1 x23 -1 x24 -1 x25 -1 x26 -1 x27 -1 x28 >= 0 ;
+2 x529 +2 x530 +2 x531 +2 x532 -1 x25 -1 x26 -1 x27 -1 x28 -1 x29 -1 x30 -1 x31 -1 x32 >= 0 ;
+2 x533 +2 x534 +2 x535 +2 x536 -1 x29 -1 x30 -1 x31 -1 x32 -1 x33 -1 x34 -1 x35 -1 x36 >= 0 ;
+2 x537 +2 x538 +2 x539 +2 x540 -1 x33 -1 x34 -1 x35 -1 x36 -1 x37 -1 x38 -1 x39 -1 x40 >= 0 ;
+2 x541 +2 x542 +2 x543 +2 x544 -1 x37 -1 x38 -1 x39 -1 x40 -1 x41 -1 x42 -1 x43 -1 x44 >= 0 ;
+2 x545 +2 x546 +2 x547 +2 x548 -1 x41 -1 x42 -1 x43 -1 x44 -1 x45 -1 x46 -1 x47 -1 x48 >= 0 ;
+2 x549 +2 x550 +2 x551 +2 x552 -1 x45 -1 x46 -1 x47 -1 x48 -1 x49 -1 x50 -1 x51 -1 x52 >= 0 ;
+2 x553 +2 x554 +2 x555 +2 x556 -1 x49 -1 x50 -1 x51 -1 x52 -1 x53 -1 x54 -1 x55 -1 x56 >= 0 ;
+2 x557 +2 x558 +2 x559 +2 x560 -1 x53 -1 x54 -1 x55 -1 x56 -1 x57 -1 x58 -1 x59 -1 x60 >= 0 ;
+2 x561 +2 x562 +2 x563 +2 x564 -1 x57 -1 x58 -1 x59 -1 x60 -1 x61 -1 x62 -1 x63 -1 x64 >= 0 ;
+2 x565 +2 x566 +2 x567 +2 x568 -1 x61 -1 x62 -1 x63 -1 x64 -1 x65 -1 x66 -1 x67 -1 x68 >= 0 ;
+2 x569 +2 x570 +2 x571 +2 x572 -1 x65 -1 x66 -1 x67 -1 x68 -1 x69 -1 x70 -1 x71 -1 x72 >= 0 ;
+2 x573 +2 x574 +2 x575 +2 x576 -1 x69 -1 x70 -1 x71 -1 x72 -1 x73 -1 x74 -1 x75 -1 x76 >= 0 ;
+2 x577 +2 x578 +2 x579 +2 x580 -1 x73 -1 x74 -1 x75 -1 x76 -1 x77 -1 x78 -1 x79 -1 x80 >= 0 ;
+2 x581 +2 x582 +2 x583 +2 x584 -1 x77 -1 x78 -1 x79 -1 x80 -1 x81 -1 x82 -1 x83 -1 x84 >= 0 ;
+2 x585 +2 x586 +2 x587 +2 x588 -1 x81 -1 x82 -1 x83 -1 x84 -1 x85 -1 x86 -1 x87 -1 x88 >= 0 ;
+2 x589 +2 x590 +2 x591 +2 x592 -1 x85 -1 x86 -1 x87 -1 x88 -1 x89 -1 x90 -1 x91 -1 x92 >= 0 ;
+2 x593 +2 x594 +2 x595 +2 x596 -1 x89 -1 x90 -1 x91 -1 x92 -1 x93 -1 x94 -1 x95 -1 x96 >= 0 ;
+2 x597 +2 x598 +2 x599 +2 x600 -1 x93 -1 x94 -1 x95 -1 x96 -1 x97 -1 x98 -1 x99 -1 x100 >= 0 ;
+2 x601 +2 x602 +2 x603 +2 x604 -1 x97 -1 x98 -1 x99 -1 x100 -1 x101 -1 x102 -1 x103 -1 x104 >= 0 ;
+2 x605 +2 x606 +2 x607 +2 x608 -1 x101 -1 x102 -1 x103 -1 x104 -1 x105 -1 x106 -1 x107 -1 x108 >= 0 ;
+2 x609 +2 x610 +2 x611 +2 x612 -1 x105 -1 x106 -1 x107 -1 x108 -1 x109 -1 x110 -1 x111 -1 x112 >= 0 ;
+2 x613 +2 x614 +2 x615 +2 x616 -1 x109 -1 x110 -1 x111 -1 x112 -1 x113 -1 x114 -1 x115 -1 x116 >= 0 ;
+2 x617 +2 x618 +2 x619 +2 x620 -1 x113 -1 x114 -1 x115 -1 x116 -1 x117 -1 x118 -1 x119 -1 x120 >= 0 ;
+2 x621 +2 x622 +2 x623 +2 x624 -1 x117 -1 x118 -1 x119 -1 x120 -1 x121 -1 x122 -1 x123 -1 x124 >= 0 ;
+2 x625 +2 x626 +2 x627 +2 x628 -1 x121 -1 x122 -1 x123 -1 x124 -1 x125 -1 x126 -1 x127 -1 x128 >= 0 ;
+2 x629 +2 x630 +2 x631 +2 x632 -1 x125 -1 x126 -1 x127 -1 x128 -1 x129 -1 x130 -1 x131 -1 x132 >= 0 ;
+2 x633 +2 x634 +2 x635 +2 x636 -1 x129 -1 x130 -1 x131 -1 x132 -1 x133 -1 x134 -1 x135 -1 x136 >= 0 ;
+2 x637 +2 x638 +2 x639 +2 x640 -1 x133 -1 x134 -1 x135 -1 x136 -1 x137 -1 x138 -1 x139 -1 x140 >= 0 ;
+2 x641 +2 x642 +2 x643 +2 x644 -1 x137 -1 x138 -1 x139 -1 x140 -1 x141 -1 x142 -1 x143 -1 x144 >= 0 ;
+2 x645 +2 x646 +2 x647 +2 x648 -1 x141 -1 x142 -1 x143 -1 x144 -1 x145 -1 x146 -1 x147 -1 x148 >= 0 ;
+2 x649 +2 x650 +2 x651 +2 x652 -1 x145 -1 x146 -1 x147 -1 x148 -1 x149 -1 x150 -1 x151 -1 x152 >= 0 ;
+2 x653 +2 x654 +2 x655 +2 x656 -1 x149 -1 x150 -1 x151 -1 x152 -1 x153 -1 x154 -1 x155 -1 x156 >= 0 ;
+2 x657 +2 x658 +2 x659 +2 x660 -1 x153 -1 x154 -1 x155 -1 x156 -1 x157 -1 x158 -1 x159 -1 x160 >= 0 ;
+2 x661 +2 x662 +2 x663 +2 x664 -1 x157 -1 x158 -1 x159 -1 x160 -1 x161 -1 x162 -1 x163 -1 x164 >= 0 ;
+2 x665 +2 x666 +2 x667 +2 x668 -1 x161 -1 x162 -1 x163 -1 x164 -1 x165 -1 x166 -1 x167 -1 x168 >= 0 ;
+2 x669 +2 x670 +2 x671 +2 x672 -1 x165 -1 x166 -1 x167 -1 x168 -1 x169 -1 x170 -1 x171 -1 x172 >= 0 ;
+2 x673 +2 x674 +2 x675 +2 x676 -1 x169 -1 x170 -1 x171 -1 x172 -1 x173 -1 x174 -1 x175 -1 x176 >= 0 ;
+2 x677 +2 x678 +2 x679 +2 x680 -1 x173 -1 x174 -1 x175 -1 x176 -1 x177 -1 x178 -1 x179 -1 x180 >= 0 ;
+2 x681 +2 x682 +2 x683 +2 x684 -1 x177 -1 x178 -1 x179 -1 x180 -1 x181 -1 x182 -1 x183 -1 x184 >= 0 ;
+2 x685 +2 x686 +2 x687 +2 x688 -1 x181 -1 x182 -1 x183 -1 x184 -1 x185 -1 x186 -1 x187 -1 x188 >= 0 ;
+2 x689 +2 x690 +2 x691 +2 x692 -1 x185 -1 x186 -1 x187 -1 x188 -1 x189 -1 x190 -1 x191 -1 x192 >= 0 ;
+2 x693 +2 x694 +2 x695 +2 x696 -1 x189 -1 x190 -1 x191 -1 x192 -1 x193 -1 x194 -1 x195 -1 x196 >= 0 ;
+2 x697 +2 x698 +2 x699 +2 x700 -1 x193 -1 x194 -1 x195 -1 x196 -1 x197 -1 x198 -1 x199 -1 x200 >= 0 ;
+2 x701 +2 x702 +2 x703 +2 x704 -1 x197 -1 x198 -1 x199 -1 x200 -1 x201 -1 x202 -1 x203 -1 x204 >= 0 ;
+2 x705 +2 x706 +2 x707 +2 x708 -1 x201 -1 x202 -1 x203 -1 x204 -1 x205 -1 x206 -1 x207 -1 x208 >= 0 ;
+2 x709 +2 x710 +2 x711 +2 x712 -1 x205 -1 x206 -1 x207 -1 x208 -1 x209 -1 x210 -1 x211 -1 x212 >= 0 ;
+2 x713 +2 x714 +2 x715 +2 x716 -1 x209 -1 x210 -1 x211 -1 x212 -1 x213 -1 x214 -1 x215 -1 x216 >= 0 ;
+2 x717 +2 x718 +2 x719 +2 x720 -1 x213 -1 x214 -1 x215 -1 x216 -1 x217 -1 x218 -1 x219 -1 x220 >= 0 ;
+2 x721 +2 x722 +2 x723 +2 x724 -1 x217 -1 x218 -1 x219 -1 x220 -1 x221 -1 x222 -1 x223 -1 x224 >= 0 ;
+2 x725 +2 x726 +2 x727 +2 x728 -1 x221 -1 x222 -1 x223 -1 x224 -1 x225 -1 x226 -1 x227 -1 x228 >= 0 ;
+2 x729 +2 x730 +2 x731 +2 x732 -1 x225 -1 x226 -1 x227 -1 x228 -1 x229 -1 x230 -1 x231 -1 x232 >= 0 ;
+2 x733 +2 x734 +2 x735 +2 x736 -1 x229 -1 x230 -1 x231 -1 x232 -1 x233 -1 x234 -1 x235 -1 x236 >= 0 ;
+2 x737 +2 x738 +2 x739 +2 x740 -1 x233 -1 x234 -1 x235 -1 x236 -1 x237 -1 x238 -1 x239 -1 x240 >= 0 ;
+2 x741 +2 x742 +2 x743 +2 x744 -1 x237 -1 x238 -1 x239 -1 x240 -1 x241 -1 x242 -1 x243 -1 x244 >= 0 ;
+2 x745 +2 x746 +2 x747 +2 x748 -1 x241 -1 x242 -1 x243 -1 x244 -1 x245 -1 x246 -1 x247 -1 x248 >= 0 ;
+2 x749 +2 x750 +2 x751 +2 x752 -1 x245 -1 x246 -1 x247 -1 x248 -1 x249 -1 x250 -1 x251 -1 x252 >= 0 ;
+2 x753 +2 x754 +2 x755 +2 x756 -1 x249 -1 x250 -1 x251 -1 x252 -1 x253 -1 x254 -1 x255 -1 x256 >= 0 ;
+2 x757 +2 x758 +2 x759 +2 x760 -1 x253 -1 x254 -1 x255 -1 x256 -1 x257 -1 x258 -1 x259 -1 x260 >= 0 ;
+2 x761 +2 x762 +2 x763 +2 x764 -1 x257 -1 x258 -1 x259 -1 x260 -1 x261 -1 x262 -1 x263 -1 x264 >= 0 ;
+2 x765 +2 x766 +2 x767 +2 x768 -1 x261 -1 x262 -1 x263 -1 x264 -1 x265 -1 x266 -1 x267 -1 x268 >= 0 ;
+2 x769 +2 x770 +2 x771 +2 x772 -1 x265 -1 x266 -1 x267 -1 x268 -1 x269 -1 x270 -1 x271 -1 x272 >= 0 ;
+2 x773 +2 x774 +2 x775 +2 x776 -1 x269 -1 x270 -1 x271 -1 x272 -1 x273 -1 x274 -1 x275 -1 x276 >= 0 ;
+2 x777 +2 x778 +2 x779 +2 x780 -1 x273 -1 x274 -1 x275 -1 x276 -1 x277 -1 x278 -1 x279 -1 x280 >= 0 ;
+2 x781 +2 x782 +2 x783 +2 x784 -1 x277 -1 x278 -1 x279 -1 x280 -1 x281 -1 x282 -1 x283 -1 x284 >= 0 ;
+2 x785 +2 x786 +2 x787 +2 x788 -1 x281 -1 x282 -1 x283 -1 x284 -1 x285 -1 x286 -1 x287 -1 x288 >= 0 ;
+2 x789 +2 x790 +2 x791 +2 x792 -1 x285 -1 x286 -1 x287 -1 x288 -1 x289 -1 x290 -1 x291 -1 x292 >= 0 ;
+2 x793 +2 x794 +2 x795 +2 x796 -1 x289 -1 x290 -1 x291 -1 x292 -1 x293 -1 x294 -1 x295 -1 x296 >= 0 ;
+2 x797 +2 x798 +2 x799 +2 x800 -1 x293 -1 x294 -1 x295 -1 x296 -1 x297 -1 x298 -1 x299 -1 x300 >= 0 ;
+2 x801 +2 x802 +2 x803 +2 x804 -1 x297 -1 x298 -1 x299 -1 x300 -1 x301 -1 x302 -1 x303 -1 x304 >= 0 ;
+2 x805 +2 x806 +2 x807 +2 x808 -1 x301 -1 x302 -1 x303 -1 x304 -1 x305 -1 x306 -1 x307 -1 x308 >= 0 ;
+2 x809 +2 x810 +2 x811 +2 x812 -1 x305 -1 x306 -1 x307 -1 x308 -1 x309 -1 x310 -1 x311 -1 x312 >= 0 ;
+2 x813 +2 x814 +2 x815 +2 x816 -1 x309 -1 x310 -1 x311 -1 x312 -1 x313 -1 x314 -1 x315 -1 x316 >= 0 ;
+2 x817 +2 x818 +2 x819 +2 x820 -1 x313 -1 x314 -1 x315 -1 x316 -1 x317 -1 x318 -1 x319 -1 x320 >= 0 ;
+2 x821 +2 x822 +2 x823 +2 x824 -1 x317 -1 x318 -1 x319 -1 x320 -1 x321 -1 x322 -1 x323 -1 x324 >= 0 ;
+2 x825 +2 x826 +2 x827 +2 x828 -1 x321 -1 x322 -1 x323 -1 x324 -1 x325 -1 x326 -1 x327 -1 x328 >= 0 ;
+2 x829 +2 x830 +2 x831 +2 x832 -1 x325 -1 x326 -1 x327 -1 x328 -1 x329 -1 x330 -1 x331 -1 x332 >= 0 ;
+2 x833 +2 x834 +2 x835 +2 x836 -1 x329 -1 x330 -1 x331 -1 x332 -1 x333 -1 x334 -1 x335 -1 x336 >= 0 ;
+2 x837 +2 x838 +2 x839 +2 x840 -1 x333 -1 x334 -1 x335 -1 x336 -1 x337 -1 x338 -1 x339 -1 x340 >= 0 ;
+2 x841 +2 x842 +2 x843 +2 x844 -1 x337 -1 x338 -1 x339 -1 x340 -1 x341 -1 x342 -1 x343 -1 x344 >= 0 ;
+2 x845 +2 x846 +2 x847 +2 x848 -1 x341 -1 x342 -1 x343 -1 x344 -1 x345 -1 x346 -1 x347 -1 x348 >= 0 ;
+2 x849 +2 x850 +2 x851 +2 x852 -1 x345 -1 x346 -1 x347 -1 x348 -1 x349 -1 x350 -1 x351 -1 x352 >= 0 ;
+2 x853 +2 x854 +2 x855 +2 x856 -1 x349 -1 x350 -1 x351 -1 x352 -1 x353 -1 x354 -1 x355 -1 x356 >= 0 ;
+2 x857 +2 x858 +2 x859 +2 x860 -1 x353 -1 x354 -1 x355 -1 x356 -1 x357 -1 x358 -1 x359 -1 x360 >= 0 ;
+2 x861 +2 x862 +2 x863 +2 x864 -1 x357 -1 x358 -1 x359 -1 x360 -1 x361 -1 x362 -1 x363 -1 x364 >= 0 ;
+2 x865 +2 x866 +2 x867 +2 x868 -1 x361 -1 x362 -1 x363 -1 x364 -1 x365 -1 x366 -1 x367 -1 x368 >= 0 ;
+2 x869 +2 x870 +2 x871 +2 x872 -1 x365 -1 x366 -1 x367 -1 x368 -1 x369 -1 x370 -1 x371 -1 x372 >= 0 ;
+2 x873 +2 x874 +2 x875 +2 x876 -1 x369 -1 x370 -1 x371 -1 x372 -1 x373 -1 x374 -1 x375 -1 x376 >= 0 ;
+2 x877 +2 x878 +2 x879 +2 x880 -1 x373 -1 x374 -1 x375 -1 x376 -1 x377 -1 x378 -1 x379 -1 x380 >= 0 ;
+2 x881 +2 x882 +2 x883 +2 x884 -1 x377 -1 x378 -1 x379 -1 x380 -1 x381 -1 x382 -1 x383 -1 x384 >= 0 ;
+2 x885 +2 x886 +2 x887 +2 x888 -1 x381 -1 x382 -1 x383 -1 x384 -1 x385 -1 x386 -1 x387 -1 x388 >= 0 ;
+2 x889 +2 x890 +2 x891 +2 x892 -1 x385 -1 x386 -1 x387 -1 x388 -1 x389 -1 x390 -1 x391 -1 x392 >= 0 ;
+2 x893 +2 x894 +2 x895 +2 x896 -1 x389 -1 x390 -1 x391 -1 x392 -1 x393 -1 x394 -1 x395 -1 x396 >= 0 ;
+2 x897 +2 x898 +2 x899 +2 x900 -1 x393 -1 x394 -1 x395 -1 x396 -1 x397 -1 x398 -1 x399 -1 x400 >= 0 ;
+2 x901 +2 x902 +2 x903 +2 x904 -1 x397 -1 x398 -1 x399 -1 x400 -1 x401 -1 x402 -1 x403 -1 x404 >= 0 ;
+2 x905 +2 x906 +2 x907 +2 x908 -1 x401 -1 x402 -1 x403 -1 x404 -1 x405 -1 x406 -1 x407 -1 x408 >= 0 ;
+2 x909 +2 x910 +2 x911 +2 x912 -1 x405 -1 x406 -1 x407 -1 x408 -1 x409 -1 x410 -1 x411 -1 x412 >= 0 ;
+2 x913 +2 x914 +2 x915 +2 x916 -1 x409 -1 x410 -1 x411 -1 x412 -1 x413 -1 x414 -1 x415 -1 x416 >= 0 ;
+2 x917 +2 x918 +2 x919 +2 x920 -1 x413 -1 x414 -1 x415 -1 x416 -1 x417 -1 x418 -1 x419 -1 x420 >= 0 ;
+2 x921 +2 x922 +2 x923 +2 x924 -1 x417 -1 x418 -1 x419 -1 x420 -1 x421 -1 x422 -1 x423 -1 x424 >= 0 ;
+2 x925 +2 x926 +2 x927 +2 x928 -1 x421 -1 x422 -1 x423 -1 x424 -1 x425 -1 x426 -1 x427 -1 x428 >= 0 ;
+2 x929 +2 x930 +2 x931 +2 x932 -1 x425 -1 x426 -1 x427 -1 x428 -1 x429 -1 x430 -1 x431 -1 x432 >= 0 ;
+2 x933 +2 x934 +2 x935 +2 x936 -1 x429 -1 x430 -1 x431 -1 x432 -1 x433 -1 x434 -1 x435 -1 x436 >= 0 ;
+2 x937 +2 x938 +2 x939 +2 x940 -1 x433 -1 x434 -1 x435 -1 x436 -1 x437 -1 x438 -1 x439 -1 x440 >= 0 ;
+2 x941 +2 x942 +2 x943 +2 x944 -1 x437 -1 x438 -1 x439 -1 x440 -1 x441 -1 x442 -1 x443 -1 x444 >= 0 ;
+2 x945 +2 x946 +2 x947 +2 x948 -1 x441 -1 x442 -1 x443 -1 x444 -1 x445 -1 x446 -1 x447 -1 x448 >= 0 ;
+2 x949 +2 x950 +2 x951 +2 x952 -1 x445 -1 x446 -1 x447 -1 x448 -1 x449 -1 x450 -1 x451 -1 x452 >= 0 ;
+2 x953 +2 x954 +2 x955 +2 x956 -1 x449 -1 x450 -1 x451 -1 x452 -1 x453 -1 x454 -1 x455 -1 x456 >= 0 ;
+2 x957 +2 x958 +2 x959 +2 x960 -1 x453 -1 x454 -1 x455 -1 x456 -1 x457 -1 x458 -1 x459 -1 x460 >= 0 ;
+2 x961 +2 x962 +2 x963 +2 x964 -1 x457 -1 x458 -1 x459 -1 x460 -1 x461 -1 x462 -1 x463 -1 x464 >= 0 ;
+2 x965 +2 x966 +2 x967 +2 x968 -1 x461 -1 x462 -1 x463 -1 x464 -1 x465 -1 x466 -1 x467 -1 x468 >= 0 ;
+2 x969 +2 x970 +2 x971 +2 x972 -1 x465 -1 x466 -1 x467 -1 x468 -1 x469 -1 x470 -1 x471 -1 x472 >= 0 ;
+2 x973 +2 x974 +2 x975 +2 x976 -1 x469 -1 x470 -1 x471 -1 x472 -1 x473 -1 x474 -1 x475 -1 x476 >= 0 ;
+2 x977 +2 x978 +2 x979 +2 x980 -1 x473 -1 x474 -1 x475 -1 x476 -1 x477 -1 x478 -1 x479 -1 x480 >= 0 ;
+2 x981 +2 x982 +2 x983 +2 x984 -1 x477 -1 x478 -1 x479 -1 x480 -1 x481 -1 x482 -1 x483 -1 x484 >= 0 ;
+2 x985 +2 x986 +2 x987 +2 x988 -1 x481 -1 x482 -1 x483 -1 x484 -1 x485 -1 x486 -1 x487 -1 x488 >= 0 ;
+2 x989 +2 x990 +2 x991 +2 x992 -1 x485 -1 x486 -1 x487 -1 x488 -1 x489 -1 x490 -1 x491 -1 x492 >= 0 ;
+2 x993 +2 x994 +2 x995 +2 x996 -1 x489 -1 x490 -1 x491 -1 x492 -1 x493 -1 x494 -1 x495 -1 x496 >= 0 ;
+2 x997 +2 x998 +2 x999 +2 x1000 -1 x493 -1 x494 -1 x495 -1 x496 -1 x497 -1 x498 -1 x499 -1 x500 >= 0 ;
+2 x1001 +2 x1002 +2 x1003 +2 x1004 -1 x497 -1 x498 -1 x499 -1 x500 -1 x501 -1 x502 -1 x503 -1 x504 >= 0 ;
+2 x1005 +2 x1006 +2 x1007 +2 x1008 -1 x505 -1 x506 -1 x507 -1 x508 -1 x509 -1 x510 -1 x511 -1 x512 >= 0 ;
+2 x1009 +2 x1010 +2 x1011 +2 x1012 -1 x509 -1 x510 -1 x511 -1 x512 -1 x513 -1 x514 -1 x515 -1 x516 >= 0 ;
+2 x1013 +2 x1014 +2 x1015 +2 x1016 -1 x513 -1 x514 -1 x515 -1 x516 -1 x517 -1 x518 -1 x519 -1 x520 >= 0 ;
+2 x1017 +2 x1018 +2 x1019 +2 x1020 -1 x517 -1 x518 -1 x519 -1 x520 -1 x521 -1 x522 -1 x523 -1 x524 >= 0 ;
+2 x1021 +2 x1022 +2 x1023 +2 x1024 -1 x521 -1 x522 -1 x523 -1 x524 -1 x525 -1 x526 -1 x527 -1 x528 >= 0 ;
+2 x1025 +2 x1026 +2 x1027 +2 x1028 -1 x525 -1 x526 -1 x527 -1 x528 -1 x529 -1 x530 -1 x531 -1 x532 >= 0 ;
+2 x1029 +2 x1030 +2 x1031 +2 x1032 -1 x529 -1 x530 -1 x531 -1 x532 -1 x533 -1 x534 -1 x535 -1 x536 >= 0 ;
+2 x1033 +2 x1034 +2 x1035 +2 x1036 -1 x533 -1 x534 -1 x535 -1 x536 -1 x537 -1 x538 -1 x539 -1 x540 >= 0 ;
+2 x1037 +2 x1038 +2 x1039 +2 x1040 -1 x537 -1 x538 -1 x539 -1 x540 -1 x541 -1 x542 -1 x543 -1 x544 >= 0 ;
+2 x1041 +2 x1042 +2 x1043 +2 x1044 -1 x541 -1 x542 -1 x543 -1 x544 -1 x545 -1 x546 -1 x547 -1 x548 >= 0 ;
+2 x1045 +2 x1046 +2 x1047 +2 x1048 -1 x545 -1 x546 -1 x547 -1 x548 -1 x549 -1 x550 -1 x551 -1 x552 >= 0 ;
+2 x1049 +2 x1050 +2 x1051 +2 x1052 -1 x549 -1 x550 -1 x551 -1 x552 -1 x553 -1 x554 -1 x555 -1 x556 >= 0 ;
+2 x1053 +2 x1054 +2 x1055 +2 x1056 -1 x553 -1 x554 -1 x555 -1 x556 -1 x557 -1 x558 -1 x559 -1 x560 >= 0 ;
+2 x1057 +2 x1058 +2 x1059 +2 x1060 -1 x557 -1 x558 -1 x559 -1 x560 -1 x561 -1 x562 -1 x563 -1 x564 >= 0 ;
+2 x1061 +2 x1062 +2 x1063 +2 x1064 -1 x561 -1 x562 -1 x563 -1 x564 -1 x565 -1 x566 -1 x567 -1 x568 >= 0 ;
+2 x1065 +2 x1066 +2 x1067 +2 x1068 -1 x565 -1 x566 -1 x567 -1 x568 -1 x569 -1 x570 -1 x571 -1 x572 >= 0 ;
+2 x1069 +2 x1070 +2 x1071 +2 x1072 -1 x569 -1 x570 -1 x571 -1 x572 -1 x573 -1 x574 -1 x575 -1 x576 >= 0 ;
+2 x1073 +2 x1074 +2 x1075 +2 x1076 -1 x573 -1 x574 -1 x575 -1 x576 -1 x577 -1 x578 -1 x579 -1 x580 >= 0 ;
+2 x1077 +2 x1078 +2 x1079 +2 x1080 -1 x577 -1 x578 -1 x579 -1 x580 -1 x581 -1 x582 -1 x583 -1 x584 >= 0 ;
+2 x1081 +2 x1082 +2 x1083 +2 x1084 -1 x581 -1 x582 -1 x583 -1 x584 -1 x585 -1 x586 -1 x587 -1 x588 >= 0 ;
+2 x1085 +2 x1086 +2 x1087 +2 x1088 -1 x585 -1 x586 -1 x587 -1 x588 -1 x589 -1 x590 -1 x591 -1 x592 >= 0 ;
+2 x1089 +2 x1090 +2 x1091 +2 x1092 -1 x589 -1 x590 -1 x591 -1 x592 -1 x593 -1 x594 -1 x595 -1 x596 >= 0 ;
+2 x1093 +2 x1094 +2 x1095 +2 x1096 -1 x593 -1 x594 -1 x595 -1 x596 -1 x597 -1 x598 -1 x599 -1 x600 >= 0 ;
+2 x1097 +2 x1098 +2 x1099 +2 x1100 -1 x597 -1 x598 -1 x599 -1 x600 -1 x601 -1 x602 -1 x603 -1 x604 >= 0 ;
+2 x1101 +2 x1102 +2 x1103 +2 x1104 -1 x601 -1 x602 -1 x603 -1 x604 -1 x605 -1 x606 -1 x607 -1 x608 >= 0 ;
+2 x1105 +2 x1106 +2 x1107 +2 x1108 -1 x605 -1 x606 -1 x607 -1 x608 -1 x609 -1 x610 -1 x611 -1 x612 >= 0 ;
+2 x1109 +2 x1110 +2 x1111 +2 x1112 -1 x609 -1 x610 -1 x611 -1 x612 -1 x613 -1 x614 -1 x615 -1 x616 >= 0 ;
+2 x1113 +2 x1114 +2 x1115 +2 x1116 -1 x613 -1 x614 -1 x615 -1 x616 -1 x617 -1 x618 -1 x619 -1 x620 >= 0 ;
+2 x1117 +2 x1118 +2 x1119 +2 x1120 -1 x617 -1 x618 -1 x619 -1 x620 -1 x621 -1 x622 -1 x623 -1 x624 >= 0 ;
+2 x1121 +2 x1122 +2 x1123 +2 x1124 -1 x621 -1 x622 -1 x623 -1 x624 -1 x625 -1 x626 -1 x627 -1 x628 >= 0 ;
+2 x1125 +2 x1126 +2 x1127 +2 x1128 -1 x625 -1 x626 -1 x627 -1 x628 -1 x629 -1 x630 -1 x631 -1 x632 >= 0 ;
+2 x1129 +2 x1130 +2 x1131 +2 x1132 -1 x629 -1 x630 -1 x631 -1 x632 -1 x633 -1 x634 -1 x635 -1 x636 >= 0 ;
+2 x1133 +2 x1134 +2 x1135 +2 x1136 -1 x633 -1 x634 -1 x635 -1 x636 -1 x637 -1 x638 -1 x639 -1 x640 >= 0 ;
+2 x1137 +2 x1138 +2 x1139 +2 x1140 -1 x637 -1 x638 -1 x639 -1 x640 -1 x641 -1 x642 -1 x643 -1 x644 >= 0 ;
+2 x1141 +2 x1142 +2 x1143 +2 x1144 -1 x641 -1 x642 -1 x643 -1 x644 -1 x645 -1 x646 -1 x647 -1 x648 >= 0 ;
+2 x1145 +2 x1146 +2 x1147 +2 x1148 -1 x645 -1 x646 -1 x647 -1 x648 -1 x649 -1 x650 -1 x651 -1 x652 >= 0 ;
+2 x1149 +2 x1150 +2 x1151 +2 x1152 -1 x649 -1 x650 -1 x651 -1 x652 -1 x653 -1 x654 -1 x655 -1 x656 >= 0 ;
+2 x1153 +2 x1154 +2 x1155 +2 x1156 -1 x653 -1 x654 -1 x655 -1 x656 -1 x657 -1 x658 -1 x659 -1 x660 >= 0 ;
+2 x1157 +2 x1158 +2 x1159 +2 x1160 -1 x657 -1 x658 -1 x659 -1 x660 -1 x661 -1 x662 -1 x663 -1 x664 >= 0 ;
+2 x1161 +2 x1162 +2 x1163 +2 x1164 -1 x661 -1 x662 -1 x663 -1 x664 -1 x665 -1 x666 -1 x667 -1 x668 >= 0 ;
+2 x1165 +2 x1166 +2 x1167 +2 x1168 -1 x665 -1 x666 -1 x667 -1 x668 -1 x669 -1 x670 -1 x671 -1 x672 >= 0 ;
+2 x1169 +2 x1170 +2 x1171 +2 x1172 -1 x669 -1 x670 -1 x671 -1 x672 -1 x673 -1 x674 -1 x675 -1 x676 >= 0 ;
+2 x1173 +2 x1174 +2 x1175 +2 x1176 -1 x673 -1 x674 -1 x675 -1 x676 -1 x677 -1 x678 -1 x679 -1 x680 >= 0 ;
+2 x1177 +2 x1178 +2 x1179 +2 x1180 -1 x677 -1 x678 -1 x679 -1 x680 -1 x681 -1 x682 -1 x683 -1 x684 >= 0 ;
+2 x1181 +2 x1182 +2 x1183 +2 x1184 -1 x681 -1 x682 -1 x683 -1 x684 -1 x685 -1 x686 -1 x687 -1 x688 >= 0 ;
+2 x1185 +2 x1186 +2 x1187 +2 x1188 -1 x685 -1 x686 -1 x687 -1 x688 -1 x689 -1 x690 -1 x691 -1 x692 >= 0 ;
+2 x1189 +2 x1190 +2 x1191 +2 x1192 -1 x689 -1 x690 -1 x691 -1 x692 -1 x693 -1 x694 -1 x695 -1 x696 >= 0 ;
+2 x1193 +2 x1194 +2 x1195 +2 x1196 -1 x693 -1 x694 -1 x695 -1 x696 -1 x697 -1 x698 -1 x699 -1 x700 >= 0 ;
+2 x1197 +2 x1198 +2 x1199 +2 x1200 -1 x697 -1 x698 -1 x699 -1 x700 -1 x701 -1 x702 -1 x703 -1 x704 >= 0 ;
+2 x1201 +2 x1202 +2 x1203 +2 x1204 -1 x701 -1 x702 -1 x703 -1 x704 -1 x705 -1 x706 -1 x707 -1 x708 >= 0 ;
+2 x1205 +2 x1206 +2 x1207 +2 x1208 -1 x705 -1 x706 -1 x707 -1 x708 -1 x709 -1 x710 -1 x711 -1 x712 >= 0 ;
+2 x1209 +2 x1210 +2 x1211 +2 x1212 -1 x709 -1 x710 -1 x711 -1 x712 -1 x713 -1 x714 -1 x715 -1 x716 >= 0 ;
+2 x1213 +2 x1214 +2 x1215 +2 x1216 -1 x713 -1 x714 -1 x715 -1 x716 -1 x717 -1 x718 -1 x719 -1 x720 >= 0 ;
+2 x1217 +2 x1218 +2 x1219 +2 x1220 -1 x717 -1 x718 -1 x719 -1 x720 -1 x721 -1 x722 -1 x723 -1 x724 >= 0 ;
+2 x1221 +2 x1222 +2 x1223 +2 x1224 -1 x721 -1 x722 -1 x723 -1 x724 -1 x725 -1 x726 -1 x727 -1 x728 >= 0 ;
+2 x1225 +2 x1226 +2 x1227 +2 x1228 -1 x725 -1 x726 -1 x727 -1 x728 -1 x729 -1 x730 -1 x731 -1 x732 >= 0 ;
+2 x1229 +2 x1230 +2 x1231 +2 x1232 -1 x729 -1 x730 -1 x731 -1 x732 -1 x733 -1 x734 -1 x735 -1 x736 >= 0 ;
+2 x1233 +2 x1234 +2 x1235 +2 x1236 -1 x733 -1 x734 -1 x735 -1 x736 -1 x737 -1 x738 -1 x739 -1 x740 >= 0 ;
+2 x1237 +2 x1238 +2 x1239 +2 x1240 -1 x737 -1 x738 -1 x739 -1 x740 -1 x741 -1 x742 -1 x743 -1 x744 >= 0 ;
+2 x1241 +2 x1242 +2 x1243 +2 x1244 -1 x741 -1 x742 -1 x743 -1 x744 -1 x745 -1 x746 -1 x747 -1 x748 >= 0 ;
+2 x1245 +2 x1246 +2 x1247 +2 x1248 -1 x745 -1 x746 -1 x747 -1 x748 -1 x749 -1 x750 -1 x751 -1 x752 >= 0 ;
+2 x1249 +2 x1250 +2 x1251 +2 x1252 -1 x749 -1 x750 -1 x751 -1 x752 -1 x753 -1 x754 -1 x755 -1 x756 >= 0 ;
+2 x1253 +2 x1254 +2 x1255 +2 x1256 -1 x753 -1 x754 -1 x755 -1 x756 -1 x757 -1 x758 -1 x759 -1 x760 >= 0 ;
+2 x1257 +2 x1258 +2 x1259 +2 x1260 -1 x757 -1 x758 -1 x759 -1 x760 -1 x761 -1 x762 -1 x763 -1 x764 >= 0 ;
+2 x1261 +2 x1262 +2 x1263 +2 x1264 -1 x761 -1 x762 -1 x763 -1 x764 -1 x765 -1 x766 -1 x767 -1 x768 >= 0 ;
+2 x1265 +2 x1266 +2 x1267 +2 x1268 -1 x765 -1 x766 -1 x767 -1 x768 -1 x769 -1 x770 -1 x771 -1 x772 >= 0 ;
+2 x1269 +2 x1270 +2 x1271 +2 x1272 -1 x769 -1 x770 -1 x771 -1 x772 -1 x773 -1 x774 -1 x775 -1 x776 >= 0 ;
+2 x1273 +2 x1274 +2 x1275 +2 x1276 -1 x773 -1 x774 -1 x775 -1 x776 -1 x777 -1 x778 -1 x779 -1 x780 >= 0 ;
+2 x1277 +2 x1278 +2 x1279 +2 x1280 -1 x777 -1 x778 -1 x779 -1 x780 -1 x781 -1 x782 -1 x783 -1 x784 >= 0 ;
+2 x1281 +2 x1282 +2 x1283 +2 x1284 -1 x781 -1 x782 -1 x783 -1 x784 -1 x785 -1 x786 -1 x787 -1 x788 >= 0 ;
+2 x1285 +2 x1286 +2 x1287 +2 x1288 -1 x785 -1 x786 -1 x787 -1 x788 -1 x789 -1 x790 -1 x791 -1 x792 >= 0 ;
+2 x1289 +2 x1290 +2 x1291 +2 x1292 -1 x789 -1 x790 -1 x791 -1 x792 -1 x793 -1 x794 -1 x795 -1 x796 >= 0 ;
+2 x1293 +2 x1294 +2 x1295 +2 x1296 -1 x793 -1 x794 -1 x795 -1 x796 -1 x797 -1 x798 -1 x799 -1 x800 >= 0 ;
+2 x1297 +2 x1298 +2 x1299 +2 x1300 -1 x797 -1 x798 -1 x799 -1 x800 -1 x801 -1 x802 -1 x803 -1 x804 >= 0 ;
+2 x1301 +2 x1302 +2 x1303 +2 x1304 -1 x801 -1 x802 -1 x803 -1 x804 -1 x805 -1 x806 -1 x807 -1 x808 >= 0 ;
+2 x1305 +2 x1306 +2 x1307 +2 x1308 -1 x805 -1 x806 -1 x807 -1 x808 -1 x809 -1 x810 -1 x811 -1 x812 >= 0 ;
+2 x1309 +2 x1310 +2 x1311 +2 x1312 -1 x809 -1 x810 -1 x811 -1 x812 -1 x813 -1 x814 -1 x815 -1 x816 >= 0 ;
+2 x1313 +2 x1314 +2 x1315 +2 x1316 -1 x813 -1 x814 -1 x815 -1 x816 -1 x817 -1 x818 -1 x819 -1 x820 >= 0 ;
+2 x1317 +2 x1318 +2 x1319 +2 x1320 -1 x817 -1 x818 -1 x819 -1 x820 -1 x821 -1 x822 -1 x823 -1 x824 >= 0 ;
+2 x1321 +2 x1322 +2 x1323 +2 x1324 -1 x821 -1 x822 -1 x823 -1 x824 -1 x825 -1 x826 -1 x827 -1 x828 >= 0 ;
+2 x1325 +2 x1326 +2 x1327 +2 x1328 -1 x825 -1 x826 -1 x827 -1 x828 -1 x829 -1 x830 -1 x831 -1 x832 >= 0 ;
+2 x1329 +2 x1330 +2 x1331 +2 x1332 -1 x829 -1 x830 -1 x831 -1 x832 -1 x833 -1 x834 -1 x835 -1 x836 >= 0 ;
+2 x1333 +2 x1334 +2 x1335 +2 x1336 -1 x833 -1 x834 -1 x835 -1 x836 -1 x837 -1 x838 -1 x839 -1 x840 >= 0 ;
+2 x1337 +2 x1338 +2 x1339 +2 x1340 -1 x837 -1 x838 -1 x839 -1 x840 -1 x841 -1 x842 -1 x843 -1 x844 >= 0 ;
+2 x1341 +2 x1342 +2 x1343 +2 x1344 -1 x841 -1 x842 -1 x843 -1 x844 -1 x845 -1 x846 -1 x847 -1 x848 >= 0 ;
+2 x1345 +2 x1346 +2 x1347 +2 x1348 -1 x845 -1 x846 -1 x847 -1 x848 -1 x849 -1 x850 -1 x851 -1 x852 >= 0 ;
+2 x1349 +2 x1350 +2 x1351 +2 x1352 -1 x849 -1 x850 -1 x851 -1 x852 -1 x853 -1 x854 -1 x855 -1 x856 >= 0 ;
+2 x1353 +2 x1354 +2 x1355 +2 x1356 -1 x853 -1 x854 -1 x855 -1 x856 -1 x857 -1 x858 -1 x859 -1 x860 >= 0 ;
+2 x1357 +2 x1358 +2 x1359 +2 x1360 -1 x857 -1 x858 -1 x859 -1 x860 -1 x861 -1 x862 -1 x863 -1 x864 >= 0 ;
+2 x1361 +2 x1362 +2 x1363 +2 x1364 -1 x861 -1 x862 -1 x863 -1 x864 -1 x865 -1 x866 -1 x867 -1 x868 >= 0 ;
+2 x1365 +2 x1366 +2 x1367 +2 x1368 -1 x865 -1 x866 -1 x867 -1 x868 -1 x869 -1 x870 -1 x871 -1 x872 >= 0 ;
+2 x1369 +2 x1370 +2 x1371 +2 x1372 -1 x869 -1 x870 -1 x871 -1 x872 -1 x873 -1 x874 -1 x875 -1 x876 >= 0 ;
+2 x1373 +2 x1374 +2 x1375 +2 x1376 -1 x873 -1 x874 -1 x875 -1 x876 -1 x877 -1 x878 -1 x879 -1 x880 >= 0 ;
+2 x1377 +2 x1378 +2 x1379 +2 x1380 -1 x877 -1 x878 -1 x879 -1 x880 -1 x881 -1 x882 -1 x883 -1 x884 >= 0 ;
+2 x1381 +2 x1382 +2 x1383 +2 x1384 -1 x881 -1 x882 -1 x883 -1 x884 -1 x885 -1 x886 -1 x887 -1 x888 >= 0 ;
+2 x1385 +2 x1386 +2 x1387 +2 x1388 -1 x885 -1 x886 -1 x887 -1 x888 -1 x889 -1 x890 -1 x891 -1 x892 >= 0 ;
+2 x1389 +2 x1390 +2 x1391 +2 x1392 -1 x889 -1 x890 -1 x891 -1 x892 -1 x893 -1 x894 -1 x895 -1 x896 >= 0 ;
+2 x1393 +2 x1394 +2 x1395 +2 x1396 -1 x893 -1 x894 -1 x895 -1 x896 -1 x897 -1 x898 -1 x899 -1 x900 >= 0 ;
+2 x1397 +2 x1398 +2 x1399 +2 x1400 -1 x897 -1 x898 -1 x899 -1 x900 -1 x901 -1 x902 -1 x903 -1 x904 >= 0 ;
+2 x1401 +2 x1402 +2 x1403 +2 x1404 -1 x901 -1 x902 -1 x903 -1 x904 -1 x905 -1 x906 -1 x907 -1 x908 >= 0 ;
+2 x1405 +2 x1406 +2 x1407 +2 x1408 -1 x905 -1 x906 -1 x907 -1 x908 -1 x909 -1 x910 -1 x911 -1 x912 >= 0 ;
+2 x1409 +2 x1410 +2 x1411 +2 x1412 -1 x909 -1 x910 -1 x911 -1 x912 -1 x913 -1 x914 -1 x915 -1 x916 >= 0 ;
+2 x1413 +2 x1414 +2 x1415 +2 x1416 -1 x913 -1 x914 -1 x915 -1 x916 -1 x917 -1 x918 -1 x919 -1 x920 >= 0 ;
+2 x1417 +2 x1418 +2 x1419 +2 x1420 -1 x917 -1 x918 -1 x919 -1 x920 -1 x921 -1 x922 -1 x923 -1 x924 >= 0 ;
+2 x1421 +2 x1422 +2 x1423 +2 x1424 -1 x921 -1 x922 -1 x923 -1 x924 -1 x925 -1 x926 -1 x927 -1 x928 >= 0 ;
+2 x1425 +2 x1426 +2 x1427 +2 x1428 -1 x925 -1 x926 -1 x927 -1 x928 -1 x929 -1 x930 -1 x931 -1 x932 >= 0 ;
+2 x1429 +2 x1430 +2 x1431 +2 x1432 -1 x929 -1 x930 -1 x931 -1 x932 -1 x933 -1 x934 -1 x935 -1 x936 >= 0 ;
+2 x1433 +2 x1434 +2 x1435 +2 x1436 -1 x933 -1 x934 -1 x935 -1 x936 -1 x937 -1 x938 -1 x939 -1 x940 >= 0 ;
+2 x1437 +2 x1438 +2 x1439 +2 x1440 -1 x937 -1 x938 -1 x939 -1 x940 -1 x941 -1 x942 -1 x943 -1 x944 >= 0 ;
+2 x1441 +2 x1442 +2 x1443 +2 x1444 -1 x941 -1 x942 -1 x943 -1 x944 -1 x945 -1 x946 -1 x947 -1 x948 >= 0 ;
+2 x1445 +2 x1446 +2 x1447 +2 x1448 -1 x945 -1 x946 -1 x947 -1 x948 -1 x949 -1 x950 -1 x951 -1 x952 >= 0 ;
+2 x1449 +2 x1450 +2 x1451 +2 x1452 -1 x949 -1 x950 -1 x951 -1 x952 -1 x953 -1 x954 -1 x955 -1 x956 >= 0 ;
+2 x1453 +2 x1454 +2 x1455 +2 x1456 -1 x953 -1 x954 -1 x955 -1 x956 -1 x957 -1 x958 -1 x959 -1 x960 >= 0 ;
+2 x1457 +2 x1458 +2 x1459 +2 x1460 -1 x957 -1 x958 -1 x959 -1 x960 -1 x961 -1 x962 -1 x963 -1 x964 >= 0 ;
+2 x1461 +2 x1462 +2 x1463 +2 x1464 -1 x961 -1 x962 -1 x963 -1 x964 -1 x965 -1 x966 -1 x967 -1 x968 >= 0 ;
+2 x1465 +2 x1466 +2 x1467 +2 x1468 -1 x965 -1 x966 -1 x967 -1 x968 -1 x969 -1 x970 -1 x971 -1 x972 >= 0 ;
+2 x1469 +2 x1470 +2 x1471 +2 x1472 -1 x969 -1 x970 -1 x971 -1 x972 -1 x973 -1 x974 -1 x975 -1 x976 >= 0 ;
+2 x1473 +2 x1474 +2 x1475 +2 x1476 -1 x973 -1 x974 -1 x975 -1 x976 -1 x977 -1 x978 -1 x979 -1 x980 >= 0 ;
+2 x1477 +2 x1478 +2 x1479 +2 x1480 -1 x977 -1 x978 -1 x979 -1 x980 -1 x981 -1 x982 -1 x983 -1 x984 >= 0 ;
+2 x1481 +2 x1482 +2 x1483 +2 x1484 -1 x981 -1 x982 -1 x983 -1 x984 -1 x985 -1 x986 -1 x987 -1 x988 >= 0 ;
+2 x1485 +2 x1486 +2 x1487 +2 x1488 -1 x985 -1 x986 -1 x987 -1 x988 -1 x989 -1 x990 -1 x991 -1 x992 >= 0 ;
+2 x1489 +2 x1490 +2 x1491 +2 x1492 -1 x989 -1 x990 -1 x991 -1 x992 -1 x993 -1 x994 -1 x995 -1 x996 >= 0 ;
+2 x1493 +2 x1494 +2 x1495 +2 x1496 -1 x993 -1 x994 -1 x995 -1 x996 -1 x997 -1 x998 -1 x999 -1 x1000 >= 0 ;
+2 x1497 +2 x1498 +2 x1499 +2 x1500 -1 x997 -1 x998 -1 x999 -1 x1000 -1 x1001 -1 x1002 -1 x1003 -1 x1004 >= 0 ;
+2 x1501 +2 x1502 +2 x1503 +2 x1504 -1 x1005 -1 x1006 -1 x1007 -1 x1008 -1 x1009 -1 x1010 -1 x1011 -1 x1012 >= 0 ;
+2 x1505 +2 x1506 +2 x1507 +2 x1508 -1 x1009 -1 x1010 -1 x1011 -1 x1012 -1 x1013 -1 x1014 -1 x1015 -1 x1016 >= 0 ;
+2 x1509 +2 x1510 +2 x1511 +2 x1512 -1 x1013 -1 x1014 -1 x1015 -1 x1016 -1 x1017 -1 x1018 -1 x1019 -1 x1020 >= 0 ;
+2 x1513 +2 x1514 +2 x1515 +2 x1516 -1 x1017 -1 x1018 -1 x1019 -1 x1020 -1 x1021 -1 x1022 -1 x1023 -1 x1024 >= 0 ;
+2 x1517 +2 x1518 +2 x1519 +2 x1520 -1 x1021 -1 x1022 -1 x1023 -1 x1024 -1 x1025 -1 x1026 -1 x1027 -1 x1028 >= 0 ;
+2 x1521 +2 x1522 +2 x1523 +2 x1524 -1 x1025 -1 x1026 -1 x1027 -1 x1028 -1 x1029 -1 x1030 -1 x1031 -1 x1032 >= 0 ;
+2 x1525 +2 x1526 +2 x1527 +2 x1528 -1 x1029 -1 x1030 -1 x1031 -1 x1032 -1 x1033 -1 x1034 -1 x1035 -1 x1036 >= 0 ;
+2 x1529 +2 x1530 +2 x1531 +2 x1532 -1 x1033 -1 x1034 -1 x1035 -1 x1036 -1 x1037 -1 x1038 -1 x1039 -1 x1040 >= 0 ;
+2 x1533 +2 x1534 +2 x1535 +2 x1536 -1 x1037 -1 x1038 -1 x1039 -1 x1040 -1 x1041 -1 x1042 -1 x1043 -1 x1044 >= 0 ;
+2 x1537 +2 x1538 +2 x1539 +2 x1540 -1 x1041 -1 x1042 -1 x1043 -1 x1044 -1 x1045 -1 x1046 -1 x1047 -1 x1048 >= 0 ;
+2 x1541 +2 x1542 +2 x1543 +2 x1544 -1 x1045 -1 x1046 -1 x1047 -1 x1048 -1 x1049 -1 x1050 -1 x1051 -1 x1052 >= 0 ;
+2 x1545 +2 x1546 +2 x1547 +2 x1548 -1 x1049 -1 x1050 -1 x1051 -1 x1052 -1 x1053 -1 x1054 -1 x1055 -1 x1056 >= 0 ;
+2 x1549 +2 x1550 +2 x1551 +2 x1552 -1 x1053 -1 x1054 -1 x1055 -1 x1056 -1 x1057 -1 x1058 -1 x1059 -1 x1060 >= 0 ;
+2 x1553 +2 x1554 +2 x1555 +2 x1556 -1 x1057 -1 x1058 -1 x1059 -1 x1060 -1 x1061 -1 x1062 -1 x1063 -1 x1064 >= 0 ;
+2 x1557 +2 x1558 +2 x1559 +2 x1560 -1 x1061 -1 x1062 -1 x1063 -1 x1064 -1 x1065 -1 x1066 -1 x1067 -1 x1068 >= 0 ;
+2 x1561 +2 x1562 +2 x1563 +2 x1564 -1 x1065 -1 x1066 -1 x1067 -1 x1068 -1 x1069 -1 x1070 -1 x1071 -1 x1072 >= 0 ;
+2 x1565 +2 x1566 +2 x1567 +2 x1568 -1 x1069 -1 x1070 -1 x1071 -1 x1072 -1 x1073 -1 x1074 -1 x1075 -1 x1076 >= 0 ;
+2 x1569 +2 x1570 +2 x1571 +2 x1572 -1 x1073 -1 x1074 -1 x1075 -1 x1076 -1 x1077 -1 x1078 -1 x1079 -1 x1080 >= 0 ;
+2 x1573 +2 x1574 +2 x1575 +2 x1576 -1 x1077 -1 x1078 -1 x1079 -1 x1080 -1 x1081 -1 x1082 -1 x1083 -1 x1084 >= 0 ;
+2 x1577 +2 x1578 +2 x1579 +2 x1580 -1 x1081 -1 x1082 -1 x1083 -1 x1084 -1 x1085 -1 x1086 -1 x1087 -1 x1088 >= 0 ;
+2 x1581 +2 x1582 +2 x1583 +2 x1584 -1 x1085 -1 x1086 -1 x1087 -1 x1088 -1 x1089 -1 x1090 -1 x1091 -1 x1092 >= 0 ;
+2 x1585 +2 x1586 +2 x1587 +2 x1588 -1 x1089 -1 x1090 -1 x1091 -1 x1092 -1 x1093 -1 x1094 -1 x1095 -1 x1096 >= 0 ;
+2 x1589 +2 x1590 +2 x1591 +2 x1592 -1 x1093 -1 x1094 -1 x1095 -1 x1096 -1 x1097 -1 x1098 -1 x1099 -1 x1100 >= 0 ;
+2 x1593 +2 x1594 +2 x1595 +2 x1596 -1 x1097 -1 x1098 -1 x1099 -1 x1100 -1 x1101 -1 x1102 -1 x1103 -1 x1104 >= 0 ;
+2 x1597 +2 x1598 +2 x1599 +2 x1600 -1 x1101 -1 x1102 -1 x1103 -1 x1104 -1 x1105 -1 x1106 -1 x1107 -1 x1108 >= 0 ;
+2 x1601 +2 x1602 +2 x1603 +2 x1604 -1 x1105 -1 x1106 -1 x1107 -1 x1108 -1 x1109 -1 x1110 -1 x1111 -1 x1112 >= 0 ;
+2 x1605 +2 x1606 +2 x1607 +2 x1608 -1 x1109 -1 x1110 -1 x1111 -1 x1112 -1 x1113 -1 x1114 -1 x1115 -1 x1116 >= 0 ;
+2 x1609 +2 x1610 +2 x1611 +2 x1612 -1 x1113 -1 x1114 -1 x1115 -1 x1116 -1 x1117 -1 x1118 -1 x1119 -1 x1120 >= 0 ;
+2 x1613 +2 x1614 +2 x1615 +2 x1616 -1 x1117 -1 x1118 -1 x1119 -1 x1120 -1 x1121 -1 x1122 -1 x1123 -1 x1124 >= 0 ;
+2 x1617 +2 x1618 +2 x1619 +2 x1620 -1 x1121 -1 x1122 -1 x1123 -1 x1124 -1 x1125 -1 x1126 -1 x1127 -1 x1128 >= 0 ;
+2 x1621 +2 x1622 +2 x1623 +2 x1624 -1 x1125 -1 x1126 -1 x1127 -1 x1128 -1 x1129 -1 x1130 -1 x1131 -1 x1132 >= 0 ;
+2 x1625 +2 x1626 +2 x1627 +2 x1628 -1 x1129 -1 x1130 -1 x1131 -1 x1132 -1 x1133 -1 x1134 -1 x1135 -1 x1136 >= 0 ;
+2 x1629 +2 x1630 +2 x1631 +2 x1632 -1 x1133 -1 x1134 -1 x1135 -1 x1136 -1 x1137 -1 x1138 -1 x1139 -1 x1140 >= 0 ;
+2 x1633 +2 x1634 +2 x1635 +2 x1636 -1 x1137 -1 x1138 -1 x1139 -1 x1140 -1 x1141 -1 x1142 -1 x1143 -1 x1144 >= 0 ;
+2 x1637 +2 x1638 +2 x1639 +2 x1640 -1 x1141 -1 x1142 -1 x1143 -1 x1144 -1 x1145 -1 x1146 -1 x1147 -1 x1148 >= 0 ;
+2 x1641 +2 x1642 +2 x1643 +2 x1644 -1 x1145 -1 x1146 -1 x1147 -1 x1148 -1 x1149 -1 x1150 -1 x1151 -1 x1152 >= 0 ;
+2 x1645 +2 x1646 +2 x1647 +2 x1648 -1 x1149 -1 x1150 -1 x1151 -1 x1152 -1 x1153 -1 x1154 -1 x1155 -1 x1156 >= 0 ;
+2 x1649 +2 x1650 +2 x1651 +2 x1652 -1 x1153 -1 x1154 -1 x1155 -1 x1156 -1 x1157 -1 x1158 -1 x1159 -1 x1160 >= 0 ;
+2 x1653 +2 x1654 +2 x1655 +2 x1656 -1 x1157 -1 x1158 -1 x1159 -1 x1160 -1 x1161 -1 x1162 -1 x1163 -1 x1164 >= 0 ;
+2 x1657 +2 x1658 +2 x1659 +2 x1660 -1 x1161 -1 x1162 -1 x1163 -1 x1164 -1 x1165 -1 x1166 -1 x1167 -1 x1168 >= 0 ;
+2 x1661 +2 x1662 +2 x1663 +2 x1664 -1 x1165 -1 x1166 -1 x1167 -1 x1168 -1 x1169 -1 x1170 -1 x1171 -1 x1172 >= 0 ;
+2 x1665 +2 x1666 +2 x1667 +2 x1668 -1 x1169 -1 x1170 -1 x1171 -1 x1172 -1 x1173 -1 x1174 -1 x1175 -1 x1176 >= 0 ;
+2 x1669 +2 x1670 +2 x1671 +2 x1672 -1 x1173 -1 x1174 -1 x1175 -1 x1176 -1 x1177 -1 x1178 -1 x1179 -1 x1180 >= 0 ;
+2 x1673 +2 x1674 +2 x1675 +2 x1676 -1 x1177 -1 x1178 -1 x1179 -1 x1180 -1 x1181 -1 x1182 -1 x1183 -1 x1184 >= 0 ;
+2 x1677 +2 x1678 +2 x1679 +2 x1680 -1 x1181 -1 x1182 -1 x1183 -1 x1184 -1 x1185 -1 x1186 -1 x1187 -1 x1188 >= 0 ;
+2 x1681 +2 x1682 +2 x1683 +2 x1684 -1 x1185 -1 x1186 -1 x1187 -1 x1188 -1 x1189 -1 x1190 -1 x1191 -1 x1192 >= 0 ;
+2 x1685 +2 x1686 +2 x1687 +2 x1688 -1 x1189 -1 x1190 -1 x1191 -1 x1192 -1 x1193 -1 x1194 -1 x1195 -1 x1196 >= 0 ;
+2 x1689 +2 x1690 +2 x1691 +2 x1692 -1 x1193 -1 x1194 -1 x1195 -1 x1196 -1 x1197 -1 x1198 -1 x1199 -1 x1200 >= 0 ;
+2 x1693 +2 x1694 +2 x1695 +2 x1696 -1 x1197 -1 x1198 -1 x1199 -1 x1200 -1 x1201 -1 x1202 -1 x1203 -1 x1204 >= 0 ;
+2 x1697 +2 x1698 +2 x1699 +2 x1700 -1 x1201 -1 x1202 -1 x1203 -1 x1204 -1 x1205 -1 x1206 -1 x1207 -1 x1208 >= 0 ;
+2 x1701 +2 x1702 +2 x1703 +2 x1704 -1 x1205 -1 x1206 -1 x1207 -1 x1208 -1 x1209 -1 x1210 -1 x1211 -1 x1212 >= 0 ;
+2 x1705 +2 x1706 +2 x1707 +2 x1708 -1 x1209 -1 x1210 -1 x1211 -1 x1212 -1 x1213 -1 x1214 -1 x1215 -1 x1216 >= 0 ;
+2 x1709 +2 x1710 +2 x1711 +2 x1712 -1 x1213 -1 x1214 -1 x1215 -1 x1216 -1 x1217 -1 x1218 -1 x1219 -1 x1220 >= 0 ;
+2 x1713 +2 x1714 +2 x1715 +2 x1716 -1 x1217 -1 x1218 -1 x1219 -1 x1220 -1 x1221 -1 x1222 -1 x1223 -1 x1224 >= 0 ;
+2 x1717 +2 x1718 +2 x1719 +2 x1720 -1 x1221 -1 x1222 -1 x1223 -1 x1224 -1 x1225 -1 x1226 -1 x1227 -1 x1228 >= 0 ;
+2 x1721 +2 x1722 +2 x1723 +2 x1724 -1 x1225 -1 x1226 -1 x1227 -1 x1228 -1 x1229 -1 x1230 -1 x1231 -1 x1232 >= 0 ;
+2 x1725 +2 x1726 +2 x1727 +2 x1728 -1 x1229 -1 x1230 -1 x1231 -1 x1232 -1 x1233 -1 x1234 -1 x1235 -1 x1236 >= 0 ;
+2 x1729 +2 x1730 +2 x1731 +2 x1732 -1 x1233 -1 x1234 -1 x1235 -1 x1236 -1 x1237 -1 x1238 -1 x1239 -1 x1240 >= 0 ;
+2 x1733 +2 x1734 +2 x1735 +2 x1736 -1 x1237 -1 x1238 -1 x1239 -1 x1240 -1 x1241 -1 x1242 -1 x1243 -1 x1244 >= 0 ;
+2 x1737 +2 x1738 +2 x1739 +2 x1740 -1 x1241 -1 x1242 -1 x1243 -1 x1244 -1 x1245 -1 x1246 -1 x1247 -1 x1248 >= 0 ;
+2 x1741 +2 x1742 +2 x1743 +2 x1744 -1 x1245 -1 x1246 -1 x1247 -1 x1248 -1 x1249 -1 x1250 -1 x1251 -1 x1252 >= 0 ;
+2 x1745 +2 x1746 +2 x1747 +2 x1748 -1 x1249 -1 x1250 -1 x1251 -1 x1252 -1 x1253 -1 x1254 -1 x1255 -1 x1256 >= 0 ;
+2 x1749 +2 x1750 +2 x1751 +2 x1752 -1 x1253 -1 x1254 -1 x1255 -1 x1256 -1 x1257 -1 x1258 -1 x1259 -1 x1260 >= 0 ;
+2 x1753 +2 x1754 +2 x1755 +2 x1756 -1 x1257 -1 x1258 -1 x1259 -1 x1260 -1 x1261 -1 x1262 -1 x1263 -1 x1264 >= 0 ;
+2 x1757 +2 x1758 +2 x1759 +2 x1760 -1 x1261 -1 x1262 -1 x1263 -1 x1264 -1 x1265 -1 x1266 -1 x1267 -1 x1268 >= 0 ;
+2 x1761 +2 x1762 +2 x1763 +2 x1764 -1 x1265 -1 x1266 -1 x1267 -1 x1268 -1 x1269 -1 x1270 -1 x1271 -1 x1272 >= 0 ;
+2 x1765 +2 x1766 +2 x1767 +2 x1768 -1 x1269 -1 x1270 -1 x1271 -1 x1272 -1 x1273 -1 x1274 -1 x1275 -1 x1276 >= 0 ;
+2 x1769 +2 x1770 +2 x1771 +2 x1772 -1 x1273 -1 x1274 -1 x1275 -1 x1276 -1 x1277 -1 x1278 -1 x1279 -1 x1280 >= 0 ;
+2 x1773 +2 x1774 +2 x1775 +2 x1776 -1 x1277 -1 x1278 -1 x1279 -1 x1280 -1 x1281 -1 x1282 -1 x1283 -1 x1284 >= 0 ;
+2 x1777 +2 x1778 +2 x1779 +2 x1780 -1 x1281 -1 x1282 -1 x1283 -1 x1284 -1 x1285 -1 x1286 -1 x1287 -1 x1288 >= 0 ;
+2 x1781 +2 x1782 +2 x1783 +2 x1784 -1 x1285 -1 x1286 -1 x1287 -1 x1288 -1 x1289 -1 x1290 -1 x1291 -1 x1292 >= 0 ;
+2 x1785 +2 x1786 +2 x1787 +2 x1788 -1 x1289 -1 x1290 -1 x1291 -1 x1292 -1 x1293 -1 x1294 -1 x1295 -1 x1296 >= 0 ;
+2 x1789 +2 x1790 +2 x1791 +2 x1792 -1 x1293 -1 x1294 -1 x1295 -1 x1296 -1 x1297 -1 x1298 -1 x1299 -1 x1300 >= 0 ;
+2 x1793 +2 x1794 +2 x1795 +2 x1796 -1 x1297 -1 x1298 -1 x1299 -1 x1300 -1 x1301 -1 x1302 -1 x1303 -1 x1304 >= 0 ;
+2 x1797 +2 x1798 +2 x1799 +2 x1800 -1 x1301 -1 x1302 -1 x1303 -1 x1304 -1 x1305 -1 x1306 -1 x1307 -1 x1308 >= 0 ;
+2 x1801 +2 x1802 +2 x1803 +2 x1804 -1 x1305 -1 x1306 -1 x1307 -1 x1308 -1 x1309 -1 x1310 -1 x1311 -1 x1312 >= 0 ;
+2 x1805 +2 x1806 +2 x1807 +2 x1808 -1 x1309 -1 x1310 -1 x1311 -1 x1312 -1 x1313 -1 x1314 -1 x1315 -1 x1316 >= 0 ;
+2 x1809 +2 x1810 +2 x1811 +2 x1812 -1 x1313 -1 x1314 -1 x1315 -1 x1316 -1 x1317 -1 x1318 -1 x1319 -1 x1320 >= 0 ;
+2 x1813 +2 x1814 +2 x1815 +2 x1816 -1 x1317 -1 x1318 -1 x1319 -1 x1320 -1 x1321 -1 x1322 -1 x1323 -1 x1324 >= 0 ;
+2 x1817 +2 x1818 +2 x1819 +2 x1820 -1 x1321 -1 x1322 -1 x1323 -1 x1324 -1 x1325 -1 x1326 -1 x1327 -1 x1328 >= 0 ;
+2 x1821 +2 x1822 +2 x1823 +2 x1824 -1 x1325 -1 x1326 -1 x1327 -1 x1328 -1 x1329 -1 x1330 -1 x1331 -1 x1332 >= 0 ;
+2 x1825 +2 x1826 +2 x1827 +2 x1828 -1 x1329 -1 x1330 -1 x1331 -1 x1332 -1 x1333 -1 x1334 -1 x1335 -1 x1336 >= 0 ;
+2 x1829 +2 x1830 +2 x1831 +2 x1832 -1 x1333 -1 x1334 -1 x1335 -1 x1336 -1 x1337 -1 x1338 -1 x1339 -1 x1340 >= 0 ;
+2 x1833 +2 x1834 +2 x1835 +2 x1836 -1 x1337 -1 x1338 -1 x1339 -1 x1340 -1 x1341 -1 x1342 -1 x1343 -1 x1344 >= 0 ;
+2 x1837 +2 x1838 +2 x1839 +2 x1840 -1 x1341 -1 x1342 -1 x1343 -1 x1344 -1 x1345 -1 x1346 -1 x1347 -1 x1348 >= 0 ;
+2 x1841 +2 x1842 +2 x1843 +2 x1844 -1 x1345 -1 x1346 -1 x1347 -1 x1348 -1 x1349 -1 x1350 -1 x1351 -1 x1352 >= 0 ;
+2 x1845 +2 x1846 +2 x1847 +2 x1848 -1 x1349 -1 x1350 -1 x1351 -1 x1352 -1 x1353 -1 x1354 -1 x1355 -1 x1356 >= 0 ;
+2 x1849 +2 x1850 +2 x1851 +2 x1852 -1 x1353 -1 x1354 -1 x1355 -1 x1356 -1 x1357 -1 x1358 -1 x1359 -1 x1360 >= 0 ;
+2 x1853 +2 x1854 +2 x1855 +2 x1856 -1 x1357 -1 x1358 -1 x1359 -1 x1360 -1 x1361 -1 x1362 -1 x1363 -1 x1364 >= 0 ;
+2 x1857 +2 x1858 +2 x1859 +2 x1860 -1 x1361 -1 x1362 -1 x1363 -1 x1364 -1 x1365 -1 x1366 -1 x1367 -1 x1368 >= 0 ;
+2 x1861 +2 x1862 +2 x1863 +2 x1864 -1 x1365 -1 x1366 -1 x1367 -1 x1368 -1 x1369 -1 x1370 -1 x1371 -1 x1372 >= 0 ;
+2 x1865 +2 x1866 +2 x1867 +2 x1868 -1 x1369 -1 x1370 -1 x1371 -1 x1372 -1 x1373 -1 x1374 -1 x1375 -1 x1376 >= 0 ;
+2 x1869 +2 x1870 +2 x1871 +2 x1872 -1 x1373 -1 x1374 -1 x1375 -1 x1376 -1 x1377 -1 x1378 -1 x1379 -1 x1380 >= 0 ;
+2 x1873 +2 x1874 +2 x1875 +2 x1876 -1 x1377 -1 x1378 -1 x1379 -1 x1380 -1 x1381 -1 x1382 -1 x1383 -1 x1384 >= 0 ;
+2 x1877 +2 x1878 +2 x1879 +2 x1880 -1 x1381 -1 x1382 -1 x1383 -1 x1384 -1 x1385 -1 x1386 -1 x1387 -1 x1388 >= 0 ;
+2 x1881 +2 x1882 +2 x1883 +2 x1884 -1 x1385 -1 x1386 -1 x1387 -1 x1388 -1 x1389 -1 x1390 -1 x1391 -1 x1392 >= 0 ;
+2 x1885 +2 x1886 +2 x1887 +2 x1888 -1 x1389 -1 x1390 -1 x1391 -1 x1392 -1 x1393 -1 x1394 -1 x1395 -1 x1396 >= 0 ;
+2 x1889 +2 x1890 +2 x1891 +2 x1892 -1 x1393 -1 x1394 -1 x1395 -1 x1396 -1 x1397 -1 x1398 -1 x1399 -1 x1400 >= 0 ;
+2 x1893 +2 x1894 +2 x1895 +2 x1896 -1 x1397 -1 x1398 -1 x1399 -1 x1400 -1 x1401 -1 x1402 -1 x1403 -1 x1404 >= 0 ;
+2 x1897 +2 x1898 +2 x1899 +2 x1900 -1 x1401 -1 x1402 -1 x1403 -1 x1404 -1 x1405 -1 x1406 -1 x1407 -1 x1408 >= 0 ;
+2 x1901 +2 x1902 +2 x1903 +2 x1904 -1 x1405 -1 x1406 -1 x1407 -1 x1408 -1 x1409 -1 x1410 -1 x1411 -1 x1412 >= 0 ;
+2 x1905 +2 x1906 +2 x1907 +2 x1908 -1 x1409 -1 x1410 -1 x1411 -1 x1412 -1 x1413 -1 x1414 -1 x1415 -1 x1416 >= 0 ;
+2 x1909 +2 x1910 +2 x1911 +2 x1912 -1 x1413 -1 x1414 -1 x1415 -1 x1416 -1 x1417 -1 x1418 -1 x1419 -1 x1420 >= 0 ;
+2 x1913 +2 x1914 +2 x1915 +2 x1916 -1 x1417 -1 x1418 -1 x1419 -1 x1420 -1 x1421 -1 x1422 -1 x1423 -1 x1424 >= 0 ;
+2 x1917 +2 x1918 +2 x1919 +2 x1920 -1 x1421 -1 x1422 -1 x1423 -1 x1424 -1 x1425 -1 x1426 -1 x1427 -1 x1428 >= 0 ;
+2 x1921 +2 x1922 +2 x1923 +2 x1924 -1 x1425 -1 x1426 -1 x1427 -1 x1428 -1 x1429 -1 x1430 -1 x1431 -1 x1432 >= 0 ;
+2 x1925 +2 x1926 +2 x1927 +2 x1928 -1 x1429 -1 x1430 -1 x1431 -1 x1432 -1 x1433 -1 x1434 -1 x1435 -1 x1436 >= 0 ;
+2 x1929 +2 x1930 +2 x1931 +2 x1932 -1 x1433 -1 x1434 -1 x1435 -1 x1436 -1 x1437 -1 x1438 -1 x1439 -1 x1440 >= 0 ;
+2 x1933 +2 x1934 +2 x1935 +2 x1936 -1 x1437 -1 x1438 -1 x1439 -1 x1440 -1 x1441 -1 x1442 -1 x1443 -1 x1444 >= 0 ;
+2 x1937 +2 x1938 +2 x1939 +2 x1940 -1 x1441 -1 x1442 -1 x1443 -1 x1444 -1 x1445 -1 x1446 -1 x1447 -1 x1448 >= 0 ;
+2 x1941 +2 x1942 +2 x1943 +2 x1944 -1 x1445 -1 x1446 -1 x1447 -1 x1448 -1 x1449 -1 x1450 -1 x1451 -1 x1452 >= 0 ;
+2 x1945 +2 x1946 +2 x1947 +2 x1948 -1 x1449 -1 x1450 -1 x1451 -1 x1452 -1 x1453 -1 x1454 -1 x1455 -1 x1456 >= 0 ;
+2 x1949 +2 x1950 +2 x1951 +2 x1952 -1 x1453 -1 x1454 -1 x1455 -1 x1456 -1 x1457 -1 x1458 -1 x1459 -1 x1460 >= 0 ;
+2 x1953 +2 x1954 +2 x1955 +2 x1956 -1 x1457 -1 x1458 -1 x1459 -1 x1460 -1 x1461 -1 x1462 -1 x1463 -1 x1464 >= 0 ;
+2 x1957 +2 x1958 +2 x1959 +2 x1960 -1 x1461 -1 x1462 -1 x1463 -1 x1464 -1 x1465 -1 x1466 -1 x1467 -1 x1468 >= 0 ;
+2 x1961 +2 x1962 +2 x1963 +2 x1964 -1 x1465 -1 x1466 -1 x1467 -1 x1468 -1 x1469 -1 x1470 -1 x1471 -1 x1472 >= 0 ;
+2 x1965 +2 x1966 +2 x1967 +2 x1968 -1 x1469 -1 x1470 -1 x1471 -1 x1472 -1 x1473 -1 x1474 -1 x1475 -1 x1476 >= 0 ;
+2 x1969 +2 x1970 +2 x1971 +2 x1972 -1 x1473 -1 x1474 -1 x1475 -1 x1476 -1 x1477 -1 x1478 -1 x1479 -1 x1480 >= 0 ;
+2 x1973 +2 x1974 +2 x1975 +2 x1976 -1 x1477 -1 x1478 -1 x1479 -1 x1480 -1 x1481 -1 x1482 -1 x1483 -1 x1484 >= 0 ;
+2 x1977 +2 x1978 +2 x1979 +2 x1980 -1 x1481 -1 x1482 -1 x1483 -1 x1484 -1 x1485 -1 x1486 -1 x1487 -1 x1488 >= 0 ;
+2 x1981 +2 x1982 +2 x1983 +2 x1984 -1 x1485 -1 x1486 -1 x1487 -1 x1488 -1 x1489 -1 x1490 -1 x1491 -1 x1492 >= 0 ;
+2 x1985 +2 x1986 +2 x1987 +2 x1988 -1 x1489 -1 x1490 -1 x1491 -1 x1492 -1 x1493 -1 x1494 -1 x1495 -1 x1496 >= 0 ;
+2 x1989 +2 x1990 +2 x1991 +2 x1992 -1 x1493 -1 x1494 -1 x1495 -1 x1496 -1 x1497 -1 x1498 -1 x1499 -1 x1500 >= 0 ;
+2 x1993 +2 x1994 +2 x1995 +2 x1996 -1 x1501 -1 x1502 -1 x1503 -1 x1504 -1 x1505 -1 x1506 -1 x1507 -1 x1508 >= 0 ;
+2 x1997 +2 x1998 +2 x1999 +2 x2000 -1 x1505 -1 x1506 -1 x1507 -1 x1508 -1 x1509 -1 x1510 -1 x1511 -1 x1512 >= 0 ;
+2 x2001 +2 x2002 +2 x2003 +2 x2004 -1 x1509 -1 x1510 -1 x1511 -1 x1512 -1 x1513 -1 x1514 -1 x1515 -1 x1516 >= 0 ;
+2 x2005 +2 x2006 +2 x2007 +2 x2008 -1 x1513 -1 x1514 -1 x1515 -1 x1516 -1 x1517 -1 x1518 -1 x1519 -1 x1520 >= 0 ;
+2 x2009 +2 x2010 +2 x2011 +2 x2012 -1 x1517 -1 x1518 -1 x1519 -1 x1520 -1 x1521 -1 x1522 -1 x1523 -1 x1524 >= 0 ;
+2 x2013 +2 x2014 +2 x2015 +2 x2016 -1 x1521 -1 x1522 -1 x1523 -1 x1524 -1 x1525 -1 x1526 -1 x1527 -1 x1528 >= 0 ;
+2 x2017 +2 x2018 +2 x2019 +2 x2020 -1 x1525 -1 x1526 -1 x1527 -1 x1528 -1 x1529 -1 x1530 -1 x1531 -1 x1532 >= 0 ;
+2 x2021 +2 x2022 +2 x2023 +2 x2024 -1 x1529 -1 x1530 -1 x1531 -1 x1532 -1 x1533 -1 x1534 -1 x1535 -1 x1536 >= 0 ;
+2 x2025 +2 x2026 +2 x2027 +2 x2028 -1 x1533 -1 x1534 -1 x1535 -1 x1536 -1 x1537 -1 x1538 -1 x1539 -1 x1540 >= 0 ;
+2 x2029 +2 x2030 +2 x2031 +2 x2032 -1 x1537 -1 x1538 -1 x1539 -1 x1540 -1 x1541 -1 x1542 -1 x1543 -1 x1544 >= 0 ;
+2 x2033 +2 x2034 +2 x2035 +2 x2036 -1 x1541 -1 x1542 -1 x1543 -1 x1544 -1 x1545 -1 x1546 -1 x1547 -1 x1548 >= 0 ;
+2 x2037 +2 x2038 +2 x2039 +2 x2040 -1 x1545 -1 x1546 -1 x1547 -1 x1548 -1 x1549 -1 x1550 -1 x1551 -1 x1552 >= 0 ;
+2 x2041 +2 x2042 +2 x2043 +2 x2044 -1 x1549 -1 x1550 -1 x1551 -1 x1552 -1 x1553 -1 x1554 -1 x1555 -1 x1556 >= 0 ;
+2 x2045 +2 x2046 +2 x2047 +2 x2048 -1 x1553 -1 x1554 -1 x1555 -1 x1556 -1 x1557 -1 x1558 -1 x1559 -1 x1560 >= 0 ;
+2 x2049 +2 x2050 +2 x2051 +2 x2052 -1 x1557 -1 x1558 -1 x1559 -1 x1560 -1 x1561 -1 x1562 -1 x1563 -1 x1564 >= 0 ;
+2 x2053 +2 x2054 +2 x2055 +2 x2056 -1 x1561 -1 x1562 -1 x1563 -1 x1564 -1 x1565 -1 x1566 -1 x1567 -1 x1568 >= 0 ;
+2 x2057 +2 x2058 +2 x2059 +2 x2060 -1 x1565 -1 x1566 -1 x1567 -1 x1568 -1 x1569 -1 x1570 -1 x1571 -1 x1572 >= 0 ;
+2 x2061 +2 x2062 +2 x2063 +2 x2064 -1 x1569 -1 x1570 -1 x1571 -1 x1572 -1 x1573 -1 x1574 -1 x1575 -1 x1576 >= 0 ;
+2 x2065 +2 x2066 +2 x2067 +2 x2068 -1 x1573 -1 x1574 -1 x1575 -1 x1576 -1 x1577 -1 x1578 -1 x1579 -1 x1580 >= 0 ;
+2 x2069 +2 x2070 +2 x2071 +2 x2072 -1 x1577 -1 x1578 -1 x1579 -1 x1580 -1 x1581 -1 x1582 -1 x1583 -1 x1584 >= 0 ;
+2 x2073 +2 x2074 +2 x2075 +2 x2076 -1 x1581 -1 x1582 -1 x1583 -1 x1584 -1 x1585 -1 x1586 -1 x1587 -1 x1588 >= 0 ;
+2 x2077 +2 x2078 +2 x2079 +2 x2080 -1 x1585 -1 x1586 -1 x1587 -1 x1588 -1 x1589 -1 x1590 -1 x1591 -1 x1592 >= 0 ;
+2 x2081 +2 x2082 +2 x2083 +2 x2084 -1 x1589 -1 x1590 -1 x1591 -1 x1592 -1 x1593 -1 x1594 -1 x1595 -1 x1596 >= 0 ;
+2 x2085 +2 x2086 +2 x2087 +2 x2088 -1 x1593 -1 x1594 -1 x1595 -1 x1596 -1 x1597 -1 x1598 -1 x1599 -1 x1600 >= 0 ;
+2 x2089 +2 x2090 +2 x2091 +2 x2092 -1 x1597 -1 x1598 -1 x1599 -1 x1600 -1 x1601 -1 x1602 -1 x1603 -1 x1604 >= 0 ;
+2 x2093 +2 x2094 +2 x2095 +2 x2096 -1 x1601 -1 x1602 -1 x1603 -1 x1604 -1 x1605 -1 x1606 -1 x1607 -1 x1608 >= 0 ;
+2 x2097 +2 x2098 +2 x2099 +2 x2100 -1 x1605 -1 x1606 -1 x1607 -1 x1608 -1 x1609 -1 x1610 -1 x1611 -1 x1612 >= 0 ;
+2 x2101 +2 x2102 +2 x2103 +2 x2104 -1 x1609 -1 x1610 -1 x1611 -1 x1612 -1 x1613 -1 x1614 -1 x1615 -1 x1616 >= 0 ;
+2 x2105 +2 x2106 +2 x2107 +2 x2108 -1 x1613 -1 x1614 -1 x1615 -1 x1616 -1 x1617 -1 x1618 -1 x1619 -1 x1620 >= 0 ;
+2 x2109 +2 x2110 +2 x2111 +2 x2112 -1 x1617 -1 x1618 -1 x1619 -1 x1620 -1 x1621 -1 x1622 -1 x1623 -1 x1624 >= 0 ;
+2 x2113 +2 x2114 +2 x2115 +2 x2116 -1 x1621 -1 x1622 -1 x1623 -1 x1624 -1 x1625 -1 x1626 -1 x1627 -1 x1628 >= 0 ;
+2 x2117 +2 x2118 +2 x2119 +2 x2120 -1 x1625 -1 x1626 -1 x1627 -1 x1628 -1 x1629 -1 x1630 -1 x1631 -1 x1632 >= 0 ;
+2 x2121 +2 x2122 +2 x2123 +2 x2124 -1 x1629 -1 x1630 -1 x1631 -1 x1632 -1 x1633 -1 x1634 -1 x1635 -1 x1636 >= 0 ;
+2 x2125 +2 x2126 +2 x2127 +2 x2128 -1 x1633 -1 x1634 -1 x1635 -1 x1636 -1 x1637 -1 x1638 -1 x1639 -1 x1640 >= 0 ;
+2 x2129 +2 x2130 +2 x2131 +2 x2132 -1 x1637 -1 x1638 -1 x1639 -1 x1640 -1 x1641 -1 x1642 -1 x1643 -1 x1644 >= 0 ;
+2 x2133 +2 x2134 +2 x2135 +2 x2136 -1 x1641 -1 x1642 -1 x1643 -1 x1644 -1 x1645 -1 x1646 -1 x1647 -1 x1648 >= 0 ;
+2 x2137 +2 x2138 +2 x2139 +2 x2140 -1 x1645 -1 x1646 -1 x1647 -1 x1648 -1 x1649 -1 x1650 -1 x1651 -1 x1652 >= 0 ;
+2 x2141 +2 x2142 +2 x2143 +2 x2144 -1 x1649 -1 x1650 -1 x1651 -1 x1652 -1 x1653 -1 x1654 -1 x1655 -1 x1656 >= 0 ;
+2 x2145 +2 x2146 +2 x2147 +2 x2148 -1 x1653 -1 x1654 -1 x1655 -1 x1656 -1 x1657 -1 x1658 -1 x1659 -1 x1660 >= 0 ;
+2 x2149 +2 x2150 +2 x2151 +2 x2152 -1 x1657 -1 x1658 -1 x1659 -1 x1660 -1 x1661 -1 x1662 -1 x1663 -1 x1664 >= 0 ;
+2 x2153 +2 x2154 +2 x2155 +2 x2156 -1 x1661 -1 x1662 -1 x1663 -1 x1664 -1 x1665 -1 x1666 -1 x1667 -1 x1668 >= 0 ;
+2 x2157 +2 x2158 +2 x2159 +2 x2160 -1 x1665 -1 x1666 -1 x1667 -1 x1668 -1 x1669 -1 x1670 -1 x1671 -1 x1672 >= 0 ;
+2 x2161 +2 x2162 +2 x2163 +2 x2164 -1 x1669 -1 x1670 -1 x1671 -1 x1672 -1 x1673 -1 x1674 -1 x1675 -1 x1676 >= 0 ;
+2 x2165 +2 x2166 +2 x2167 +2 x2168 -1 x1673 -1 x1674 -1 x1675 -1 x1676 -1 x1677 -1 x1678 -1 x1679 -1 x1680 >= 0 ;
+2 x2169 +2 x2170 +2 x2171 +2 x2172 -1 x1677 -1 x1678 -1 x1679 -1 x1680 -1 x1681 -1 x1682 -1 x1683 -1 x1684 >= 0 ;
+2 x2173 +2 x2174 +2 x2175 +2 x2176 -1 x1681 -1 x1682 -1 x1683 -1 x1684 -1 x1685 -1 x1686 -1 x1687 -1 x1688 >= 0 ;
+2 x2177 +2 x2178 +2 x2179 +2 x2180 -1 x1685 -1 x1686 -1 x1687 -1 x1688 -1 x1689 -1 x1690 -1 x1691 -1 x1692 >= 0 ;
+2 x2181 +2 x2182 +2 x2183 +2 x2184 -1 x1689 -1 x1690 -1 x1691 -1 x1692 -1 x1693 -1 x1694 -1 x1695 -1 x1696 >= 0 ;
+2 x2185 +2 x2186 +2 x2187 +2 x2188 -1 x1693 -1 x1694 -1 x1695 -1 x1696 -1 x1697 -1 x1698 -1 x1699 -1 x1700 >= 0 ;
+2 x2189 +2 x2190 +2 x2191 +2 x2192 -1 x1697 -1 x1698 -1 x1699 -1 x1700 -1 x1701 -1 x1702 -1 x1703 -1 x1704 >= 0 ;
+2 x2193 +2 x2194 +2 x2195 +2 x2196 -1 x1701 -1 x1702 -1 x1703 -1 x1704 -1 x1705 -1 x1706 -1 x1707 -1 x1708 >= 0 ;
+2 x2197 +2 x2198 +2 x2199 +2 x2200 -1 x1705 -1 x1706 -1 x1707 -1 x1708 -1 x1709 -1 x1710 -1 x1711 -1 x1712 >= 0 ;
+2 x2201 +2 x2202 +2 x2203 +2 x2204 -1 x1709 -1 x1710 -1 x1711 -1 x1712 -1 x1713 -1 x1714 -1 x1715 -1 x1716 >= 0 ;
+2 x2205 +2 x2206 +2 x2207 +2 x2208 -1 x1713 -1 x1714 -1 x1715 -1 x1716 -1 x1717 -1 x1718 -1 x1719 -1 x1720 >= 0 ;
+2 x2209 +2 x2210 +2 x2211 +2 x2212 -1 x1717 -1 x1718 -1 x1719 -1 x1720 -1 x1721 -1 x1722 -1 x1723 -1 x1724 >= 0 ;
+2 x2213 +2 x2214 +2 x2215 +2 x2216 -1 x1721 -1 x1722 -1 x1723 -1 x1724 -1 x1725 -1 x1726 -1 x1727 -1 x1728 >= 0 ;
+2 x2217 +2 x2218 +2 x2219 +2 x2220 -1 x1725 -1 x1726 -1 x1727 -1 x1728 -1 x1729 -1 x1730 -1 x1731 -1 x1732 >= 0 ;
+2 x2221 +2 x2222 +2 x2223 +2 x2224 -1 x1729 -1 x1730 -1 x1731 -1 x1732 -1 x1733 -1 x1734 -1 x1735 -1 x1736 >= 0 ;
+2 x2225 +2 x2226 +2 x2227 +2 x2228 -1 x1733 -1 x1734 -1 x1735 -1 x1736 -1 x1737 -1 x1738 -1 x1739 -1 x1740 >= 0 ;
+2 x2229 +2 x2230 +2 x2231 +2 x2232 -1 x1737 -1 x1738 -1 x1739 -1 x1740 -1 x1741 -1 x1742 -1 x1743 -1 x1744 >= 0 ;
+2 x2233 +2 x2234 +2 x2235 +2 x2236 -1 x1741 -1 x1742 -1 x1743 -1 x1744 -1 x1745 -1 x1746 -1 x1747 -1 x1748 >= 0 ;
+2 x2237 +2 x2238 +2 x2239 +2 x2240 -1 x1745 -1 x1746 -1 x1747 -1 x1748 -1 x1749 -1 x1750 -1 x1751 -1 x1752 >= 0 ;
+2 x2241 +2 x2242 +2 x2243 +2 x2244 -1 x1749 -1 x1750 -1 x1751 -1 x1752 -1 x1753 -1 x1754 -1 x1755 -1 x1756 >= 0 ;
+2 x2245 +2 x2246 +2 x2247 +2 x2248 -1 x1753 -1 x1754 -1 x1755 -1 x1756 -1 x1757 -1 x1758 -1 x1759 -1 x1760 >= 0 ;
+2 x2249 +2 x2250 +2 x2251 +2 x2252 -1 x1757 -1 x1758 -1 x1759 -1 x1760 -1 x1761 -1 x1762 -1 x1763 -1 x1764 >= 0 ;
+2 x2253 +2 x2254 +2 x2255 +2 x2256 -1 x1761 -1 x1762 -1 x1763 -1 x1764 -1 x1765 -1 x1766 -1 x1767 -1 x1768 >= 0 ;
+2 x2257 +2 x2258 +2 x2259 +2 x2260 -1 x1765 -1 x1766 -1 x1767 -1 x1768 -1 x1769 -1 x1770 -1 x1771 -1 x1772 >= 0 ;
+2 x2261 +2 x2262 +2 x2263 +2 x2264 -1 x1769 -1 x1770 -1 x1771 -1 x1772 -1 x1773 -1 x1774 -1 x1775 -1 x1776 >= 0 ;
+2 x2265 +2 x2266 +2 x2267 +2 x2268 -1 x1773 -1 x1774 -1 x1775 -1 x1776 -1 x1777 -1 x1778 -1 x1779 -1 x1780 >= 0 ;
+2 x2269 +2 x2270 +2 x2271 +2 x2272 -1 x1777 -1 x1778 -1 x1779 -1 x1780 -1 x1781 -1 x1782 -1 x1783 -1 x1784 >= 0 ;
+2 x2273 +2 x2274 +2 x2275 +2 x2276 -1 x1781 -1 x1782 -1 x1783 -1 x1784 -1 x1785 -1 x1786 -1 x1787 -1 x1788 >= 0 ;
+2 x2277 +2 x2278 +2 x2279 +2 x2280 -1 x1785 -1 x1786 -1 x1787 -1 x1788 -1 x1789 -1 x1790 -1 x1791 -1 x1792 >= 0 ;
+2 x2281 +2 x2282 +2 x2283 +2 x2284 -1 x1789 -1 x1790 -1 x1791 -1 x1792 -1 x1793 -1 x1794 -1 x1795 -1 x1796 >= 0 ;
+2 x2285 +2 x2286 +2 x2287 +2 x2288 -1 x1793 -1 x1794 -1 x1795 -1 x1796 -1 x1797 -1 x1798 -1 x1799 -1 x1800 >= 0 ;
+2 x2289 +2 x2290 +2 x2291 +2 x2292 -1 x1797 -1 x1798 -1 x1799 -1 x1800 -1 x1801 -1 x1802 -1 x1803 -1 x1804 >= 0 ;
+2 x2293 +2 x2294 +2 x2295 +2 x2296 -1 x1801 -1 x1802 -1 x1803 -1 x1804 -1 x1805 -1 x1806 -1 x1807 -1 x1808 >= 0 ;
+2 x2297 +2 x2298 +2 x2299 +2 x2300 -1 x1805 -1 x1806 -1 x1807 -1 x1808 -1 x1809 -1 x1810 -1 x1811 -1 x1812 >= 0 ;
+2 x2301 +2 x2302 +2 x2303 +2 x2304 -1 x1809 -1 x1810 -1 x1811 -1 x1812 -1 x1813 -1 x1814 -1 x1815 -1 x1816 >= 0 ;
+2 x2305 +2 x2306 +2 x2307 +2 x2308 -1 x1813 -1 x1814 -1 x1815 -1 x1816 -1 x1817 -1 x1818 -1 x1819 -1 x1820 >= 0 ;
+2 x2309 +2 x2310 +2 x2311 +2 x2312 -1 x1817 -1 x1818 -1 x1819 -1 x1820 -1 x1821 -1 x1822 -1 x1823 -1 x1824 >= 0 ;
+2 x2313 +2 x2314 +2 x2315 +2 x2316 -1 x1821 -1 x1822 -1 x1823 -1 x1824 -1 x1825 -1 x1826 -1 x1827 -1 x1828 >= 0 ;
+2 x2317 +2 x2318 +2 x2319 +2 x2320 -1 x1825 -1 x1826 -1 x1827 -1 x1828 -1 x1829 -1 x1830 -1 x1831 -1 x1832 >= 0 ;
+2 x2321 +2 x2322 +2 x2323 +2 x2324 -1 x1829 -1 x1830 -1 x1831 -1 x1832 -1 x1833 -1 x1834 -1 x1835 -1 x1836 >= 0 ;
+2 x2325 +2 x2326 +2 x2327 +2 x2328 -1 x1833 -1 x1834 -1 x1835 -1 x1836 -1 x1837 -1 x1838 -1 x1839 -1 x1840 >= 0 ;
+2 x2329 +2 x2330 +2 x2331 +2 x2332 -1 x1837 -1 x1838 -1 x1839 -1 x1840 -1 x1841 -1 x1842 -1 x1843 -1 x1844 >= 0 ;
+2 x2333 +2 x2334 +2 x2335 +2 x2336 -1 x1841 -1 x1842 -1 x1843 -1 x1844 -1 x1845 -1 x1846 -1 x1847 -1 x1848 >= 0 ;
+2 x2337 +2 x2338 +2 x2339 +2 x2340 -1 x1845 -1 x1846 -1 x1847 -1 x1848 -1 x1849 -1 x1850 -1 x1851 -1 x1852 >= 0 ;
+2 x2341 +2 x2342 +2 x2343 +2 x2344 -1 x1849 -1 x1850 -1 x1851 -1 x1852 -1 x1853 -1 x1854 -1 x1855 -1 x1856 >= 0 ;
+2 x2345 +2 x2346 +2 x2347 +2 x2348 -1 x1853 -1 x1854 -1 x1855 -1 x1856 -1 x1857 -1 x1858 -1 x1859 -1 x1860 >= 0 ;
+2 x2349 +2 x2350 +2 x2351 +2 x2352 -1 x1857 -1 x1858 -1 x1859 -1 x1860 -1 x1861 -1 x1862 -1 x1863 -1 x1864 >= 0 ;
+2 x2353 +2 x2354 +2 x2355 +2 x2356 -1 x1861 -1 x1862 -1 x1863 -1 x1864 -1 x1865 -1 x1866 -1 x1867 -1 x1868 >= 0 ;
+2 x2357 +2 x2358 +2 x2359 +2 x2360 -1 x1865 -1 x1866 -1 x1867 -1 x1868 -1 x1869 -1 x1870 -1 x1871 -1 x1872 >= 0 ;
+2 x2361 +2 x2362 +2 x2363 +2 x2364 -1 x1869 -1 x1870 -1 x1871 -1 x1872 -1 x1873 -1 x1874 -1 x1875 -1 x1876 >= 0 ;
+2 x2365 +2 x2366 +2 x2367 +2 x2368 -1 x1873 -1 x1874 -1 x1875 -1 x1876 -1 x1877 -1 x1878 -1 x1879 -1 x1880 >= 0 ;
+2 x2369 +2 x2370 +2 x2371 +2 x2372 -1 x1877 -1 x1878 -1 x1879 -1 x1880 -1 x1881 -1 x1882 -1 x1883 -1 x1884 >= 0 ;
+2 x2373 +2 x2374 +2 x2375 +2 x2376 -1 x1881 -1 x1882 -1 x1883 -1 x1884 -1 x1885 -1 x1886 -1 x1887 -1 x1888 >= 0 ;
+2 x2377 +2 x2378 +2 x2379 +2 x2380 -1 x1885 -1 x1886 -1 x1887 -1 x1888 -1 x1889 -1 x1890 -1 x1891 -1 x1892 >= 0 ;
+2 x2381 +2 x2382 +2 x2383 +2 x2384 -1 x1889 -1 x1890 -1 x1891 -1 x1892 -1 x1893 -1 x1894 -1 x1895 -1 x1896 >= 0 ;
+2 x2385 +2 x2386 +2 x2387 +2 x2388 -1 x1893 -1 x1894 -1 x1895 -1 x1896 -1 x1897 -1 x1898 -1 x1899 -1 x1900 >= 0 ;
+2 x2389 +2 x2390 +2 x2391 +2 x2392 -1 x1897 -1 x1898 -1 x1899 -1 x1900 -1 x1901 -1 x1902 -1 x1903 -1 x1904 >= 0 ;
+2 x2393 +2 x2394 +2 x2395 +2 x2396 -1 x1901 -1 x1902 -1 x1903 -1 x1904 -1 x1905 -1 x1906 -1 x1907 -1 x1908 >= 0 ;
+2 x2397 +2 x2398 +2 x2399 +2 x2400 -1 x1905 -1 x1906 -1 x1907 -1 x1908 -1 x1909 -1 x1910 -1 x1911 -1 x1912 >= 0 ;
+2 x2401 +2 x2402 +2 x2403 +2 x2404 -1 x1909 -1 x1910 -1 x1911 -1 x1912 -1 x1913 -1 x1914 -1 x1915 -1 x1916 >= 0 ;
+2 x2405 +2 x2406 +2 x2407 +2 x2408 -1 x1913 -1 x1914 -1 x1915 -1 x1916 -1 x1917 -1 x1918 -1 x1919 -1 x1920 >= 0 ;
+2 x2409 +2 x2410 +2 x2411 +2 x2412 -1 x1917 -1 x1918 -1 x1919 -1 x1920 -1 x1921 -1 x1922 -1 x1923 -1 x1924 >= 0 ;
+2 x2413 +2 x2414 +2 x2415 +2 x2416 -1 x1921 -1 x1922 -1 x1923 -1 x1924 -1 x1925 -1 x1926 -1 x1927 -1 x1928 >= 0 ;
+2 x2417 +2 x2418 +2 x2419 +2 x2420 -1 x1925 -1 x1926 -1 x1927 -1 x1928 -1 x1929 -1 x1930 -1 x1931 -1 x1932 >= 0 ;
+2 x2421 +2 x2422 +2 x2423 +2 x2424 -1 x1929 -1 x1930 -1 x1931 -1 x1932 -1 x1933 -1 x1934 -1 x1935 -1 x1936 >= 0 ;
+2 x2425 +2 x2426 +2 x2427 +2 x2428 -1 x1933 -1 x1934 -1 x1935 -1 x1936 -1 x1937 -1 x1938 -1 x1939 -1 x1940 >= 0 ;
+2 x2429 +2 x2430 +2 x2431 +2 x2432 -1 x1937 -1 x1938 -1 x1939 -1 x1940 -1 x1941 -1 x1942 -1 x1943 -1 x1944 >= 0 ;
+2 x2433 +2 x2434 +2 x2435 +2 x2436 -1 x1941 -1 x1942 -1 x1943 -1 x1944 -1 x1945 -1 x1946 -1 x1947 -1 x1948 >= 0 ;
+2 x2437 +2 x2438 +2 x2439 +2 x2440 -1 x1945 -1 x1946 -1 x1947 -1 x1948 -1 x1949 -1 x1950 -1 x1951 -1 x1952 >= 0 ;
+2 x2441 +2 x2442 +2 x2443 +2 x2444 -1 x1949 -1 x1950 -1 x1951 -1 x1952 -1 x1953 -1 x1954 -1 x1955 -1 x1956 >= 0 ;
+2 x2445 +2 x2446 +2 x2447 +2 x2448 -1 x1953 -1 x1954 -1 x1955 -1 x1956 -1 x1957 -1 x1958 -1 x1959 -1 x1960 >= 0 ;
+2 x2449 +2 x2450 +2 x2451 +2 x2452 -1 x1957 -1 x1958 -1 x1959 -1 x1960 -1 x1961 -1 x1962 -1 x1963 -1 x1964 >= 0 ;
+2 x2453 +2 x2454 +2 x2455 +2 x2456 -1 x1961 -1 x1962 -1 x1963 -1 x1964 -1 x1965 -1 x1966 -1 x1967 -1 x1968 >= 0 ;
+2 x2457 +2 x2458 +2 x2459 +2 x2460 -1 x1965 -1 x1966 -1 x1967 -1 x1968 -1 x1969 -1 x1970 -1 x1971 -1 x1972 >= 0 ;
+2 x2461 +2 x2462 +2 x2463 +2 x2464 -1 x1969 -1 x1970 -1 x1971 -1 x1972 -1 x1973 -1 x1974 -1 x1975 -1 x1976 >= 0 ;
+2 x2465 +2 x2466 +2 x2467 +2 x2468 -1 x1973 -1 x1974 -1 x1975 -1 x1976 -1 x1977 -1 x1978 -1 x1979 -1 x1980 >= 0 ;
+2 x2469 +2 x2470 +2 x2471 +2 x2472 -1 x1977 -1 x1978 -1 x1979 -1 x1980 -1 x1981 -1 x1982 -1 x1983 -1 x1984 >= 0 ;
+2 x2473 +2 x2474 +2 x2475 +2 x2476 -1 x1981 -1 x1982 -1 x1983 -1 x1984 -1 x1985 -1 x1986 -1 x1987 -1 x1988 >= 0 ;
+2 x2477 +2 x2478 +2 x2479 +2 x2480 -1 x1985 -1 x1986 -1 x1987 -1 x1988 -1 x1989 -1 x1990 -1 x1991 -1 x1992 >= 0 ;
+2 x2481 +2 x2482 +2 x2483 +2 x2484 -1 x1993 -1 x1994 -1 x1995 -1 x1996 -1 x1997 -1 x1998 -1 x1999 -1 x2000 >= 0 ;
+2 x2485 +2 x2486 +2 x2487 +2 x2488 -1 x1997 -1 x1998 -1 x1999 -1 x2000 -1 x2001 -1 x2002 -1 x2003 -1 x2004 >= 0 ;
+2 x2489 +2 x2490 +2 x2491 +2 x2492 -1 x2001 -1 x2002 -1 x2003 -1 x2004 -1 x2005 -1 x2006 -1 x2007 -1 x2008 >= 0 ;
+2 x2493 +2 x2494 +2 x2495 +2 x2496 -1 x2005 -1 x2006 -1 x2007 -1 x2008 -1 x2009 -1 x2010 -1 x2011 -1 x2012 >= 0 ;
+2 x2497 +2 x2498 +2 x2499 +2 x2500 -1 x2009 -1 x2010 -1 x2011 -1 x2012 -1 x2013 -1 x2014 -1 x2015 -1 x2016 >= 0 ;
+2 x2501 +2 x2502 +2 x2503 +2 x2504 -1 x2013 -1 x2014 -1 x2015 -1 x2016 -1 x2017 -1 x2018 -1 x2019 -1 x2020 >= 0 ;
+2 x2505 +2 x2506 +2 x2507 +2 x2508 -1 x2017 -1 x2018 -1 x2019 -1 x2020 -1 x2021 -1 x2022 -1 x2023 -1 x2024 >= 0 ;
+2 x2509 +2 x2510 +2 x2511 +2 x2512 -1 x2021 -1 x2022 -1 x2023 -1 x2024 -1 x2025 -1 x2026 -1 x2027 -1 x2028 >= 0 ;
+2 x2513 +2 x2514 +2 x2515 +2 x2516 -1 x2025 -1 x2026 -1 x2027 -1 x2028 -1 x2029 -1 x2030 -1 x2031 -1 x2032 >= 0 ;
+2 x2517 +2 x2518 +2 x2519 +2 x2520 -1 x2029 -1 x2030 -1 x2031 -1 x2032 -1 x2033 -1 x2034 -1 x2035 -1 x2036 >= 0 ;
+2 x2521 +2 x2522 +2 x2523 +2 x2524 -1 x2033 -1 x2034 -1 x2035 -1 x2036 -1 x2037 -1 x2038 -1 x2039 -1 x2040 >= 0 ;
+2 x2525 +2 x2526 +2 x2527 +2 x2528 -1 x2037 -1 x2038 -1 x2039 -1 x2040 -1 x2041 -1 x2042 -1 x2043 -1 x2044 >= 0 ;
+2 x2529 +2 x2530 +2 x2531 +2 x2532 -1 x2041 -1 x2042 -1 x2043 -1 x2044 -1 x2045 -1 x2046 -1 x2047 -1 x2048 >= 0 ;
+2 x2533 +2 x2534 +2 x2535 +2 x2536 -1 x2045 -1 x2046 -1 x2047 -1 x2048 -1 x2049 -1 x2050 -1 x2051 -1 x2052 >= 0 ;
+2 x2537 +2 x2538 +2 x2539 +2 x2540 -1 x2049 -1 x2050 -1 x2051 -1 x2052 -1 x2053 -1 x2054 -1 x2055 -1 x2056 >= 0 ;
+2 x2541 +2 x2542 +2 x2543 +2 x2544 -1 x2053 -1 x2054 -1 x2055 -1 x2056 -1 x2057 -1 x2058 -1 x2059 -1 x2060 >= 0 ;
+2 x2545 +2 x2546 +2 x2547 +2 x2548 -1 x2057 -1 x2058 -1 x2059 -1 x2060 -1 x2061 -1 x2062 -1 x2063 -1 x2064 >= 0 ;
+2 x2549 +2 x2550 +2 x2551 +2 x2552 -1 x2061 -1 x2062 -1 x2063 -1 x2064 -1 x2065 -1 x2066 -1 x2067 -1 x2068 >= 0 ;
+2 x2553 +2 x2554 +2 x2555 +2 x2556 -1 x2065 -1 x2066 -1 x2067 -1 x2068 -1 x2069 -1 x2070 -1 x2071 -1 x2072 >= 0 ;
+2 x2557 +2 x2558 +2 x2559 +2 x2560 -1 x2069 -1 x2070 -1 x2071 -1 x2072 -1 x2073 -1 x2074 -1 x2075 -1 x2076 >= 0 ;
+2 x2561 +2 x2562 +2 x2563 +2 x2564 -1 x2073 -1 x2074 -1 x2075 -1 x2076 -1 x2077 -1 x2078 -1 x2079 -1 x2080 >= 0 ;
+2 x2565 +2 x2566 +2 x2567 +2 x2568 -1 x2077 -1 x2078 -1 x2079 -1 x2080 -1 x2081 -1 x2082 -1 x2083 -1 x2084 >= 0 ;
+2 x2569 +2 x2570 +2 x2571 +2 x2572 -1 x2081 -1 x2082 -1 x2083 -1 x2084 -1 x2085 -1 x2086 -1 x2087 -1 x2088 >= 0 ;
+2 x2573 +2 x2574 +2 x2575 +2 x2576 -1 x2085 -1 x2086 -1 x2087 -1 x2088 -1 x2089 -1 x2090 -1 x2091 -1 x2092 >= 0 ;
+2 x2577 +2 x2578 +2 x2579 +2 x2580 -1 x2089 -1 x2090 -1 x2091 -1 x2092 -1 x2093 -1 x2094 -1 x2095 -1 x2096 >= 0 ;
+2 x2581 +2 x2582 +2 x2583 +2 x2584 -1 x2093 -1 x2094 -1 x2095 -1 x2096 -1 x2097 -1 x2098 -1 x2099 -1 x2100 >= 0 ;
+2 x2585 +2 x2586 +2 x2587 +2 x2588 -1 x2097 -1 x2098 -1 x2099 -1 x2100 -1 x2101 -1 x2102 -1 x2103 -1 x2104 >= 0 ;
+2 x2589 +2 x2590 +2 x2591 +2 x2592 -1 x2101 -1 x2102 -1 x2103 -1 x2104 -1 x2105 -1 x2106 -1 x2107 -1 x2108 >= 0 ;
+2 x2593 +2 x2594 +2 x2595 +2 x2596 -1 x2105 -1 x2106 -1 x2107 -1 x2108 -1 x2109 -1 x2110 -1 x2111 -1 x2112 >= 0 ;
+2 x2597 +2 x2598 +2 x2599 +2 x2600 -1 x2109 -1 x2110 -1 x2111 -1 x2112 -1 x2113 -1 x2114 -1 x2115 -1 x2116 >= 0 ;
+2 x2601 +2 x2602 +2 x2603 +2 x2604 -1 x2113 -1 x2114 -1 x2115 -1 x2116 -1 x2117 -1 x2118 -1 x2119 -1 x2120 >= 0 ;
+2 x2605 +2 x2606 +2 x2607 +2 x2608 -1 x2117 -1 x2118 -1 x2119 -1 x2120 -1 x2121 -1 x2122 -1 x2123 -1 x2124 >= 0 ;
+2 x2609 +2 x2610 +2 x2611 +2 x2612 -1 x2121 -1 x2122 -1 x2123 -1 x2124 -1 x2125 -1 x2126 -1 x2127 -1 x2128 >= 0 ;
+2 x2613 +2 x2614 +2 x2615 +2 x2616 -1 x2125 -1 x2126 -1 x2127 -1 x2128 -1 x2129 -1 x2130 -1 x2131 -1 x2132 >= 0 ;
+2 x2617 +2 x2618 +2 x2619 +2 x2620 -1 x2129 -1 x2130 -1 x2131 -1 x2132 -1 x2133 -1 x2134 -1 x2135 -1 x2136 >= 0 ;
+2 x2621 +2 x2622 +2 x2623 +2 x2624 -1 x2133 -1 x2134 -1 x2135 -1 x2136 -1 x2137 -1 x2138 -1 x2139 -1 x2140 >= 0 ;
+2 x2625 +2 x2626 +2 x2627 +2 x2628 -1 x2137 -1 x2138 -1 x2139 -1 x2140 -1 x2141 -1 x2142 -1 x2143 -1 x2144 >= 0 ;
+2 x2629 +2 x2630 +2 x2631 +2 x2632 -1 x2141 -1 x2142 -1 x2143 -1 x2144 -1 x2145 -1 x2146 -1 x2147 -1 x2148 >= 0 ;
+2 x2633 +2 x2634 +2 x2635 +2 x2636 -1 x2145 -1 x2146 -1 x2147 -1 x2148 -1 x2149 -1 x2150 -1 x2151 -1 x2152 >= 0 ;
+2 x2637 +2 x2638 +2 x2639 +2 x2640 -1 x2149 -1 x2150 -1 x2151 -1 x2152 -1 x2153 -1 x2154 -1 x2155 -1 x2156 >= 0 ;
+2 x2641 +2 x2642 +2 x2643 +2 x2644 -1 x2153 -1 x2154 -1 x2155 -1 x2156 -1 x2157 -1 x2158 -1 x2159 -1 x2160 >= 0 ;
+2 x2645 +2 x2646 +2 x2647 +2 x2648 -1 x2157 -1 x2158 -1 x2159 -1 x2160 -1 x2161 -1 x2162 -1 x2163 -1 x2164 >= 0 ;
+2 x2649 +2 x2650 +2 x2651 +2 x2652 -1 x2161 -1 x2162 -1 x2163 -1 x2164 -1 x2165 -1 x2166 -1 x2167 -1 x2168 >= 0 ;
+2 x2653 +2 x2654 +2 x2655 +2 x2656 -1 x2165 -1 x2166 -1 x2167 -1 x2168 -1 x2169 -1 x2170 -1 x2171 -1 x2172 >= 0 ;
+2 x2657 +2 x2658 +2 x2659 +2 x2660 -1 x2169 -1 x2170 -1 x2171 -1 x2172 -1 x2173 -1 x2174 -1 x2175 -1 x2176 >= 0 ;
+2 x2661 +2 x2662 +2 x2663 +2 x2664 -1 x2173 -1 x2174 -1 x2175 -1 x2176 -1 x2177 -1 x2178 -1 x2179 -1 x2180 >= 0 ;
+2 x2665 +2 x2666 +2 x2667 +2 x2668 -1 x2177 -1 x2178 -1 x2179 -1 x2180 -1 x2181 -1 x2182 -1 x2183 -1 x2184 >= 0 ;
+2 x2669 +2 x2670 +2 x2671 +2 x2672 -1 x2181 -1 x2182 -1 x2183 -1 x2184 -1 x2185 -1 x2186 -1 x2187 -1 x2188 >= 0 ;
+2 x2673 +2 x2674 +2 x2675 +2 x2676 -1 x2185 -1 x2186 -1 x2187 -1 x2188 -1 x2189 -1 x2190 -1 x2191 -1 x2192 >= 0 ;
+2 x2677 +2 x2678 +2 x2679 +2 x2680 -1 x2189 -1 x2190 -1 x2191 -1 x2192 -1 x2193 -1 x2194 -1 x2195 -1 x2196 >= 0 ;
+2 x2681 +2 x2682 +2 x2683 +2 x2684 -1 x2193 -1 x2194 -1 x2195 -1 x2196 -1 x2197 -1 x2198 -1 x2199 -1 x2200 >= 0 ;
+2 x2685 +2 x2686 +2 x2687 +2 x2688 -1 x2197 -1 x2198 -1 x2199 -1 x2200 -1 x2201 -1 x2202 -1 x2203 -1 x2204 >= 0 ;
+2 x2689 +2 x2690 +2 x2691 +2 x2692 -1 x2201 -1 x2202 -1 x2203 -1 x2204 -1 x2205 -1 x2206 -1 x2207 -1 x2208 >= 0 ;
+2 x2693 +2 x2694 +2 x2695 +2 x2696 -1 x2205 -1 x2206 -1 x2207 -1 x2208 -1 x2209 -1 x2210 -1 x2211 -1 x2212 >= 0 ;
+2 x2697 +2 x2698 +2 x2699 +2 x2700 -1 x2209 -1 x2210 -1 x2211 -1 x2212 -1 x2213 -1 x2214 -1 x2215 -1 x2216 >= 0 ;
+2 x2701 +2 x2702 +2 x2703 +2 x2704 -1 x2213 -1 x2214 -1 x2215 -1 x2216 -1 x2217 -1 x2218 -1 x2219 -1 x2220 >= 0 ;
+2 x2705 +2 x2706 +2 x2707 +2 x2708 -1 x2217 -1 x2218 -1 x2219 -1 x2220 -1 x2221 -1 x2222 -1 x2223 -1 x2224 >= 0 ;
+2 x2709 +2 x2710 +2 x2711 +2 x2712 -1 x2221 -1 x2222 -1 x2223 -1 x2224 -1 x2225 -1 x2226 -1 x2227 -1 x2228 >= 0 ;
+2 x2713 +2 x2714 +2 x2715 +2 x2716 -1 x2225 -1 x2226 -1 x2227 -1 x2228 -1 x2229 -1 x2230 -1 x2231 -1 x2232 >= 0 ;
+2 x2717 +2 x2718 +2 x2719 +2 x2720 -1 x2229 -1 x2230 -1 x2231 -1 x2232 -1 x2233 -1 x2234 -1 x2235 -1 x2236 >= 0 ;
+2 x2721 +2 x2722 +2 x2723 +2 x2724 -1 x2233 -1 x2234 -1 x2235 -1 x2236 -1 x2237 -1 x2238 -1 x2239 -1 x2240 >= 0 ;
+2 x2725 +2 x2726 +2 x2727 +2 x2728 -1 x2237 -1 x2238 -1 x2239 -1 x2240 -1 x2241 -1 x2242 -1 x2243 -1 x2244 >= 0 ;
+2 x2729 +2 x2730 +2 x2731 +2 x2732 -1 x2241 -1 x2242 -1 x2243 -1 x2244 -1 x2245 -1 x2246 -1 x2247 -1 x2248 >= 0 ;
+2 x2733 +2 x2734 +2 x2735 +2 x2736 -1 x2245 -1 x2246 -1 x2247 -1 x2248 -1 x2249 -1 x2250 -1 x2251 -1 x2252 >= 0 ;
+2 x2737 +2 x2738 +2 x2739 +2 x2740 -1 x2249 -1 x2250 -1 x2251 -1 x2252 -1 x2253 -1 x2254 -1 x2255 -1 x2256 >= 0 ;
+2 x2741 +2 x2742 +2 x2743 +2 x2744 -1 x2253 -1 x2254 -1 x2255 -1 x2256 -1 x2257 -1 x2258 -1 x2259 -1 x2260 >= 0 ;
+2 x2745 +2 x2746 +2 x2747 +2 x2748 -1 x2257 -1 x2258 -1 x2259 -1 x2260 -1 x2261 -1 x2262 -1 x2263 -1 x2264 >= 0 ;
+2 x2749 +2 x2750 +2 x2751 +2 x2752 -1 x2261 -1 x2262 -1 x2263 -1 x2264 -1 x2265 -1 x2266 -1 x2267 -1 x2268 >= 0 ;
+2 x2753 +2 x2754 +2 x2755 +2 x2756 -1 x2265 -1 x2266 -1 x2267 -1 x2268 -1 x2269 -1 x2270 -1 x2271 -1 x2272 >= 0 ;
+2 x2757 +2 x2758 +2 x2759 +2 x2760 -1 x2269 -1 x2270 -1 x2271 -1 x2272 -1 x2273 -1 x2274 -1 x2275 -1 x2276 >= 0 ;
+2 x2761 +2 x2762 +2 x2763 +2 x2764 -1 x2273 -1 x2274 -1 x2275 -1 x2276 -1 x2277 -1 x2278 -1 x2279 -1 x2280 >= 0 ;
+2 x2765 +2 x2766 +2 x2767 +2 x2768 -1 x2277 -1 x2278 -1 x2279 -1 x2280 -1 x2281 -1 x2282 -1 x2283 -1 x2284 >= 0 ;
+2 x2769 +2 x2770 +2 x2771 +2 x2772 -1 x2281 -1 x2282 -1 x2283 -1 x2284 -1 x2285 -1 x2286 -1 x2287 -1 x2288 >= 0 ;
+2 x2773 +2 x2774 +2 x2775 +2 x2776 -1 x2285 -1 x2286 -1 x2287 -1 x2288 -1 x2289 -1 x2290 -1 x2291 -1 x2292 >= 0 ;
+2 x2777 +2 x2778 +2 x2779 +2 x2780 -1 x2289 -1 x2290 -1 x2291 -1 x2292 -1 x2293 -1 x2294 -1 x2295 -1 x2296 >= 0 ;
+2 x2781 +2 x2782 +2 x2783 +2 x2784 -1 x2293 -1 x2294 -1 x2295 -1 x2296 -1 x2297 -1 x2298 -1 x2299 -1 x2300 >= 0 ;
+2 x2785 +2 x2786 +2 x2787 +2 x2788 -1 x2297 -1 x2298 -1 x2299 -1 x2300 -1 x2301 -1 x2302 -1 x2303 -1 x2304 >= 0 ;
+2 x2789 +2 x2790 +2 x2791 +2 x2792 -1 x2301 -1 x2302 -1 x2303 -1 x2304 -1 x2305 -1 x2306 -1 x2307 -1 x2308 >= 0 ;
+2 x2793 +2 x2794 +2 x2795 +2 x2796 -1 x2305 -1 x2306 -1 x2307 -1 x2308 -1 x2309 -1 x2310 -1 x2311 -1 x2312 >= 0 ;
+2 x2797 +2 x2798 +2 x2799 +2 x2800 -1 x2309 -1 x2310 -1 x2311 -1 x2312 -1 x2313 -1 x2314 -1 x2315 -1 x2316 >= 0 ;
+2 x2801 +2 x2802 +2 x2803 +2 x2804 -1 x2313 -1 x2314 -1 x2315 -1 x2316 -1 x2317 -1 x2318 -1 x2319 -1 x2320 >= 0 ;
+2 x2805 +2 x2806 +2 x2807 +2 x2808 -1 x2317 -1 x2318 -1 x2319 -1 x2320 -1 x2321 -1 x2322 -1 x2323 -1 x2324 >= 0 ;
+2 x2809 +2 x2810 +2 x2811 +2 x2812 -1 x2321 -1 x2322 -1 x2323 -1 x2324 -1 x2325 -1 x2326 -1 x2327 -1 x2328 >= 0 ;
+2 x2813 +2 x2814 +2 x2815 +2 x2816 -1 x2325 -1 x2326 -1 x2327 -1 x2328 -1 x2329 -1 x2330 -1 x2331 -1 x2332 >= 0 ;
+2 x2817 +2 x2818 +2 x2819 +2 x2820 -1 x2329 -1 x2330 -1 x2331 -1 x2332 -1 x2333 -1 x2334 -1 x2335 -1 x2336 >= 0 ;
+2 x2821 +2 x2822 +2 x2823 +2 x2824 -1 x2333 -1 x2334 -1 x2335 -1 x2336 -1 x2337 -1 x2338 -1 x2339 -1 x2340 >= 0 ;
+2 x2825 +2 x2826 +2 x2827 +2 x2828 -1 x2337 -1 x2338 -1 x2339 -1 x2340 -1 x2341 -1 x2342 -1 x2343 -1 x2344 >= 0 ;
+2 x2829 +2 x2830 +2 x2831 +2 x2832 -1 x2341 -1 x2342 -1 x2343 -1 x2344 -1 x2345 -1 x2346 -1 x2347 -1 x2348 >= 0 ;
+2 x2833 +2 x2834 +2 x2835 +2 x2836 -1 x2345 -1 x2346 -1 x2347 -1 x2348 -1 x2349 -1 x2350 -1 x2351 -1 x2352 >= 0 ;
+2 x2837 +2 x2838 +2 x2839 +2 x2840 -1 x2349 -1 x2350 -1 x2351 -1 x2352 -1 x2353 -1 x2354 -1 x2355 -1 x2356 >= 0 ;
+2 x2841 +2 x2842 +2 x2843 +2 x2844 -1 x2353 -1 x2354 -1 x2355 -1 x2356 -1 x2357 -1 x2358 -1 x2359 -1 x2360 >= 0 ;
+2 x2845 +2 x2846 +2 x2847 +2 x2848 -1 x2357 -1 x2358 -1 x2359 -1 x2360 -1 x2361 -1 x2362 -1 x2363 -1 x2364 >= 0 ;
+2 x2849 +2 x2850 +2 x2851 +2 x2852 -1 x2361 -1 x2362 -1 x2363 -1 x2364 -1 x2365 -1 x2366 -1 x2367 -1 x2368 >= 0 ;
+2 x2853 +2 x2854 +2 x2855 +2 x2856 -1 x2365 -1 x2366 -1 x2367 -1 x2368 -1 x2369 -1 x2370 -1 x2371 -1 x2372 >= 0 ;
+2 x2857 +2 x2858 +2 x2859 +2 x2860 -1 x2369 -1 x2370 -1 x2371 -1 x2372 -1 x2373 -1 x2374 -1 x2375 -1 x2376 >= 0 ;
+2 x2861 +2 x2862 +2 x2863 +2 x2864 -1 x2373 -1 x2374 -1 x2375 -1 x2376 -1 x2377 -1 x2378 -1 x2379 -1 x2380 >= 0 ;
+2 x2865 +2 x2866 +2 x2867 +2 x2868 -1 x2377 -1 x2378 -1 x2379 -1 x2380 -1 x2381 -1 x2382 -1 x2383 -1 x2384 >= 0 ;
+2 x2869 +2 x2870 +2 x2871 +2 x2872 -1 x2381 -1 x2382 -1 x2383 -1 x2384 -1 x2385 -1 x2386 -1 x2387 -1 x2388 >= 0 ;
+2 x2873 +2 x2874 +2 x2875 +2 x2876 -1 x2385 -1 x2386 -1 x2387 -1 x2388 -1 x2389 -1 x2390 -1 x2391 -1 x2392 >= 0 ;
+2 x2877 +2 x2878 +2 x2879 +2 x2880 -1 x2389 -1 x2390 -1 x2391 -1 x2392 -1 x2393 -1 x2394 -1 x2395 -1 x2396 >= 0 ;
+2 x2881 +2 x2882 +2 x2883 +2 x2884 -1 x2393 -1 x2394 -1 x2395 -1 x2396 -1 x2397 -1 x2398 -1 x2399 -1 x2400 >= 0 ;
+2 x2885 +2 x2886 +2 x2887 +2 x2888 -1 x2397 -1 x2398 -1 x2399 -1 x2400 -1 x2401 -1 x2402 -1 x2403 -1 x2404 >= 0 ;
+2 x2889 +2 x2890 +2 x2891 +2 x2892 -1 x2401 -1 x2402 -1 x2403 -1 x2404 -1 x2405 -1 x2406 -1 x2407 -1 x2408 >= 0 ;
+2 x2893 +2 x2894 +2 x2895 +2 x2896 -1 x2405 -1 x2406 -1 x2407 -1 x2408 -1 x2409 -1 x2410 -1 x2411 -1 x2412 >= 0 ;
+2 x2897 +2 x2898 +2 x2899 +2 x2900 -1 x2409 -1 x2410 -1 x2411 -1 x2412 -1 x2413 -1 x2414 -1 x2415 -1 x2416 >= 0 ;
+2 x2901 +2 x2902 +2 x2903 +2 x2904 -1 x2413 -1 x2414 -1 x2415 -1 x2416 -1 x2417 -1 x2418 -1 x2419 -1 x2420 >= 0 ;
+2 x2905 +2 x2906 +2 x2907 +2 x2908 -1 x2417 -1 x2418 -1 x2419 -1 x2420 -1 x2421 -1 x2422 -1 x2423 -1 x2424 >= 0 ;
+2 x2909 +2 x2910 +2 x2911 +2 x2912 -1 x2421 -1 x2422 -1 x2423 -1 x2424 -1 x2425 -1 x2426 -1 x2427 -1 x2428 >= 0 ;
+2 x2913 +2 x2914 +2 x2915 +2 x2916 -1 x2425 -1 x2426 -1 x2427 -1 x2428 -1 x2429 -1 x2430 -1 x2431 -1 x2432 >= 0 ;
+2 x2917 +2 x2918 +2 x2919 +2 x2920 -1 x2429 -1 x2430 -1 x2431 -1 x2432 -1 x2433 -1 x2434 -1 x2435 -1 x2436 >= 0 ;
+2 x2921 +2 x2922 +2 x2923 +2 x2924 -1 x2433 -1 x2434 -1 x2435 -1 x2436 -1 x2437 -1 x2438 -1 x2439 -1 x2440 >= 0 ;
+2 x2925 +2 x2926 +2 x2927 +2 x2928 -1 x2437 -1 x2438 -1 x2439 -1 x2440 -1 x2441 -1 x2442 -1 x2443 -1 x2444 >= 0 ;
+2 x2929 +2 x2930 +2 x2931 +2 x2932 -1 x2441 -1 x2442 -1 x2443 -1 x2444 -1 x2445 -1 x2446 -1 x2447 -1 x2448 >= 0 ;
+2 x2933 +2 x2934 +2 x2935 +2 x2936 -1 x2445 -1 x2446 -1 x2447 -1 x2448 -1 x2449 -1 x2450 -1 x2451 -1 x2452 >= 0 ;
+2 x2937 +2 x2938 +2 x2939 +2 x2940 -1 x2449 -1 x2450 -1 x2451 -1 x2452 -1 x2453 -1 x2454 -1 x2455 -1 x2456 >= 0 ;
+2 x2941 +2 x2942 +2 x2943 +2 x2944 -1 x2453 -1 x2454 -1 x2455 -1 x2456 -1 x2457 -1 x2458 -1 x2459 -1 x2460 >= 0 ;
+2 x2945 +2 x2946 +2 x2947 +2 x2948 -1 x2457 -1 x2458 -1 x2459 -1 x2460 -1 x2461 -1 x2462 -1 x2463 -1 x2464 >= 0 ;
+2 x2949 +2 x2950 +2 x2951 +2 x2952 -1 x2461 -1 x2462 -1 x2463 -1 x2464 -1 x2465 -1 x2466 -1 x2467 -1 x2468 >= 0 ;
+2 x2953 +2 x2954 +2 x2955 +2 x2956 -1 x2465 -1 x2466 -1 x2467 -1 x2468 -1 x2469 -1 x2470 -1 x2471 -1 x2472 >= 0 ;
+2 x2957 +2 x2958 +2 x2959 +2 x2960 -1 x2469 -1 x2470 -1 x2471 -1 x2472 -1 x2473 -1 x2474 -1 x2475 -1 x2476 >= 0 ;
+2 x2961 +2 x2962 +2 x2963 +2 x2964 -1 x2473 -1 x2474 -1 x2475 -1 x2476 -1 x2477 -1 x2478 -1 x2479 -1 x2480 >= 0 ;
+2 x2965 +2 x2966 +2 x2967 +2 x2968 -1 x2481 -1 x2482 -1 x2483 -1 x2484 -1 x2485 -1 x2486 -1 x2487 -1 x2488 >= 0 ;
+2 x2969 +2 x2970 +2 x2971 +2 x2972 -1 x2485 -1 x2486 -1 x2487 -1 x2488 -1 x2489 -1 x2490 -1 x2491 -1 x2492 >= 0 ;
+2 x2973 +2 x2974 +2 x2975 +2 x2976 -1 x2489 -1 x2490 -1 x2491 -1 x2492 -1 x2493 -1 x2494 -1 x2495 -1 x2496 >= 0 ;
+2 x2977 +2 x2978 +2 x2979 +2 x2980 -1 x2493 -1 x2494 -1 x2495 -1 x2496 -1 x2497 -1 x2498 -1 x2499 -1 x2500 >= 0 ;
+2 x2981 +2 x2982 +2 x2983 +2 x2984 -1 x2497 -1 x2498 -1 x2499 -1 x2500 -1 x2501 -1 x2502 -1 x2503 -1 x2504 >= 0 ;
+2 x2985 +2 x2986 +2 x2987 +2 x2988 -1 x2501 -1 x2502 -1 x2503 -1 x2504 -1 x2505 -1 x2506 -1 x2507 -1 x2508 >= 0 ;
+2 x2989 +2 x2990 +2 x2991 +2 x2992 -1 x2505 -1 x2506 -1 x2507 -1 x2508 -1 x2509 -1 x2510 -1 x2511 -1 x2512 >= 0 ;
+2 x2993 +2 x2994 +2 x2995 +2 x2996 -1 x2509 -1 x2510 -1 x2511 -1 x2512 -1 x2513 -1 x2514 -1 x2515 -1 x2516 >= 0 ;
+2 x2997 +2 x2998 +2 x2999 +2 x3000 -1 x2513 -1 x2514 -1 x2515 -1 x2516 -1 x2517 -1 x2518 -1 x2519 -1 x2520 >= 0 ;
+2 x3001 +2 x3002 +2 x3003 +2 x3004 -1 x2517 -1 x2518 -1 x2519 -1 x2520 -1 x2521 -1 x2522 -1 x2523 -1 x2524 >= 0 ;
+2 x3005 +2 x3006 +2 x3007 +2 x3008 -1 x2521 -1 x2522 -1 x2523 -1 x2524 -1 x2525 -1 x2526 -1 x2527 -1 x2528 >= 0 ;
+2 x3009 +2 x3010 +2 x3011 +2 x3012 -1 x2525 -1 x2526 -1 x2527 -1 x2528 -1 x2529 -1 x2530 -1 x2531 -1 x2532 >= 0 ;
+2 x3013 +2 x3014 +2 x3015 +2 x3016 -1 x2529 -1 x2530 -1 x2531 -1 x2532 -1 x2533 -1 x2534 -1 x2535 -1 x2536 >= 0 ;
+2 x3017 +2 x3018 +2 x3019 +2 x3020 -1 x2533 -1 x2534 -1 x2535 -1 x2536 -1 x2537 -1 x2538 -1 x2539 -1 x2540 >= 0 ;
+2 x3021 +2 x3022 +2 x3023 +2 x3024 -1 x2537 -1 x2538 -1 x2539 -1 x2540 -1 x2541 -1 x2542 -1 x2543 -1 x2544 >= 0 ;
+2 x3025 +2 x3026 +2 x3027 +2 x3028 -1 x2541 -1 x2542 -1 x2543 -1 x2544 -1 x2545 -1 x2546 -1 x2547 -1 x2548 >= 0 ;
+2 x3029 +2 x3030 +2 x3031 +2 x3032 -1 x2545 -1 x2546 -1 x2547 -1 x2548 -1 x2549 -1 x2550 -1 x2551 -1 x2552 >= 0 ;
+2 x3033 +2 x3034 +2 x3035 +2 x3036 -1 x2549 -1 x2550 -1 x2551 -1 x2552 -1 x2553 -1 x2554 -1 x2555 -1 x2556 >= 0 ;
+2 x3037 +2 x3038 +2 x3039 +2 x3040 -1 x2553 -1 x2554 -1 x2555 -1 x2556 -1 x2557 -1 x2558 -1 x2559 -1 x2560 >= 0 ;
+2 x3041 +2 x3042 +2 x3043 +2 x3044 -1 x2557 -1 x2558 -1 x2559 -1 x2560 -1 x2561 -1 x2562 -1 x2563 -1 x2564 >= 0 ;
+2 x3045 +2 x3046 +2 x3047 +2 x3048 -1 x2561 -1 x2562 -1 x2563 -1 x2564 -1 x2565 -1 x2566 -1 x2567 -1 x2568 >= 0 ;
+2 x3049 +2 x3050 +2 x3051 +2 x3052 -1 x2565 -1 x2566 -1 x2567 -1 x2568 -1 x2569 -1 x2570 -1 x2571 -1 x2572 >= 0 ;
+2 x3053 +2 x3054 +2 x3055 +2 x3056 -1 x2569 -1 x2570 -1 x2571 -1 x2572 -1 x2573 -1 x2574 -1 x2575 -1 x2576 >= 0 ;
+2 x3057 +2 x3058 +2 x3059 +2 x3060 -1 x2573 -1 x2574 -1 x2575 -1 x2576 -1 x2577 -1 x2578 -1 x2579 -1 x2580 >= 0 ;
+2 x3061 +2 x3062 +2 x3063 +2 x3064 -1 x2577 -1 x2578 -1 x2579 -1 x2580 -1 x2581 -1 x2582 -1 x2583 -1 x2584 >= 0 ;
+2 x3065 +2 x3066 +2 x3067 +2 x3068 -1 x2581 -1 x2582 -1 x2583 -1 x2584 -1 x2585 -1 x2586 -1 x2587 -1 x2588 >= 0 ;
+2 x3069 +2 x3070 +2 x3071 +2 x3072 -1 x2585 -1 x2586 -1 x2587 -1 x2588 -1 x2589 -1 x2590 -1 x2591 -1 x2592 >= 0 ;
+2 x3073 +2 x3074 +2 x3075 +2 x3076 -1 x2589 -1 x2590 -1 x2591 -1 x2592 -1 x2593 -1 x2594 -1 x2595 -1 x2596 >= 0 ;
+2 x3077 +2 x3078 +2 x3079 +2 x3080 -1 x2593 -1 x2594 -1 x2595 -1 x2596 -1 x2597 -1 x2598 -1 x2599 -1 x2600 >= 0 ;
+2 x3081 +2 x3082 +2 x3083 +2 x3084 -1 x2597 -1 x2598 -1 x2599 -1 x2600 -1 x2601 -1 x2602 -1 x2603 -1 x2604 >= 0 ;
+2 x3085 +2 x3086 +2 x3087 +2 x3088 -1 x2601 -1 x2602 -1 x2603 -1 x2604 -1 x2605 -1 x2606 -1 x2607 -1 x2608 >= 0 ;
+2 x3089 +2 x3090 +2 x3091 +2 x3092 -1 x2605 -1 x2606 -1 x2607 -1 x2608 -1 x2609 -1 x2610 -1 x2611 -1 x2612 >= 0 ;
+2 x3093 +2 x3094 +2 x3095 +2 x3096 -1 x2609 -1 x2610 -1 x2611 -1 x2612 -1 x2613 -1 x2614 -1 x2615 -1 x2616 >= 0 ;
+2 x3097 +2 x3098 +2 x3099 +2 x3100 -1 x2613 -1 x2614 -1 x2615 -1 x2616 -1 x2617 -1 x2618 -1 x2619 -1 x2620 >= 0 ;
+2 x3101 +2 x3102 +2 x3103 +2 x3104 -1 x2617 -1 x2618 -1 x2619 -1 x2620 -1 x2621 -1 x2622 -1 x2623 -1 x2624 >= 0 ;
+2 x3105 +2 x3106 +2 x3107 +2 x3108 -1 x2621 -1 x2622 -1 x2623 -1 x2624 -1 x2625 -1 x2626 -1 x2627 -1 x2628 >= 0 ;
+2 x3109 +2 x3110 +2 x3111 +2 x3112 -1 x2625 -1 x2626 -1 x2627 -1 x2628 -1 x2629 -1 x2630 -1 x2631 -1 x2632 >= 0 ;
+2 x3113 +2 x3114 +2 x3115 +2 x3116 -1 x2629 -1 x2630 -1 x2631 -1 x2632 -1 x2633 -1 x2634 -1 x2635 -1 x2636 >= 0 ;
+2 x3117 +2 x3118 +2 x3119 +2 x3120 -1 x2633 -1 x2634 -1 x2635 -1 x2636 -1 x2637 -1 x2638 -1 x2639 -1 x2640 >= 0 ;
+2 x3121 +2 x3122 +2 x3123 +2 x3124 -1 x2637 -1 x2638 -1 x2639 -1 x2640 -1 x2641 -1 x2642 -1 x2643 -1 x2644 >= 0 ;
+2 x3125 +2 x3126 +2 x3127 +2 x3128 -1 x2641 -1 x2642 -1 x2643 -1 x2644 -1 x2645 -1 x2646 -1 x2647 -1 x2648 >= 0 ;
+2 x3129 +2 x3130 +2 x3131 +2 x3132 -1 x2645 -1 x2646 -1 x2647 -1 x2648 -1 x2649 -1 x2650 -1 x2651 -1 x2652 >= 0 ;
+2 x3133 +2 x3134 +2 x3135 +2 x3136 -1 x2649 -1 x2650 -1 x2651 -1 x2652 -1 x2653 -1 x2654 -1 x2655 -1 x2656 >= 0 ;
+2 x3137 +2 x3138 +2 x3139 +2 x3140 -1 x2653 -1 x2654 -1 x2655 -1 x2656 -1 x2657 -1 x2658 -1 x2659 -1 x2660 >= 0 ;
+2 x3141 +2 x3142 +2 x3143 +2 x3144 -1 x2657 -1 x2658 -1 x2659 -1 x2660 -1 x2661 -1 x2662 -1 x2663 -1 x2664 >= 0 ;
+2 x3145 +2 x3146 +2 x3147 +2 x3148 -1 x2661 -1 x2662 -1 x2663 -1 x2664 -1 x2665 -1 x2666 -1 x2667 -1 x2668 >= 0 ;
+2 x3149 +2 x3150 +2 x3151 +2 x3152 -1 x2665 -1 x2666 -1 x2667 -1 x2668 -1 x2669 -1 x2670 -1 x2671 -1 x2672 >= 0 ;
+2 x3153 +2 x3154 +2 x3155 +2 x3156 -1 x2669 -1 x2670 -1 x2671 -1 x2672 -1 x2673 -1 x2674 -1 x2675 -1 x2676 >= 0 ;
+2 x3157 +2 x3158 +2 x3159 +2 x3160 -1 x2673 -1 x2674 -1 x2675 -1 x2676 -1 x2677 -1 x2678 -1 x2679 -1 x2680 >= 0 ;
+2 x3161 +2 x3162 +2 x3163 +2 x3164 -1 x2677 -1 x2678 -1 x2679 -1 x2680 -1 x2681 -1 x2682 -1 x2683 -1 x2684 >= 0 ;
+2 x3165 +2 x3166 +2 x3167 +2 x3168 -1 x2681 -1 x2682 -1 x2683 -1 x2684 -1 x2685 -1 x2686 -1 x2687 -1 x2688 >= 0 ;
+2 x3169 +2 x3170 +2 x3171 +2 x3172 -1 x2685 -1 x2686 -1 x2687 -1 x2688 -1 x2689 -1 x2690 -1 x2691 -1 x2692 >= 0 ;
+2 x3173 +2 x3174 +2 x3175 +2 x3176 -1 x2689 -1 x2690 -1 x2691 -1 x2692 -1 x2693 -1 x2694 -1 x2695 -1 x2696 >= 0 ;
+2 x3177 +2 x3178 +2 x3179 +2 x3180 -1 x2693 -1 x2694 -1 x2695 -1 x2696 -1 x2697 -1 x2698 -1 x2699 -1 x2700 >= 0 ;
+2 x3181 +2 x3182 +2 x3183 +2 x3184 -1 x2697 -1 x2698 -1 x2699 -1 x2700 -1 x2701 -1 x2702 -1 x2703 -1 x2704 >= 0 ;
+2 x3185 +2 x3186 +2 x3187 +2 x3188 -1 x2701 -1 x2702 -1 x2703 -1 x2704 -1 x2705 -1 x2706 -1 x2707 -1 x2708 >= 0 ;
+2 x3189 +2 x3190 +2 x3191 +2 x3192 -1 x2705 -1 x2706 -1 x2707 -1 x2708 -1 x2709 -1 x2710 -1 x2711 -1 x2712 >= 0 ;
+2 x3193 +2 x3194 +2 x3195 +2 x3196 -1 x2709 -1 x2710 -1 x2711 -1 x2712 -1 x2713 -1 x2714 -1 x2715 -1 x2716 >= 0 ;
+2 x3197 +2 x3198 +2 x3199 +2 x3200 -1 x2713 -1 x2714 -1 x2715 -1 x2716 -1 x2717 -1 x2718 -1 x2719 -1 x2720 >= 0 ;
+2 x3201 +2 x3202 +2 x3203 +2 x3204 -1 x2717 -1 x2718 -1 x2719 -1 x2720 -1 x2721 -1 x2722 -1 x2723 -1 x2724 >= 0 ;
+2 x3205 +2 x3206 +2 x3207 +2 x3208 -1 x2721 -1 x2722 -1 x2723 -1 x2724 -1 x2725 -1 x2726 -1 x2727 -1 x2728 >= 0 ;
+2 x3209 +2 x3210 +2 x3211 +2 x3212 -1 x2725 -1 x2726 -1 x2727 -1 x2728 -1 x2729 -1 x2730 -1 x2731 -1 x2732 >= 0 ;
+2 x3213 +2 x3214 +2 x3215 +2 x3216 -1 x2729 -1 x2730 -1 x2731 -1 x2732 -1 x2733 -1 x2734 -1 x2735 -1 x2736 >= 0 ;
+2 x3217 +2 x3218 +2 x3219 +2 x3220 -1 x2733 -1 x2734 -1 x2735 -1 x2736 -1 x2737 -1 x2738 -1 x2739 -1 x2740 >= 0 ;
+2 x3221 +2 x3222 +2 x3223 +2 x3224 -1 x2737 -1 x2738 -1 x2739 -1 x2740 -1 x2741 -1 x2742 -1 x2743 -1 x2744 >= 0 ;
+2 x3225 +2 x3226 +2 x3227 +2 x3228 -1 x2741 -1 x2742 -1 x2743 -1 x2744 -1 x2745 -1 x2746 -1 x2747 -1 x2748 >= 0 ;
+2 x3229 +2 x3230 +2 x3231 +2 x3232 -1 x2745 -1 x2746 -1 x2747 -1 x2748 -1 x2749 -1 x2750 -1 x2751 -1 x2752 >= 0 ;
+2 x3233 +2 x3234 +2 x3235 +2 x3236 -1 x2749 -1 x2750 -1 x2751 -1 x2752 -1 x2753 -1 x2754 -1 x2755 -1 x2756 >= 0 ;
+2 x3237 +2 x3238 +2 x3239 +2 x3240 -1 x2753 -1 x2754 -1 x2755 -1 x2756 -1 x2757 -1 x2758 -1 x2759 -1 x2760 >= 0 ;
+2 x3241 +2 x3242 +2 x3243 +2 x3244 -1 x2757 -1 x2758 -1 x2759 -1 x2760 -1 x2761 -1 x2762 -1 x2763 -1 x2764 >= 0 ;
+2 x3245 +2 x3246 +2 x3247 +2 x3248 -1 x2761 -1 x2762 -1 x2763 -1 x2764 -1 x2765 -1 x2766 -1 x2767 -1 x2768 >= 0 ;
+2 x3249 +2 x3250 +2 x3251 +2 x3252 -1 x2765 -1 x2766 -1 x2767 -1 x2768 -1 x2769 -1 x2770 -1 x2771 -1 x2772 >= 0 ;
+2 x3253 +2 x3254 +2 x3255 +2 x3256 -1 x2769 -1 x2770 -1 x2771 -1 x2772 -1 x2773 -1 x2774 -1 x2775 -1 x2776 >= 0 ;
+2 x3257 +2 x3258 +2 x3259 +2 x3260 -1 x2773 -1 x2774 -1 x2775 -1 x2776 -1 x2777 -1 x2778 -1 x2779 -1 x2780 >= 0 ;
+2 x3261 +2 x3262 +2 x3263 +2 x3264 -1 x2777 -1 x2778 -1 x2779 -1 x2780 -1 x2781 -1 x2782 -1 x2783 -1 x2784 >= 0 ;
+2 x3265 +2 x3266 +2 x3267 +2 x3268 -1 x2781 -1 x2782 -1 x2783 -1 x2784 -1 x2785 -1 x2786 -1 x2787 -1 x2788 >= 0 ;
+2 x3269 +2 x3270 +2 x3271 +2 x3272 -1 x2785 -1 x2786 -1 x2787 -1 x2788 -1 x2789 -1 x2790 -1 x2791 -1 x2792 >= 0 ;
+2 x3273 +2 x3274 +2 x3275 +2 x3276 -1 x2789 -1 x2790 -1 x2791 -1 x2792 -1 x2793 -1 x2794 -1 x2795 -1 x2796 >= 0 ;
+2 x3277 +2 x3278 +2 x3279 +2 x3280 -1 x2793 -1 x2794 -1 x2795 -1 x2796 -1 x2797 -1 x2798 -1 x2799 -1 x2800 >= 0 ;
+2 x3281 +2 x3282 +2 x3283 +2 x3284 -1 x2797 -1 x2798 -1 x2799 -1 x2800 -1 x2801 -1 x2802 -1 x2803 -1 x2804 >= 0 ;
+2 x3285 +2 x3286 +2 x3287 +2 x3288 -1 x2801 -1 x2802 -1 x2803 -1 x2804 -1 x2805 -1 x2806 -1 x2807 -1 x2808 >= 0 ;
+2 x3289 +2 x3290 +2 x3291 +2 x3292 -1 x2805 -1 x2806 -1 x2807 -1 x2808 -1 x2809 -1 x2810 -1 x2811 -1 x2812 >= 0 ;
+2 x3293 +2 x3294 +2 x3295 +2 x3296 -1 x2809 -1 x2810 -1 x2811 -1 x2812 -1 x2813 -1 x2814 -1 x2815 -1 x2816 >= 0 ;
+2 x3297 +2 x3298 +2 x3299 +2 x3300 -1 x2813 -1 x2814 -1 x2815 -1 x2816 -1 x2817 -1 x2818 -1 x2819 -1 x2820 >= 0 ;
+2 x3301 +2 x3302 +2 x3303 +2 x3304 -1 x2817 -1 x2818 -1 x2819 -1 x2820 -1 x2821 -1 x2822 -1 x2823 -1 x2824 >= 0 ;
+2 x3305 +2 x3306 +2 x3307 +2 x3308 -1 x2821 -1 x2822 -1 x2823 -1 x2824 -1 x2825 -1 x2826 -1 x2827 -1 x2828 >= 0 ;
+2 x3309 +2 x3310 +2 x3311 +2 x3312 -1 x2825 -1 x2826 -1 x2827 -1 x2828 -1 x2829 -1 x2830 -1 x2831 -1 x2832 >= 0 ;
+2 x3313 +2 x3314 +2 x3315 +2 x3316 -1 x2829 -1 x2830 -1 x2831 -1 x2832 -1 x2833 -1 x2834 -1 x2835 -1 x2836 >= 0 ;
+2 x3317 +2 x3318 +2 x3319 +2 x3320 -1 x2833 -1 x2834 -1 x2835 -1 x2836 -1 x2837 -1 x2838 -1 x2839 -1 x2840 >= 0 ;
+2 x3321 +2 x3322 +2 x3323 +2 x3324 -1 x2837 -1 x2838 -1 x2839 -1 x2840 -1 x2841 -1 x2842 -1 x2843 -1 x2844 >= 0 ;
+2 x3325 +2 x3326 +2 x3327 +2 x3328 -1 x2841 -1 x2842 -1 x2843 -1 x2844 -1 x2845 -1 x2846 -1 x2847 -1 x2848 >= 0 ;
+2 x3329 +2 x3330 +2 x3331 +2 x3332 -1 x2845 -1 x2846 -1 x2847 -1 x2848 -1 x2849 -1 x2850 -1 x2851 -1 x2852 >= 0 ;
+2 x3333 +2 x3334 +2 x3335 +2 x3336 -1 x2849 -1 x2850 -1 x2851 -1 x2852 -1 x2853 -1 x2854 -1 x2855 -1 x2856 >= 0 ;
+2 x3337 +2 x3338 +2 x3339 +2 x3340 -1 x2853 -1 x2854 -1 x2855 -1 x2856 -1 x2857 -1 x2858 -1 x2859 -1 x2860 >= 0 ;
+2 x3341 +2 x3342 +2 x3343 +2 x3344 -1 x2857 -1 x2858 -1 x2859 -1 x2860 -1 x2861 -1 x2862 -1 x2863 -1 x2864 >= 0 ;
+2 x3345 +2 x3346 +2 x3347 +2 x3348 -1 x2861 -1 x2862 -1 x2863 -1 x2864 -1 x2865 -1 x2866 -1 x2867 -1 x2868 >= 0 ;
+2 x3349 +2 x3350 +2 x3351 +2 x3352 -1 x2865 -1 x2866 -1 x2867 -1 x2868 -1 x2869 -1 x2870 -1 x2871 -1 x2872 >= 0 ;
+2 x3353 +2 x3354 +2 x3355 +2 x3356 -1 x2869 -1 x2870 -1 x2871 -1 x2872 -1 x2873 -1 x2874 -1 x2875 -1 x2876 >= 0 ;
+2 x3357 +2 x3358 +2 x3359 +2 x3360 -1 x2873 -1 x2874 -1 x2875 -1 x2876 -1 x2877 -1 x2878 -1 x2879 -1 x2880 >= 0 ;
+2 x3361 +2 x3362 +2 x3363 +2 x3364 -1 x2877 -1 x2878 -1 x2879 -1 x2880 -1 x2881 -1 x2882 -1 x2883 -1 x2884 >= 0 ;
+2 x3365 +2 x3366 +2 x3367 +2 x3368 -1 x2881 -1 x2882 -1 x2883 -1 x2884 -1 x2885 -1 x2886 -1 x2887 -1 x2888 >= 0 ;
+2 x3369 +2 x3370 +2 x3371 +2 x3372 -1 x2885 -1 x2886 -1 x2887 -1 x2888 -1 x2889 -1 x2890 -1 x2891 -1 x2892 >= 0 ;
+2 x3373 +2 x3374 +2 x3375 +2 x3376 -1 x2889 -1 x2890 -1 x2891 -1 x2892 -1 x2893 -1 x2894 -1 x2895 -1 x2896 >= 0 ;
+2 x3377 +2 x3378 +2 x3379 +2 x3380 -1 x2893 -1 x2894 -1 x2895 -1 x2896 -1 x2897 -1 x2898 -1 x2899 -1 x2900 >= 0 ;
+2 x3381 +2 x3382 +2 x3383 +2 x3384 -1 x2897 -1 x2898 -1 x2899 -1 x2900 -1 x2901 -1 x2902 -1 x2903 -1 x2904 >= 0 ;
+2 x3385 +2 x3386 +2 x3387 +2 x3388 -1 x2901 -1 x2902 -1 x2903 -1 x2904 -1 x2905 -1 x2906 -1 x2907 -1 x2908 >= 0 ;
+2 x3389 +2 x3390 +2 x3391 +2 x3392 -1 x2905 -1 x2906 -1 x2907 -1 x2908 -1 x2909 -1 x2910 -1 x2911 -1 x2912 >= 0 ;
+2 x3393 +2 x3394 +2 x3395 +2 x3396 -1 x2909 -1 x2910 -1 x2911 -1 x2912 -1 x2913 -1 x2914 -1 x2915 -1 x2916 >= 0 ;
+2 x3397 +2 x3398 +2 x3399 +2 x3400 -1 x2913 -1 x2914 -1 x2915 -1 x2916 -1 x2917 -1 x2918 -1 x2919 -1 x2920 >= 0 ;
+2 x3401 +2 x3402 +2 x3403 +2 x3404 -1 x2917 -1 x2918 -1 x2919 -1 x2920 -1 x2921 -1 x2922 -1 x2923 -1 x2924 >= 0 ;
+2 x3405 +2 x3406 +2 x3407 +2 x3408 -1 x2921 -1 x2922 -1 x2923 -1 x2924 -1 x2925 -1 x2926 -1 x2927 -1 x2928 >= 0 ;
+2 x3409 +2 x3410 +2 x3411 +2 x3412 -1 x2925 -1 x2926 -1 x2927 -1 x2928 -1 x2929 -1 x2930 -1 x2931 -1 x2932 >= 0 ;
+2 x3413 +2 x3414 +2 x3415 +2 x3416 -1 x2929 -1 x2930 -1 x2931 -1 x2932 -1 x2933 -1 x2934 -1 x2935 -1 x2936 >= 0 ;
+2 x3417 +2 x3418 +2 x3419 +2 x3420 -1 x2933 -1 x2934 -1 x2935 -1 x2936 -1 x2937 -1 x2938 -1 x2939 -1 x2940 >= 0 ;
+2 x3421 +2 x3422 +2 x3423 +2 x3424 -1 x2937 -1 x2938 -1 x2939 -1 x2940 -1 x2941 -1 x2942 -1 x2943 -1 x2944 >= 0 ;
+2 x3425 +2 x3426 +2 x3427 +2 x3428 -1 x2941 -1 x2942 -1 x2943 -1 x2944 -1 x2945 -1 x2946 -1 x2947 -1 x2948 >= 0 ;
+2 x3429 +2 x3430 +2 x3431 +2 x3432 -1 x2945 -1 x2946 -1 x2947 -1 x2948 -1 x2949 -1 x2950 -1 x2951 -1 x2952 >= 0 ;
+2 x3433 +2 x3434 +2 x3435 +2 x3436 -1 x2949 -1 x2950 -1 x2951 -1 x2952 -1 x2953 -1 x2954 -1 x2955 -1 x2956 >= 0 ;
+2 x3437 +2 x3438 +2 x3439 +2 x3440 -1 x2953 -1 x2954 -1 x2955 -1 x2956 -1 x2957 -1 x2958 -1 x2959 -1 x2960 >= 0 ;
+2 x3441 +2 x3442 +2 x3443 +2 x3444 -1 x2957 -1 x2958 -1 x2959 -1 x2960 -1 x2961 -1 x2962 -1 x2963 -1 x2964 >= 0 ;
+2 x3445 +2 x3446 +2 x3447 +2 x3448 -1 x2965 -1 x2966 -1 x2967 -1 x2968 -1 x2969 -1 x2970 -1 x2971 -1 x2972 >= 0 ;
+2 x3449 +2 x3450 +2 x3451 +2 x3452 -1 x2969 -1 x2970 -1 x2971 -1 x2972 -1 x2973 -1 x2974 -1 x2975 -1 x2976 >= 0 ;
+2 x3453 +2 x3454 +2 x3455 +2 x3456 -1 x2973 -1 x2974 -1 x2975 -1 x2976 -1 x2977 -1 x2978 -1 x2979 -1 x2980 >= 0 ;
+2 x3457 +2 x3458 +2 x3459 +2 x3460 -1 x2977 -1 x2978 -1 x2979 -1 x2980 -1 x2981 -1 x2982 -1 x2983 -1 x2984 >= 0 ;
+2 x3461 +2 x3462 +2 x3463 +2 x3464 -1 x2981 -1 x2982 -1 x2983 -1 x2984 -1 x2985 -1 x2986 -1 x2987 -1 x2988 >= 0 ;
+2 x3465 +2 x3466 +2 x3467 +2 x3468 -1 x2985 -1 x2986 -1 x2987 -1 x2988 -1 x2989 -1 x2990 -1 x2991 -1 x2992 >= 0 ;
+2 x3469 +2 x3470 +2 x3471 +2 x3472 -1 x2989 -1 x2990 -1 x2991 -1 x2992 -1 x2993 -1 x2994 -1 x2995 -1 x2996 >= 0 ;
+2 x3473 +2 x3474 +2 x3475 +2 x3476 -1 x2993 -1 x2994 -1 x2995 -1 x2996 -1 x2997 -1 x2998 -1 x2999 -1 x3000 >= 0 ;
+2 x3477 +2 x3478 +2 x3479 +2 x3480 -1 x2997 -1 x2998 -1 x2999 -1 x3000 -1 x3001 -1 x3002 -1 x3003 -1 x3004 >= 0 ;
+2 x3481 +2 x3482 +2 x3483 +2 x3484 -1 x3001 -1 x3002 -1 x3003 -1 x3004 -1 x3005 -1 x3006 -1 x3007 -1 x3008 >= 0 ;
+2 x3485 +2 x3486 +2 x3487 +2 x3488 -1 x3005 -1 x3006 -1 x3007 -1 x3008 -1 x3009 -1 x3010 -1 x3011 -1 x3012 >= 0 ;
+2 x3489 +2 x3490 +2 x3491 +2 x3492 -1 x3009 -1 x3010 -1 x3011 -1 x3012 -1 x3013 -1 x3014 -1 x3015 -1 x3016 >= 0 ;
+2 x3493 +2 x3494 +2 x3495 +2 x3496 -1 x3013 -1 x3014 -1 x3015 -1 x3016 -1 x3017 -1 x3018 -1 x3019 -1 x3020 >= 0 ;
+2 x3497 +2 x3498 +2 x3499 +2 x3500 -1 x3017 -1 x3018 -1 x3019 -1 x3020 -1 x3021 -1 x3022 -1 x3023 -1 x3024 >= 0 ;
+2 x3501 +2 x3502 +2 x3503 +2 x3504 -1 x3021 -1 x3022 -1 x3023 -1 x3024 -1 x3025 -1 x3026 -1 x3027 -1 x3028 >= 0 ;
+2 x3505 +2 x3506 +2 x3507 +2 x3508 -1 x3025 -1 x3026 -1 x3027 -1 x3028 -1 x3029 -1 x3030 -1 x3031 -1 x3032 >= 0 ;
+2 x3509 +2 x3510 +2 x3511 +2 x3512 -1 x3029 -1 x3030 -1 x3031 -1 x3032 -1 x3033 -1 x3034 -1 x3035 -1 x3036 >= 0 ;
+2 x3513 +2 x3514 +2 x3515 +2 x3516 -1 x3033 -1 x3034 -1 x3035 -1 x3036 -1 x3037 -1 x3038 -1 x3039 -1 x3040 >= 0 ;
+2 x3517 +2 x3518 +2 x3519 +2 x3520 -1 x3037 -1 x3038 -1 x3039 -1 x3040 -1 x3041 -1 x3042 -1 x3043 -1 x3044 >= 0 ;
+2 x3521 +2 x3522 +2 x3523 +2 x3524 -1 x3041 -1 x3042 -1 x3043 -1 x3044 -1 x3045 -1 x3046 -1 x3047 -1 x3048 >= 0 ;
+2 x3525 +2 x3526 +2 x3527 +2 x3528 -1 x3045 -1 x3046 -1 x3047 -1 x3048 -1 x3049 -1 x3050 -1 x3051 -1 x3052 >= 0 ;
+2 x3529 +2 x3530 +2 x3531 +2 x3532 -1 x3049 -1 x3050 -1 x3051 -1 x3052 -1 x3053 -1 x3054 -1 x3055 -1 x3056 >= 0 ;
+2 x3533 +2 x3534 +2 x3535 +2 x3536 -1 x3053 -1 x3054 -1 x3055 -1 x3056 -1 x3057 -1 x3058 -1 x3059 -1 x3060 >= 0 ;
+2 x3537 +2 x3538 +2 x3539 +2 x3540 -1 x3057 -1 x3058 -1 x3059 -1 x3060 -1 x3061 -1 x3062 -1 x3063 -1 x3064 >= 0 ;
+2 x3541 +2 x3542 +2 x3543 +2 x3544 -1 x3061 -1 x3062 -1 x3063 -1 x3064 -1 x3065 -1 x3066 -1 x3067 -1 x3068 >= 0 ;
+2 x3545 +2 x3546 +2 x3547 +2 x3548 -1 x3065 -1 x3066 -1 x3067 -1 x3068 -1 x3069 -1 x3070 -1 x3071 -1 x3072 >= 0 ;
+2 x3549 +2 x3550 +2 x3551 +2 x3552 -1 x3069 -1 x3070 -1 x3071 -1 x3072 -1 x3073 -1 x3074 -1 x3075 -1 x3076 >= 0 ;
+2 x3553 +2 x3554 +2 x3555 +2 x3556 -1 x3073 -1 x3074 -1 x3075 -1 x3076 -1 x3077 -1 x3078 -1 x3079 -1 x3080 >= 0 ;
+2 x3557 +2 x3558 +2 x3559 +2 x3560 -1 x3077 -1 x3078 -1 x3079 -1 x3080 -1 x3081 -1 x3082 -1 x3083 -1 x3084 >= 0 ;
+2 x3561 +2 x3562 +2 x3563 +2 x3564 -1 x3081 -1 x3082 -1 x3083 -1 x3084 -1 x3085 -1 x3086 -1 x3087 -1 x3088 >= 0 ;
+2 x3565 +2 x3566 +2 x3567 +2 x3568 -1 x3085 -1 x3086 -1 x3087 -1 x3088 -1 x3089 -1 x3090 -1 x3091 -1 x3092 >= 0 ;
+2 x3569 +2 x3570 +2 x3571 +2 x3572 -1 x3089 -1 x3090 -1 x3091 -1 x3092 -1 x3093 -1 x3094 -1 x3095 -1 x3096 >= 0 ;
+2 x3573 +2 x3574 +2 x3575 +2 x3576 -1 x3093 -1 x3094 -1 x3095 -1 x3096 -1 x3097 -1 x3098 -1 x3099 -1 x3100 >= 0 ;
+2 x3577 +2 x3578 +2 x3579 +2 x3580 -1 x3097 -1 x3098 -1 x3099 -1 x3100 -1 x3101 -1 x3102 -1 x3103 -1 x3104 >= 0 ;
+2 x3581 +2 x3582 +2 x3583 +2 x3584 -1 x3101 -1 x3102 -1 x3103 -1 x3104 -1 x3105 -1 x3106 -1 x3107 -1 x3108 >= 0 ;
+2 x3585 +2 x3586 +2 x3587 +2 x3588 -1 x3105 -1 x3106 -1 x3107 -1 x3108 -1 x3109 -1 x3110 -1 x3111 -1 x3112 >= 0 ;
+2 x3589 +2 x3590 +2 x3591 +2 x3592 -1 x3109 -1 x3110 -1 x3111 -1 x3112 -1 x3113 -1 x3114 -1 x3115 -1 x3116 >= 0 ;
+2 x3593 +2 x3594 +2 x3595 +2 x3596 -1 x3113 -1 x3114 -1 x3115 -1 x3116 -1 x3117 -1 x3118 -1 x3119 -1 x3120 >= 0 ;
+2 x3597 +2 x3598 +2 x3599 +2 x3600 -1 x3117 -1 x3118 -1 x3119 -1 x3120 -1 x3121 -1 x3122 -1 x3123 -1 x3124 >= 0 ;
+2 x3601 +2 x3602 +2 x3603 +2 x3604 -1 x3121 -1 x3122 -1 x3123 -1 x3124 -1 x3125 -1 x3126 -1 x3127 -1 x3128 >= 0 ;
+2 x3605 +2 x3606 +2 x3607 +2 x3608 -1 x3125 -1 x3126 -1 x3127 -1 x3128 -1 x3129 -1 x3130 -1 x3131 -1 x3132 >= 0 ;
+2 x3609 +2 x3610 +2 x3611 +2 x3612 -1 x3129 -1 x3130 -1 x3131 -1 x3132 -1 x3133 -1 x3134 -1 x3135 -1 x3136 >= 0 ;
+2 x3613 +2 x3614 +2 x3615 +2 x3616 -1 x3133 -1 x3134 -1 x3135 -1 x3136 -1 x3137 -1 x3138 -1 x3139 -1 x3140 >= 0 ;
+2 x3617 +2 x3618 +2 x3619 +2 x3620 -1 x3137 -1 x3138 -1 x3139 -1 x3140 -1 x3141 -1 x3142 -1 x3143 -1 x3144 >= 0 ;
+2 x3621 +2 x3622 +2 x3623 +2 x3624 -1 x3141 -1 x3142 -1 x3143 -1 x3144 -1 x3145 -1 x3146 -1 x3147 -1 x3148 >= 0 ;
+2 x3625 +2 x3626 +2 x3627 +2 x3628 -1 x3145 -1 x3146 -1 x3147 -1 x3148 -1 x3149 -1 x3150 -1 x3151 -1 x3152 >= 0 ;
+2 x3629 +2 x3630 +2 x3631 +2 x3632 -1 x3149 -1 x3150 -1 x3151 -1 x3152 -1 x3153 -1 x3154 -1 x3155 -1 x3156 >= 0 ;
+2 x3633 +2 x3634 +2 x3635 +2 x3636 -1 x3153 -1 x3154 -1 x3155 -1 x3156 -1 x3157 -1 x3158 -1 x3159 -1 x3160 >= 0 ;
+2 x3637 +2 x3638 +2 x3639 +2 x3640 -1 x3157 -1 x3158 -1 x3159 -1 x3160 -1 x3161 -1 x3162 -1 x3163 -1 x3164 >= 0 ;
+2 x3641 +2 x3642 +2 x3643 +2 x3644 -1 x3161 -1 x3162 -1 x3163 -1 x3164 -1 x3165 -1 x3166 -1 x3167 -1 x3168 >= 0 ;
+2 x3645 +2 x3646 +2 x3647 +2 x3648 -1 x3165 -1 x3166 -1 x3167 -1 x3168 -1 x3169 -1 x3170 -1 x3171 -1 x3172 >= 0 ;
+2 x3649 +2 x3650 +2 x3651 +2 x3652 -1 x3169 -1 x3170 -1 x3171 -1 x3172 -1 x3173 -1 x3174 -1 x3175 -1 x3176 >= 0 ;
+2 x3653 +2 x3654 +2 x3655 +2 x3656 -1 x3173 -1 x3174 -1 x3175 -1 x3176 -1 x3177 -1 x3178 -1 x3179 -1 x3180 >= 0 ;
+2 x3657 +2 x3658 +2 x3659 +2 x3660 -1 x3177 -1 x3178 -1 x3179 -1 x3180 -1 x3181 -1 x3182 -1 x3183 -1 x3184 >= 0 ;
+2 x3661 +2 x3662 +2 x3663 +2 x3664 -1 x3181 -1 x3182 -1 x3183 -1 x3184 -1 x3185 -1 x3186 -1 x3187 -1 x3188 >= 0 ;
+2 x3665 +2 x3666 +2 x3667 +2 x3668 -1 x3185 -1 x3186 -1 x3187 -1 x3188 -1 x3189 -1 x3190 -1 x3191 -1 x3192 >= 0 ;
+2 x3669 +2 x3670 +2 x3671 +2 x3672 -1 x3189 -1 x3190 -1 x3191 -1 x3192 -1 x3193 -1 x3194 -1 x3195 -1 x3196 >= 0 ;
+2 x3673 +2 x3674 +2 x3675 +2 x3676 -1 x3193 -1 x3194 -1 x3195 -1 x3196 -1 x3197 -1 x3198 -1 x3199 -1 x3200 >= 0 ;
+2 x3677 +2 x3678 +2 x3679 +2 x3680 -1 x3197 -1 x3198 -1 x3199 -1 x3200 -1 x3201 -1 x3202 -1 x3203 -1 x3204 >= 0 ;
+2 x3681 +2 x3682 +2 x3683 +2 x3684 -1 x3201 -1 x3202 -1 x3203 -1 x3204 -1 x3205 -1 x3206 -1 x3207 -1 x3208 >= 0 ;
+2 x3685 +2 x3686 +2 x3687 +2 x3688 -1 x3205 -1 x3206 -1 x3207 -1 x3208 -1 x3209 -1 x3210 -1 x3211 -1 x3212 >= 0 ;
+2 x3689 +2 x3690 +2 x3691 +2 x3692 -1 x3209 -1 x3210 -1 x3211 -1 x3212 -1 x3213 -1 x3214 -1 x3215 -1 x3216 >= 0 ;
+2 x3693 +2 x3694 +2 x3695 +2 x3696 -1 x3213 -1 x3214 -1 x3215 -1 x3216 -1 x3217 -1 x3218 -1 x3219 -1 x3220 >= 0 ;
+2 x3697 +2 x3698 +2 x3699 +2 x3700 -1 x3217 -1 x3218 -1 x3219 -1 x3220 -1 x3221 -1 x3222 -1 x3223 -1 x3224 >= 0 ;
+2 x3701 +2 x3702 +2 x3703 +2 x3704 -1 x3221 -1 x3222 -1 x3223 -1 x3224 -1 x3225 -1 x3226 -1 x3227 -1 x3228 >= 0 ;
+2 x3705 +2 x3706 +2 x3707 +2 x3708 -1 x3225 -1 x3226 -1 x3227 -1 x3228 -1 x3229 -1 x3230 -1 x3231 -1 x3232 >= 0 ;
+2 x3709 +2 x3710 +2 x3711 +2 x3712 -1 x3229 -1 x3230 -1 x3231 -1 x3232 -1 x3233 -1 x3234 -1 x3235 -1 x3236 >= 0 ;
+2 x3713 +2 x3714 +2 x3715 +2 x3716 -1 x3233 -1 x3234 -1 x3235 -1 x3236 -1 x3237 -1 x3238 -1 x3239 -1 x3240 >= 0 ;
+2 x3717 +2 x3718 +2 x3719 +2 x3720 -1 x3237 -1 x3238 -1 x3239 -1 x3240 -1 x3241 -1 x3242 -1 x3243 -1 x3244 >= 0 ;
+2 x3721 +2 x3722 +2 x3723 +2 x3724 -1 x3241 -1 x3242 -1 x3243 -1 x3244 -1 x3245 -1 x3246 -1 x3247 -1 x3248 >= 0 ;
+2 x3725 +2 x3726 +2 x3727 +2 x3728 -1 x3245 -1 x3246 -1 x3247 -1 x3248 -1 x3249 -1 x3250 -1 x3251 -1 x3252 >= 0 ;
+2 x3729 +2 x3730 +2 x3731 +2 x3732 -1 x3249 -1 x3250 -1 x3251 -1 x3252 -1 x3253 -1 x3254 -1 x3255 -1 x3256 >= 0 ;
+2 x3733 +2 x3734 +2 x3735 +2 x3736 -1 x3253 -1 x3254 -1 x3255 -1 x3256 -1 x3257 -1 x3258 -1 x3259 -1 x3260 >= 0 ;
+2 x3737 +2 x3738 +2 x3739 +2 x3740 -1 x3257 -1 x3258 -1 x3259 -1 x3260 -1 x3261 -1 x3262 -1 x3263 -1 x3264 >= 0 ;
+2 x3741 +2 x3742 +2 x3743 +2 x3744 -1 x3261 -1 x3262 -1 x3263 -1 x3264 -1 x3265 -1 x3266 -1 x3267 -1 x3268 >= 0 ;
+2 x3745 +2 x3746 +2 x3747 +2 x3748 -1 x3265 -1 x3266 -1 x3267 -1 x3268 -1 x3269 -1 x3270 -1 x3271 -1 x3272 >= 0 ;
+2 x3749 +2 x3750 +2 x3751 +2 x3752 -1 x3269 -1 x3270 -1 x3271 -1 x3272 -1 x3273 -1 x3274 -1 x3275 -1 x3276 >= 0 ;
+2 x3753 +2 x3754 +2 x3755 +2 x3756 -1 x3273 -1 x3274 -1 x3275 -1 x3276 -1 x3277 -1 x3278 -1 x3279 -1 x3280 >= 0 ;
+2 x3757 +2 x3758 +2 x3759 +2 x3760 -1 x3277 -1 x3278 -1 x3279 -1 x3280 -1 x3281 -1 x3282 -1 x3283 -1 x3284 >= 0 ;
+2 x3761 +2 x3762 +2 x3763 +2 x3764 -1 x3281 -1 x3282 -1 x3283 -1 x3284 -1 x3285 -1 x3286 -1 x3287 -1 x3288 >= 0 ;
+2 x3765 +2 x3766 +2 x3767 +2 x3768 -1 x3285 -1 x3286 -1 x3287 -1 x3288 -1 x3289 -1 x3290 -1 x3291 -1 x3292 >= 0 ;
+2 x3769 +2 x3770 +2 x3771 +2 x3772 -1 x3289 -1 x3290 -1 x3291 -1 x3292 -1 x3293 -1 x3294 -1 x3295 -1 x3296 >= 0 ;
+2 x3773 +2 x3774 +2 x3775 +2 x3776 -1 x3293 -1 x3294 -1 x3295 -1 x3296 -1 x3297 -1 x3298 -1 x3299 -1 x3300 >= 0 ;
+2 x3777 +2 x3778 +2 x3779 +2 x3780 -1 x3297 -1 x3298 -1 x3299 -1 x3300 -1 x3301 -1 x3302 -1 x3303 -1 x3304 >= 0 ;
+2 x3781 +2 x3782 +2 x3783 +2 x3784 -1 x3301 -1 x3302 -1 x3303 -1 x3304 -1 x3305 -1 x3306 -1 x3307 -1 x3308 >= 0 ;
+2 x3785 +2 x3786 +2 x3787 +2 x3788 -1 x3305 -1 x3306 -1 x3307 -1 x3308 -1 x3309 -1 x3310 -1 x3311 -1 x3312 >= 0 ;
+2 x3789 +2 x3790 +2 x3791 +2 x3792 -1 x3309 -1 x3310 -1 x3311 -1 x3312 -1 x3313 -1 x3314 -1 x3315 -1 x3316 >= 0 ;
+2 x3793 +2 x3794 +2 x3795 +2 x3796 -1 x3313 -1 x3314 -1 x3315 -1 x3316 -1 x3317 -1 x3318 -1 x3319 -1 x3320 >= 0 ;
+2 x3797 +2 x3798 +2 x3799 +2 x3800 -1 x3317 -1 x3318 -1 x3319 -1 x3320 -1 x3321 -1 x3322 -1 x3323 -1 x3324 >= 0 ;
+2 x3801 +2 x3802 +2 x3803 +2 x3804 -1 x3321 -1 x3322 -1 x3323 -1 x3324 -1 x3325 -1 x3326 -1 x3327 -1 x3328 >= 0 ;
+2 x3805 +2 x3806 +2 x3807 +2 x3808 -1 x3325 -1 x3326 -1 x3327 -1 x3328 -1 x3329 -1 x3330 -1 x3331 -1 x3332 >= 0 ;
+2 x3809 +2 x3810 +2 x3811 +2 x3812 -1 x3329 -1 x3330 -1 x3331 -1 x3332 -1 x3333 -1 x3334 -1 x3335 -1 x3336 >= 0 ;
+2 x3813 +2 x3814 +2 x3815 +2 x3816 -1 x3333 -1 x3334 -1 x3335 -1 x3336 -1 x3337 -1 x3338 -1 x3339 -1 x3340 >= 0 ;
+2 x3817 +2 x3818 +2 x3819 +2 x3820 -1 x3337 -1 x3338 -1 x3339 -1 x3340 -1 x3341 -1 x3342 -1 x3343 -1 x3344 >= 0 ;
+2 x3821 +2 x3822 +2 x3823 +2 x3824 -1 x3341 -1 x3342 -1 x3343 -1 x3344 -1 x3345 -1 x3346 -1 x3347 -1 x3348 >= 0 ;
+2 x3825 +2 x3826 +2 x3827 +2 x3828 -1 x3345 -1 x3346 -1 x3347 -1 x3348 -1 x3349 -1 x3350 -1 x3351 -1 x3352 >= 0 ;
+2 x3829 +2 x3830 +2 x3831 +2 x3832 -1 x3349 -1 x3350 -1 x3351 -1 x3352 -1 x3353 -1 x3354 -1 x3355 -1 x3356 >= 0 ;
+2 x3833 +2 x3834 +2 x3835 +2 x3836 -1 x3353 -1 x3354 -1 x3355 -1 x3356 -1 x3357 -1 x3358 -1 x3359 -1 x3360 >= 0 ;
+2 x3837 +2 x3838 +2 x3839 +2 x3840 -1 x3357 -1 x3358 -1 x3359 -1 x3360 -1 x3361 -1 x3362 -1 x3363 -1 x3364 >= 0 ;
+2 x3841 +2 x3842 +2 x3843 +2 x3844 -1 x3361 -1 x3362 -1 x3363 -1 x3364 -1 x3365 -1 x3366 -1 x3367 -1 x3368 >= 0 ;
+2 x3845 +2 x3846 +2 x3847 +2 x3848 -1 x3365 -1 x3366 -1 x3367 -1 x3368 -1 x3369 -1 x3370 -1 x3371 -1 x3372 >= 0 ;
+2 x3849 +2 x3850 +2 x3851 +2 x3852 -1 x3369 -1 x3370 -1 x3371 -1 x3372 -1 x3373 -1 x3374 -1 x3375 -1 x3376 >= 0 ;
+2 x3853 +2 x3854 +2 x3855 +2 x3856 -1 x3373 -1 x3374 -1 x3375 -1 x3376 -1 x3377 -1 x3378 -1 x3379 -1 x3380 >= 0 ;
+2 x3857 +2 x3858 +2 x3859 +2 x3860 -1 x3377 -1 x3378 -1 x3379 -1 x3380 -1 x3381 -1 x3382 -1 x3383 -1 x3384 >= 0 ;
+2 x3861 +2 x3862 +2 x3863 +2 x3864 -1 x3381 -1 x3382 -1 x3383 -1 x3384 -1 x3385 -1 x3386 -1 x3387 -1 x3388 >= 0 ;
+2 x3865 +2 x3866 +2 x3867 +2 x3868 -1 x3385 -1 x3386 -1 x3387 -1 x3388 -1 x3389 -1 x3390 -1 x3391 -1 x3392 >= 0 ;
+2 x3869 +2 x3870 +2 x3871 +2 x3872 -1 x3389 -1 x3390 -1 x3391 -1 x3392 -1 x3393 -1 x3394 -1 x3395 -1 x3396 >= 0 ;
+2 x3873 +2 x3874 +2 x3875 +2 x3876 -1 x3393 -1 x3394 -1 x3395 -1 x3396 -1 x3397 -1 x3398 -1 x3399 -1 x3400 >= 0 ;
+2 x3877 +2 x3878 +2 x3879 +2 x3880 -1 x3397 -1 x3398 -1 x3399 -1 x3400 -1 x3401 -1 x3402 -1 x3403 -1 x3404 >= 0 ;
+2 x3881 +2 x3882 +2 x3883 +2 x3884 -1 x3401 -1 x3402 -1 x3403 -1 x3404 -1 x3405 -1 x3406 -1 x3407 -1 x3408 >= 0 ;
+2 x3885 +2 x3886 +2 x3887 +2 x3888 -1 x3405 -1 x3406 -1 x3407 -1 x3408 -1 x3409 -1 x3410 -1 x3411 -1 x3412 >= 0 ;
+2 x3889 +2 x3890 +2 x3891 +2 x3892 -1 x3409 -1 x3410 -1 x3411 -1 x3412 -1 x3413 -1 x3414 -1 x3415 -1 x3416 >= 0 ;
+2 x3893 +2 x3894 +2 x3895 +2 x3896 -1 x3413 -1 x3414 -1 x3415 -1 x3416 -1 x3417 -1 x3418 -1 x3419 -1 x3420 >= 0 ;
+2 x3897 +2 x3898 +2 x3899 +2 x3900 -1 x3417 -1 x3418 -1 x3419 -1 x3420 -1 x3421 -1 x3422 -1 x3423 -1 x3424 >= 0 ;
+2 x3901 +2 x3902 +2 x3903 +2 x3904 -1 x3421 -1 x3422 -1 x3423 -1 x3424 -1 x3425 -1 x3426 -1 x3427 -1 x3428 >= 0 ;
+2 x3905 +2 x3906 +2 x3907 +2 x3908 -1 x3425 -1 x3426 -1 x3427 -1 x3428 -1 x3429 -1 x3430 -1 x3431 -1 x3432 >= 0 ;
+2 x3909 +2 x3910 +2 x3911 +2 x3912 -1 x3429 -1 x3430 -1 x3431 -1 x3432 -1 x3433 -1 x3434 -1 x3435 -1 x3436 >= 0 ;
+2 x3913 +2 x3914 +2 x3915 +2 x3916 -1 x3433 -1 x3434 -1 x3435 -1 x3436 -1 x3437 -1 x3438 -1 x3439 -1 x3440 >= 0 ;
+2 x3917 +2 x3918 +2 x3919 +2 x3920 -1 x3437 -1 x3438 -1 x3439 -1 x3440 -1 x3441 -1 x3442 -1 x3443 -1 x3444 >= 0 ;
+2 x3921 +2 x3922 +2 x3923 +2 x3924 -1 x3445 -1 x3446 -1 x3447 -1 x3448 -1 x3449 -1 x3450 -1 x3451 -1 x3452 >= 0 ;
+2 x3925 +2 x3926 +2 x3927 +2 x3928 -1 x3449 -1 x3450 -1 x3451 -1 x3452 -1 x3453 -1 x3454 -1 x3455 -1 x3456 >= 0 ;
+2 x3929 +2 x3930 +2 x3931 +2 x3932 -1 x3453 -1 x3454 -1 x3455 -1 x3456 -1 x3457 -1 x3458 -1 x3459 -1 x3460 >= 0 ;
+2 x3933 +2 x3934 +2 x3935 +2 x3936 -1 x3457 -1 x3458 -1 x3459 -1 x3460 -1 x3461 -1 x3462 -1 x3463 -1 x3464 >= 0 ;
+2 x3937 +2 x3938 +2 x3939 +2 x3940 -1 x3461 -1 x3462 -1 x3463 -1 x3464 -1 x3465 -1 x3466 -1 x3467 -1 x3468 >= 0 ;
+2 x3941 +2 x3942 +2 x3943 +2 x3944 -1 x3465 -1 x3466 -1 x3467 -1 x3468 -1 x3469 -1 x3470 -1 x3471 -1 x3472 >= 0 ;
+2 x3945 +2 x3946 +2 x3947 +2 x3948 -1 x3469 -1 x3470 -1 x3471 -1 x3472 -1 x3473 -1 x3474 -1 x3475 -1 x3476 >= 0 ;
+2 x3949 +2 x3950 +2 x3951 +2 x3952 -1 x3473 -1 x3474 -1 x3475 -1 x3476 -1 x3477 -1 x3478 -1 x3479 -1 x3480 >= 0 ;
+2 x3953 +2 x3954 +2 x3955 +2 x3956 -1 x3477 -1 x3478 -1 x3479 -1 x3480 -1 x3481 -1 x3482 -1 x3483 -1 x3484 >= 0 ;
+2 x3957 +2 x3958 +2 x3959 +2 x3960 -1 x3481 -1 x3482 -1 x3483 -1 x3484 -1 x3485 -1 x3486 -1 x3487 -1 x3488 >= 0 ;
+2 x3961 +2 x3962 +2 x3963 +2 x3964 -1 x3485 -1 x3486 -1 x3487 -1 x3488 -1 x3489 -1 x3490 -1 x3491 -1 x3492 >= 0 ;
+2 x3965 +2 x3966 +2 x3967 +2 x3968 -1 x3489 -1 x3490 -1 x3491 -1 x3492 -1 x3493 -1 x3494 -1 x3495 -1 x3496 >= 0 ;
+2 x3969 +2 x3970 +2 x3971 +2 x3972 -1 x3493 -1 x3494 -1 x3495 -1 x3496 -1 x3497 -1 x3498 -1 x3499 -1 x3500 >= 0 ;
+2 x3973 +2 x3974 +2 x3975 +2 x3976 -1 x3497 -1 x3498 -1 x3499 -1 x3500 -1 x3501 -1 x3502 -1 x3503 -1 x3504 >= 0 ;
+2 x3977 +2 x3978 +2 x3979 +2 x3980 -1 x3501 -1 x3502 -1 x3503 -1 x3504 -1 x3505 -1 x3506 -1 x3507 -1 x3508 >= 0 ;
+2 x3981 +2 x3982 +2 x3983 +2 x3984 -1 x3505 -1 x3506 -1 x3507 -1 x3508 -1 x3509 -1 x3510 -1 x3511 -1 x3512 >= 0 ;
+2 x3985 +2 x3986 +2 x3987 +2 x3988 -1 x3509 -1 x3510 -1 x3511 -1 x3512 -1 x3513 -1 x3514 -1 x3515 -1 x3516 >= 0 ;
+2 x3989 +2 x3990 +2 x3991 +2 x3992 -1 x3513 -1 x3514 -1 x3515 -1 x3516 -1 x3517 -1 x3518 -1 x3519 -1 x3520 >= 0 ;
+2 x3993 +2 x3994 +2 x3995 +2 x3996 -1 x3517 -1 x3518 -1 x3519 -1 x3520 -1 x3521 -1 x3522 -1 x3523 -1 x3524 >= 0 ;
+2 x3997 +2 x3998 +2 x3999 +2 x4000 -1 x3521 -1 x3522 -1 x3523 -1 x3524 -1 x3525 -1 x3526 -1 x3527 -1 x3528 >= 0 ;
+2 x4001 +2 x4002 +2 x4003 +2 x4004 -1 x3525 -1 x3526 -1 x3527 -1 x3528 -1 x3529 -1 x3530 -1 x3531 -1 x3532 >= 0 ;
+2 x4005 +2 x4006 +2 x4007 +2 x4008 -1 x3529 -1 x3530 -1 x3531 -1 x3532 -1 x3533 -1 x3534 -1 x3535 -1 x3536 >= 0 ;
+2 x4009 +2 x4010 +2 x4011 +2 x4012 -1 x3533 -1 x3534 -1 x3535 -1 x3536 -1 x3537 -1 x3538 -1 x3539 -1 x3540 >= 0 ;
+2 x4013 +2 x4014 +2 x4015 +2 x4016 -1 x3537 -1 x3538 -1 x3539 -1 x3540 -1 x3541 -1 x3542 -1 x3543 -1 x3544 >= 0 ;
+2 x4017 +2 x4018 +2 x4019 +2 x4020 -1 x3541 -1 x3542 -1 x3543 -1 x3544 -1 x3545 -1 x3546 -1 x3547 -1 x3548 >= 0 ;
+2 x4021 +2 x4022 +2 x4023 +2 x4024 -1 x3545 -1 x3546 -1 x3547 -1 x3548 -1 x3549 -1 x3550 -1 x3551 -1 x3552 >= 0 ;
+2 x4025 +2 x4026 +2 x4027 +2 x4028 -1 x3549 -1 x3550 -1 x3551 -1 x3552 -1 x3553 -1 x3554 -1 x3555 -1 x3556 >= 0 ;
+2 x4029 +2 x4030 +2 x4031 +2 x4032 -1 x3553 -1 x3554 -1 x3555 -1 x3556 -1 x3557 -1 x3558 -1 x3559 -1 x3560 >= 0 ;
+2 x4033 +2 x4034 +2 x4035 +2 x4036 -1 x3557 -1 x3558 -1 x3559 -1 x3560 -1 x3561 -1 x3562 -1 x3563 -1 x3564 >= 0 ;
+2 x4037 +2 x4038 +2 x4039 +2 x4040 -1 x3561 -1 x3562 -1 x3563 -1 x3564 -1 x3565 -1 x3566 -1 x3567 -1 x3568 >= 0 ;
+2 x4041 +2 x4042 +2 x4043 +2 x4044 -1 x3565 -1 x3566 -1 x3567 -1 x3568 -1 x3569 -1 x3570 -1 x3571 -1 x3572 >= 0 ;
+2 x4045 +2 x4046 +2 x4047 +2 x4048 -1 x3569 -1 x3570 -1 x3571 -1 x3572 -1 x3573 -1 x3574 -1 x3575 -1 x3576 >= 0 ;
+2 x4049 +2 x4050 +2 x4051 +2 x4052 -1 x3573 -1 x3574 -1 x3575 -1 x3576 -1 x3577 -1 x3578 -1 x3579 -1 x3580 >= 0 ;
+2 x4053 +2 x4054 +2 x4055 +2 x4056 -1 x3577 -1 x3578 -1 x3579 -1 x3580 -1 x3581 -1 x3582 -1 x3583 -1 x3584 >= 0 ;
+2 x4057 +2 x4058 +2 x4059 +2 x4060 -1 x3581 -1 x3582 -1 x3583 -1 x3584 -1 x3585 -1 x3586 -1 x3587 -1 x3588 >= 0 ;
+2 x4061 +2 x4062 +2 x4063 +2 x4064 -1 x3585 -1 x3586 -1 x3587 -1 x3588 -1 x3589 -1 x3590 -1 x3591 -1 x3592 >= 0 ;
+2 x4065 +2 x4066 +2 x4067 +2 x4068 -1 x3589 -1 x3590 -1 x3591 -1 x3592 -1 x3593 -1 x3594 -1 x3595 -1 x3596 >= 0 ;
+2 x4069 +2 x4070 +2 x4071 +2 x4072 -1 x3593 -1 x3594 -1 x3595 -1 x3596 -1 x3597 -1 x3598 -1 x3599 -1 x3600 >= 0 ;
+2 x4073 +2 x4074 +2 x4075 +2 x4076 -1 x3597 -1 x3598 -1 x3599 -1 x3600 -1 x3601 -1 x3602 -1 x3603 -1 x3604 >= 0 ;
+2 x4077 +2 x4078 +2 x4079 +2 x4080 -1 x3601 -1 x3602 -1 x3603 -1 x3604 -1 x3605 -1 x3606 -1 x3607 -1 x3608 >= 0 ;
+2 x4081 +2 x4082 +2 x4083 +2 x4084 -1 x3605 -1 x3606 -1 x3607 -1 x3608 -1 x3609 -1 x3610 -1 x3611 -1 x3612 >= 0 ;
+2 x4085 +2 x4086 +2 x4087 +2 x4088 -1 x3609 -1 x3610 -1 x3611 -1 x3612 -1 x3613 -1 x3614 -1 x3615 -1 x3616 >= 0 ;
+2 x4089 +2 x4090 +2 x4091 +2 x4092 -1 x3613 -1 x3614 -1 x3615 -1 x3616 -1 x3617 -1 x3618 -1 x3619 -1 x3620 >= 0 ;
+2 x4093 +2 x4094 +2 x4095 +2 x4096 -1 x3617 -1 x3618 -1 x3619 -1 x3620 -1 x3621 -1 x3622 -1 x3623 -1 x3624 >= 0 ;
+2 x4097 +2 x4098 +2 x4099 +2 x4100 -1 x3621 -1 x3622 -1 x3623 -1 x3624 -1 x3625 -1 x3626 -1 x3627 -1 x3628 >= 0 ;
+2 x4101 +2 x4102 +2 x4103 +2 x4104 -1 x3625 -1 x3626 -1 x3627 -1 x3628 -1 x3629 -1 x3630 -1 x3631 -1 x3632 >= 0 ;
+2 x4105 +2 x4106 +2 x4107 +2 x4108 -1 x3629 -1 x3630 -1 x3631 -1 x3632 -1 x3633 -1 x3634 -1 x3635 -1 x3636 >= 0 ;
+2 x4109 +2 x4110 +2 x4111 +2 x4112 -1 x3633 -1 x3634 -1 x3635 -1 x3636 -1 x3637 -1 x3638 -1 x3639 -1 x3640 >= 0 ;
+2 x4113 +2 x4114 +2 x4115 +2 x4116 -1 x3637 -1 x3638 -1 x3639 -1 x3640 -1 x3641 -1 x3642 -1 x3643 -1 x3644 >= 0 ;
+2 x4117 +2 x4118 +2 x4119 +2 x4120 -1 x3641 -1 x3642 -1 x3643 -1 x3644 -1 x3645 -1 x3646 -1 x3647 -1 x3648 >= 0 ;
+2 x4121 +2 x4122 +2 x4123 +2 x4124 -1 x3645 -1 x3646 -1 x3647 -1 x3648 -1 x3649 -1 x3650 -1 x3651 -1 x3652 >= 0 ;
+2 x4125 +2 x4126 +2 x4127 +2 x4128 -1 x3649 -1 x3650 -1 x3651 -1 x3652 -1 x3653 -1 x3654 -1 x3655 -1 x3656 >= 0 ;
+2 x4129 +2 x4130 +2 x4131 +2 x4132 -1 x3653 -1 x3654 -1 x3655 -1 x3656 -1 x3657 -1 x3658 -1 x3659 -1 x3660 >= 0 ;
+2 x4133 +2 x4134 +2 x4135 +2 x4136 -1 x3657 -1 x3658 -1 x3659 -1 x3660 -1 x3661 -1 x3662 -1 x3663 -1 x3664 >= 0 ;
+2 x4137 +2 x4138 +2 x4139 +2 x4140 -1 x3661 -1 x3662 -1 x3663 -1 x3664 -1 x3665 -1 x3666 -1 x3667 -1 x3668 >= 0 ;
+2 x4141 +2 x4142 +2 x4143 +2 x4144 -1 x3665 -1 x3666 -1 x3667 -1 x3668 -1 x3669 -1 x3670 -1 x3671 -1 x3672 >= 0 ;
+2 x4145 +2 x4146 +2 x4147 +2 x4148 -1 x3669 -1 x3670 -1 x3671 -1 x3672 -1 x3673 -1 x3674 -1 x3675 -1 x3676 >= 0 ;
+2 x4149 +2 x4150 +2 x4151 +2 x4152 -1 x3673 -1 x3674 -1 x3675 -1 x3676 -1 x3677 -1 x3678 -1 x3679 -1 x3680 >= 0 ;
+2 x4153 +2 x4154 +2 x4155 +2 x4156 -1 x3677 -1 x3678 -1 x3679 -1 x3680 -1 x3681 -1 x3682 -1 x3683 -1 x3684 >= 0 ;
+2 x4157 +2 x4158 +2 x4159 +2 x4160 -1 x3681 -1 x3682 -1 x3683 -1 x3684 -1 x3685 -1 x3686 -1 x3687 -1 x3688 >= 0 ;
+2 x4161 +2 x4162 +2 x4163 +2 x4164 -1 x3685 -1 x3686 -1 x3687 -1 x3688 -1 x3689 -1 x3690 -1 x3691 -1 x3692 >= 0 ;
+2 x4165 +2 x4166 +2 x4167 +2 x4168 -1 x3689 -1 x3690 -1 x3691 -1 x3692 -1 x3693 -1 x3694 -1 x3695 -1 x3696 >= 0 ;
+2 x4169 +2 x4170 +2 x4171 +2 x4172 -1 x3693 -1 x3694 -1 x3695 -1 x3696 -1 x3697 -1 x3698 -1 x3699 -1 x3700 >= 0 ;
+2 x4173 +2 x4174 +2 x4175 +2 x4176 -1 x3697 -1 x3698 -1 x3699 -1 x3700 -1 x3701 -1 x3702 -1 x3703 -1 x3704 >= 0 ;
+2 x4177 +2 x4178 +2 x4179 +2 x4180 -1 x3701 -1 x3702 -1 x3703 -1 x3704 -1 x3705 -1 x3706 -1 x3707 -1 x3708 >= 0 ;
+2 x4181 +2 x4182 +2 x4183 +2 x4184 -1 x3705 -1 x3706 -1 x3707 -1 x3708 -1 x3709 -1 x3710 -1 x3711 -1 x3712 >= 0 ;
+2 x4185 +2 x4186 +2 x4187 +2 x4188 -1 x3709 -1 x3710 -1 x3711 -1 x3712 -1 x3713 -1 x3714 -1 x3715 -1 x3716 >= 0 ;
+2 x4189 +2 x4190 +2 x4191 +2 x4192 -1 x3713 -1 x3714 -1 x3715 -1 x3716 -1 x3717 -1 x3718 -1 x3719 -1 x3720 >= 0 ;
+2 x4193 +2 x4194 +2 x4195 +2 x4196 -1 x3717 -1 x3718 -1 x3719 -1 x3720 -1 x3721 -1 x3722 -1 x3723 -1 x3724 >= 0 ;
+2 x4197 +2 x4198 +2 x4199 +2 x4200 -1 x3721 -1 x3722 -1 x3723 -1 x3724 -1 x3725 -1 x3726 -1 x3727 -1 x3728 >= 0 ;
+2 x4201 +2 x4202 +2 x4203 +2 x4204 -1 x3725 -1 x3726 -1 x3727 -1 x3728 -1 x3729 -1 x3730 -1 x3731 -1 x3732 >= 0 ;
+2 x4205 +2 x4206 +2 x4207 +2 x4208 -1 x3729 -1 x3730 -1 x3731 -1 x3732 -1 x3733 -1 x3734 -1 x3735 -1 x3736 >= 0 ;
+2 x4209 +2 x4210 +2 x4211 +2 x4212 -1 x3733 -1 x3734 -1 x3735 -1 x3736 -1 x3737 -1 x3738 -1 x3739 -1 x3740 >= 0 ;
+2 x4213 +2 x4214 +2 x4215 +2 x4216 -1 x3737 -1 x3738 -1 x3739 -1 x3740 -1 x3741 -1 x3742 -1 x3743 -1 x3744 >= 0 ;
+2 x4217 +2 x4218 +2 x4219 +2 x4220 -1 x3741 -1 x3742 -1 x3743 -1 x3744 -1 x3745 -1 x3746 -1 x3747 -1 x3748 >= 0 ;
+2 x4221 +2 x4222 +2 x4223 +2 x4224 -1 x3745 -1 x3746 -1 x3747 -1 x3748 -1 x3749 -1 x3750 -1 x3751 -1 x3752 >= 0 ;
+2 x4225 +2 x4226 +2 x4227 +2 x4228 -1 x3749 -1 x3750 -1 x3751 -1 x3752 -1 x3753 -1 x3754 -1 x3755 -1 x3756 >= 0 ;
+2 x4229 +2 x4230 +2 x4231 +2 x4232 -1 x3753 -1 x3754 -1 x3755 -1 x3756 -1 x3757 -1 x3758 -1 x3759 -1 x3760 >= 0 ;
+2 x4233 +2 x4234 +2 x4235 +2 x4236 -1 x3757 -1 x3758 -1 x3759 -1 x3760 -1 x3761 -1 x3762 -1 x3763 -1 x3764 >= 0 ;
+2 x4237 +2 x4238 +2 x4239 +2 x4240 -1 x3761 -1 x3762 -1 x3763 -1 x3764 -1 x3765 -1 x3766 -1 x3767 -1 x3768 >= 0 ;
+2 x4241 +2 x4242 +2 x4243 +2 x4244 -1 x3765 -1 x3766 -1 x3767 -1 x3768 -1 x3769 -1 x3770 -1 x3771 -1 x3772 >= 0 ;
+2 x4245 +2 x4246 +2 x4247 +2 x4248 -1 x3769 -1 x3770 -1 x3771 -1 x3772 -1 x3773 -1 x3774 -1 x3775 -1 x3776 >= 0 ;
+2 x4249 +2 x4250 +2 x4251 +2 x4252 -1 x3773 -1 x3774 -1 x3775 -1 x3776 -1 x3777 -1 x3778 -1 x3779 -1 x3780 >= 0 ;
+2 x4253 +2 x4254 +2 x4255 +2 x4256 -1 x3777 -1 x3778 -1 x3779 -1 x3780 -1 x3781 -1 x3782 -1 x3783 -1 x3784 >= 0 ;
+2 x4257 +2 x4258 +2 x4259 +2 x4260 -1 x3781 -1 x3782 -1 x3783 -1 x3784 -1 x3785 -1 x3786 -1 x3787 -1 x3788 >= 0 ;
+2 x4261 +2 x4262 +2 x4263 +2 x4264 -1 x3785 -1 x3786 -1 x3787 -1 x3788 -1 x3789 -1 x3790 -1 x3791 -1 x3792 >= 0 ;
+2 x4265 +2 x4266 +2 x4267 +2 x4268 -1 x3789 -1 x3790 -1 x3791 -1 x3792 -1 x3793 -1 x3794 -1 x3795 -1 x3796 >= 0 ;
+2 x4269 +2 x4270 +2 x4271 +2 x4272 -1 x3793 -1 x3794 -1 x3795 -1 x3796 -1 x3797 -1 x3798 -1 x3799 -1 x3800 >= 0 ;
+2 x4273 +2 x4274 +2 x4275 +2 x4276 -1 x3797 -1 x3798 -1 x3799 -1 x3800 -1 x3801 -1 x3802 -1 x3803 -1 x3804 >= 0 ;
+2 x4277 +2 x4278 +2 x4279 +2 x4280 -1 x3801 -1 x3802 -1 x3803 -1 x3804 -1 x3805 -1 x3806 -1 x3807 -1 x3808 >= 0 ;
+2 x4281 +2 x4282 +2 x4283 +2 x4284 -1 x3805 -1 x3806 -1 x3807 -1 x3808 -1 x3809 -1 x3810 -1 x3811 -1 x3812 >= 0 ;
+2 x4285 +2 x4286 +2 x4287 +2 x4288 -1 x3809 -1 x3810 -1 x3811 -1 x3812 -1 x3813 -1 x3814 -1 x3815 -1 x3816 >= 0 ;
+2 x4289 +2 x4290 +2 x4291 +2 x4292 -1 x3813 -1 x3814 -1 x3815 -1 x3816 -1 x3817 -1 x3818 -1 x3819 -1 x3820 >= 0 ;
+2 x4293 +2 x4294 +2 x4295 +2 x4296 -1 x3817 -1 x3818 -1 x3819 -1 x3820 -1 x3821 -1 x3822 -1 x3823 -1 x3824 >= 0 ;
+2 x4297 +2 x4298 +2 x4299 +2 x4300 -1 x3821 -1 x3822 -1 x3823 -1 x3824 -1 x3825 -1 x3826 -1 x3827 -1 x3828 >= 0 ;
+2 x4301 +2 x4302 +2 x4303 +2 x4304 -1 x3825 -1 x3826 -1 x3827 -1 x3828 -1 x3829 -1 x3830 -1 x3831 -1 x3832 >= 0 ;
+2 x4305 +2 x4306 +2 x4307 +2 x4308 -1 x3829 -1 x3830 -1 x3831 -1 x3832 -1 x3833 -1 x3834 -1 x3835 -1 x3836 >= 0 ;
+2 x4309 +2 x4310 +2 x4311 +2 x4312 -1 x3833 -1 x3834 -1 x3835 -1 x3836 -1 x3837 -1 x3838 -1 x3839 -1 x3840 >= 0 ;
+2 x4313 +2 x4314 +2 x4315 +2 x4316 -1 x3837 -1 x3838 -1 x3839 -1 x3840 -1 x3841 -1 x3842 -1 x3843 -1 x3844 >= 0 ;
+2 x4317 +2 x4318 +2 x4319 +2 x4320 -1 x3841 -1 x3842 -1 x3843 -1 x3844 -1 x3845 -1 x3846 -1 x3847 -1 x3848 >= 0 ;
+2 x4321 +2 x4322 +2 x4323 +2 x4324 -1 x3845 -1 x3846 -1 x3847 -1 x3848 -1 x3849 -1 x3850 -1 x3851 -1 x3852 >= 0 ;
+2 x4325 +2 x4326 +2 x4327 +2 x4328 -1 x3849 -1 x3850 -1 x3851 -1 x3852 -1 x3853 -1 x3854 -1 x3855 -1 x3856 >= 0 ;
+2 x4329 +2 x4330 +2 x4331 +2 x4332 -1 x3853 -1 x3854 -1 x3855 -1 x3856 -1 x3857 -1 x3858 -1 x3859 -1 x3860 >= 0 ;
+2 x4333 +2 x4334 +2 x4335 +2 x4336 -1 x3857 -1 x3858 -1 x3859 -1 x3860 -1 x3861 -1 x3862 -1 x3863 -1 x3864 >= 0 ;
+2 x4337 +2 x4338 +2 x4339 +2 x4340 -1 x3861 -1 x3862 -1 x3863 -1 x3864 -1 x3865 -1 x3866 -1 x3867 -1 x3868 >= 0 ;
+2 x4341 +2 x4342 +2 x4343 +2 x4344 -1 x3865 -1 x3866 -1 x3867 -1 x3868 -1 x3869 -1 x3870 -1 x3871 -1 x3872 >= 0 ;
+2 x4345 +2 x4346 +2 x4347 +2 x4348 -1 x3869 -1 x3870 -1 x3871 -1 x3872 -1 x3873 -1 x3874 -1 x3875 -1 x3876 >= 0 ;
+2 x4349 +2 x4350 +2 x4351 +2 x4352 -1 x3873 -1 x3874 -1 x3875 -1 x3876 -1 x3877 -1 x3878 -1 x3879 -1 x3880 >= 0 ;
+2 x4353 +2 x4354 +2 x4355 +2 x4356 -1 x3877 -1 x3878 -1 x3879 -1 x3880 -1 x3881 -1 x3882 -1 x3883 -1 x3884 >= 0 ;
+2 x4357 +2 x4358 +2 x4359 +2 x4360 -1 x3881 -1 x3882 -1 x3883 -1 x3884 -1 x3885 -1 x3886 -1 x3887 -1 x3888 >= 0 ;
+2 x4361 +2 x4362 +2 x4363 +2 x4364 -1 x3885 -1 x3886 -1 x3887 -1 x3888 -1 x3889 -1 x3890 -1 x3891 -1 x3892 >= 0 ;
+2 x4365 +2 x4366 +2 x4367 +2 x4368 -1 x3889 -1 x3890 -1 x3891 -1 x3892 -1 x3893 -1 x3894 -1 x3895 -1 x3896 >= 0 ;
+2 x4369 +2 x4370 +2 x4371 +2 x4372 -1 x3893 -1 x3894 -1 x3895 -1 x3896 -1 x3897 -1 x3898 -1 x3899 -1 x3900 >= 0 ;
+2 x4373 +2 x4374 +2 x4375 +2 x4376 -1 x3897 -1 x3898 -1 x3899 -1 x3900 -1 x3901 -1 x3902 -1 x3903 -1 x3904 >= 0 ;
+2 x4377 +2 x4378 +2 x4379 +2 x4380 -1 x3901 -1 x3902 -1 x3903 -1 x3904 -1 x3905 -1 x3906 -1 x3907 -1 x3908 >= 0 ;
+2 x4381 +2 x4382 +2 x4383 +2 x4384 -1 x3905 -1 x3906 -1 x3907 -1 x3908 -1 x3909 -1 x3910 -1 x3911 -1 x3912 >= 0 ;
+2 x4385 +2 x4386 +2 x4387 +2 x4388 -1 x3909 -1 x3910 -1 x3911 -1 x3912 -1 x3913 -1 x3914 -1 x3915 -1 x3916 >= 0 ;
+2 x4389 +2 x4390 +2 x4391 +2 x4392 -1 x3913 -1 x3914 -1 x3915 -1 x3916 -1 x3917 -1 x3918 -1 x3919 -1 x3920 >= 0 ;
+2 x4393 +2 x4394 +2 x4395 +2 x4396 -1 x3921 -1 x3922 -1 x3923 -1 x3924 -1 x3925 -1 x3926 -1 x3927 -1 x3928 >= 0 ;
+2 x4397 +2 x4398 +2 x4399 +2 x4400 -1 x3925 -1 x3926 -1 x3927 -1 x3928 -1 x3929 -1 x3930 -1 x3931 -1 x3932 >= 0 ;
+2 x4401 +2 x4402 +2 x4403 +2 x4404 -1 x3929 -1 x3930 -1 x3931 -1 x3932 -1 x3933 -1 x3934 -1 x3935 -1 x3936 >= 0 ;
+2 x4405 +2 x4406 +2 x4407 +2 x4408 -1 x3933 -1 x3934 -1 x3935 -1 x3936 -1 x3937 -1 x3938 -1 x3939 -1 x3940 >= 0 ;
+2 x4409 +2 x4410 +2 x4411 +2 x4412 -1 x3937 -1 x3938 -1 x3939 -1 x3940 -1 x3941 -1 x3942 -1 x3943 -1 x3944 >= 0 ;
+2 x4413 +2 x4414 +2 x4415 +2 x4416 -1 x3941 -1 x3942 -1 x3943 -1 x3944 -1 x3945 -1 x3946 -1 x3947 -1 x3948 >= 0 ;
+2 x4417 +2 x4418 +2 x4419 +2 x4420 -1 x3945 -1 x3946 -1 x3947 -1 x3948 -1 x3949 -1 x3950 -1 x3951 -1 x3952 >= 0 ;
+2 x4421 +2 x4422 +2 x4423 +2 x4424 -1 x3949 -1 x3950 -1 x3951 -1 x3952 -1 x3953 -1 x3954 -1 x3955 -1 x3956 >= 0 ;
+2 x4425 +2 x4426 +2 x4427 +2 x4428 -1 x3953 -1 x3954 -1 x3955 -1 x3956 -1 x3957 -1 x3958 -1 x3959 -1 x3960 >= 0 ;
+2 x4429 +2 x4430 +2 x4431 +2 x4432 -1 x3957 -1 x3958 -1 x3959 -1 x3960 -1 x3961 -1 x3962 -1 x3963 -1 x3964 >= 0 ;
+2 x4433 +2 x4434 +2 x4435 +2 x4436 -1 x3961 -1 x3962 -1 x3963 -1 x3964 -1 x3965 -1 x3966 -1 x3967 -1 x3968 >= 0 ;
+2 x4437 +2 x4438 +2 x4439 +2 x4440 -1 x3965 -1 x3966 -1 x3967 -1 x3968 -1 x3969 -1 x3970 -1 x3971 -1 x3972 >= 0 ;
+2 x4441 +2 x4442 +2 x4443 +2 x4444 -1 x3969 -1 x3970 -1 x3971 -1 x3972 -1 x3973 -1 x3974 -1 x3975 -1 x3976 >= 0 ;
+2 x4445 +2 x4446 +2 x4447 +2 x4448 -1 x3973 -1 x3974 -1 x3975 -1 x3976 -1 x3977 -1 x3978 -1 x3979 -1 x3980 >= 0 ;
+2 x4449 +2 x4450 +2 x4451 +2 x4452 -1 x3977 -1 x3978 -1 x3979 -1 x3980 -1 x3981 -1 x3982 -1 x3983 -1 x3984 >= 0 ;
+2 x4453 +2 x4454 +2 x4455 +2 x4456 -1 x3981 -1 x3982 -1 x3983 -1 x3984 -1 x3985 -1 x3986 -1 x3987 -1 x3988 >= 0 ;
+2 x4457 +2 x4458 +2 x4459 +2 x4460 -1 x3985 -1 x3986 -1 x3987 -1 x3988 -1 x3989 -1 x3990 -1 x3991 -1 x3992 >= 0 ;
+2 x4461 +2 x4462 +2 x4463 +2 x4464 -1 x3989 -1 x3990 -1 x3991 -1 x3992 -1 x3993 -1 x3994 -1 x3995 -1 x3996 >= 0 ;
+2 x4465 +2 x4466 +2 x4467 +2 x4468 -1 x3993 -1 x3994 -1 x3995 -1 x3996 -1 x3997 -1 x3998 -1 x3999 -1 x4000 >= 0 ;
+2 x4469 +2 x4470 +2 x4471 +2 x4472 -1 x3997 -1 x3998 -1 x3999 -1 x4000 -1 x4001 -1 x4002 -1 x4003 -1 x4004 >= 0 ;
+2 x4473 +2 x4474 +2 x4475 +2 x4476 -1 x4001 -1 x4002 -1 x4003 -1 x4004 -1 x4005 -1 x4006 -1 x4007 -1 x4008 >= 0 ;
+2 x4477 +2 x4478 +2 x4479 +2 x4480 -1 x4005 -1 x4006 -1 x4007 -1 x4008 -1 x4009 -1 x4010 -1 x4011 -1 x4012 >= 0 ;
+2 x4481 +2 x4482 +2 x4483 +2 x4484 -1 x4009 -1 x4010 -1 x4011 -1 x4012 -1 x4013 -1 x4014 -1 x4015 -1 x4016 >= 0 ;
+2 x4485 +2 x4486 +2 x4487 +2 x4488 -1 x4013 -1 x4014 -1 x4015 -1 x4016 -1 x4017 -1 x4018 -1 x4019 -1 x4020 >= 0 ;
+2 x4489 +2 x4490 +2 x4491 +2 x4492 -1 x4017 -1 x4018 -1 x4019 -1 x4020 -1 x4021 -1 x4022 -1 x4023 -1 x4024 >= 0 ;
+2 x4493 +2 x4494 +2 x4495 +2 x4496 -1 x4021 -1 x4022 -1 x4023 -1 x4024 -1 x4025 -1 x4026 -1 x4027 -1 x4028 >= 0 ;
+2 x4497 +2 x4498 +2 x4499 +2 x4500 -1 x4025 -1 x4026 -1 x4027 -1 x4028 -1 x4029 -1 x4030 -1 x4031 -1 x4032 >= 0 ;
+2 x4501 +2 x4502 +2 x4503 +2 x4504 -1 x4029 -1 x4030 -1 x4031 -1 x4032 -1 x4033 -1 x4034 -1 x4035 -1 x4036 >= 0 ;
+2 x4505 +2 x4506 +2 x4507 +2 x4508 -1 x4033 -1 x4034 -1 x4035 -1 x4036 -1 x4037 -1 x4038 -1 x4039 -1 x4040 >= 0 ;
+2 x4509 +2 x4510 +2 x4511 +2 x4512 -1 x4037 -1 x4038 -1 x4039 -1 x4040 -1 x4041 -1 x4042 -1 x4043 -1 x4044 >= 0 ;
+2 x4513 +2 x4514 +2 x4515 +2 x4516 -1 x4041 -1 x4042 -1 x4043 -1 x4044 -1 x4045 -1 x4046 -1 x4047 -1 x4048 >= 0 ;
+2 x4517 +2 x4518 +2 x4519 +2 x4520 -1 x4045 -1 x4046 -1 x4047 -1 x4048 -1 x4049 -1 x4050 -1 x4051 -1 x4052 >= 0 ;
+2 x4521 +2 x4522 +2 x4523 +2 x4524 -1 x4049 -1 x4050 -1 x4051 -1 x4052 -1 x4053 -1 x4054 -1 x4055 -1 x4056 >= 0 ;
+2 x4525 +2 x4526 +2 x4527 +2 x4528 -1 x4053 -1 x4054 -1 x4055 -1 x4056 -1 x4057 -1 x4058 -1 x4059 -1 x4060 >= 0 ;
+2 x4529 +2 x4530 +2 x4531 +2 x4532 -1 x4057 -1 x4058 -1 x4059 -1 x4060 -1 x4061 -1 x4062 -1 x4063 -1 x4064 >= 0 ;
+2 x4533 +2 x4534 +2 x4535 +2 x4536 -1 x4061 -1 x4062 -1 x4063 -1 x4064 -1 x4065 -1 x4066 -1 x4067 -1 x4068 >= 0 ;
+2 x4537 +2 x4538 +2 x4539 +2 x4540 -1 x4065 -1 x4066 -1 x4067 -1 x4068 -1 x4069 -1 x4070 -1 x4071 -1 x4072 >= 0 ;
+2 x4541 +2 x4542 +2 x4543 +2 x4544 -1 x4069 -1 x4070 -1 x4071 -1 x4072 -1 x4073 -1 x4074 -1 x4075 -1 x4076 >= 0 ;
+2 x4545 +2 x4546 +2 x4547 +2 x4548 -1 x4073 -1 x4074 -1 x4075 -1 x4076 -1 x4077 -1 x4078 -1 x4079 -1 x4080 >= 0 ;
+2 x4549 +2 x4550 +2 x4551 +2 x4552 -1 x4077 -1 x4078 -1 x4079 -1 x4080 -1 x4081 -1 x4082 -1 x4083 -1 x4084 >= 0 ;
+2 x4553 +2 x4554 +2 x4555 +2 x4556 -1 x4081 -1 x4082 -1 x4083 -1 x4084 -1 x4085 -1 x4086 -1 x4087 -1 x4088 >= 0 ;
+2 x4557 +2 x4558 +2 x4559 +2 x4560 -1 x4085 -1 x4086 -1 x4087 -1 x4088 -1 x4089 -1 x4090 -1 x4091 -1 x4092 >= 0 ;
+2 x4561 +2 x4562 +2 x4563 +2 x4564 -1 x4089 -1 x4090 -1 x4091 -1 x4092 -1 x4093 -1 x4094 -1 x4095 -1 x4096 >= 0 ;
+2 x4565 +2 x4566 +2 x4567 +2 x4568 -1 x4093 -1 x4094 -1 x4095 -1 x4096 -1 x4097 -1 x4098 -1 x4099 -1 x4100 >= 0 ;
+2 x4569 +2 x4570 +2 x4571 +2 x4572 -1 x4097 -1 x4098 -1 x4099 -1 x4100 -1 x4101 -1 x4102 -1 x4103 -1 x4104 >= 0 ;
+2 x4573 +2 x4574 +2 x4575 +2 x4576 -1 x4101 -1 x4102 -1 x4103 -1 x4104 -1 x4105 -1 x4106 -1 x4107 -1 x4108 >= 0 ;
+2 x4577 +2 x4578 +2 x4579 +2 x4580 -1 x4105 -1 x4106 -1 x4107 -1 x4108 -1 x4109 -1 x4110 -1 x4111 -1 x4112 >= 0 ;
+2 x4581 +2 x4582 +2 x4583 +2 x4584 -1 x4109 -1 x4110 -1 x4111 -1 x4112 -1 x4113 -1 x4114 -1 x4115 -1 x4116 >= 0 ;
+2 x4585 +2 x4586 +2 x4587 +2 x4588 -1 x4113 -1 x4114 -1 x4115 -1 x4116 -1 x4117 -1 x4118 -1 x4119 -1 x4120 >= 0 ;
+2 x4589 +2 x4590 +2 x4591 +2 x4592 -1 x4117 -1 x4118 -1 x4119 -1 x4120 -1 x4121 -1 x4122 -1 x4123 -1 x4124 >= 0 ;
+2 x4593 +2 x4594 +2 x4595 +2 x4596 -1 x4121 -1 x4122 -1 x4123 -1 x4124 -1 x4125 -1 x4126 -1 x4127 -1 x4128 >= 0 ;
+2 x4597 +2 x4598 +2 x4599 +2 x4600 -1 x4125 -1 x4126 -1 x4127 -1 x4128 -1 x4129 -1 x4130 -1 x4131 -1 x4132 >= 0 ;
+2 x4601 +2 x4602 +2 x4603 +2 x4604 -1 x4129 -1 x4130 -1 x4131 -1 x4132 -1 x4133 -1 x4134 -1 x4135 -1 x4136 >= 0 ;
+2 x4605 +2 x4606 +2 x4607 +2 x4608 -1 x4133 -1 x4134 -1 x4135 -1 x4136 -1 x4137 -1 x4138 -1 x4139 -1 x4140 >= 0 ;
+2 x4609 +2 x4610 +2 x4611 +2 x4612 -1 x4137 -1 x4138 -1 x4139 -1 x4140 -1 x4141 -1 x4142 -1 x4143 -1 x4144 >= 0 ;
+2 x4613 +2 x4614 +2 x4615 +2 x4616 -1 x4141 -1 x4142 -1 x4143 -1 x4144 -1 x4145 -1 x4146 -1 x4147 -1 x4148 >= 0 ;
+2 x4617 +2 x4618 +2 x4619 +2 x4620 -1 x4145 -1 x4146 -1 x4147 -1 x4148 -1 x4149 -1 x4150 -1 x4151 -1 x4152 >= 0 ;
+2 x4621 +2 x4622 +2 x4623 +2 x4624 -1 x4149 -1 x4150 -1 x4151 -1 x4152 -1 x4153 -1 x4154 -1 x4155 -1 x4156 >= 0 ;
+2 x4625 +2 x4626 +2 x4627 +2 x4628 -1 x4153 -1 x4154 -1 x4155 -1 x4156 -1 x4157 -1 x4158 -1 x4159 -1 x4160 >= 0 ;
+2 x4629 +2 x4630 +2 x4631 +2 x4632 -1 x4157 -1 x4158 -1 x4159 -1 x4160 -1 x4161 -1 x4162 -1 x4163 -1 x4164 >= 0 ;
+2 x4633 +2 x4634 +2 x4635 +2 x4636 -1 x4161 -1 x4162 -1 x4163 -1 x4164 -1 x4165 -1 x4166 -1 x4167 -1 x4168 >= 0 ;
+2 x4637 +2 x4638 +2 x4639 +2 x4640 -1 x4165 -1 x4166 -1 x4167 -1 x4168 -1 x4169 -1 x4170 -1 x4171 -1 x4172 >= 0 ;
+2 x4641 +2 x4642 +2 x4643 +2 x4644 -1 x4169 -1 x4170 -1 x4171 -1 x4172 -1 x4173 -1 x4174 -1 x4175 -1 x4176 >= 0 ;
+2 x4645 +2 x4646 +2 x4647 +2 x4648 -1 x4173 -1 x4174 -1 x4175 -1 x4176 -1 x4177 -1 x4178 -1 x4179 -1 x4180 >= 0 ;
+2 x4649 +2 x4650 +2 x4651 +2 x4652 -1 x4177 -1 x4178 -1 x4179 -1 x4180 -1 x4181 -1 x4182 -1 x4183 -1 x4184 >= 0 ;
+2 x4653 +2 x4654 +2 x4655 +2 x4656 -1 x4181 -1 x4182 -1 x4183 -1 x4184 -1 x4185 -1 x4186 -1 x4187 -1 x4188 >= 0 ;
+2 x4657 +2 x4658 +2 x4659 +2 x4660 -1 x4185 -1 x4186 -1 x4187 -1 x4188 -1 x4189 -1 x4190 -1 x4191 -1 x4192 >= 0 ;
+2 x4661 +2 x4662 +2 x4663 +2 x4664 -1 x4189 -1 x4190 -1 x4191 -1 x4192 -1 x4193 -1 x4194 -1 x4195 -1 x4196 >= 0 ;
+2 x4665 +2 x4666 +2 x4667 +2 x4668 -1 x4193 -1 x4194 -1 x4195 -1 x4196 -1 x4197 -1 x4198 -1 x4199 -1 x4200 >= 0 ;
+2 x4669 +2 x4670 +2 x4671 +2 x4672 -1 x4197 -1 x4198 -1 x4199 -1 x4200 -1 x4201 -1 x4202 -1 x4203 -1 x4204 >= 0 ;
+2 x4673 +2 x4674 +2 x4675 +2 x4676 -1 x4201 -1 x4202 -1 x4203 -1 x4204 -1 x4205 -1 x4206 -1 x4207 -1 x4208 >= 0 ;
+2 x4677 +2 x4678 +2 x4679 +2 x4680 -1 x4205 -1 x4206 -1 x4207 -1 x4208 -1 x4209 -1 x4210 -1 x4211 -1 x4212 >= 0 ;
+2 x4681 +2 x4682 +2 x4683 +2 x4684 -1 x4209 -1 x4210 -1 x4211 -1 x4212 -1 x4213 -1 x4214 -1 x4215 -1 x4216 >= 0 ;
+2 x4685 +2 x4686 +2 x4687 +2 x4688 -1 x4213 -1 x4214 -1 x4215 -1 x4216 -1 x4217 -1 x4218 -1 x4219 -1 x4220 >= 0 ;
+2 x4689 +2 x4690 +2 x4691 +2 x4692 -1 x4217 -1 x4218 -1 x4219 -1 x4220 -1 x4221 -1 x4222 -1 x4223 -1 x4224 >= 0 ;
+2 x4693 +2 x4694 +2 x4695 +2 x4696 -1 x4221 -1 x4222 -1 x4223 -1 x4224 -1 x4225 -1 x4226 -1 x4227 -1 x4228 >= 0 ;
+2 x4697 +2 x4698 +2 x4699 +2 x4700 -1 x4225 -1 x4226 -1 x4227 -1 x4228 -1 x4229 -1 x4230 -1 x4231 -1 x4232 >= 0 ;
+2 x4701 +2 x4702 +2 x4703 +2 x4704 -1 x4229 -1 x4230 -1 x4231 -1 x4232 -1 x4233 -1 x4234 -1 x4235 -1 x4236 >= 0 ;
+2 x4705 +2 x4706 +2 x4707 +2 x4708 -1 x4233 -1 x4234 -1 x4235 -1 x4236 -1 x4237 -1 x4238 -1 x4239 -1 x4240 >= 0 ;
+2 x4709 +2 x4710 +2 x4711 +2 x4712 -1 x4237 -1 x4238 -1 x4239 -1 x4240 -1 x4241 -1 x4242 -1 x4243 -1 x4244 >= 0 ;
+2 x4713 +2 x4714 +2 x4715 +2 x4716 -1 x4241 -1 x4242 -1 x4243 -1 x4244 -1 x4245 -1 x4246 -1 x4247 -1 x4248 >= 0 ;
+2 x4717 +2 x4718 +2 x4719 +2 x4720 -1 x4245 -1 x4246 -1 x4247 -1 x4248 -1 x4249 -1 x4250 -1 x4251 -1 x4252 >= 0 ;
+2 x4721 +2 x4722 +2 x4723 +2 x4724 -1 x4249 -1 x4250 -1 x4251 -1 x4252 -1 x4253 -1 x4254 -1 x4255 -1 x4256 >= 0 ;
+2 x4725 +2 x4726 +2 x4727 +2 x4728 -1 x4253 -1 x4254 -1 x4255 -1 x4256 -1 x4257 -1 x4258 -1 x4259 -1 x4260 >= 0 ;
+2 x4729 +2 x4730 +2 x4731 +2 x4732 -1 x4257 -1 x4258 -1 x4259 -1 x4260 -1 x4261 -1 x4262 -1 x4263 -1 x4264 >= 0 ;
+2 x4733 +2 x4734 +2 x4735 +2 x4736 -1 x4261 -1 x4262 -1 x4263 -1 x4264 -1 x4265 -1 x4266 -1 x4267 -1 x4268 >= 0 ;
+2 x4737 +2 x4738 +2 x4739 +2 x4740 -1 x4265 -1 x4266 -1 x4267 -1 x4268 -1 x4269 -1 x4270 -1 x4271 -1 x4272 >= 0 ;
+2 x4741 +2 x4742 +2 x4743 +2 x4744 -1 x4269 -1 x4270 -1 x4271 -1 x4272 -1 x4273 -1 x4274 -1 x4275 -1 x4276 >= 0 ;
+2 x4745 +2 x4746 +2 x4747 +2 x4748 -1 x4273 -1 x4274 -1 x4275 -1 x4276 -1 x4277 -1 x4278 -1 x4279 -1 x4280 >= 0 ;
+2 x4749 +2 x4750 +2 x4751 +2 x4752 -1 x4277 -1 x4278 -1 x4279 -1 x4280 -1 x4281 -1 x4282 -1 x4283 -1 x4284 >= 0 ;
+2 x4753 +2 x4754 +2 x4755 +2 x4756 -1 x4281 -1 x4282 -1 x4283 -1 x4284 -1 x4285 -1 x4286 -1 x4287 -1 x4288 >= 0 ;
+2 x4757 +2 x4758 +2 x4759 +2 x4760 -1 x4285 -1 x4286 -1 x4287 -1 x4288 -1 x4289 -1 x4290 -1 x4291 -1 x4292 >= 0 ;
+2 x4761 +2 x4762 +2 x4763 +2 x4764 -1 x4289 -1 x4290 -1 x4291 -1 x4292 -1 x4293 -1 x4294 -1 x4295 -1 x4296 >= 0 ;
+2 x4765 +2 x4766 +2 x4767 +2 x4768 -1 x4293 -1 x4294 -1 x4295 -1 x4296 -1 x4297 -1 x4298 -1 x4299 -1 x4300 >= 0 ;
+2 x4769 +2 x4770 +2 x4771 +2 x4772 -1 x4297 -1 x4298 -1 x4299 -1 x4300 -1 x4301 -1 x4302 -1 x4303 -1 x4304 >= 0 ;
+2 x4773 +2 x4774 +2 x4775 +2 x4776 -1 x4301 -1 x4302 -1 x4303 -1 x4304 -1 x4305 -1 x4306 -1 x4307 -1 x4308 >= 0 ;
+2 x4777 +2 x4778 +2 x4779 +2 x4780 -1 x4305 -1 x4306 -1 x4307 -1 x4308 -1 x4309 -1 x4310 -1 x4311 -1 x4312 >= 0 ;
+2 x4781 +2 x4782 +2 x4783 +2 x4784 -1 x4309 -1 x4310 -1 x4311 -1 x4312 -1 x4313 -1 x4314 -1 x4315 -1 x4316 >= 0 ;
+2 x4785 +2 x4786 +2 x4787 +2 x4788 -1 x4313 -1 x4314 -1 x4315 -1 x4316 -1 x4317 -1 x4318 -1 x4319 -1 x4320 >= 0 ;
+2 x4789 +2 x4790 +2 x4791 +2 x4792 -1 x4317 -1 x4318 -1 x4319 -1 x4320 -1 x4321 -1 x4322 -1 x4323 -1 x4324 >= 0 ;
+2 x4793 +2 x4794 +2 x4795 +2 x4796 -1 x4321 -1 x4322 -1 x4323 -1 x4324 -1 x4325 -1 x4326 -1 x4327 -1 x4328 >= 0 ;
+2 x4797 +2 x4798 +2 x4799 +2 x4800 -1 x4325 -1 x4326 -1 x4327 -1 x4328 -1 x4329 -1 x4330 -1 x4331 -1 x4332 >= 0 ;
+2 x4801 +2 x4802 +2 x4803 +2 x4804 -1 x4329 -1 x4330 -1 x4331 -1 x4332 -1 x4333 -1 x4334 -1 x4335 -1 x4336 >= 0 ;
+2 x4805 +2 x4806 +2 x4807 +2 x4808 -1 x4333 -1 x4334 -1 x4335 -1 x4336 -1 x4337 -1 x4338 -1 x4339 -1 x4340 >= 0 ;
+2 x4809 +2 x4810 +2 x4811 +2 x4812 -1 x4337 -1 x4338 -1 x4339 -1 x4340 -1 x4341 -1 x4342 -1 x4343 -1 x4344 >= 0 ;
+2 x4813 +2 x4814 +2 x4815 +2 x4816 -1 x4341 -1 x4342 -1 x4343 -1 x4344 -1 x4345 -1 x4346 -1 x4347 -1 x4348 >= 0 ;
+2 x4817 +2 x4818 +2 x4819 +2 x4820 -1 x4345 -1 x4346 -1 x4347 -1 x4348 -1 x4349 -1 x4350 -1 x4351 -1 x4352 >= 0 ;
+2 x4821 +2 x4822 +2 x4823 +2 x4824 -1 x4349 -1 x4350 -1 x4351 -1 x4352 -1 x4353 -1 x4354 -1 x4355 -1 x4356 >= 0 ;
+2 x4825 +2 x4826 +2 x4827 +2 x4828 -1 x4353 -1 x4354 -1 x4355 -1 x4356 -1 x4357 -1 x4358 -1 x4359 -1 x4360 >= 0 ;
+2 x4829 +2 x4830 +2 x4831 +2 x4832 -1 x4357 -1 x4358 -1 x4359 -1 x4360 -1 x4361 -1 x4362 -1 x4363 -1 x4364 >= 0 ;
+2 x4833 +2 x4834 +2 x4835 +2 x4836 -1 x4361 -1 x4362 -1 x4363 -1 x4364 -1 x4365 -1 x4366 -1 x4367 -1 x4368 >= 0 ;
+2 x4837 +2 x4838 +2 x4839 +2 x4840 -1 x4365 -1 x4366 -1 x4367 -1 x4368 -1 x4369 -1 x4370 -1 x4371 -1 x4372 >= 0 ;
+2 x4841 +2 x4842 +2 x4843 +2 x4844 -1 x4369 -1 x4370 -1 x4371 -1 x4372 -1 x4373 -1 x4374 -1 x4375 -1 x4376 >= 0 ;
+2 x4845 +2 x4846 +2 x4847 +2 x4848 -1 x4373 -1 x4374 -1 x4375 -1 x4376 -1 x4377 -1 x4378 -1 x4379 -1 x4380 >= 0 ;
+2 x4849 +2 x4850 +2 x4851 +2 x4852 -1 x4377 -1 x4378 -1 x4379 -1 x4380 -1 x4381 -1 x4382 -1 x4383 -1 x4384 >= 0 ;
+2 x4853 +2 x4854 +2 x4855 +2 x4856 -1 x4381 -1 x4382 -1 x4383 -1 x4384 -1 x4385 -1 x4386 -1 x4387 -1 x4388 >= 0 ;
+2 x4857 +2 x4858 +2 x4859 +2 x4860 -1 x4385 -1 x4386 -1 x4387 -1 x4388 -1 x4389 -1 x4390 -1 x4391 -1 x4392 >= 0 ;
+2 x4861 +2 x4862 +2 x4863 +2 x4864 -1 x4393 -1 x4394 -1 x4395 -1 x4396 -1 x4397 -1 x4398 -1 x4399 -1 x4400 >= 0 ;
+2 x4865 +2 x4866 +2 x4867 +2 x4868 -1 x4397 -1 x4398 -1 x4399 -1 x4400 -1 x4401 -1 x4402 -1 x4403 -1 x4404 >= 0 ;
+2 x4869 +2 x4870 +2 x4871 +2 x4872 -1 x4401 -1 x4402 -1 x4403 -1 x4404 -1 x4405 -1 x4406 -1 x4407 -1 x4408 >= 0 ;
+2 x4873 +2 x4874 +2 x4875 +2 x4876 -1 x4405 -1 x4406 -1 x4407 -1 x4408 -1 x4409 -1 x4410 -1 x4411 -1 x4412 >= 0 ;
+2 x4877 +2 x4878 +2 x4879 +2 x4880 -1 x4409 -1 x4410 -1 x4411 -1 x4412 -1 x4413 -1 x4414 -1 x4415 -1 x4416 >= 0 ;
+2 x4881 +2 x4882 +2 x4883 +2 x4884 -1 x4413 -1 x4414 -1 x4415 -1 x4416 -1 x4417 -1 x4418 -1 x4419 -1 x4420 >= 0 ;
+2 x4885 +2 x4886 +2 x4887 +2 x4888 -1 x4417 -1 x4418 -1 x4419 -1 x4420 -1 x4421 -1 x4422 -1 x4423 -1 x4424 >= 0 ;
+2 x4889 +2 x4890 +2 x4891 +2 x4892 -1 x4421 -1 x4422 -1 x4423 -1 x4424 -1 x4425 -1 x4426 -1 x4427 -1 x4428 >= 0 ;
+2 x4893 +2 x4894 +2 x4895 +2 x4896 -1 x4425 -1 x4426 -1 x4427 -1 x4428 -1 x4429 -1 x4430 -1 x4431 -1 x4432 >= 0 ;
+2 x4897 +2 x4898 +2 x4899 +2 x4900 -1 x4429 -1 x4430 -1 x4431 -1 x4432 -1 x4433 -1 x4434 -1 x4435 -1 x4436 >= 0 ;
+2 x4901 +2 x4902 +2 x4903 +2 x4904 -1 x4433 -1 x4434 -1 x4435 -1 x4436 -1 x4437 -1 x4438 -1 x4439 -1 x4440 >= 0 ;
+2 x4905 +2 x4906 +2 x4907 +2 x4908 -1 x4437 -1 x4438 -1 x4439 -1 x4440 -1 x4441 -1 x4442 -1 x4443 -1 x4444 >= 0 ;
+2 x4909 +2 x4910 +2 x4911 +2 x4912 -1 x4441 -1 x4442 -1 x4443 -1 x4444 -1 x4445 -1 x4446 -1 x4447 -1 x4448 >= 0 ;
+2 x4913 +2 x4914 +2 x4915 +2 x4916 -1 x4445 -1 x4446 -1 x4447 -1 x4448 -1 x4449 -1 x4450 -1 x4451 -1 x4452 >= 0 ;
+2 x4917 +2 x4918 +2 x4919 +2 x4920 -1 x4449 -1 x4450 -1 x4451 -1 x4452 -1 x4453 -1 x4454 -1 x4455 -1 x4456 >= 0 ;
+2 x4921 +2 x4922 +2 x4923 +2 x4924 -1 x4453 -1 x4454 -1 x4455 -1 x4456 -1 x4457 -1 x4458 -1 x4459 -1 x4460 >= 0 ;
+2 x4925 +2 x4926 +2 x4927 +2 x4928 -1 x4457 -1 x4458 -1 x4459 -1 x4460 -1 x4461 -1 x4462 -1 x4463 -1 x4464 >= 0 ;
+2 x4929 +2 x4930 +2 x4931 +2 x4932 -1 x4461 -1 x4462 -1 x4463 -1 x4464 -1 x4465 -1 x4466 -1 x4467 -1 x4468 >= 0 ;
+2 x4933 +2 x4934 +2 x4935 +2 x4936 -1 x4465 -1 x4466 -1 x4467 -1 x4468 -1 x4469 -1 x4470 -1 x4471 -1 x4472 >= 0 ;
+2 x4937 +2 x4938 +2 x4939 +2 x4940 -1 x4469 -1 x4470 -1 x4471 -1 x4472 -1 x4473 -1 x4474 -1 x4475 -1 x4476 >= 0 ;
+2 x4941 +2 x4942 +2 x4943 +2 x4944 -1 x4473 -1 x4474 -1 x4475 -1 x4476 -1 x4477 -1 x4478 -1 x4479 -1 x4480 >= 0 ;
+2 x4945 +2 x4946 +2 x4947 +2 x4948 -1 x4477 -1 x4478 -1 x4479 -1 x4480 -1 x4481 -1 x4482 -1 x4483 -1 x4484 >= 0 ;
+2 x4949 +2 x4950 +2 x4951 +2 x4952 -1 x4481 -1 x4482 -1 x4483 -1 x4484 -1 x4485 -1 x4486 -1 x4487 -1 x4488 >= 0 ;
+2 x4953 +2 x4954 +2 x4955 +2 x4956 -1 x4485 -1 x4486 -1 x4487 -1 x4488 -1 x4489 -1 x4490 -1 x4491 -1 x4492 >= 0 ;
+2 x4957 +2 x4958 +2 x4959 +2 x4960 -1 x4489 -1 x4490 -1 x4491 -1 x4492 -1 x4493 -1 x4494 -1 x4495 -1 x4496 >= 0 ;
+2 x4961 +2 x4962 +2 x4963 +2 x4964 -1 x4493 -1 x4494 -1 x4495 -1 x4496 -1 x4497 -1 x4498 -1 x4499 -1 x4500 >= 0 ;
+2 x4965 +2 x4966 +2 x4967 +2 x4968 -1 x4497 -1 x4498 -1 x4499 -1 x4500 -1 x4501 -1 x4502 -1 x4503 -1 x4504 >= 0 ;
+2 x4969 +2 x4970 +2 x4971 +2 x4972 -1 x4501 -1 x4502 -1 x4503 -1 x4504 -1 x4505 -1 x4506 -1 x4507 -1 x4508 >= 0 ;
+2 x4973 +2 x4974 +2 x4975 +2 x4976 -1 x4505 -1 x4506 -1 x4507 -1 x4508 -1 x4509 -1 x4510 -1 x4511 -1 x4512 >= 0 ;
+2 x4977 +2 x4978 +2 x4979 +2 x4980 -1 x4509 -1 x4510 -1 x4511 -1 x4512 -1 x4513 -1 x4514 -1 x4515 -1 x4516 >= 0 ;
+2 x4981 +2 x4982 +2 x4983 +2 x4984 -1 x4513 -1 x4514 -1 x4515 -1 x4516 -1 x4517 -1 x4518 -1 x4519 -1 x4520 >= 0 ;
+2 x4985 +2 x4986 +2 x4987 +2 x4988 -1 x4517 -1 x4518 -1 x4519 -1 x4520 -1 x4521 -1 x4522 -1 x4523 -1 x4524 >= 0 ;
+2 x4989 +2 x4990 +2 x4991 +2 x4992 -1 x4521 -1 x4522 -1 x4523 -1 x4524 -1 x4525 -1 x4526 -1 x4527 -1 x4528 >= 0 ;
+2 x4993 +2 x4994 +2 x4995 +2 x4996 -1 x4525 -1 x4526 -1 x4527 -1 x4528 -1 x4529 -1 x4530 -1 x4531 -1 x4532 >= 0 ;
+2 x4997 +2 x4998 +2 x4999 +2 x5000 -1 x4529 -1 x4530 -1 x4531 -1 x4532 -1 x4533 -1 x4534 -1 x4535 -1 x4536 >= 0 ;
+2 x5001 +2 x5002 +2 x5003 +2 x5004 -1 x4533 -1 x4534 -1 x4535 -1 x4536 -1 x4537 -1 x4538 -1 x4539 -1 x4540 >= 0 ;
+2 x5005 +2 x5006 +2 x5007 +2 x5008 -1 x4537 -1 x4538 -1 x4539 -1 x4540 -1 x4541 -1 x4542 -1 x4543 -1 x4544 >= 0 ;
+2 x5009 +2 x5010 +2 x5011 +2 x5012 -1 x4541 -1 x4542 -1 x4543 -1 x4544 -1 x4545 -1 x4546 -1 x4547 -1 x4548 >= 0 ;
+2 x5013 +2 x5014 +2 x5015 +2 x5016 -1 x4545 -1 x4546 -1 x4547 -1 x4548 -1 x4549 -1 x4550 -1 x4551 -1 x4552 >= 0 ;
+2 x5017 +2 x5018 +2 x5019 +2 x5020 -1 x4549 -1 x4550 -1 x4551 -1 x4552 -1 x4553 -1 x4554 -1 x4555 -1 x4556 >= 0 ;
+2 x5021 +2 x5022 +2 x5023 +2 x5024 -1 x4553 -1 x4554 -1 x4555 -1 x4556 -1 x4557 -1 x4558 -1 x4559 -1 x4560 >= 0 ;
+2 x5025 +2 x5026 +2 x5027 +2 x5028 -1 x4557 -1 x4558 -1 x4559 -1 x4560 -1 x4561 -1 x4562 -1 x4563 -1 x4564 >= 0 ;
+2 x5029 +2 x5030 +2 x5031 +2 x5032 -1 x4561 -1 x4562 -1 x4563 -1 x4564 -1 x4565 -1 x4566 -1 x4567 -1 x4568 >= 0 ;
+2 x5033 +2 x5034 +2 x5035 +2 x5036 -1 x4565 -1 x4566 -1 x4567 -1 x4568 -1 x4569 -1 x4570 -1 x4571 -1 x4572 >= 0 ;
+2 x5037 +2 x5038 +2 x5039 +2 x5040 -1 x4569 -1 x4570 -1 x4571 -1 x4572 -1 x4573 -1 x4574 -1 x4575 -1 x4576 >= 0 ;
+2 x5041 +2 x5042 +2 x5043 +2 x5044 -1 x4573 -1 x4574 -1 x4575 -1 x4576 -1 x4577 -1 x4578 -1 x4579 -1 x4580 >= 0 ;
+2 x5045 +2 x5046 +2 x5047 +2 x5048 -1 x4577 -1 x4578 -1 x4579 -1 x4580 -1 x4581 -1 x4582 -1 x4583 -1 x4584 >= 0 ;
+2 x5049 +2 x5050 +2 x5051 +2 x5052 -1 x4581 -1 x4582 -1 x4583 -1 x4584 -1 x4585 -1 x4586 -1 x4587 -1 x4588 >= 0 ;
+2 x5053 +2 x5054 +2 x5055 +2 x5056 -1 x4585 -1 x4586 -1 x4587 -1 x4588 -1 x4589 -1 x4590 -1 x4591 -1 x4592 >= 0 ;
+2 x5057 +2 x5058 +2 x5059 +2 x5060 -1 x4589 -1 x4590 -1 x4591 -1 x4592 -1 x4593 -1 x4594 -1 x4595 -1 x4596 >= 0 ;
+2 x5061 +2 x5062 +2 x5063 +2 x5064 -1 x4593 -1 x4594 -1 x4595 -1 x4596 -1 x4597 -1 x4598 -1 x4599 -1 x4600 >= 0 ;
+2 x5065 +2 x5066 +2 x5067 +2 x5068 -1 x4597 -1 x4598 -1 x4599 -1 x4600 -1 x4601 -1 x4602 -1 x4603 -1 x4604 >= 0 ;
+2 x5069 +2 x5070 +2 x5071 +2 x5072 -1 x4601 -1 x4602 -1 x4603 -1 x4604 -1 x4605 -1 x4606 -1 x4607 -1 x4608 >= 0 ;
+2 x5073 +2 x5074 +2 x5075 +2 x5076 -1 x4605 -1 x4606 -1 x4607 -1 x4608 -1 x4609 -1 x4610 -1 x4611 -1 x4612 >= 0 ;
+2 x5077 +2 x5078 +2 x5079 +2 x5080 -1 x4609 -1 x4610 -1 x4611 -1 x4612 -1 x4613 -1 x4614 -1 x4615 -1 x4616 >= 0 ;
+2 x5081 +2 x5082 +2 x5083 +2 x5084 -1 x4613 -1 x4614 -1 x4615 -1 x4616 -1 x4617 -1 x4618 -1 x4619 -1 x4620 >= 0 ;
+2 x5085 +2 x5086 +2 x5087 +2 x5088 -1 x4617 -1 x4618 -1 x4619 -1 x4620 -1 x4621 -1 x4622 -1 x4623 -1 x4624 >= 0 ;
+2 x5089 +2 x5090 +2 x5091 +2 x5092 -1 x4621 -1 x4622 -1 x4623 -1 x4624 -1 x4625 -1 x4626 -1 x4627 -1 x4628 >= 0 ;
+2 x5093 +2 x5094 +2 x5095 +2 x5096 -1 x4625 -1 x4626 -1 x4627 -1 x4628 -1 x4629 -1 x4630 -1 x4631 -1 x4632 >= 0 ;
+2 x5097 +2 x5098 +2 x5099 +2 x5100 -1 x4629 -1 x4630 -1 x4631 -1 x4632 -1 x4633 -1 x4634 -1 x4635 -1 x4636 >= 0 ;
+2 x5101 +2 x5102 +2 x5103 +2 x5104 -1 x4633 -1 x4634 -1 x4635 -1 x4636 -1 x4637 -1 x4638 -1 x4639 -1 x4640 >= 0 ;
+2 x5105 +2 x5106 +2 x5107 +2 x5108 -1 x4637 -1 x4638 -1 x4639 -1 x4640 -1 x4641 -1 x4642 -1 x4643 -1 x4644 >= 0 ;
+2 x5109 +2 x5110 +2 x5111 +2 x5112 -1 x4641 -1 x4642 -1 x4643 -1 x4644 -1 x4645 -1 x4646 -1 x4647 -1 x4648 >= 0 ;
+2 x5113 +2 x5114 +2 x5115 +2 x5116 -1 x4645 -1 x4646 -1 x4647 -1 x4648 -1 x4649 -1 x4650 -1 x4651 -1 x4652 >= 0 ;
+2 x5117 +2 x5118 +2 x5119 +2 x5120 -1 x4649 -1 x4650 -1 x4651 -1 x4652 -1 x4653 -1 x4654 -1 x4655 -1 x4656 >= 0 ;
+2 x5121 +2 x5122 +2 x5123 +2 x5124 -1 x4653 -1 x4654 -1 x4655 -1 x4656 -1 x4657 -1 x4658 -1 x4659 -1 x4660 >= 0 ;
+2 x5125 +2 x5126 +2 x5127 +2 x5128 -1 x4657 -1 x4658 -1 x4659 -1 x4660 -1 x4661 -1 x4662 -1 x4663 -1 x4664 >= 0 ;
+2 x5129 +2 x5130 +2 x5131 +2 x5132 -1 x4661 -1 x4662 -1 x4663 -1 x4664 -1 x4665 -1 x4666 -1 x4667 -1 x4668 >= 0 ;
+2 x5133 +2 x5134 +2 x5135 +2 x5136 -1 x4665 -1 x4666 -1 x4667 -1 x4668 -1 x4669 -1 x4670 -1 x4671 -1 x4672 >= 0 ;
+2 x5137 +2 x5138 +2 x5139 +2 x5140 -1 x4669 -1 x4670 -1 x4671 -1 x4672 -1 x4673 -1 x4674 -1 x4675 -1 x4676 >= 0 ;
+2 x5141 +2 x5142 +2 x5143 +2 x5144 -1 x4673 -1 x4674 -1 x4675 -1 x4676 -1 x4677 -1 x4678 -1 x4679 -1 x4680 >= 0 ;
+2 x5145 +2 x5146 +2 x5147 +2 x5148 -1 x4677 -1 x4678 -1 x4679 -1 x4680 -1 x4681 -1 x4682 -1 x4683 -1 x4684 >= 0 ;
+2 x5149 +2 x5150 +2 x5151 +2 x5152 -1 x4681 -1 x4682 -1 x4683 -1 x4684 -1 x4685 -1 x4686 -1 x4687 -1 x4688 >= 0 ;
+2 x5153 +2 x5154 +2 x5155 +2 x5156 -1 x4685 -1 x4686 -1 x4687 -1 x4688 -1 x4689 -1 x4690 -1 x4691 -1 x4692 >= 0 ;
+2 x5157 +2 x5158 +2 x5159 +2 x5160 -1 x4689 -1 x4690 -1 x4691 -1 x4692 -1 x4693 -1 x4694 -1 x4695 -1 x4696 >= 0 ;
+2 x5161 +2 x5162 +2 x5163 +2 x5164 -1 x4693 -1 x4694 -1 x4695 -1 x4696 -1 x4697 -1 x4698 -1 x4699 -1 x4700 >= 0 ;
+2 x5165 +2 x5166 +2 x5167 +2 x5168 -1 x4697 -1 x4698 -1 x4699 -1 x4700 -1 x4701 -1 x4702 -1 x4703 -1 x4704 >= 0 ;
+2 x5169 +2 x5170 +2 x5171 +2 x5172 -1 x4701 -1 x4702 -1 x4703 -1 x4704 -1 x4705 -1 x4706 -1 x4707 -1 x4708 >= 0 ;
+2 x5173 +2 x5174 +2 x5175 +2 x5176 -1 x4705 -1 x4706 -1 x4707 -1 x4708 -1 x4709 -1 x4710 -1 x4711 -1 x4712 >= 0 ;
+2 x5177 +2 x5178 +2 x5179 +2 x5180 -1 x4709 -1 x4710 -1 x4711 -1 x4712 -1 x4713 -1 x4714 -1 x4715 -1 x4716 >= 0 ;
+2 x5181 +2 x5182 +2 x5183 +2 x5184 -1 x4713 -1 x4714 -1 x4715 -1 x4716 -1 x4717 -1 x4718 -1 x4719 -1 x4720 >= 0 ;
+2 x5185 +2 x5186 +2 x5187 +2 x5188 -1 x4717 -1 x4718 -1 x4719 -1 x4720 -1 x4721 -1 x4722 -1 x4723 -1 x4724 >= 0 ;
+2 x5189 +2 x5190 +2 x5191 +2 x5192 -1 x4721 -1 x4722 -1 x4723 -1 x4724 -1 x4725 -1 x4726 -1 x4727 -1 x4728 >= 0 ;
+2 x5193 +2 x5194 +2 x5195 +2 x5196 -1 x4725 -1 x4726 -1 x4727 -1 x4728 -1 x4729 -1 x4730 -1 x4731 -1 x4732 >= 0 ;
+2 x5197 +2 x5198 +2 x5199 +2 x5200 -1 x4729 -1 x4730 -1 x4731 -1 x4732 -1 x4733 -1 x4734 -1 x4735 -1 x4736 >= 0 ;
+2 x5201 +2 x5202 +2 x5203 +2 x5204 -1 x4733 -1 x4734 -1 x4735 -1 x4736 -1 x4737 -1 x4738 -1 x4739 -1 x4740 >= 0 ;
+2 x5205 +2 x5206 +2 x5207 +2 x5208 -1 x4737 -1 x4738 -1 x4739 -1 x4740 -1 x4741 -1 x4742 -1 x4743 -1 x4744 >= 0 ;
+2 x5209 +2 x5210 +2 x5211 +2 x5212 -1 x4741 -1 x4742 -1 x4743 -1 x4744 -1 x4745 -1 x4746 -1 x4747 -1 x4748 >= 0 ;
+2 x5213 +2 x5214 +2 x5215 +2 x5216 -1 x4745 -1 x4746 -1 x4747 -1 x4748 -1 x4749 -1 x4750 -1 x4751 -1 x4752 >= 0 ;
+2 x5217 +2 x5218 +2 x5219 +2 x5220 -1 x4749 -1 x4750 -1 x4751 -1 x4752 -1 x4753 -1 x4754 -1 x4755 -1 x4756 >= 0 ;
+2 x5221 +2 x5222 +2 x5223 +2 x5224 -1 x4753 -1 x4754 -1 x4755 -1 x4756 -1 x4757 -1 x4758 -1 x4759 -1 x4760 >= 0 ;
+2 x5225 +2 x5226 +2 x5227 +2 x5228 -1 x4757 -1 x4758 -1 x4759 -1 x4760 -1 x4761 -1 x4762 -1 x4763 -1 x4764 >= 0 ;
+2 x5229 +2 x5230 +2 x5231 +2 x5232 -1 x4761 -1 x4762 -1 x4763 -1 x4764 -1 x4765 -1 x4766 -1 x4767 -1 x4768 >= 0 ;
+2 x5233 +2 x5234 +2 x5235 +2 x5236 -1 x4765 -1 x4766 -1 x4767 -1 x4768 -1 x4769 -1 x4770 -1 x4771 -1 x4772 >= 0 ;
+2 x5237 +2 x5238 +2 x5239 +2 x5240 -1 x4769 -1 x4770 -1 x4771 -1 x4772 -1 x4773 -1 x4774 -1 x4775 -1 x4776 >= 0 ;
+2 x5241 +2 x5242 +2 x5243 +2 x5244 -1 x4773 -1 x4774 -1 x4775 -1 x4776 -1 x4777 -1 x4778 -1 x4779 -1 x4780 >= 0 ;
+2 x5245 +2 x5246 +2 x5247 +2 x5248 -1 x4777 -1 x4778 -1 x4779 -1 x4780 -1 x4781 -1 x4782 -1 x4783 -1 x4784 >= 0 ;
+2 x5249 +2 x5250 +2 x5251 +2 x5252 -1 x4781 -1 x4782 -1 x4783 -1 x4784 -1 x4785 -1 x4786 -1 x4787 -1 x4788 >= 0 ;
+2 x5253 +2 x5254 +2 x5255 +2 x5256 -1 x4785 -1 x4786 -1 x4787 -1 x4788 -1 x4789 -1 x4790 -1 x4791 -1 x4792 >= 0 ;
+2 x5257 +2 x5258 +2 x5259 +2 x5260 -1 x4789 -1 x4790 -1 x4791 -1 x4792 -1 x4793 -1 x4794 -1 x4795 -1 x4796 >= 0 ;
+2 x5261 +2 x5262 +2 x5263 +2 x5264 -1 x4793 -1 x4794 -1 x4795 -1 x4796 -1 x4797 -1 x4798 -1 x4799 -1 x4800 >= 0 ;
+2 x5265 +2 x5266 +2 x5267 +2 x5268 -1 x4797 -1 x4798 -1 x4799 -1 x4800 -1 x4801 -1 x4802 -1 x4803 -1 x4804 >= 0 ;
+2 x5269 +2 x5270 +2 x5271 +2 x5272 -1 x4801 -1 x4802 -1 x4803 -1 x4804 -1 x4805 -1 x4806 -1 x4807 -1 x4808 >= 0 ;
+2 x5273 +2 x5274 +2 x5275 +2 x5276 -1 x4805 -1 x4806 -1 x4807 -1 x4808 -1 x4809 -1 x4810 -1 x4811 -1 x4812 >= 0 ;
+2 x5277 +2 x5278 +2 x5279 +2 x5280 -1 x4809 -1 x4810 -1 x4811 -1 x4812 -1 x4813 -1 x4814 -1 x4815 -1 x4816 >= 0 ;
+2 x5281 +2 x5282 +2 x5283 +2 x5284 -1 x4813 -1 x4814 -1 x4815 -1 x4816 -1 x4817 -1 x4818 -1 x4819 -1 x4820 >= 0 ;
+2 x5285 +2 x5286 +2 x5287 +2 x5288 -1 x4817 -1 x4818 -1 x4819 -1 x4820 -1 x4821 -1 x4822 -1 x4823 -1 x4824 >= 0 ;
+2 x5289 +2 x5290 +2 x5291 +2 x5292 -1 x4821 -1 x4822 -1 x4823 -1 x4824 -1 x4825 -1 x4826 -1 x4827 -1 x4828 >= 0 ;
+2 x5293 +2 x5294 +2 x5295 +2 x5296 -1 x4825 -1 x4826 -1 x4827 -1 x4828 -1 x4829 -1 x4830 -1 x4831 -1 x4832 >= 0 ;
+2 x5297 +2 x5298 +2 x5299 +2 x5300 -1 x4829 -1 x4830 -1 x4831 -1 x4832 -1 x4833 -1 x4834 -1 x4835 -1 x4836 >= 0 ;
+2 x5301 +2 x5302 +2 x5303 +2 x5304 -1 x4833 -1 x4834 -1 x4835 -1 x4836 -1 x4837 -1 x4838 -1 x4839 -1 x4840 >= 0 ;
+2 x5305 +2 x5306 +2 x5307 +2 x5308 -1 x4837 -1 x4838 -1 x4839 -1 x4840 -1 x4841 -1 x4842 -1 x4843 -1 x4844 >= 0 ;
+2 x5309 +2 x5310 +2 x5311 +2 x5312 -1 x4841 -1 x4842 -1 x4843 -1 x4844 -1 x4845 -1 x4846 -1 x4847 -1 x4848 >= 0 ;
+2 x5313 +2 x5314 +2 x5315 +2 x5316 -1 x4845 -1 x4846 -1 x4847 -1 x4848 -1 x4849 -1 x4850 -1 x4851 -1 x4852 >= 0 ;
+2 x5317 +2 x5318 +2 x5319 +2 x5320 -1 x4849 -1 x4850 -1 x4851 -1 x4852 -1 x4853 -1 x4854 -1 x4855 -1 x4856 >= 0 ;
+2 x5321 +2 x5322 +2 x5323 +2 x5324 -1 x4853 -1 x4854 -1 x4855 -1 x4856 -1 x4857 -1 x4858 -1 x4859 -1 x4860 >= 0 ;
+2 x5325 +2 x5326 +2 x5327 +2 x5328 -1 x4861 -1 x4862 -1 x4863 -1 x4864 -1 x4865 -1 x4866 -1 x4867 -1 x4868 >= 0 ;
+2 x5329 +2 x5330 +2 x5331 +2 x5332 -1 x4865 -1 x4866 -1 x4867 -1 x4868 -1 x4869 -1 x4870 -1 x4871 -1 x4872 >= 0 ;
+2 x5333 +2 x5334 +2 x5335 +2 x5336 -1 x4869 -1 x4870 -1 x4871 -1 x4872 -1 x4873 -1 x4874 -1 x4875 -1 x4876 >= 0 ;
+2 x5337 +2 x5338 +2 x5339 +2 x5340 -1 x4873 -1 x4874 -1 x4875 -1 x4876 -1 x4877 -1 x4878 -1 x4879 -1 x4880 >= 0 ;
+2 x5341 +2 x5342 +2 x5343 +2 x5344 -1 x4877 -1 x4878 -1 x4879 -1 x4880 -1 x4881 -1 x4882 -1 x4883 -1 x4884 >= 0 ;
+2 x5345 +2 x5346 +2 x5347 +2 x5348 -1 x4881 -1 x4882 -1 x4883 -1 x4884 -1 x4885 -1 x4886 -1 x4887 -1 x4888 >= 0 ;
+2 x5349 +2 x5350 +2 x5351 +2 x5352 -1 x4885 -1 x4886 -1 x4887 -1 x4888 -1 x4889 -1 x4890 -1 x4891 -1 x4892 >= 0 ;
+2 x5353 +2 x5354 +2 x5355 +2 x5356 -1 x4889 -1 x4890 -1 x4891 -1 x4892 -1 x4893 -1 x4894 -1 x4895 -1 x4896 >= 0 ;
+2 x5357 +2 x5358 +2 x5359 +2 x5360 -1 x4893 -1 x4894 -1 x4895 -1 x4896 -1 x4897 -1 x4898 -1 x4899 -1 x4900 >= 0 ;
+2 x5361 +2 x5362 +2 x5363 +2 x5364 -1 x4897 -1 x4898 -1 x4899 -1 x4900 -1 x4901 -1 x4902 -1 x4903 -1 x4904 >= 0 ;
+2 x5365 +2 x5366 +2 x5367 +2 x5368 -1 x4901 -1 x4902 -1 x4903 -1 x4904 -1 x4905 -1 x4906 -1 x4907 -1 x4908 >= 0 ;
+2 x5369 +2 x5370 +2 x5371 +2 x5372 -1 x4905 -1 x4906 -1 x4907 -1 x4908 -1 x4909 -1 x4910 -1 x4911 -1 x4912 >= 0 ;
+2 x5373 +2 x5374 +2 x5375 +2 x5376 -1 x4909 -1 x4910 -1 x4911 -1 x4912 -1 x4913 -1 x4914 -1 x4915 -1 x4916 >= 0 ;
+2 x5377 +2 x5378 +2 x5379 +2 x5380 -1 x4913 -1 x4914 -1 x4915 -1 x4916 -1 x4917 -1 x4918 -1 x4919 -1 x4920 >= 0 ;
+2 x5381 +2 x5382 +2 x5383 +2 x5384 -1 x4917 -1 x4918 -1 x4919 -1 x4920 -1 x4921 -1 x4922 -1 x4923 -1 x4924 >= 0 ;
+2 x5385 +2 x5386 +2 x5387 +2 x5388 -1 x4921 -1 x4922 -1 x4923 -1 x4924 -1 x4925 -1 x4926 -1 x4927 -1 x4928 >= 0 ;
+2 x5389 +2 x5390 +2 x5391 +2 x5392 -1 x4925 -1 x4926 -1 x4927 -1 x4928 -1 x4929 -1 x4930 -1 x4931 -1 x4932 >= 0 ;
+2 x5393 +2 x5394 +2 x5395 +2 x5396 -1 x4929 -1 x4930 -1 x4931 -1 x4932 -1 x4933 -1 x4934 -1 x4935 -1 x4936 >= 0 ;
+2 x5397 +2 x5398 +2 x5399 +2 x5400 -1 x4933 -1 x4934 -1 x4935 -1 x4936 -1 x4937 -1 x4938 -1 x4939 -1 x4940 >= 0 ;
+2 x5401 +2 x5402 +2 x5403 +2 x5404 -1 x4937 -1 x4938 -1 x4939 -1 x4940 -1 x4941 -1 x4942 -1 x4943 -1 x4944 >= 0 ;
+2 x5405 +2 x5406 +2 x5407 +2 x5408 -1 x4941 -1 x4942 -1 x4943 -1 x4944 -1 x4945 -1 x4946 -1 x4947 -1 x4948 >= 0 ;
+2 x5409 +2 x5410 +2 x5411 +2 x5412 -1 x4945 -1 x4946 -1 x4947 -1 x4948 -1 x4949 -1 x4950 -1 x4951 -1 x4952 >= 0 ;
+2 x5413 +2 x5414 +2 x5415 +2 x5416 -1 x4949 -1 x4950 -1 x4951 -1 x4952 -1 x4953 -1 x4954 -1 x4955 -1 x4956 >= 0 ;
+2 x5417 +2 x5418 +2 x5419 +2 x5420 -1 x4953 -1 x4954 -1 x4955 -1 x4956 -1 x4957 -1 x4958 -1 x4959 -1 x4960 >= 0 ;
+2 x5421 +2 x5422 +2 x5423 +2 x5424 -1 x4957 -1 x4958 -1 x4959 -1 x4960 -1 x4961 -1 x4962 -1 x4963 -1 x4964 >= 0 ;
+2 x5425 +2 x5426 +2 x5427 +2 x5428 -1 x4961 -1 x4962 -1 x4963 -1 x4964 -1 x4965 -1 x4966 -1 x4967 -1 x4968 >= 0 ;
+2 x5429 +2 x5430 +2 x5431 +2 x5432 -1 x4965 -1 x4966 -1 x4967 -1 x4968 -1 x4969 -1 x4970 -1 x4971 -1 x4972 >= 0 ;
+2 x5433 +2 x5434 +2 x5435 +2 x5436 -1 x4969 -1 x4970 -1 x4971 -1 x4972 -1 x4973 -1 x4974 -1 x4975 -1 x4976 >= 0 ;
+2 x5437 +2 x5438 +2 x5439 +2 x5440 -1 x4973 -1 x4974 -1 x4975 -1 x4976 -1 x4977 -1 x4978 -1 x4979 -1 x4980 >= 0 ;
+2 x5441 +2 x5442 +2 x5443 +2 x5444 -1 x4977 -1 x4978 -1 x4979 -1 x4980 -1 x4981 -1 x4982 -1 x4983 -1 x4984 >= 0 ;
+2 x5445 +2 x5446 +2 x5447 +2 x5448 -1 x4981 -1 x4982 -1 x4983 -1 x4984 -1 x4985 -1 x4986 -1 x4987 -1 x4988 >= 0 ;
+2 x5449 +2 x5450 +2 x5451 +2 x5452 -1 x4985 -1 x4986 -1 x4987 -1 x4988 -1 x4989 -1 x4990 -1 x4991 -1 x4992 >= 0 ;
+2 x5453 +2 x5454 +2 x5455 +2 x5456 -1 x4989 -1 x4990 -1 x4991 -1 x4992 -1 x4993 -1 x4994 -1 x4995 -1 x4996 >= 0 ;
+2 x5457 +2 x5458 +2 x5459 +2 x5460 -1 x4993 -1 x4994 -1 x4995 -1 x4996 -1 x4997 -1 x4998 -1 x4999 -1 x5000 >= 0 ;
+2 x5461 +2 x5462 +2 x5463 +2 x5464 -1 x4997 -1 x4998 -1 x4999 -1 x5000 -1 x5001 -1 x5002 -1 x5003 -1 x5004 >= 0 ;
+2 x5465 +2 x5466 +2 x5467 +2 x5468 -1 x5001 -1 x5002 -1 x5003 -1 x5004 -1 x5005 -1 x5006 -1 x5007 -1 x5008 >= 0 ;
+2 x5469 +2 x5470 +2 x5471 +2 x5472 -1 x5005 -1 x5006 -1 x5007 -1 x5008 -1 x5009 -1 x5010 -1 x5011 -1 x5012 >= 0 ;
+2 x5473 +2 x5474 +2 x5475 +2 x5476 -1 x5009 -1 x5010 -1 x5011 -1 x5012 -1 x5013 -1 x5014 -1 x5015 -1 x5016 >= 0 ;
+2 x5477 +2 x5478 +2 x5479 +2 x5480 -1 x5013 -1 x5014 -1 x5015 -1 x5016 -1 x5017 -1 x5018 -1 x5019 -1 x5020 >= 0 ;
+2 x5481 +2 x5482 +2 x5483 +2 x5484 -1 x5017 -1 x5018 -1 x5019 -1 x5020 -1 x5021 -1 x5022 -1 x5023 -1 x5024 >= 0 ;
+2 x5485 +2 x5486 +2 x5487 +2 x5488 -1 x5021 -1 x5022 -1 x5023 -1 x5024 -1 x5025 -1 x5026 -1 x5027 -1 x5028 >= 0 ;
+2 x5489 +2 x5490 +2 x5491 +2 x5492 -1 x5025 -1 x5026 -1 x5027 -1 x5028 -1 x5029 -1 x5030 -1 x5031 -1 x5032 >= 0 ;
+2 x5493 +2 x5494 +2 x5495 +2 x5496 -1 x5029 -1 x5030 -1 x5031 -1 x5032 -1 x5033 -1 x5034 -1 x5035 -1 x5036 >= 0 ;
+2 x5497 +2 x5498 +2 x5499 +2 x5500 -1 x5033 -1 x5034 -1 x5035 -1 x5036 -1 x5037 -1 x5038 -1 x5039 -1 x5040 >= 0 ;
+2 x5501 +2 x5502 +2 x5503 +2 x5504 -1 x5037 -1 x5038 -1 x5039 -1 x5040 -1 x5041 -1 x5042 -1 x5043 -1 x5044 >= 0 ;
+2 x5505 +2 x5506 +2 x5507 +2 x5508 -1 x5041 -1 x5042 -1 x5043 -1 x5044 -1 x5045 -1 x5046 -1 x5047 -1 x5048 >= 0 ;
+2 x5509 +2 x5510 +2 x5511 +2 x5512 -1 x5045 -1 x5046 -1 x5047 -1 x5048 -1 x5049 -1 x5050 -1 x5051 -1 x5052 >= 0 ;
+2 x5513 +2 x5514 +2 x5515 +2 x5516 -1 x5049 -1 x5050 -1 x5051 -1 x5052 -1 x5053 -1 x5054 -1 x5055 -1 x5056 >= 0 ;
+2 x5517 +2 x5518 +2 x5519 +2 x5520 -1 x5053 -1 x5054 -1 x5055 -1 x5056 -1 x5057 -1 x5058 -1 x5059 -1 x5060 >= 0 ;
+2 x5521 +2 x5522 +2 x5523 +2 x5524 -1 x5057 -1 x5058 -1 x5059 -1 x5060 -1 x5061 -1 x5062 -1 x5063 -1 x5064 >= 0 ;
+2 x5525 +2 x5526 +2 x5527 +2 x5528 -1 x5061 -1 x5062 -1 x5063 -1 x5064 -1 x5065 -1 x5066 -1 x5067 -1 x5068 >= 0 ;
+2 x5529 +2 x5530 +2 x5531 +2 x5532 -1 x5065 -1 x5066 -1 x5067 -1 x5068 -1 x5069 -1 x5070 -1 x5071 -1 x5072 >= 0 ;
+2 x5533 +2 x5534 +2 x5535 +2 x5536 -1 x5069 -1 x5070 -1 x5071 -1 x5072 -1 x5073 -1 x5074 -1 x5075 -1 x5076 >= 0 ;
+2 x5537 +2 x5538 +2 x5539 +2 x5540 -1 x5073 -1 x5074 -1 x5075 -1 x5076 -1 x5077 -1 x5078 -1 x5079 -1 x5080 >= 0 ;
+2 x5541 +2 x5542 +2 x5543 +2 x5544 -1 x5077 -1 x5078 -1 x5079 -1 x5080 -1 x5081 -1 x5082 -1 x5083 -1 x5084 >= 0 ;
+2 x5545 +2 x5546 +2 x5547 +2 x5548 -1 x5081 -1 x5082 -1 x5083 -1 x5084 -1 x5085 -1 x5086 -1 x5087 -1 x5088 >= 0 ;
+2 x5549 +2 x5550 +2 x5551 +2 x5552 -1 x5085 -1 x5086 -1 x5087 -1 x5088 -1 x5089 -1 x5090 -1 x5091 -1 x5092 >= 0 ;
+2 x5553 +2 x5554 +2 x5555 +2 x5556 -1 x5089 -1 x5090 -1 x5091 -1 x5092 -1 x5093 -1 x5094 -1 x5095 -1 x5096 >= 0 ;
+2 x5557 +2 x5558 +2 x5559 +2 x5560 -1 x5093 -1 x5094 -1 x5095 -1 x5096 -1 x5097 -1 x5098 -1 x5099 -1 x5100 >= 0 ;
+2 x5561 +2 x5562 +2 x5563 +2 x5564 -1 x5097 -1 x5098 -1 x5099 -1 x5100 -1 x5101 -1 x5102 -1 x5103 -1 x5104 >= 0 ;
+2 x5565 +2 x5566 +2 x5567 +2 x5568 -1 x5101 -1 x5102 -1 x5103 -1 x5104 -1 x5105 -1 x5106 -1 x5107 -1 x5108 >= 0 ;
+2 x5569 +2 x5570 +2 x5571 +2 x5572 -1 x5105 -1 x5106 -1 x5107 -1 x5108 -1 x5109 -1 x5110 -1 x5111 -1 x5112 >= 0 ;
+2 x5573 +2 x5574 +2 x5575 +2 x5576 -1 x5109 -1 x5110 -1 x5111 -1 x5112 -1 x5113 -1 x5114 -1 x5115 -1 x5116 >= 0 ;
+2 x5577 +2 x5578 +2 x5579 +2 x5580 -1 x5113 -1 x5114 -1 x5115 -1 x5116 -1 x5117 -1 x5118 -1 x5119 -1 x5120 >= 0 ;
+2 x5581 +2 x5582 +2 x5583 +2 x5584 -1 x5117 -1 x5118 -1 x5119 -1 x5120 -1 x5121 -1 x5122 -1 x5123 -1 x5124 >= 0 ;
+2 x5585 +2 x5586 +2 x5587 +2 x5588 -1 x5121 -1 x5122 -1 x5123 -1 x5124 -1 x5125 -1 x5126 -1 x5127 -1 x5128 >= 0 ;
+2 x5589 +2 x5590 +2 x5591 +2 x5592 -1 x5125 -1 x5126 -1 x5127 -1 x5128 -1 x5129 -1 x5130 -1 x5131 -1 x5132 >= 0 ;
+2 x5593 +2 x5594 +2 x5595 +2 x5596 -1 x5129 -1 x5130 -1 x5131 -1 x5132 -1 x5133 -1 x5134 -1 x5135 -1 x5136 >= 0 ;
+2 x5597 +2 x5598 +2 x5599 +2 x5600 -1 x5133 -1 x5134 -1 x5135 -1 x5136 -1 x5137 -1 x5138 -1 x5139 -1 x5140 >= 0 ;
+2 x5601 +2 x5602 +2 x5603 +2 x5604 -1 x5137 -1 x5138 -1 x5139 -1 x5140 -1 x5141 -1 x5142 -1 x5143 -1 x5144 >= 0 ;
+2 x5605 +2 x5606 +2 x5607 +2 x5608 -1 x5141 -1 x5142 -1 x5143 -1 x5144 -1 x5145 -1 x5146 -1 x5147 -1 x5148 >= 0 ;
+2 x5609 +2 x5610 +2 x5611 +2 x5612 -1 x5145 -1 x5146 -1 x5147 -1 x5148 -1 x5149 -1 x5150 -1 x5151 -1 x5152 >= 0 ;
+2 x5613 +2 x5614 +2 x5615 +2 x5616 -1 x5149 -1 x5150 -1 x5151 -1 x5152 -1 x5153 -1 x5154 -1 x5155 -1 x5156 >= 0 ;
+2 x5617 +2 x5618 +2 x5619 +2 x5620 -1 x5153 -1 x5154 -1 x5155 -1 x5156 -1 x5157 -1 x5158 -1 x5159 -1 x5160 >= 0 ;
+2 x5621 +2 x5622 +2 x5623 +2 x5624 -1 x5157 -1 x5158 -1 x5159 -1 x5160 -1 x5161 -1 x5162 -1 x5163 -1 x5164 >= 0 ;
+2 x5625 +2 x5626 +2 x5627 +2 x5628 -1 x5161 -1 x5162 -1 x5163 -1 x5164 -1 x5165 -1 x5166 -1 x5167 -1 x5168 >= 0 ;
+2 x5629 +2 x5630 +2 x5631 +2 x5632 -1 x5165 -1 x5166 -1 x5167 -1 x5168 -1 x5169 -1 x5170 -1 x5171 -1 x5172 >= 0 ;
+2 x5633 +2 x5634 +2 x5635 +2 x5636 -1 x5169 -1 x5170 -1 x5171 -1 x5172 -1 x5173 -1 x5174 -1 x5175 -1 x5176 >= 0 ;
+2 x5637 +2 x5638 +2 x5639 +2 x5640 -1 x5173 -1 x5174 -1 x5175 -1 x5176 -1 x5177 -1 x5178 -1 x5179 -1 x5180 >= 0 ;
+2 x5641 +2 x5642 +2 x5643 +2 x5644 -1 x5177 -1 x5178 -1 x5179 -1 x5180 -1 x5181 -1 x5182 -1 x5183 -1 x5184 >= 0 ;
+2 x5645 +2 x5646 +2 x5647 +2 x5648 -1 x5181 -1 x5182 -1 x5183 -1 x5184 -1 x5185 -1 x5186 -1 x5187 -1 x5188 >= 0 ;
+2 x5649 +2 x5650 +2 x5651 +2 x5652 -1 x5185 -1 x5186 -1 x5187 -1 x5188 -1 x5189 -1 x5190 -1 x5191 -1 x5192 >= 0 ;
+2 x5653 +2 x5654 +2 x5655 +2 x5656 -1 x5189 -1 x5190 -1 x5191 -1 x5192 -1 x5193 -1 x5194 -1 x5195 -1 x5196 >= 0 ;
+2 x5657 +2 x5658 +2 x5659 +2 x5660 -1 x5193 -1 x5194 -1 x5195 -1 x5196 -1 x5197 -1 x5198 -1 x5199 -1 x5200 >= 0 ;
+2 x5661 +2 x5662 +2 x5663 +2 x5664 -1 x5197 -1 x5198 -1 x5199 -1 x5200 -1 x5201 -1 x5202 -1 x5203 -1 x5204 >= 0 ;
+2 x5665 +2 x5666 +2 x5667 +2 x5668 -1 x5201 -1 x5202 -1 x5203 -1 x5204 -1 x5205 -1 x5206 -1 x5207 -1 x5208 >= 0 ;
+2 x5669 +2 x5670 +2 x5671 +2 x5672 -1 x5205 -1 x5206 -1 x5207 -1 x5208 -1 x5209 -1 x5210 -1 x5211 -1 x5212 >= 0 ;
+2 x5673 +2 x5674 +2 x5675 +2 x5676 -1 x5209 -1 x5210 -1 x5211 -1 x5212 -1 x5213 -1 x5214 -1 x5215 -1 x5216 >= 0 ;
+2 x5677 +2 x5678 +2 x5679 +2 x5680 -1 x5213 -1 x5214 -1 x5215 -1 x5216 -1 x5217 -1 x5218 -1 x5219 -1 x5220 >= 0 ;
+2 x5681 +2 x5682 +2 x5683 +2 x5684 -1 x5217 -1 x5218 -1 x5219 -1 x5220 -1 x5221 -1 x5222 -1 x5223 -1 x5224 >= 0 ;
+2 x5685 +2 x5686 +2 x5687 +2 x5688 -1 x5221 -1 x5222 -1 x5223 -1 x5224 -1 x5225 -1 x5226 -1 x5227 -1 x5228 >= 0 ;
+2 x5689 +2 x5690 +2 x5691 +2 x5692 -1 x5225 -1 x5226 -1 x5227 -1 x5228 -1 x5229 -1 x5230 -1 x5231 -1 x5232 >= 0 ;
+2 x5693 +2 x5694 +2 x5695 +2 x5696 -1 x5229 -1 x5230 -1 x5231 -1 x5232 -1 x5233 -1 x5234 -1 x5235 -1 x5236 >= 0 ;
+2 x5697 +2 x5698 +2 x5699 +2 x5700 -1 x5233 -1 x5234 -1 x5235 -1 x5236 -1 x5237 -1 x5238 -1 x5239 -1 x5240 >= 0 ;
+2 x5701 +2 x5702 +2 x5703 +2 x5704 -1 x5237 -1 x5238 -1 x5239 -1 x5240 -1 x5241 -1 x5242 -1 x5243 -1 x5244 >= 0 ;
+2 x5705 +2 x5706 +2 x5707 +2 x5708 -1 x5241 -1 x5242 -1 x5243 -1 x5244 -1 x5245 -1 x5246 -1 x5247 -1 x5248 >= 0 ;
+2 x5709 +2 x5710 +2 x5711 +2 x5712 -1 x5245 -1 x5246 -1 x5247 -1 x5248 -1 x5249 -1 x5250 -1 x5251 -1 x5252 >= 0 ;
+2 x5713 +2 x5714 +2 x5715 +2 x5716 -1 x5249 -1 x5250 -1 x5251 -1 x5252 -1 x5253 -1 x5254 -1 x5255 -1 x5256 >= 0 ;
+2 x5717 +2 x5718 +2 x5719 +2 x5720 -1 x5253 -1 x5254 -1 x5255 -1 x5256 -1 x5257 -1 x5258 -1 x5259 -1 x5260 >= 0 ;
+2 x5721 +2 x5722 +2 x5723 +2 x5724 -1 x5257 -1 x5258 -1 x5259 -1 x5260 -1 x5261 -1 x5262 -1 x5263 -1 x5264 >= 0 ;
+2 x5725 +2 x5726 +2 x5727 +2 x5728 -1 x5261 -1 x5262 -1 x5263 -1 x5264 -1 x5265 -1 x5266 -1 x5267 -1 x5268 >= 0 ;
+2 x5729 +2 x5730 +2 x5731 +2 x5732 -1 x5265 -1 x5266 -1 x5267 -1 x5268 -1 x5269 -1 x5270 -1 x5271 -1 x5272 >= 0 ;
+2 x5733 +2 x5734 +2 x5735 +2 x5736 -1 x5269 -1 x5270 -1 x5271 -1 x5272 -1 x5273 -1 x5274 -1 x5275 -1 x5276 >= 0 ;
+2 x5737 +2 x5738 +2 x5739 +2 x5740 -1 x5273 -1 x5274 -1 x5275 -1 x5276 -1 x5277 -1 x5278 -1 x5279 -1 x5280 >= 0 ;
+2 x5741 +2 x5742 +2 x5743 +2 x5744 -1 x5277 -1 x5278 -1 x5279 -1 x5280 -1 x5281 -1 x5282 -1 x5283 -1 x5284 >= 0 ;
+2 x5745 +2 x5746 +2 x5747 +2 x5748 -1 x5281 -1 x5282 -1 x5283 -1 x5284 -1 x5285 -1 x5286 -1 x5287 -1 x5288 >= 0 ;
+2 x5749 +2 x5750 +2 x5751 +2 x5752 -1 x5285 -1 x5286 -1 x5287 -1 x5288 -1 x5289 -1 x5290 -1 x5291 -1 x5292 >= 0 ;
+2 x5753 +2 x5754 +2 x5755 +2 x5756 -1 x5289 -1 x5290 -1 x5291 -1 x5292 -1 x5293 -1 x5294 -1 x5295 -1 x5296 >= 0 ;
+2 x5757 +2 x5758 +2 x5759 +2 x5760 -1 x5293 -1 x5294 -1 x5295 -1 x5296 -1 x5297 -1 x5298 -1 x5299 -1 x5300 >= 0 ;
+2 x5761 +2 x5762 +2 x5763 +2 x5764 -1 x5297 -1 x5298 -1 x5299 -1 x5300 -1 x5301 -1 x5302 -1 x5303 -1 x5304 >= 0 ;
+2 x5765 +2 x5766 +2 x5767 +2 x5768 -1 x5301 -1 x5302 -1 x5303 -1 x5304 -1 x5305 -1 x5306 -1 x5307 -1 x5308 >= 0 ;
+2 x5769 +2 x5770 +2 x5771 +2 x5772 -1 x5305 -1 x5306 -1 x5307 -1 x5308 -1 x5309 -1 x5310 -1 x5311 -1 x5312 >= 0 ;
+2 x5773 +2 x5774 +2 x5775 +2 x5776 -1 x5309 -1 x5310 -1 x5311 -1 x5312 -1 x5313 -1 x5314 -1 x5315 -1 x5316 >= 0 ;
+2 x5777 +2 x5778 +2 x5779 +2 x5780 -1 x5313 -1 x5314 -1 x5315 -1 x5316 -1 x5317 -1 x5318 -1 x5319 -1 x5320 >= 0 ;
+2 x5781 +2 x5782 +2 x5783 +2 x5784 -1 x5317 -1 x5318 -1 x5319 -1 x5320 -1 x5321 -1 x5322 -1 x5323 -1 x5324 >= 0 ;
+2 x5785 +2 x5786 +2 x5787 +2 x5788 -1 x5325 -1 x5326 -1 x5327 -1 x5328 -1 x5329 -1 x5330 -1 x5331 -1 x5332 >= 0 ;
+2 x5789 +2 x5790 +2 x5791 +2 x5792 -1 x5329 -1 x5330 -1 x5331 -1 x5332 -1 x5333 -1 x5334 -1 x5335 -1 x5336 >= 0 ;
+2 x5793 +2 x5794 +2 x5795 +2 x5796 -1 x5333 -1 x5334 -1 x5335 -1 x5336 -1 x5337 -1 x5338 -1 x5339 -1 x5340 >= 0 ;
+2 x5797 +2 x5798 +2 x5799 +2 x5800 -1 x5337 -1 x5338 -1 x5339 -1 x5340 -1 x5341 -1 x5342 -1 x5343 -1 x5344 >= 0 ;
+2 x5801 +2 x5802 +2 x5803 +2 x5804 -1 x5341 -1 x5342 -1 x5343 -1 x5344 -1 x5345 -1 x5346 -1 x5347 -1 x5348 >= 0 ;
+2 x5805 +2 x5806 +2 x5807 +2 x5808 -1 x5345 -1 x5346 -1 x5347 -1 x5348 -1 x5349 -1 x5350 -1 x5351 -1 x5352 >= 0 ;
+2 x5809 +2 x5810 +2 x5811 +2 x5812 -1 x5349 -1 x5350 -1 x5351 -1 x5352 -1 x5353 -1 x5354 -1 x5355 -1 x5356 >= 0 ;
+2 x5813 +2 x5814 +2 x5815 +2 x5816 -1 x5353 -1 x5354 -1 x5355 -1 x5356 -1 x5357 -1 x5358 -1 x5359 -1 x5360 >= 0 ;
+2 x5817 +2 x5818 +2 x5819 +2 x5820 -1 x5357 -1 x5358 -1 x5359 -1 x5360 -1 x5361 -1 x5362 -1 x5363 -1 x5364 >= 0 ;
+2 x5821 +2 x5822 +2 x5823 +2 x5824 -1 x5361 -1 x5362 -1 x5363 -1 x5364 -1 x5365 -1 x5366 -1 x5367 -1 x5368 >= 0 ;
+2 x5825 +2 x5826 +2 x5827 +2 x5828 -1 x5365 -1 x5366 -1 x5367 -1 x5368 -1 x5369 -1 x5370 -1 x5371 -1 x5372 >= 0 ;
+2 x5829 +2 x5830 +2 x5831 +2 x5832 -1 x5369 -1 x5370 -1 x5371 -1 x5372 -1 x5373 -1 x5374 -1 x5375 -1 x5376 >= 0 ;
+2 x5833 +2 x5834 +2 x5835 +2 x5836 -1 x5373 -1 x5374 -1 x5375 -1 x5376 -1 x5377 -1 x5378 -1 x5379 -1 x5380 >= 0 ;
+2 x5837 +2 x5838 +2 x5839 +2 x5840 -1 x5377 -1 x5378 -1 x5379 -1 x5380 -1 x5381 -1 x5382 -1 x5383 -1 x5384 >= 0 ;
+2 x5841 +2 x5842 +2 x5843 +2 x5844 -1 x5381 -1 x5382 -1 x5383 -1 x5384 -1 x5385 -1 x5386 -1 x5387 -1 x5388 >= 0 ;
+2 x5845 +2 x5846 +2 x5847 +2 x5848 -1 x5385 -1 x5386 -1 x5387 -1 x5388 -1 x5389 -1 x5390 -1 x5391 -1 x5392 >= 0 ;
+2 x5849 +2 x5850 +2 x5851 +2 x5852 -1 x5389 -1 x5390 -1 x5391 -1 x5392 -1 x5393 -1 x5394 -1 x5395 -1 x5396 >= 0 ;
+2 x5853 +2 x5854 +2 x5855 +2 x5856 -1 x5393 -1 x5394 -1 x5395 -1 x5396 -1 x5397 -1 x5398 -1 x5399 -1 x5400 >= 0 ;
+2 x5857 +2 x5858 +2 x5859 +2 x5860 -1 x5397 -1 x5398 -1 x5399 -1 x5400 -1 x5401 -1 x5402 -1 x5403 -1 x5404 >= 0 ;
+2 x5861 +2 x5862 +2 x5863 +2 x5864 -1 x5401 -1 x5402 -1 x5403 -1 x5404 -1 x5405 -1 x5406 -1 x5407 -1 x5408 >= 0 ;
+2 x5865 +2 x5866 +2 x5867 +2 x5868 -1 x5405 -1 x5406 -1 x5407 -1 x5408 -1 x5409 -1 x5410 -1 x5411 -1 x5412 >= 0 ;
+2 x5869 +2 x5870 +2 x5871 +2 x5872 -1 x5409 -1 x5410 -1 x5411 -1 x5412 -1 x5413 -1 x5414 -1 x5415 -1 x5416 >= 0 ;
+2 x5873 +2 x5874 +2 x5875 +2 x5876 -1 x5413 -1 x5414 -1 x5415 -1 x5416 -1 x5417 -1 x5418 -1 x5419 -1 x5420 >= 0 ;
+2 x5877 +2 x5878 +2 x5879 +2 x5880 -1 x5417 -1 x5418 -1 x5419 -1 x5420 -1 x5421 -1 x5422 -1 x5423 -1 x5424 >= 0 ;
+2 x5881 +2 x5882 +2 x5883 +2 x5884 -1 x5421 -1 x5422 -1 x5423 -1 x5424 -1 x5425 -1 x5426 -1 x5427 -1 x5428 >= 0 ;
+2 x5885 +2 x5886 +2 x5887 +2 x5888 -1 x5425 -1 x5426 -1 x5427 -1 x5428 -1 x5429 -1 x5430 -1 x5431 -1 x5432 >= 0 ;
+2 x5889 +2 x5890 +2 x5891 +2 x5892 -1 x5429 -1 x5430 -1 x5431 -1 x5432 -1 x5433 -1 x5434 -1 x5435 -1 x5436 >= 0 ;
+2 x5893 +2 x5894 +2 x5895 +2 x5896 -1 x5433 -1 x5434 -1 x5435 -1 x5436 -1 x5437 -1 x5438 -1 x5439 -1 x5440 >= 0 ;
+2 x5897 +2 x5898 +2 x5899 +2 x5900 -1 x5437 -1 x5438 -1 x5439 -1 x5440 -1 x5441 -1 x5442 -1 x5443 -1 x5444 >= 0 ;
+2 x5901 +2 x5902 +2 x5903 +2 x5904 -1 x5441 -1 x5442 -1 x5443 -1 x5444 -1 x5445 -1 x5446 -1 x5447 -1 x5448 >= 0 ;
+2 x5905 +2 x5906 +2 x5907 +2 x5908 -1 x5445 -1 x5446 -1 x5447 -1 x5448 -1 x5449 -1 x5450 -1 x5451 -1 x5452 >= 0 ;
+2 x5909 +2 x5910 +2 x5911 +2 x5912 -1 x5449 -1 x5450 -1 x5451 -1 x5452 -1 x5453 -1 x5454 -1 x5455 -1 x5456 >= 0 ;
+2 x5913 +2 x5914 +2 x5915 +2 x5916 -1 x5453 -1 x5454 -1 x5455 -1 x5456 -1 x5457 -1 x5458 -1 x5459 -1 x5460 >= 0 ;
+2 x5917 +2 x5918 +2 x5919 +2 x5920 -1 x5457 -1 x5458 -1 x5459 -1 x5460 -1 x5461 -1 x5462 -1 x5463 -1 x5464 >= 0 ;
+2 x5921 +2 x5922 +2 x5923 +2 x5924 -1 x5461 -1 x5462 -1 x5463 -1 x5464 -1 x5465 -1 x5466 -1 x5467 -1 x5468 >= 0 ;
+2 x5925 +2 x5926 +2 x5927 +2 x5928 -1 x5465 -1 x5466 -1 x5467 -1 x5468 -1 x5469 -1 x5470 -1 x5471 -1 x5472 >= 0 ;
+2 x5929 +2 x5930 +2 x5931 +2 x5932 -1 x5469 -1 x5470 -1 x5471 -1 x5472 -1 x5473 -1 x5474 -1 x5475 -1 x5476 >= 0 ;
+2 x5933 +2 x5934 +2 x5935 +2 x5936 -1 x5473 -1 x5474 -1 x5475 -1 x5476 -1 x5477 -1 x5478 -1 x5479 -1 x5480 >= 0 ;
+2 x5937 +2 x5938 +2 x5939 +2 x5940 -1 x5477 -1 x5478 -1 x5479 -1 x5480 -1 x5481 -1 x5482 -1 x5483 -1 x5484 >= 0 ;
+2 x5941 +2 x5942 +2 x5943 +2 x5944 -1 x5481 -1 x5482 -1 x5483 -1 x5484 -1 x5485 -1 x5486 -1 x5487 -1 x5488 >= 0 ;
+2 x5945 +2 x5946 +2 x5947 +2 x5948 -1 x5485 -1 x5486 -1 x5487 -1 x5488 -1 x5489 -1 x5490 -1 x5491 -1 x5492 >= 0 ;
+2 x5949 +2 x5950 +2 x5951 +2 x5952 -1 x5489 -1 x5490 -1 x5491 -1 x5492 -1 x5493 -1 x5494 -1 x5495 -1 x5496 >= 0 ;
+2 x5953 +2 x5954 +2 x5955 +2 x5956 -1 x5493 -1 x5494 -1 x5495 -1 x5496 -1 x5497 -1 x5498 -1 x5499 -1 x5500 >= 0 ;
+2 x5957 +2 x5958 +2 x5959 +2 x5960 -1 x5497 -1 x5498 -1 x5499 -1 x5500 -1 x5501 -1 x5502 -1 x5503 -1 x5504 >= 0 ;
+2 x5961 +2 x5962 +2 x5963 +2 x5964 -1 x5501 -1 x5502 -1 x5503 -1 x5504 -1 x5505 -1 x5506 -1 x5507 -1 x5508 >= 0 ;
+2 x5965 +2 x5966 +2 x5967 +2 x5968 -1 x5505 -1 x5506 -1 x5507 -1 x5508 -1 x5509 -1 x5510 -1 x5511 -1 x5512 >= 0 ;
+2 x5969 +2 x5970 +2 x5971 +2 x5972 -1 x5509 -1 x5510 -1 x5511 -1 x5512 -1 x5513 -1 x5514 -1 x5515 -1 x5516 >= 0 ;
+2 x5973 +2 x5974 +2 x5975 +2 x5976 -1 x5513 -1 x5514 -1 x5515 -1 x5516 -1 x5517 -1 x5518 -1 x5519 -1 x5520 >= 0 ;
+2 x5977 +2 x5978 +2 x5979 +2 x5980 -1 x5517 -1 x5518 -1 x5519 -1 x5520 -1 x5521 -1 x5522 -1 x5523 -1 x5524 >= 0 ;
+2 x5981 +2 x5982 +2 x5983 +2 x5984 -1 x5521 -1 x5522 -1 x5523 -1 x5524 -1 x5525 -1 x5526 -1 x5527 -1 x5528 >= 0 ;
+2 x5985 +2 x5986 +2 x5987 +2 x5988 -1 x5525 -1 x5526 -1 x5527 -1 x5528 -1 x5529 -1 x5530 -1 x5531 -1 x5532 >= 0 ;
+2 x5989 +2 x5990 +2 x5991 +2 x5992 -1 x5529 -1 x5530 -1 x5531 -1 x5532 -1 x5533 -1 x5534 -1 x5535 -1 x5536 >= 0 ;
+2 x5993 +2 x5994 +2 x5995 +2 x5996 -1 x5533 -1 x5534 -1 x5535 -1 x5536 -1 x5537 -1 x5538 -1 x5539 -1 x5540 >= 0 ;
+2 x5997 +2 x5998 +2 x5999 +2 x6000 -1 x5537 -1 x5538 -1 x5539 -1 x5540 -1 x5541 -1 x5542 -1 x5543 -1 x5544 >= 0 ;
+2 x6001 +2 x6002 +2 x6003 +2 x6004 -1 x5541 -1 x5542 -1 x5543 -1 x5544 -1 x5545 -1 x5546 -1 x5547 -1 x5548 >= 0 ;
+2 x6005 +2 x6006 +2 x6007 +2 x6008 -1 x5545 -1 x5546 -1 x5547 -1 x5548 -1 x5549 -1 x5550 -1 x5551 -1 x5552 >= 0 ;
+2 x6009 +2 x6010 +2 x6011 +2 x6012 -1 x5549 -1 x5550 -1 x5551 -1 x5552 -1 x5553 -1 x5554 -1 x5555 -1 x5556 >= 0 ;
+2 x6013 +2 x6014 +2 x6015 +2 x6016 -1 x5553 -1 x5554 -1 x5555 -1 x5556 -1 x5557 -1 x5558 -1 x5559 -1 x5560 >= 0 ;
+2 x6017 +2 x6018 +2 x6019 +2 x6020 -1 x5557 -1 x5558 -1 x5559 -1 x5560 -1 x5561 -1 x5562 -1 x5563 -1 x5564 >= 0 ;
+2 x6021 +2 x6022 +2 x6023 +2 x6024 -1 x5561 -1 x5562 -1 x5563 -1 x5564 -1 x5565 -1 x5566 -1 x5567 -1 x5568 >= 0 ;
+2 x6025 +2 x6026 +2 x6027 +2 x6028 -1 x5565 -1 x5566 -1 x5567 -1 x5568 -1 x5569 -1 x5570 -1 x5571 -1 x5572 >= 0 ;
+2 x6029 +2 x6030 +2 x6031 +2 x6032 -1 x5569 -1 x5570 -1 x5571 -1 x5572 -1 x5573 -1 x5574 -1 x5575 -1 x5576 >= 0 ;
+2 x6033 +2 x6034 +2 x6035 +2 x6036 -1 x5573 -1 x5574 -1 x5575 -1 x5576 -1 x5577 -1 x5578 -1 x5579 -1 x5580 >= 0 ;
+2 x6037 +2 x6038 +2 x6039 +2 x6040 -1 x5577 -1 x5578 -1 x5579 -1 x5580 -1 x5581 -1 x5582 -1 x5583 -1 x5584 >= 0 ;
+2 x6041 +2 x6042 +2 x6043 +2 x6044 -1 x5581 -1 x5582 -1 x5583 -1 x5584 -1 x5585 -1 x5586 -1 x5587 -1 x5588 >= 0 ;
+2 x6045 +2 x6046 +2 x6047 +2 x6048 -1 x5585 -1 x5586 -1 x5587 -1 x5588 -1 x5589 -1 x5590 -1 x5591 -1 x5592 >= 0 ;
+2 x6049 +2 x6050 +2 x6051 +2 x6052 -1 x5589 -1 x5590 -1 x5591 -1 x5592 -1 x5593 -1 x5594 -1 x5595 -1 x5596 >= 0 ;
+2 x6053 +2 x6054 +2 x6055 +2 x6056 -1 x5593 -1 x5594 -1 x5595 -1 x5596 -1 x5597 -1 x5598 -1 x5599 -1 x5600 >= 0 ;
+2 x6057 +2 x6058 +2 x6059 +2 x6060 -1 x5597 -1 x5598 -1 x5599 -1 x5600 -1 x5601 -1 x5602 -1 x5603 -1 x5604 >= 0 ;
+2 x6061 +2 x6062 +2 x6063 +2 x6064 -1 x5601 -1 x5602 -1 x5603 -1 x5604 -1 x5605 -1 x5606 -1 x5607 -1 x5608 >= 0 ;
+2 x6065 +2 x6066 +2 x6067 +2 x6068 -1 x5605 -1 x5606 -1 x5607 -1 x5608 -1 x5609 -1 x5610 -1 x5611 -1 x5612 >= 0 ;
+2 x6069 +2 x6070 +2 x6071 +2 x6072 -1 x5609 -1 x5610 -1 x5611 -1 x5612 -1 x5613 -1 x5614 -1 x5615 -1 x5616 >= 0 ;
+2 x6073 +2 x6074 +2 x6075 +2 x6076 -1 x5613 -1 x5614 -1 x5615 -1 x5616 -1 x5617 -1 x5618 -1 x5619 -1 x5620 >= 0 ;
+2 x6077 +2 x6078 +2 x6079 +2 x6080 -1 x5617 -1 x5618 -1 x5619 -1 x5620 -1 x5621 -1 x5622 -1 x5623 -1 x5624 >= 0 ;
+2 x6081 +2 x6082 +2 x6083 +2 x6084 -1 x5621 -1 x5622 -1 x5623 -1 x5624 -1 x5625 -1 x5626 -1 x5627 -1 x5628 >= 0 ;
+2 x6085 +2 x6086 +2 x6087 +2 x6088 -1 x5625 -1 x5626 -1 x5627 -1 x5628 -1 x5629 -1 x5630 -1 x5631 -1 x5632 >= 0 ;
+2 x6089 +2 x6090 +2 x6091 +2 x6092 -1 x5629 -1 x5630 -1 x5631 -1 x5632 -1 x5633 -1 x5634 -1 x5635 -1 x5636 >= 0 ;
+2 x6093 +2 x6094 +2 x6095 +2 x6096 -1 x5633 -1 x5634 -1 x5635 -1 x5636 -1 x5637 -1 x5638 -1 x5639 -1 x5640 >= 0 ;
+2 x6097 +2 x6098 +2 x6099 +2 x6100 -1 x5637 -1 x5638 -1 x5639 -1 x5640 -1 x5641 -1 x5642 -1 x5643 -1 x5644 >= 0 ;
+2 x6101 +2 x6102 +2 x6103 +2 x6104 -1 x5641 -1 x5642 -1 x5643 -1 x5644 -1 x5645 -1 x5646 -1 x5647 -1 x5648 >= 0 ;
+2 x6105 +2 x6106 +2 x6107 +2 x6108 -1 x5645 -1 x5646 -1 x5647 -1 x5648 -1 x5649 -1 x5650 -1 x5651 -1 x5652 >= 0 ;
+2 x6109 +2 x6110 +2 x6111 +2 x6112 -1 x5649 -1 x5650 -1 x5651 -1 x5652 -1 x5653 -1 x5654 -1 x5655 -1 x5656 >= 0 ;
+2 x6113 +2 x6114 +2 x6115 +2 x6116 -1 x5653 -1 x5654 -1 x5655 -1 x5656 -1 x5657 -1 x5658 -1 x5659 -1 x5660 >= 0 ;
+2 x6117 +2 x6118 +2 x6119 +2 x6120 -1 x5657 -1 x5658 -1 x5659 -1 x5660 -1 x5661 -1 x5662 -1 x5663 -1 x5664 >= 0 ;
+2 x6121 +2 x6122 +2 x6123 +2 x6124 -1 x5661 -1 x5662 -1 x5663 -1 x5664 -1 x5665 -1 x5666 -1 x5667 -1 x5668 >= 0 ;
+2 x6125 +2 x6126 +2 x6127 +2 x6128 -1 x5665 -1 x5666 -1 x5667 -1 x5668 -1 x5669 -1 x5670 -1 x5671 -1 x5672 >= 0 ;
+2 x6129 +2 x6130 +2 x6131 +2 x6132 -1 x5669 -1 x5670 -1 x5671 -1 x5672 -1 x5673 -1 x5674 -1 x5675 -1 x5676 >= 0 ;
+2 x6133 +2 x6134 +2 x6135 +2 x6136 -1 x5673 -1 x5674 -1 x5675 -1 x5676 -1 x5677 -1 x5678 -1 x5679 -1 x5680 >= 0 ;
+2 x6137 +2 x6138 +2 x6139 +2 x6140 -1 x5677 -1 x5678 -1 x5679 -1 x5680 -1 x5681 -1 x5682 -1 x5683 -1 x5684 >= 0 ;
+2 x6141 +2 x6142 +2 x6143 +2 x6144 -1 x5681 -1 x5682 -1 x5683 -1 x5684 -1 x5685 -1 x5686 -1 x5687 -1 x5688 >= 0 ;
+2 x6145 +2 x6146 +2 x6147 +2 x6148 -1 x5685 -1 x5686 -1 x5687 -1 x5688 -1 x5689 -1 x5690 -1 x5691 -1 x5692 >= 0 ;
+2 x6149 +2 x6150 +2 x6151 +2 x6152 -1 x5689 -1 x5690 -1 x5691 -1 x5692 -1 x5693 -1 x5694 -1 x5695 -1 x5696 >= 0 ;
+2 x6153 +2 x6154 +2 x6155 +2 x6156 -1 x5693 -1 x5694 -1 x5695 -1 x5696 -1 x5697 -1 x5698 -1 x5699 -1 x5700 >= 0 ;
+2 x6157 +2 x6158 +2 x6159 +2 x6160 -1 x5697 -1 x5698 -1 x5699 -1 x5700 -1 x5701 -1 x5702 -1 x5703 -1 x5704 >= 0 ;
+2 x6161 +2 x6162 +2 x6163 +2 x6164 -1 x5701 -1 x5702 -1 x5703 -1 x5704 -1 x5705 -1 x5706 -1 x5707 -1 x5708 >= 0 ;
+2 x6165 +2 x6166 +2 x6167 +2 x6168 -1 x5705 -1 x5706 -1 x5707 -1 x5708 -1 x5709 -1 x5710 -1 x5711 -1 x5712 >= 0 ;
+2 x6169 +2 x6170 +2 x6171 +2 x6172 -1 x5709 -1 x5710 -1 x5711 -1 x5712 -1 x5713 -1 x5714 -1 x5715 -1 x5716 >= 0 ;
+2 x6173 +2 x6174 +2 x6175 +2 x6176 -1 x5713 -1 x5714 -1 x5715 -1 x5716 -1 x5717 -1 x5718 -1 x5719 -1 x5720 >= 0 ;
+2 x6177 +2 x6178 +2 x6179 +2 x6180 -1 x5717 -1 x5718 -1 x5719 -1 x5720 -1 x5721 -1 x5722 -1 x5723 -1 x5724 >= 0 ;
+2 x6181 +2 x6182 +2 x6183 +2 x6184 -1 x5721 -1 x5722 -1 x5723 -1 x5724 -1 x5725 -1 x5726 -1 x5727 -1 x5728 >= 0 ;
+2 x6185 +2 x6186 +2 x6187 +2 x6188 -1 x5725 -1 x5726 -1 x5727 -1 x5728 -1 x5729 -1 x5730 -1 x5731 -1 x5732 >= 0 ;
+2 x6189 +2 x6190 +2 x6191 +2 x6192 -1 x5729 -1 x5730 -1 x5731 -1 x5732 -1 x5733 -1 x5734 -1 x5735 -1 x5736 >= 0 ;
+2 x6193 +2 x6194 +2 x6195 +2 x6196 -1 x5733 -1 x5734 -1 x5735 -1 x5736 -1 x5737 -1 x5738 -1 x5739 -1 x5740 >= 0 ;
+2 x6197 +2 x6198 +2 x6199 +2 x6200 -1 x5737 -1 x5738 -1 x5739 -1 x5740 -1 x5741 -1 x5742 -1 x5743 -1 x5744 >= 0 ;
+2 x6201 +2 x6202 +2 x6203 +2 x6204 -1 x5741 -1 x5742 -1 x5743 -1 x5744 -1 x5745 -1 x5746 -1 x5747 -1 x5748 >= 0 ;
+2 x6205 +2 x6206 +2 x6207 +2 x6208 -1 x5745 -1 x5746 -1 x5747 -1 x5748 -1 x5749 -1 x5750 -1 x5751 -1 x5752 >= 0 ;
+2 x6209 +2 x6210 +2 x6211 +2 x6212 -1 x5749 -1 x5750 -1 x5751 -1 x5752 -1 x5753 -1 x5754 -1 x5755 -1 x5756 >= 0 ;
+2 x6213 +2 x6214 +2 x6215 +2 x6216 -1 x5753 -1 x5754 -1 x5755 -1 x5756 -1 x5757 -1 x5758 -1 x5759 -1 x5760 >= 0 ;
+2 x6217 +2 x6218 +2 x6219 +2 x6220 -1 x5757 -1 x5758 -1 x5759 -1 x5760 -1 x5761 -1 x5762 -1 x5763 -1 x5764 >= 0 ;
+2 x6221 +2 x6222 +2 x6223 +2 x6224 -1 x5761 -1 x5762 -1 x5763 -1 x5764 -1 x5765 -1 x5766 -1 x5767 -1 x5768 >= 0 ;
+2 x6225 +2 x6226 +2 x6227 +2 x6228 -1 x5765 -1 x5766 -1 x5767 -1 x5768 -1 x5769 -1 x5770 -1 x5771 -1 x5772 >= 0 ;
+2 x6229 +2 x6230 +2 x6231 +2 x6232 -1 x5769 -1 x5770 -1 x5771 -1 x5772 -1 x5773 -1 x5774 -1 x5775 -1 x5776 >= 0 ;
+2 x6233 +2 x6234 +2 x6235 +2 x6236 -1 x5773 -1 x5774 -1 x5775 -1 x5776 -1 x5777 -1 x5778 -1 x5779 -1 x5780 >= 0 ;
+2 x6237 +2 x6238 +2 x6239 +2 x6240 -1 x5777 -1 x5778 -1 x5779 -1 x5780 -1 x5781 -1 x5782 -1 x5783 -1 x5784 >= 0 ;
+2 x6241 +2 x6242 +2 x6243 +2 x6244 -1 x5785 -1 x5786 -1 x5787 -1 x5788 -1 x5789 -1 x5790 -1 x5791 -1 x5792 >= 0 ;
+2 x6245 +2 x6246 +2 x6247 +2 x6248 -1 x5789 -1 x5790 -1 x5791 -1 x5792 -1 x5793 -1 x5794 -1 x5795 -1 x5796 >= 0 ;
+2 x6249 +2 x6250 +2 x6251 +2 x6252 -1 x5793 -1 x5794 -1 x5795 -1 x5796 -1 x5797 -1 x5798 -1 x5799 -1 x5800 >= 0 ;
+2 x6253 +2 x6254 +2 x6255 +2 x6256 -1 x5797 -1 x5798 -1 x5799 -1 x5800 -1 x5801 -1 x5802 -1 x5803 -1 x5804 >= 0 ;
+2 x6257 +2 x6258 +2 x6259 +2 x6260 -1 x5801 -1 x5802 -1 x5803 -1 x5804 -1 x5805 -1 x5806 -1 x5807 -1 x5808 >= 0 ;
+2 x6261 +2 x6262 +2 x6263 +2 x6264 -1 x5805 -1 x5806 -1 x5807 -1 x5808 -1 x5809 -1 x5810 -1 x5811 -1 x5812 >= 0 ;
+2 x6265 +2 x6266 +2 x6267 +2 x6268 -1 x5809 -1 x5810 -1 x5811 -1 x5812 -1 x5813 -1 x5814 -1 x5815 -1 x5816 >= 0 ;
+2 x6269 +2 x6270 +2 x6271 +2 x6272 -1 x5813 -1 x5814 -1 x5815 -1 x5816 -1 x5817 -1 x5818 -1 x5819 -1 x5820 >= 0 ;
+2 x6273 +2 x6274 +2 x6275 +2 x6276 -1 x5817 -1 x5818 -1 x5819 -1 x5820 -1 x5821 -1 x5822 -1 x5823 -1 x5824 >= 0 ;
+2 x6277 +2 x6278 +2 x6279 +2 x6280 -1 x5821 -1 x5822 -1 x5823 -1 x5824 -1 x5825 -1 x5826 -1 x5827 -1 x5828 >= 0 ;
+2 x6281 +2 x6282 +2 x6283 +2 x6284 -1 x5825 -1 x5826 -1 x5827 -1 x5828 -1 x5829 -1 x5830 -1 x5831 -1 x5832 >= 0 ;
+2 x6285 +2 x6286 +2 x6287 +2 x6288 -1 x5829 -1 x5830 -1 x5831 -1 x5832 -1 x5833 -1 x5834 -1 x5835 -1 x5836 >= 0 ;
+2 x6289 +2 x6290 +2 x6291 +2 x6292 -1 x5833 -1 x5834 -1 x5835 -1 x5836 -1 x5837 -1 x5838 -1 x5839 -1 x5840 >= 0 ;
+2 x6293 +2 x6294 +2 x6295 +2 x6296 -1 x5837 -1 x5838 -1 x5839 -1 x5840 -1 x5841 -1 x5842 -1 x5843 -1 x5844 >= 0 ;
+2 x6297 +2 x6298 +2 x6299 +2 x6300 -1 x5841 -1 x5842 -1 x5843 -1 x5844 -1 x5845 -1 x5846 -1 x5847 -1 x5848 >= 0 ;
+2 x6301 +2 x6302 +2 x6303 +2 x6304 -1 x5845 -1 x5846 -1 x5847 -1 x5848 -1 x5849 -1 x5850 -1 x5851 -1 x5852 >= 0 ;
+2 x6305 +2 x6306 +2 x6307 +2 x6308 -1 x5849 -1 x5850 -1 x5851 -1 x5852 -1 x5853 -1 x5854 -1 x5855 -1 x5856 >= 0 ;
+2 x6309 +2 x6310 +2 x6311 +2 x6312 -1 x5853 -1 x5854 -1 x5855 -1 x5856 -1 x5857 -1 x5858 -1 x5859 -1 x5860 >= 0 ;
+2 x6313 +2 x6314 +2 x6315 +2 x6316 -1 x5857 -1 x5858 -1 x5859 -1 x5860 -1 x5861 -1 x5862 -1 x5863 -1 x5864 >= 0 ;
+2 x6317 +2 x6318 +2 x6319 +2 x6320 -1 x5861 -1 x5862 -1 x5863 -1 x5864 -1 x5865 -1 x5866 -1 x5867 -1 x5868 >= 0 ;
+2 x6321 +2 x6322 +2 x6323 +2 x6324 -1 x5865 -1 x5866 -1 x5867 -1 x5868 -1 x5869 -1 x5870 -1 x5871 -1 x5872 >= 0 ;
+2 x6325 +2 x6326 +2 x6327 +2 x6328 -1 x5869 -1 x5870 -1 x5871 -1 x5872 -1 x5873 -1 x5874 -1 x5875 -1 x5876 >= 0 ;
+2 x6329 +2 x6330 +2 x6331 +2 x6332 -1 x5873 -1 x5874 -1 x5875 -1 x5876 -1 x5877 -1 x5878 -1 x5879 -1 x5880 >= 0 ;
+2 x6333 +2 x6334 +2 x6335 +2 x6336 -1 x5877 -1 x5878 -1 x5879 -1 x5880 -1 x5881 -1 x5882 -1 x5883 -1 x5884 >= 0 ;
+2 x6337 +2 x6338 +2 x6339 +2 x6340 -1 x5881 -1 x5882 -1 x5883 -1 x5884 -1 x5885 -1 x5886 -1 x5887 -1 x5888 >= 0 ;
+2 x6341 +2 x6342 +2 x6343 +2 x6344 -1 x5885 -1 x5886 -1 x5887 -1 x5888 -1 x5889 -1 x5890 -1 x5891 -1 x5892 >= 0 ;
+2 x6345 +2 x6346 +2 x6347 +2 x6348 -1 x5889 -1 x5890 -1 x5891 -1 x5892 -1 x5893 -1 x5894 -1 x5895 -1 x5896 >= 0 ;
+2 x6349 +2 x6350 +2 x6351 +2 x6352 -1 x5893 -1 x5894 -1 x5895 -1 x5896 -1 x5897 -1 x5898 -1 x5899 -1 x5900 >= 0 ;
+2 x6353 +2 x6354 +2 x6355 +2 x6356 -1 x5897 -1 x5898 -1 x5899 -1 x5900 -1 x5901 -1 x5902 -1 x5903 -1 x5904 >= 0 ;
+2 x6357 +2 x6358 +2 x6359 +2 x6360 -1 x5901 -1 x5902 -1 x5903 -1 x5904 -1 x5905 -1 x5906 -1 x5907 -1 x5908 >= 0 ;
+2 x6361 +2 x6362 +2 x6363 +2 x6364 -1 x5905 -1 x5906 -1 x5907 -1 x5908 -1 x5909 -1 x5910 -1 x5911 -1 x5912 >= 0 ;
+2 x6365 +2 x6366 +2 x6367 +2 x6368 -1 x5909 -1 x5910 -1 x5911 -1 x5912 -1 x5913 -1 x5914 -1 x5915 -1 x5916 >= 0 ;
+2 x6369 +2 x6370 +2 x6371 +2 x6372 -1 x5913 -1 x5914 -1 x5915 -1 x5916 -1 x5917 -1 x5918 -1 x5919 -1 x5920 >= 0 ;
+2 x6373 +2 x6374 +2 x6375 +2 x6376 -1 x5917 -1 x5918 -1 x5919 -1 x5920 -1 x5921 -1 x5922 -1 x5923 -1 x5924 >= 0 ;
+2 x6377 +2 x6378 +2 x6379 +2 x6380 -1 x5921 -1 x5922 -1 x5923 -1 x5924 -1 x5925 -1 x5926 -1 x5927 -1 x5928 >= 0 ;
+2 x6381 +2 x6382 +2 x6383 +2 x6384 -1 x5925 -1 x5926 -1 x5927 -1 x5928 -1 x5929 -1 x5930 -1 x5931 -1 x5932 >= 0 ;
+2 x6385 +2 x6386 +2 x6387 +2 x6388 -1 x5929 -1 x5930 -1 x5931 -1 x5932 -1 x5933 -1 x5934 -1 x5935 -1 x5936 >= 0 ;
+2 x6389 +2 x6390 +2 x6391 +2 x6392 -1 x5933 -1 x5934 -1 x5935 -1 x5936 -1 x5937 -1 x5938 -1 x5939 -1 x5940 >= 0 ;
+2 x6393 +2 x6394 +2 x6395 +2 x6396 -1 x5937 -1 x5938 -1 x5939 -1 x5940 -1 x5941 -1 x5942 -1 x5943 -1 x5944 >= 0 ;
+2 x6397 +2 x6398 +2 x6399 +2 x6400 -1 x5941 -1 x5942 -1 x5943 -1 x5944 -1 x5945 -1 x5946 -1 x5947 -1 x5948 >= 0 ;
+2 x6401 +2 x6402 +2 x6403 +2 x6404 -1 x5945 -1 x5946 -1 x5947 -1 x5948 -1 x5949 -1 x5950 -1 x5951 -1 x5952 >= 0 ;
+2 x6405 +2 x6406 +2 x6407 +2 x6408 -1 x5949 -1 x5950 -1 x5951 -1 x5952 -1 x5953 -1 x5954 -1 x5955 -1 x5956 >= 0 ;
+2 x6409 +2 x6410 +2 x6411 +2 x6412 -1 x5953 -1 x5954 -1 x5955 -1 x5956 -1 x5957 -1 x5958 -1 x5959 -1 x5960 >= 0 ;
+2 x6413 +2 x6414 +2 x6415 +2 x6416 -1 x5957 -1 x5958 -1 x5959 -1 x5960 -1 x5961 -1 x5962 -1 x5963 -1 x5964 >= 0 ;
+2 x6417 +2 x6418 +2 x6419 +2 x6420 -1 x5961 -1 x5962 -1 x5963 -1 x5964 -1 x5965 -1 x5966 -1 x5967 -1 x5968 >= 0 ;
+2 x6421 +2 x6422 +2 x6423 +2 x6424 -1 x5965 -1 x5966 -1 x5967 -1 x5968 -1 x5969 -1 x5970 -1 x5971 -1 x5972 >= 0 ;
+2 x6425 +2 x6426 +2 x6427 +2 x6428 -1 x5969 -1 x5970 -1 x5971 -1 x5972 -1 x5973 -1 x5974 -1 x5975 -1 x5976 >= 0 ;
+2 x6429 +2 x6430 +2 x6431 +2 x6432 -1 x5973 -1 x5974 -1 x5975 -1 x5976 -1 x5977 -1 x5978 -1 x5979 -1 x5980 >= 0 ;
+2 x6433 +2 x6434 +2 x6435 +2 x6436 -1 x5977 -1 x5978 -1 x5979 -1 x5980 -1 x5981 -1 x5982 -1 x5983 -1 x5984 >= 0 ;
+2 x6437 +2 x6438 +2 x6439 +2 x6440 -1 x5981 -1 x5982 -1 x5983 -1 x5984 -1 x5985 -1 x5986 -1 x5987 -1 x5988 >= 0 ;
+2 x6441 +2 x6442 +2 x6443 +2 x6444 -1 x5985 -1 x5986 -1 x5987 -1 x5988 -1 x5989 -1 x5990 -1 x5991 -1 x5992 >= 0 ;
+2 x6445 +2 x6446 +2 x6447 +2 x6448 -1 x5989 -1 x5990 -1 x5991 -1 x5992 -1 x5993 -1 x5994 -1 x5995 -1 x5996 >= 0 ;
+2 x6449 +2 x6450 +2 x6451 +2 x6452 -1 x5993 -1 x5994 -1 x5995 -1 x5996 -1 x5997 -1 x5998 -1 x5999 -1 x6000 >= 0 ;
+2 x6453 +2 x6454 +2 x6455 +2 x6456 -1 x5997 -1 x5998 -1 x5999 -1 x6000 -1 x6001 -1 x6002 -1 x6003 -1 x6004 >= 0 ;
+2 x6457 +2 x6458 +2 x6459 +2 x6460 -1 x6001 -1 x6002 -1 x6003 -1 x6004 -1 x6005 -1 x6006 -1 x6007 -1 x6008 >= 0 ;
+2 x6461 +2 x6462 +2 x6463 +2 x6464 -1 x6005 -1 x6006 -1 x6007 -1 x6008 -1 x6009 -1 x6010 -1 x6011 -1 x6012 >= 0 ;
+2 x6465 +2 x6466 +2 x6467 +2 x6468 -1 x6009 -1 x6010 -1 x6011 -1 x6012 -1 x6013 -1 x6014 -1 x6015 -1 x6016 >= 0 ;
+2 x6469 +2 x6470 +2 x6471 +2 x6472 -1 x6013 -1 x6014 -1 x6015 -1 x6016 -1 x6017 -1 x6018 -1 x6019 -1 x6020 >= 0 ;
+2 x6473 +2 x6474 +2 x6475 +2 x6476 -1 x6017 -1 x6018 -1 x6019 -1 x6020 -1 x6021 -1 x6022 -1 x6023 -1 x6024 >= 0 ;
+2 x6477 +2 x6478 +2 x6479 +2 x6480 -1 x6021 -1 x6022 -1 x6023 -1 x6024 -1 x6025 -1 x6026 -1 x6027 -1 x6028 >= 0 ;
+2 x6481 +2 x6482 +2 x6483 +2 x6484 -1 x6025 -1 x6026 -1 x6027 -1 x6028 -1 x6029 -1 x6030 -1 x6031 -1 x6032 >= 0 ;
+2 x6485 +2 x6486 +2 x6487 +2 x6488 -1 x6029 -1 x6030 -1 x6031 -1 x6032 -1 x6033 -1 x6034 -1 x6035 -1 x6036 >= 0 ;
+2 x6489 +2 x6490 +2 x6491 +2 x6492 -1 x6033 -1 x6034 -1 x6035 -1 x6036 -1 x6037 -1 x6038 -1 x6039 -1 x6040 >= 0 ;
+2 x6493 +2 x6494 +2 x6495 +2 x6496 -1 x6037 -1 x6038 -1 x6039 -1 x6040 -1 x6041 -1 x6042 -1 x6043 -1 x6044 >= 0 ;
+2 x6497 +2 x6498 +2 x6499 +2 x6500 -1 x6041 -1 x6042 -1 x6043 -1 x6044 -1 x6045 -1 x6046 -1 x6047 -1 x6048 >= 0 ;
+2 x6501 +2 x6502 +2 x6503 +2 x6504 -1 x6045 -1 x6046 -1 x6047 -1 x6048 -1 x6049 -1 x6050 -1 x6051 -1 x6052 >= 0 ;
+2 x6505 +2 x6506 +2 x6507 +2 x6508 -1 x6049 -1 x6050 -1 x6051 -1 x6052 -1 x6053 -1 x6054 -1 x6055 -1 x6056 >= 0 ;
+2 x6509 +2 x6510 +2 x6511 +2 x6512 -1 x6053 -1 x6054 -1 x6055 -1 x6056 -1 x6057 -1 x6058 -1 x6059 -1 x6060 >= 0 ;
+2 x6513 +2 x6514 +2 x6515 +2 x6516 -1 x6057 -1 x6058 -1 x6059 -1 x6060 -1 x6061 -1 x6062 -1 x6063 -1 x6064 >= 0 ;
+2 x6517 +2 x6518 +2 x6519 +2 x6520 -1 x6061 -1 x6062 -1 x6063 -1 x6064 -1 x6065 -1 x6066 -1 x6067 -1 x6068 >= 0 ;
+2 x6521 +2 x6522 +2 x6523 +2 x6524 -1 x6065 -1 x6066 -1 x6067 -1 x6068 -1 x6069 -1 x6070 -1 x6071 -1 x6072 >= 0 ;
+2 x6525 +2 x6526 +2 x6527 +2 x6528 -1 x6069 -1 x6070 -1 x6071 -1 x6072 -1 x6073 -1 x6074 -1 x6075 -1 x6076 >= 0 ;
+2 x6529 +2 x6530 +2 x6531 +2 x6532 -1 x6073 -1 x6074 -1 x6075 -1 x6076 -1 x6077 -1 x6078 -1 x6079 -1 x6080 >= 0 ;
+2 x6533 +2 x6534 +2 x6535 +2 x6536 -1 x6077 -1 x6078 -1 x6079 -1 x6080 -1 x6081 -1 x6082 -1 x6083 -1 x6084 >= 0 ;
+2 x6537 +2 x6538 +2 x6539 +2 x6540 -1 x6081 -1 x6082 -1 x6083 -1 x6084 -1 x6085 -1 x6086 -1 x6087 -1 x6088 >= 0 ;
+2 x6541 +2 x6542 +2 x6543 +2 x6544 -1 x6085 -1 x6086 -1 x6087 -1 x6088 -1 x6089 -1 x6090 -1 x6091 -1 x6092 >= 0 ;
+2 x6545 +2 x6546 +2 x6547 +2 x6548 -1 x6089 -1 x6090 -1 x6091 -1 x6092 -1 x6093 -1 x6094 -1 x6095 -1 x6096 >= 0 ;
+2 x6549 +2 x6550 +2 x6551 +2 x6552 -1 x6093 -1 x6094 -1 x6095 -1 x6096 -1 x6097 -1 x6098 -1 x6099 -1 x6100 >= 0 ;
+2 x6553 +2 x6554 +2 x6555 +2 x6556 -1 x6097 -1 x6098 -1 x6099 -1 x6100 -1 x6101 -1 x6102 -1 x6103 -1 x6104 >= 0 ;
+2 x6557 +2 x6558 +2 x6559 +2 x6560 -1 x6101 -1 x6102 -1 x6103 -1 x6104 -1 x6105 -1 x6106 -1 x6107 -1 x6108 >= 0 ;
+2 x6561 +2 x6562 +2 x6563 +2 x6564 -1 x6105 -1 x6106 -1 x6107 -1 x6108 -1 x6109 -1 x6110 -1 x6111 -1 x6112 >= 0 ;
+2 x6565 +2 x6566 +2 x6567 +2 x6568 -1 x6109 -1 x6110 -1 x6111 -1 x6112 -1 x6113 -1 x6114 -1 x6115 -1 x6116 >= 0 ;
+2 x6569 +2 x6570 +2 x6571 +2 x6572 -1 x6113 -1 x6114 -1 x6115 -1 x6116 -1 x6117 -1 x6118 -1 x6119 -1 x6120 >= 0 ;
+2 x6573 +2 x6574 +2 x6575 +2 x6576 -1 x6117 -1 x6118 -1 x6119 -1 x6120 -1 x6121 -1 x6122 -1 x6123 -1 x6124 >= 0 ;
+2 x6577 +2 x6578 +2 x6579 +2 x6580 -1 x6121 -1 x6122 -1 x6123 -1 x6124 -1 x6125 -1 x6126 -1 x6127 -1 x6128 >= 0 ;
+2 x6581 +2 x6582 +2 x6583 +2 x6584 -1 x6125 -1 x6126 -1 x6127 -1 x6128 -1 x6129 -1 x6130 -1 x6131 -1 x6132 >= 0 ;
+2 x6585 +2 x6586 +2 x6587 +2 x6588 -1 x6129 -1 x6130 -1 x6131 -1 x6132 -1 x6133 -1 x6134 -1 x6135 -1 x6136 >= 0 ;
+2 x6589 +2 x6590 +2 x6591 +2 x6592 -1 x6133 -1 x6134 -1 x6135 -1 x6136 -1 x6137 -1 x6138 -1 x6139 -1 x6140 >= 0 ;
+2 x6593 +2 x6594 +2 x6595 +2 x6596 -1 x6137 -1 x6138 -1 x6139 -1 x6140 -1 x6141 -1 x6142 -1 x6143 -1 x6144 >= 0 ;
+2 x6597 +2 x6598 +2 x6599 +2 x6600 -1 x6141 -1 x6142 -1 x6143 -1 x6144 -1 x6145 -1 x6146 -1 x6147 -1 x6148 >= 0 ;
+2 x6601 +2 x6602 +2 x6603 +2 x6604 -1 x6145 -1 x6146 -1 x6147 -1 x6148 -1 x6149 -1 x6150 -1 x6151 -1 x6152 >= 0 ;
+2 x6605 +2 x6606 +2 x6607 +2 x6608 -1 x6149 -1 x6150 -1 x6151 -1 x6152 -1 x6153 -1 x6154 -1 x6155 -1 x6156 >= 0 ;
+2 x6609 +2 x6610 +2 x6611 +2 x6612 -1 x6153 -1 x6154 -1 x6155 -1 x6156 -1 x6157 -1 x6158 -1 x6159 -1 x6160 >= 0 ;
+2 x6613 +2 x6614 +2 x6615 +2 x6616 -1 x6157 -1 x6158 -1 x6159 -1 x6160 -1 x6161 -1 x6162 -1 x6163 -1 x6164 >= 0 ;
+2 x6617 +2 x6618 +2 x6619 +2 x6620 -1 x6161 -1 x6162 -1 x6163 -1 x6164 -1 x6165 -1 x6166 -1 x6167 -1 x6168 >= 0 ;
+2 x6621 +2 x6622 +2 x6623 +2 x6624 -1 x6165 -1 x6166 -1 x6167 -1 x6168 -1 x6169 -1 x6170 -1 x6171 -1 x6172 >= 0 ;
+2 x6625 +2 x6626 +2 x6627 +2 x6628 -1 x6169 -1 x6170 -1 x6171 -1 x6172 -1 x6173 -1 x6174 -1 x6175 -1 x6176 >= 0 ;
+2 x6629 +2 x6630 +2 x6631 +2 x6632 -1 x6173 -1 x6174 -1 x6175 -1 x6176 -1 x6177 -1 x6178 -1 x6179 -1 x6180 >= 0 ;
+2 x6633 +2 x6634 +2 x6635 +2 x6636 -1 x6177 -1 x6178 -1 x6179 -1 x6180 -1 x6181 -1 x6182 -1 x6183 -1 x6184 >= 0 ;
+2 x6637 +2 x6638 +2 x6639 +2 x6640 -1 x6181 -1 x6182 -1 x6183 -1 x6184 -1 x6185 -1 x6186 -1 x6187 -1 x6188 >= 0 ;
+2 x6641 +2 x6642 +2 x6643 +2 x6644 -1 x6185 -1 x6186 -1 x6187 -1 x6188 -1 x6189 -1 x6190 -1 x6191 -1 x6192 >= 0 ;
+2 x6645 +2 x6646 +2 x6647 +2 x6648 -1 x6189 -1 x6190 -1 x6191 -1 x6192 -1 x6193 -1 x6194 -1 x6195 -1 x6196 >= 0 ;
+2 x6649 +2 x6650 +2 x6651 +2 x6652 -1 x6193 -1 x6194 -1 x6195 -1 x6196 -1 x6197 -1 x6198 -1 x6199 -1 x6200 >= 0 ;
+2 x6653 +2 x6654 +2 x6655 +2 x6656 -1 x6197 -1 x6198 -1 x6199 -1 x6200 -1 x6201 -1 x6202 -1 x6203 -1 x6204 >= 0 ;
+2 x6657 +2 x6658 +2 x6659 +2 x6660 -1 x6201 -1 x6202 -1 x6203 -1 x6204 -1 x6205 -1 x6206 -1 x6207 -1 x6208 >= 0 ;
+2 x6661 +2 x6662 +2 x6663 +2 x6664 -1 x6205 -1 x6206 -1 x6207 -1 x6208 -1 x6209 -1 x6210 -1 x6211 -1 x6212 >= 0 ;
+2 x6665 +2 x6666 +2 x6667 +2 x6668 -1 x6209 -1 x6210 -1 x6211 -1 x6212 -1 x6213 -1 x6214 -1 x6215 -1 x6216 >= 0 ;
+2 x6669 +2 x6670 +2 x6671 +2 x6672 -1 x6213 -1 x6214 -1 x6215 -1 x6216 -1 x6217 -1 x6218 -1 x6219 -1 x6220 >= 0 ;
+2 x6673 +2 x6674 +2 x6675 +2 x6676 -1 x6217 -1 x6218 -1 x6219 -1 x6220 -1 x6221 -1 x6222 -1 x6223 -1 x6224 >= 0 ;
+2 x6677 +2 x6678 +2 x6679 +2 x6680 -1 x6221 -1 x6222 -1 x6223 -1 x6224 -1 x6225 -1 x6226 -1 x6227 -1 x6228 >= 0 ;
+2 x6681 +2 x6682 +2 x6683 +2 x6684 -1 x6225 -1 x6226 -1 x6227 -1 x6228 -1 x6229 -1 x6230 -1 x6231 -1 x6232 >= 0 ;
+2 x6685 +2 x6686 +2 x6687 +2 x6688 -1 x6229 -1 x6230 -1 x6231 -1 x6232 -1 x6233 -1 x6234 -1 x6235 -1 x6236 >= 0 ;
+2 x6689 +2 x6690 +2 x6691 +2 x6692 -1 x6233 -1 x6234 -1 x6235 -1 x6236 -1 x6237 -1 x6238 -1 x6239 -1 x6240 >= 0 ;
+2 x6693 +2 x6694 +2 x6695 +2 x6696 -1 x6241 -1 x6242 -1 x6243 -1 x6244 -1 x6245 -1 x6246 -1 x6247 -1 x6248 >= 0 ;
+2 x6697 +2 x6698 +2 x6699 +2 x6700 -1 x6245 -1 x6246 -1 x6247 -1 x6248 -1 x6249 -1 x6250 -1 x6251 -1 x6252 >= 0 ;
+2 x6701 +2 x6702 +2 x6703 +2 x6704 -1 x6249 -1 x6250 -1 x6251 -1 x6252 -1 x6253 -1 x6254 -1 x6255 -1 x6256 >= 0 ;
+2 x6705 +2 x6706 +2 x6707 +2 x6708 -1 x6253 -1 x6254 -1 x6255 -1 x6256 -1 x6257 -1 x6258 -1 x6259 -1 x6260 >= 0 ;
+2 x6709 +2 x6710 +2 x6711 +2 x6712 -1 x6257 -1 x6258 -1 x6259 -1 x6260 -1 x6261 -1 x6262 -1 x6263 -1 x6264 >= 0 ;
+2 x6713 +2 x6714 +2 x6715 +2 x6716 -1 x6261 -1 x6262 -1 x6263 -1 x6264 -1 x6265 -1 x6266 -1 x6267 -1 x6268 >= 0 ;
+2 x6717 +2 x6718 +2 x6719 +2 x6720 -1 x6265 -1 x6266 -1 x6267 -1 x6268 -1 x6269 -1 x6270 -1 x6271 -1 x6272 >= 0 ;
+2 x6721 +2 x6722 +2 x6723 +2 x6724 -1 x6269 -1 x6270 -1 x6271 -1 x6272 -1 x6273 -1 x6274 -1 x6275 -1 x6276 >= 0 ;
+2 x6725 +2 x6726 +2 x6727 +2 x6728 -1 x6273 -1 x6274 -1 x6275 -1 x6276 -1 x6277 -1 x6278 -1 x6279 -1 x6280 >= 0 ;
+2 x6729 +2 x6730 +2 x6731 +2 x6732 -1 x6277 -1 x6278 -1 x6279 -1 x6280 -1 x6281 -1 x6282 -1 x6283 -1 x6284 >= 0 ;
+2 x6733 +2 x6734 +2 x6735 +2 x6736 -1 x6281 -1 x6282 -1 x6283 -1 x6284 -1 x6285 -1 x6286 -1 x6287 -1 x6288 >= 0 ;
+2 x6737 +2 x6738 +2 x6739 +2 x6740 -1 x6285 -1 x6286 -1 x6287 -1 x6288 -1 x6289 -1 x6290 -1 x6291 -1 x6292 >= 0 ;
+2 x6741 +2 x6742 +2 x6743 +2 x6744 -1 x6289 -1 x6290 -1 x6291 -1 x6292 -1 x6293 -1 x6294 -1 x6295 -1 x6296 >= 0 ;
+2 x6745 +2 x6746 +2 x6747 +2 x6748 -1 x6293 -1 x6294 -1 x6295 -1 x6296 -1 x6297 -1 x6298 -1 x6299 -1 x6300 >= 0 ;
+2 x6749 +2 x6750 +2 x6751 +2 x6752 -1 x6297 -1 x6298 -1 x6299 -1 x6300 -1 x6301 -1 x6302 -1 x6303 -1 x6304 >= 0 ;
+2 x6753 +2 x6754 +2 x6755 +2 x6756 -1 x6301 -1 x6302 -1 x6303 -1 x6304 -1 x6305 -1 x6306 -1 x6307 -1 x6308 >= 0 ;
+2 x6757 +2 x6758 +2 x6759 +2 x6760 -1 x6305 -1 x6306 -1 x6307 -1 x6308 -1 x6309 -1 x6310 -1 x6311 -1 x6312 >= 0 ;
+2 x6761 +2 x6762 +2 x6763 +2 x6764 -1 x6309 -1 x6310 -1 x6311 -1 x6312 -1 x6313 -1 x6314 -1 x6315 -1 x6316 >= 0 ;
+2 x6765 +2 x6766 +2 x6767 +2 x6768 -1 x6313 -1 x6314 -1 x6315 -1 x6316 -1 x6317 -1 x6318 -1 x6319 -1 x6320 >= 0 ;
+2 x6769 +2 x6770 +2 x6771 +2 x6772 -1 x6317 -1 x6318 -1 x6319 -1 x6320 -1 x6321 -1 x6322 -1 x6323 -1 x6324 >= 0 ;
+2 x6773 +2 x6774 +2 x6775 +2 x6776 -1 x6321 -1 x6322 -1 x6323 -1 x6324 -1 x6325 -1 x6326 -1 x6327 -1 x6328 >= 0 ;
+2 x6777 +2 x6778 +2 x6779 +2 x6780 -1 x6325 -1 x6326 -1 x6327 -1 x6328 -1 x6329 -1 x6330 -1 x6331 -1 x6332 >= 0 ;
+2 x6781 +2 x6782 +2 x6783 +2 x6784 -1 x6329 -1 x6330 -1 x6331 -1 x6332 -1 x6333 -1 x6334 -1 x6335 -1 x6336 >= 0 ;
+2 x6785 +2 x6786 +2 x6787 +2 x6788 -1 x6333 -1 x6334 -1 x6335 -1 x6336 -1 x6337 -1 x6338 -1 x6339 -1 x6340 >= 0 ;
+2 x6789 +2 x6790 +2 x6791 +2 x6792 -1 x6337 -1 x6338 -1 x6339 -1 x6340 -1 x6341 -1 x6342 -1 x6343 -1 x6344 >= 0 ;
+2 x6793 +2 x6794 +2 x6795 +2 x6796 -1 x6341 -1 x6342 -1 x6343 -1 x6344 -1 x6345 -1 x6346 -1 x6347 -1 x6348 >= 0 ;
+2 x6797 +2 x6798 +2 x6799 +2 x6800 -1 x6345 -1 x6346 -1 x6347 -1 x6348 -1 x6349 -1 x6350 -1 x6351 -1 x6352 >= 0 ;
+2 x6801 +2 x6802 +2 x6803 +2 x6804 -1 x6349 -1 x6350 -1 x6351 -1 x6352 -1 x6353 -1 x6354 -1 x6355 -1 x6356 >= 0 ;
+2 x6805 +2 x6806 +2 x6807 +2 x6808 -1 x6353 -1 x6354 -1 x6355 -1 x6356 -1 x6357 -1 x6358 -1 x6359 -1 x6360 >= 0 ;
+2 x6809 +2 x6810 +2 x6811 +2 x6812 -1 x6357 -1 x6358 -1 x6359 -1 x6360 -1 x6361 -1 x6362 -1 x6363 -1 x6364 >= 0 ;
+2 x6813 +2 x6814 +2 x6815 +2 x6816 -1 x6361 -1 x6362 -1 x6363 -1 x6364 -1 x6365 -1 x6366 -1 x6367 -1 x6368 >= 0 ;
+2 x6817 +2 x6818 +2 x6819 +2 x6820 -1 x6365 -1 x6366 -1 x6367 -1 x6368 -1 x6369 -1 x6370 -1 x6371 -1 x6372 >= 0 ;
+2 x6821 +2 x6822 +2 x6823 +2 x6824 -1 x6369 -1 x6370 -1 x6371 -1 x6372 -1 x6373 -1 x6374 -1 x6375 -1 x6376 >= 0 ;
+2 x6825 +2 x6826 +2 x6827 +2 x6828 -1 x6373 -1 x6374 -1 x6375 -1 x6376 -1 x6377 -1 x6378 -1 x6379 -1 x6380 >= 0 ;
+2 x6829 +2 x6830 +2 x6831 +2 x6832 -1 x6377 -1 x6378 -1 x6379 -1 x6380 -1 x6381 -1 x6382 -1 x6383 -1 x6384 >= 0 ;
+2 x6833 +2 x6834 +2 x6835 +2 x6836 -1 x6381 -1 x6382 -1 x6383 -1 x6384 -1 x6385 -1 x6386 -1 x6387 -1 x6388 >= 0 ;
+2 x6837 +2 x6838 +2 x6839 +2 x6840 -1 x6385 -1 x6386 -1 x6387 -1 x6388 -1 x6389 -1 x6390 -1 x6391 -1 x6392 >= 0 ;
+2 x6841 +2 x6842 +2 x6843 +2 x6844 -1 x6389 -1 x6390 -1 x6391 -1 x6392 -1 x6393 -1 x6394 -1 x6395 -1 x6396 >= 0 ;
+2 x6845 +2 x6846 +2 x6847 +2 x6848 -1 x6393 -1 x6394 -1 x6395 -1 x6396 -1 x6397 -1 x6398 -1 x6399 -1 x6400 >= 0 ;
+2 x6849 +2 x6850 +2 x6851 +2 x6852 -1 x6397 -1 x6398 -1 x6399 -1 x6400 -1 x6401 -1 x6402 -1 x6403 -1 x6404 >= 0 ;
+2 x6853 +2 x6854 +2 x6855 +2 x6856 -1 x6401 -1 x6402 -1 x6403 -1 x6404 -1 x6405 -1 x6406 -1 x6407 -1 x6408 >= 0 ;
+2 x6857 +2 x6858 +2 x6859 +2 x6860 -1 x6405 -1 x6406 -1 x6407 -1 x6408 -1 x6409 -1 x6410 -1 x6411 -1 x6412 >= 0 ;
+2 x6861 +2 x6862 +2 x6863 +2 x6864 -1 x6409 -1 x6410 -1 x6411 -1 x6412 -1 x6413 -1 x6414 -1 x6415 -1 x6416 >= 0 ;
+2 x6865 +2 x6866 +2 x6867 +2 x6868 -1 x6413 -1 x6414 -1 x6415 -1 x6416 -1 x6417 -1 x6418 -1 x6419 -1 x6420 >= 0 ;
+2 x6869 +2 x6870 +2 x6871 +2 x6872 -1 x6417 -1 x6418 -1 x6419 -1 x6420 -1 x6421 -1 x6422 -1 x6423 -1 x6424 >= 0 ;
+2 x6873 +2 x6874 +2 x6875 +2 x6876 -1 x6421 -1 x6422 -1 x6423 -1 x6424 -1 x6425 -1 x6426 -1 x6427 -1 x6428 >= 0 ;
+2 x6877 +2 x6878 +2 x6879 +2 x6880 -1 x6425 -1 x6426 -1 x6427 -1 x6428 -1 x6429 -1 x6430 -1 x6431 -1 x6432 >= 0 ;
+2 x6881 +2 x6882 +2 x6883 +2 x6884 -1 x6429 -1 x6430 -1 x6431 -1 x6432 -1 x6433 -1 x6434 -1 x6435 -1 x6436 >= 0 ;
+2 x6885 +2 x6886 +2 x6887 +2 x6888 -1 x6433 -1 x6434 -1 x6435 -1 x6436 -1 x6437 -1 x6438 -1 x6439 -1 x6440 >= 0 ;
+2 x6889 +2 x6890 +2 x6891 +2 x6892 -1 x6437 -1 x6438 -1 x6439 -1 x6440 -1 x6441 -1 x6442 -1 x6443 -1 x6444 >= 0 ;
+2 x6893 +2 x6894 +2 x6895 +2 x6896 -1 x6441 -1 x6442 -1 x6443 -1 x6444 -1 x6445 -1 x6446 -1 x6447 -1 x6448 >= 0 ;
+2 x6897 +2 x6898 +2 x6899 +2 x6900 -1 x6445 -1 x6446 -1 x6447 -1 x6448 -1 x6449 -1 x6450 -1 x6451 -1 x6452 >= 0 ;
+2 x6901 +2 x6902 +2 x6903 +2 x6904 -1 x6449 -1 x6450 -1 x6451 -1 x6452 -1 x6453 -1 x6454 -1 x6455 -1 x6456 >= 0 ;
+2 x6905 +2 x6906 +2 x6907 +2 x6908 -1 x6453 -1 x6454 -1 x6455 -1 x6456 -1 x6457 -1 x6458 -1 x6459 -1 x6460 >= 0 ;
+2 x6909 +2 x6910 +2 x6911 +2 x6912 -1 x6457 -1 x6458 -1 x6459 -1 x6460 -1 x6461 -1 x6462 -1 x6463 -1 x6464 >= 0 ;
+2 x6913 +2 x6914 +2 x6915 +2 x6916 -1 x6461 -1 x6462 -1 x6463 -1 x6464 -1 x6465 -1 x6466 -1 x6467 -1 x6468 >= 0 ;
+2 x6917 +2 x6918 +2 x6919 +2 x6920 -1 x6465 -1 x6466 -1 x6467 -1 x6468 -1 x6469 -1 x6470 -1 x6471 -1 x6472 >= 0 ;
+2 x6921 +2 x6922 +2 x6923 +2 x6924 -1 x6469 -1 x6470 -1 x6471 -1 x6472 -1 x6473 -1 x6474 -1 x6475 -1 x6476 >= 0 ;
+2 x6925 +2 x6926 +2 x6927 +2 x6928 -1 x6473 -1 x6474 -1 x6475 -1 x6476 -1 x6477 -1 x6478 -1 x6479 -1 x6480 >= 0 ;
+2 x6929 +2 x6930 +2 x6931 +2 x6932 -1 x6477 -1 x6478 -1 x6479 -1 x6480 -1 x6481 -1 x6482 -1 x6483 -1 x6484 >= 0 ;
+2 x6933 +2 x6934 +2 x6935 +2 x6936 -1 x6481 -1 x6482 -1 x6483 -1 x6484 -1 x6485 -1 x6486 -1 x6487 -1 x6488 >= 0 ;
+2 x6937 +2 x6938 +2 x6939 +2 x6940 -1 x6485 -1 x6486 -1 x6487 -1 x6488 -1 x6489 -1 x6490 -1 x6491 -1 x6492 >= 0 ;
+2 x6941 +2 x6942 +2 x6943 +2 x6944 -1 x6489 -1 x6490 -1 x6491 -1 x6492 -1 x6493 -1 x6494 -1 x6495 -1 x6496 >= 0 ;
+2 x6945 +2 x6946 +2 x6947 +2 x6948 -1 x6493 -1 x6494 -1 x6495 -1 x6496 -1 x6497 -1 x6498 -1 x6499 -1 x6500 >= 0 ;
+2 x6949 +2 x6950 +2 x6951 +2 x6952 -1 x6497 -1 x6498 -1 x6499 -1 x6500 -1 x6501 -1 x6502 -1 x6503 -1 x6504 >= 0 ;
+2 x6953 +2 x6954 +2 x6955 +2 x6956 -1 x6501 -1 x6502 -1 x6503 -1 x6504 -1 x6505 -1 x6506 -1 x6507 -1 x6508 >= 0 ;
+2 x6957 +2 x6958 +2 x6959 +2 x6960 -1 x6505 -1 x6506 -1 x6507 -1 x6508 -1 x6509 -1 x6510 -1 x6511 -1 x6512 >= 0 ;
+2 x6961 +2 x6962 +2 x6963 +2 x6964 -1 x6509 -1 x6510 -1 x6511 -1 x6512 -1 x6513 -1 x6514 -1 x6515 -1 x6516 >= 0 ;
+2 x6965 +2 x6966 +2 x6967 +2 x6968 -1 x6513 -1 x6514 -1 x6515 -1 x6516 -1 x6517 -1 x6518 -1 x6519 -1 x6520 >= 0 ;
+2 x6969 +2 x6970 +2 x6971 +2 x6972 -1 x6517 -1 x6518 -1 x6519 -1 x6520 -1 x6521 -1 x6522 -1 x6523 -1 x6524 >= 0 ;
+2 x6973 +2 x6974 +2 x6975 +2 x6976 -1 x6521 -1 x6522 -1 x6523 -1 x6524 -1 x6525 -1 x6526 -1 x6527 -1 x6528 >= 0 ;
+2 x6977 +2 x6978 +2 x6979 +2 x6980 -1 x6525 -1 x6526 -1 x6527 -1 x6528 -1 x6529 -1 x6530 -1 x6531 -1 x6532 >= 0 ;
+2 x6981 +2 x6982 +2 x6983 +2 x6984 -1 x6529 -1 x6530 -1 x6531 -1 x6532 -1 x6533 -1 x6534 -1 x6535 -1 x6536 >= 0 ;
+2 x6985 +2 x6986 +2 x6987 +2 x6988 -1 x6533 -1 x6534 -1 x6535 -1 x6536 -1 x6537 -1 x6538 -1 x6539 -1 x6540 >= 0 ;
+2 x6989 +2 x6990 +2 x6991 +2 x6992 -1 x6537 -1 x6538 -1 x6539 -1 x6540 -1 x6541 -1 x6542 -1 x6543 -1 x6544 >= 0 ;
+2 x6993 +2 x6994 +2 x6995 +2 x6996 -1 x6541 -1 x6542 -1 x6543 -1 x6544 -1 x6545 -1 x6546 -1 x6547 -1 x6548 >= 0 ;
+2 x6997 +2 x6998 +2 x6999 +2 x7000 -1 x6545 -1 x6546 -1 x6547 -1 x6548 -1 x6549 -1 x6550 -1 x6551 -1 x6552 >= 0 ;
+2 x7001 +2 x7002 +2 x7003 +2 x7004 -1 x6549 -1 x6550 -1 x6551 -1 x6552 -1 x6553 -1 x6554 -1 x6555 -1 x6556 >= 0 ;
+2 x7005 +2 x7006 +2 x7007 +2 x7008 -1 x6553 -1 x6554 -1 x6555 -1 x6556 -1 x6557 -1 x6558 -1 x6559 -1 x6560 >= 0 ;
+2 x7009 +2 x7010 +2 x7011 +2 x7012 -1 x6557 -1 x6558 -1 x6559 -1 x6560 -1 x6561 -1 x6562 -1 x6563 -1 x6564 >= 0 ;
+2 x7013 +2 x7014 +2 x7015 +2 x7016 -1 x6561 -1 x6562 -1 x6563 -1 x6564 -1 x6565 -1 x6566 -1 x6567 -1 x6568 >= 0 ;
+2 x7017 +2 x7018 +2 x7019 +2 x7020 -1 x6565 -1 x6566 -1 x6567 -1 x6568 -1 x6569 -1 x6570 -1 x6571 -1 x6572 >= 0 ;
+2 x7021 +2 x7022 +2 x7023 +2 x7024 -1 x6569 -1 x6570 -1 x6571 -1 x6572 -1 x6573 -1 x6574 -1 x6575 -1 x6576 >= 0 ;
+2 x7025 +2 x7026 +2 x7027 +2 x7028 -1 x6573 -1 x6574 -1 x6575 -1 x6576 -1 x6577 -1 x6578 -1 x6579 -1 x6580 >= 0 ;
+2 x7029 +2 x7030 +2 x7031 +2 x7032 -1 x6577 -1 x6578 -1 x6579 -1 x6580 -1 x6581 -1 x6582 -1 x6583 -1 x6584 >= 0 ;
+2 x7033 +2 x7034 +2 x7035 +2 x7036 -1 x6581 -1 x6582 -1 x6583 -1 x6584 -1 x6585 -1 x6586 -1 x6587 -1 x6588 >= 0 ;
+2 x7037 +2 x7038 +2 x7039 +2 x7040 -1 x6585 -1 x6586 -1 x6587 -1 x6588 -1 x6589 -1 x6590 -1 x6591 -1 x6592 >= 0 ;
+2 x7041 +2 x7042 +2 x7043 +2 x7044 -1 x6589 -1 x6590 -1 x6591 -1 x6592 -1 x6593 -1 x6594 -1 x6595 -1 x6596 >= 0 ;
+2 x7045 +2 x7046 +2 x7047 +2 x7048 -1 x6593 -1 x6594 -1 x6595 -1 x6596 -1 x6597 -1 x6598 -1 x6599 -1 x6600 >= 0 ;
+2 x7049 +2 x7050 +2 x7051 +2 x7052 -1 x6597 -1 x6598 -1 x6599 -1 x6600 -1 x6601 -1 x6602 -1 x6603 -1 x6604 >= 0 ;
+2 x7053 +2 x7054 +2 x7055 +2 x7056 -1 x6601 -1 x6602 -1 x6603 -1 x6604 -1 x6605 -1 x6606 -1 x6607 -1 x6608 >= 0 ;
+2 x7057 +2 x7058 +2 x7059 +2 x7060 -1 x6605 -1 x6606 -1 x6607 -1 x6608 -1 x6609 -1 x6610 -1 x6611 -1 x6612 >= 0 ;
+2 x7061 +2 x7062 +2 x7063 +2 x7064 -1 x6609 -1 x6610 -1 x6611 -1 x6612 -1 x6613 -1 x6614 -1 x6615 -1 x6616 >= 0 ;
+2 x7065 +2 x7066 +2 x7067 +2 x7068 -1 x6613 -1 x6614 -1 x6615 -1 x6616 -1 x6617 -1 x6618 -1 x6619 -1 x6620 >= 0 ;
+2 x7069 +2 x7070 +2 x7071 +2 x7072 -1 x6617 -1 x6618 -1 x6619 -1 x6620 -1 x6621 -1 x6622 -1 x6623 -1 x6624 >= 0 ;
+2 x7073 +2 x7074 +2 x7075 +2 x7076 -1 x6621 -1 x6622 -1 x6623 -1 x6624 -1 x6625 -1 x6626 -1 x6627 -1 x6628 >= 0 ;
+2 x7077 +2 x7078 +2 x7079 +2 x7080 -1 x6625 -1 x6626 -1 x6627 -1 x6628 -1 x6629 -1 x6630 -1 x6631 -1 x6632 >= 0 ;
+2 x7081 +2 x7082 +2 x7083 +2 x7084 -1 x6629 -1 x6630 -1 x6631 -1 x6632 -1 x6633 -1 x6634 -1 x6635 -1 x6636 >= 0 ;
+2 x7085 +2 x7086 +2 x7087 +2 x7088 -1 x6633 -1 x6634 -1 x6635 -1 x6636 -1 x6637 -1 x6638 -1 x6639 -1 x6640 >= 0 ;
+2 x7089 +2 x7090 +2 x7091 +2 x7092 -1 x6637 -1 x6638 -1 x6639 -1 x6640 -1 x6641 -1 x6642 -1 x6643 -1 x6644 >= 0 ;
+2 x7093 +2 x7094 +2 x7095 +2 x7096 -1 x6641 -1 x6642 -1 x6643 -1 x6644 -1 x6645 -1 x6646 -1 x6647 -1 x6648 >= 0 ;
+2 x7097 +2 x7098 +2 x7099 +2 x7100 -1 x6645 -1 x6646 -1 x6647 -1 x6648 -1 x6649 -1 x6650 -1 x6651 -1 x6652 >= 0 ;
+2 x7101 +2 x7102 +2 x7103 +2 x7104 -1 x6649 -1 x6650 -1 x6651 -1 x6652 -1 x6653 -1 x6654 -1 x6655 -1 x6656 >= 0 ;
+2 x7105 +2 x7106 +2 x7107 +2 x7108 -1 x6653 -1 x6654 -1 x6655 -1 x6656 -1 x6657 -1 x6658 -1 x6659 -1 x6660 >= 0 ;
+2 x7109 +2 x7110 +2 x7111 +2 x7112 -1 x6657 -1 x6658 -1 x6659 -1 x6660 -1 x6661 -1 x6662 -1 x6663 -1 x6664 >= 0 ;
+2 x7113 +2 x7114 +2 x7115 +2 x7116 -1 x6661 -1 x6662 -1 x6663 -1 x6664 -1 x6665 -1 x6666 -1 x6667 -1 x6668 >= 0 ;
+2 x7117 +2 x7118 +2 x7119 +2 x7120 -1 x6665 -1 x6666 -1 x6667 -1 x6668 -1 x6669 -1 x6670 -1 x6671 -1 x6672 >= 0 ;
+2 x7121 +2 x7122 +2 x7123 +2 x7124 -1 x6669 -1 x6670 -1 x6671 -1 x6672 -1 x6673 -1 x6674 -1 x6675 -1 x6676 >= 0 ;
+2 x7125 +2 x7126 +2 x7127 +2 x7128 -1 x6673 -1 x6674 -1 x6675 -1 x6676 -1 x6677 -1 x6678 -1 x6679 -1 x6680 >= 0 ;
+2 x7129 +2 x7130 +2 x7131 +2 x7132 -1 x6677 -1 x6678 -1 x6679 -1 x6680 -1 x6681 -1 x6682 -1 x6683 -1 x6684 >= 0 ;
+2 x7133 +2 x7134 +2 x7135 +2 x7136 -1 x6681 -1 x6682 -1 x6683 -1 x6684 -1 x6685 -1 x6686 -1 x6687 -1 x6688 >= 0 ;
+2 x7137 +2 x7138 +2 x7139 +2 x7140 -1 x6685 -1 x6686 -1 x6687 -1 x6688 -1 x6689 -1 x6690 -1 x6691 -1 x6692 >= 0 ;
+2 x7141 +2 x7142 +2 x7143 +2 x7144 -1 x6693 -1 x6694 -1 x6695 -1 x6696 -1 x6697 -1 x6698 -1 x6699 -1 x6700 >= 0 ;
+2 x7145 +2 x7146 +2 x7147 +2 x7148 -1 x6697 -1 x6698 -1 x6699 -1 x6700 -1 x6701 -1 x6702 -1 x6703 -1 x6704 >= 0 ;
+2 x7149 +2 x7150 +2 x7151 +2 x7152 -1 x6701 -1 x6702 -1 x6703 -1 x6704 -1 x6705 -1 x6706 -1 x6707 -1 x6708 >= 0 ;
+2 x7153 +2 x7154 +2 x7155 +2 x7156 -1 x6705 -1 x6706 -1 x6707 -1 x6708 -1 x6709 -1 x6710 -1 x6711 -1 x6712 >= 0 ;
+2 x7157 +2 x7158 +2 x7159 +2 x7160 -1 x6709 -1 x6710 -1 x6711 -1 x6712 -1 x6713 -1 x6714 -1 x6715 -1 x6716 >= 0 ;
+2 x7161 +2 x7162 +2 x7163 +2 x7164 -1 x6713 -1 x6714 -1 x6715 -1 x6716 -1 x6717 -1 x6718 -1 x6719 -1 x6720 >= 0 ;
+2 x7165 +2 x7166 +2 x7167 +2 x7168 -1 x6717 -1 x6718 -1 x6719 -1 x6720 -1 x6721 -1 x6722 -1 x6723 -1 x6724 >= 0 ;
+2 x7169 +2 x7170 +2 x7171 +2 x7172 -1 x6721 -1 x6722 -1 x6723 -1 x6724 -1 x6725 -1 x6726 -1 x6727 -1 x6728 >= 0 ;
+2 x7173 +2 x7174 +2 x7175 +2 x7176 -1 x6725 -1 x6726 -1 x6727 -1 x6728 -1 x6729 -1 x6730 -1 x6731 -1 x6732 >= 0 ;
+2 x7177 +2 x7178 +2 x7179 +2 x7180 -1 x6729 -1 x6730 -1 x6731 -1 x6732 -1 x6733 -1 x6734 -1 x6735 -1 x6736 >= 0 ;
+2 x7181 +2 x7182 +2 x7183 +2 x7184 -1 x6733 -1 x6734 -1 x6735 -1 x6736 -1 x6737 -1 x6738 -1 x6739 -1 x6740 >= 0 ;
+2 x7185 +2 x7186 +2 x7187 +2 x7188 -1 x6737 -1 x6738 -1 x6739 -1 x6740 -1 x6741 -1 x6742 -1 x6743 -1 x6744 >= 0 ;
+2 x7189 +2 x7190 +2 x7191 +2 x7192 -1 x6741 -1 x6742 -1 x6743 -1 x6744 -1 x6745 -1 x6746 -1 x6747 -1 x6748 >= 0 ;
+2 x7193 +2 x7194 +2 x7195 +2 x7196 -1 x6745 -1 x6746 -1 x6747 -1 x6748 -1 x6749 -1 x6750 -1 x6751 -1 x6752 >= 0 ;
+2 x7197 +2 x7198 +2 x7199 +2 x7200 -1 x6749 -1 x6750 -1 x6751 -1 x6752 -1 x6753 -1 x6754 -1 x6755 -1 x6756 >= 0 ;
+2 x7201 +2 x7202 +2 x7203 +2 x7204 -1 x6753 -1 x6754 -1 x6755 -1 x6756 -1 x6757 -1 x6758 -1 x6759 -1 x6760 >= 0 ;
+2 x7205 +2 x7206 +2 x7207 +2 x7208 -1 x6757 -1 x6758 -1 x6759 -1 x6760 -1 x6761 -1 x6762 -1 x6763 -1 x6764 >= 0 ;
+2 x7209 +2 x7210 +2 x7211 +2 x7212 -1 x6761 -1 x6762 -1 x6763 -1 x6764 -1 x6765 -1 x6766 -1 x6767 -1 x6768 >= 0 ;
+2 x7213 +2 x7214 +2 x7215 +2 x7216 -1 x6765 -1 x6766 -1 x6767 -1 x6768 -1 x6769 -1 x6770 -1 x6771 -1 x6772 >= 0 ;
+2 x7217 +2 x7218 +2 x7219 +2 x7220 -1 x6769 -1 x6770 -1 x6771 -1 x6772 -1 x6773 -1 x6774 -1 x6775 -1 x6776 >= 0 ;
+2 x7221 +2 x7222 +2 x7223 +2 x7224 -1 x6773 -1 x6774 -1 x6775 -1 x6776 -1 x6777 -1 x6778 -1 x6779 -1 x6780 >= 0 ;
+2 x7225 +2 x7226 +2 x7227 +2 x7228 -1 x6777 -1 x6778 -1 x6779 -1 x6780 -1 x6781 -1 x6782 -1 x6783 -1 x6784 >= 0 ;
+2 x7229 +2 x7230 +2 x7231 +2 x7232 -1 x6781 -1 x6782 -1 x6783 -1 x6784 -1 x6785 -1 x6786 -1 x6787 -1 x6788 >= 0 ;
+2 x7233 +2 x7234 +2 x7235 +2 x7236 -1 x6785 -1 x6786 -1 x6787 -1 x6788 -1 x6789 -1 x6790 -1 x6791 -1 x6792 >= 0 ;
+2 x7237 +2 x7238 +2 x7239 +2 x7240 -1 x6789 -1 x6790 -1 x6791 -1 x6792 -1 x6793 -1 x6794 -1 x6795 -1 x6796 >= 0 ;
+2 x7241 +2 x7242 +2 x7243 +2 x7244 -1 x6793 -1 x6794 -1 x6795 -1 x6796 -1 x6797 -1 x6798 -1 x6799 -1 x6800 >= 0 ;
+2 x7245 +2 x7246 +2 x7247 +2 x7248 -1 x6797 -1 x6798 -1 x6799 -1 x6800 -1 x6801 -1 x6802 -1 x6803 -1 x6804 >= 0 ;
+2 x7249 +2 x7250 +2 x7251 +2 x7252 -1 x6801 -1 x6802 -1 x6803 -1 x6804 -1 x6805 -1 x6806 -1 x6807 -1 x6808 >= 0 ;
+2 x7253 +2 x7254 +2 x7255 +2 x7256 -1 x6805 -1 x6806 -1 x6807 -1 x6808 -1 x6809 -1 x6810 -1 x6811 -1 x6812 >= 0 ;
+2 x7257 +2 x7258 +2 x7259 +2 x7260 -1 x6809 -1 x6810 -1 x6811 -1 x6812 -1 x6813 -1 x6814 -1 x6815 -1 x6816 >= 0 ;
+2 x7261 +2 x7262 +2 x7263 +2 x7264 -1 x6813 -1 x6814 -1 x6815 -1 x6816 -1 x6817 -1 x6818 -1 x6819 -1 x6820 >= 0 ;
+2 x7265 +2 x7266 +2 x7267 +2 x7268 -1 x6817 -1 x6818 -1 x6819 -1 x6820 -1 x6821 -1 x6822 -1 x6823 -1 x6824 >= 0 ;
+2 x7269 +2 x7270 +2 x7271 +2 x7272 -1 x6821 -1 x6822 -1 x6823 -1 x6824 -1 x6825 -1 x6826 -1 x6827 -1 x6828 >= 0 ;
+2 x7273 +2 x7274 +2 x7275 +2 x7276 -1 x6825 -1 x6826 -1 x6827 -1 x6828 -1 x6829 -1 x6830 -1 x6831 -1 x6832 >= 0 ;
+2 x7277 +2 x7278 +2 x7279 +2 x7280 -1 x6829 -1 x6830 -1 x6831 -1 x6832 -1 x6833 -1 x6834 -1 x6835 -1 x6836 >= 0 ;
+2 x7281 +2 x7282 +2 x7283 +2 x7284 -1 x6833 -1 x6834 -1 x6835 -1 x6836 -1 x6837 -1 x6838 -1 x6839 -1 x6840 >= 0 ;
+2 x7285 +2 x7286 +2 x7287 +2 x7288 -1 x6837 -1 x6838 -1 x6839 -1 x6840 -1 x6841 -1 x6842 -1 x6843 -1 x6844 >= 0 ;
+2 x7289 +2 x7290 +2 x7291 +2 x7292 -1 x6841 -1 x6842 -1 x6843 -1 x6844 -1 x6845 -1 x6846 -1 x6847 -1 x6848 >= 0 ;
+2 x7293 +2 x7294 +2 x7295 +2 x7296 -1 x6845 -1 x6846 -1 x6847 -1 x6848 -1 x6849 -1 x6850 -1 x6851 -1 x6852 >= 0 ;
+2 x7297 +2 x7298 +2 x7299 +2 x7300 -1 x6849 -1 x6850 -1 x6851 -1 x6852 -1 x6853 -1 x6854 -1 x6855 -1 x6856 >= 0 ;
+2 x7301 +2 x7302 +2 x7303 +2 x7304 -1 x6853 -1 x6854 -1 x6855 -1 x6856 -1 x6857 -1 x6858 -1 x6859 -1 x6860 >= 0 ;
+2 x7305 +2 x7306 +2 x7307 +2 x7308 -1 x6857 -1 x6858 -1 x6859 -1 x6860 -1 x6861 -1 x6862 -1 x6863 -1 x6864 >= 0 ;
+2 x7309 +2 x7310 +2 x7311 +2 x7312 -1 x6861 -1 x6862 -1 x6863 -1 x6864 -1 x6865 -1 x6866 -1 x6867 -1 x6868 >= 0 ;
+2 x7313 +2 x7314 +2 x7315 +2 x7316 -1 x6865 -1 x6866 -1 x6867 -1 x6868 -1 x6869 -1 x6870 -1 x6871 -1 x6872 >= 0 ;
+2 x7317 +2 x7318 +2 x7319 +2 x7320 -1 x6869 -1 x6870 -1 x6871 -1 x6872 -1 x6873 -1 x6874 -1 x6875 -1 x6876 >= 0 ;
+2 x7321 +2 x7322 +2 x7323 +2 x7324 -1 x6873 -1 x6874 -1 x6875 -1 x6876 -1 x6877 -1 x6878 -1 x6879 -1 x6880 >= 0 ;
+2 x7325 +2 x7326 +2 x7327 +2 x7328 -1 x6877 -1 x6878 -1 x6879 -1 x6880 -1 x6881 -1 x6882 -1 x6883 -1 x6884 >= 0 ;
+2 x7329 +2 x7330 +2 x7331 +2 x7332 -1 x6881 -1 x6882 -1 x6883 -1 x6884 -1 x6885 -1 x6886 -1 x6887 -1 x6888 >= 0 ;
+2 x7333 +2 x7334 +2 x7335 +2 x7336 -1 x6885 -1 x6886 -1 x6887 -1 x6888 -1 x6889 -1 x6890 -1 x6891 -1 x6892 >= 0 ;
+2 x7337 +2 x7338 +2 x7339 +2 x7340 -1 x6889 -1 x6890 -1 x6891 -1 x6892 -1 x6893 -1 x6894 -1 x6895 -1 x6896 >= 0 ;
+2 x7341 +2 x7342 +2 x7343 +2 x7344 -1 x6893 -1 x6894 -1 x6895 -1 x6896 -1 x6897 -1 x6898 -1 x6899 -1 x6900 >= 0 ;
+2 x7345 +2 x7346 +2 x7347 +2 x7348 -1 x6897 -1 x6898 -1 x6899 -1 x6900 -1 x6901 -1 x6902 -1 x6903 -1 x6904 >= 0 ;
+2 x7349 +2 x7350 +2 x7351 +2 x7352 -1 x6901 -1 x6902 -1 x6903 -1 x6904 -1 x6905 -1 x6906 -1 x6907 -1 x6908 >= 0 ;
+2 x7353 +2 x7354 +2 x7355 +2 x7356 -1 x6905 -1 x6906 -1 x6907 -1 x6908 -1 x6909 -1 x6910 -1 x6911 -1 x6912 >= 0 ;
+2 x7357 +2 x7358 +2 x7359 +2 x7360 -1 x6909 -1 x6910 -1 x6911 -1 x6912 -1 x6913 -1 x6914 -1 x6915 -1 x6916 >= 0 ;
+2 x7361 +2 x7362 +2 x7363 +2 x7364 -1 x6913 -1 x6914 -1 x6915 -1 x6916 -1 x6917 -1 x6918 -1 x6919 -1 x6920 >= 0 ;
+2 x7365 +2 x7366 +2 x7367 +2 x7368 -1 x6917 -1 x6918 -1 x6919 -1 x6920 -1 x6921 -1 x6922 -1 x6923 -1 x6924 >= 0 ;
+2 x7369 +2 x7370 +2 x7371 +2 x7372 -1 x6921 -1 x6922 -1 x6923 -1 x6924 -1 x6925 -1 x6926 -1 x6927 -1 x6928 >= 0 ;
+2 x7373 +2 x7374 +2 x7375 +2 x7376 -1 x6925 -1 x6926 -1 x6927 -1 x6928 -1 x6929 -1 x6930 -1 x6931 -1 x6932 >= 0 ;
+2 x7377 +2 x7378 +2 x7379 +2 x7380 -1 x6929 -1 x6930 -1 x6931 -1 x6932 -1 x6933 -1 x6934 -1 x6935 -1 x6936 >= 0 ;
+2 x7381 +2 x7382 +2 x7383 +2 x7384 -1 x6933 -1 x6934 -1 x6935 -1 x6936 -1 x6937 -1 x6938 -1 x6939 -1 x6940 >= 0 ;
+2 x7385 +2 x7386 +2 x7387 +2 x7388 -1 x6937 -1 x6938 -1 x6939 -1 x6940 -1 x6941 -1 x6942 -1 x6943 -1 x6944 >= 0 ;
+2 x7389 +2 x7390 +2 x7391 +2 x7392 -1 x6941 -1 x6942 -1 x6943 -1 x6944 -1 x6945 -1 x6946 -1 x6947 -1 x6948 >= 0 ;
+2 x7393 +2 x7394 +2 x7395 +2 x7396 -1 x6945 -1 x6946 -1 x6947 -1 x6948 -1 x6949 -1 x6950 -1 x6951 -1 x6952 >= 0 ;
+2 x7397 +2 x7398 +2 x7399 +2 x7400 -1 x6949 -1 x6950 -1 x6951 -1 x6952 -1 x6953 -1 x6954 -1 x6955 -1 x6956 >= 0 ;
+2 x7401 +2 x7402 +2 x7403 +2 x7404 -1 x6953 -1 x6954 -1 x6955 -1 x6956 -1 x6957 -1 x6958 -1 x6959 -1 x6960 >= 0 ;
+2 x7405 +2 x7406 +2 x7407 +2 x7408 -1 x6957 -1 x6958 -1 x6959 -1 x6960 -1 x6961 -1 x6962 -1 x6963 -1 x6964 >= 0 ;
+2 x7409 +2 x7410 +2 x7411 +2 x7412 -1 x6961 -1 x6962 -1 x6963 -1 x6964 -1 x6965 -1 x6966 -1 x6967 -1 x6968 >= 0 ;
+2 x7413 +2 x7414 +2 x7415 +2 x7416 -1 x6965 -1 x6966 -1 x6967 -1 x6968 -1 x6969 -1 x6970 -1 x6971 -1 x6972 >= 0 ;
+2 x7417 +2 x7418 +2 x7419 +2 x7420 -1 x6969 -1 x6970 -1 x6971 -1 x6972 -1 x6973 -1 x6974 -1 x6975 -1 x6976 >= 0 ;
+2 x7421 +2 x7422 +2 x7423 +2 x7424 -1 x6973 -1 x6974 -1 x6975 -1 x6976 -1 x6977 -1 x6978 -1 x6979 -1 x6980 >= 0 ;
+2 x7425 +2 x7426 +2 x7427 +2 x7428 -1 x6977 -1 x6978 -1 x6979 -1 x6980 -1 x6981 -1 x6982 -1 x6983 -1 x6984 >= 0 ;
+2 x7429 +2 x7430 +2 x7431 +2 x7432 -1 x6981 -1 x6982 -1 x6983 -1 x6984 -1 x6985 -1 x6986 -1 x6987 -1 x6988 >= 0 ;
+2 x7433 +2 x7434 +2 x7435 +2 x7436 -1 x6985 -1 x6986 -1 x6987 -1 x6988 -1 x6989 -1 x6990 -1 x6991 -1 x6992 >= 0 ;
+2 x7437 +2 x7438 +2 x7439 +2 x7440 -1 x6989 -1 x6990 -1 x6991 -1 x6992 -1 x6993 -1 x6994 -1 x6995 -1 x6996 >= 0 ;
+2 x7441 +2 x7442 +2 x7443 +2 x7444 -1 x6993 -1 x6994 -1 x6995 -1 x6996 -1 x6997 -1 x6998 -1 x6999 -1 x7000 >= 0 ;
+2 x7445 +2 x7446 +2 x7447 +2 x7448 -1 x6997 -1 x6998 -1 x6999 -1 x7000 -1 x7001 -1 x7002 -1 x7003 -1 x7004 >= 0 ;
+2 x7449 +2 x7450 +2 x7451 +2 x7452 -1 x7001 -1 x7002 -1 x7003 -1 x7004 -1 x7005 -1 x7006 -1 x7007 -1 x7008 >= 0 ;
+2 x7453 +2 x7454 +2 x7455 +2 x7456 -1 x7005 -1 x7006 -1 x7007 -1 x7008 -1 x7009 -1 x7010 -1 x7011 -1 x7012 >= 0 ;
+2 x7457 +2 x7458 +2 x7459 +2 x7460 -1 x7009 -1 x7010 -1 x7011 -1 x7012 -1 x7013 -1 x7014 -1 x7015 -1 x7016 >= 0 ;
+2 x7461 +2 x7462 +2 x7463 +2 x7464 -1 x7013 -1 x7014 -1 x7015 -1 x7016 -1 x7017 -1 x7018 -1 x7019 -1 x7020 >= 0 ;
+2 x7465 +2 x7466 +2 x7467 +2 x7468 -1 x7017 -1 x7018 -1 x7019 -1 x7020 -1 x7021 -1 x7022 -1 x7023 -1 x7024 >= 0 ;
+2 x7469 +2 x7470 +2 x7471 +2 x7472 -1 x7021 -1 x7022 -1 x7023 -1 x7024 -1 x7025 -1 x7026 -1 x7027 -1 x7028 >= 0 ;
+2 x7473 +2 x7474 +2 x7475 +2 x7476 -1 x7025 -1 x7026 -1 x7027 -1 x7028 -1 x7029 -1 x7030 -1 x7031 -1 x7032 >= 0 ;
+2 x7477 +2 x7478 +2 x7479 +2 x7480 -1 x7029 -1 x7030 -1 x7031 -1 x7032 -1 x7033 -1 x7034 -1 x7035 -1 x7036 >= 0 ;
+2 x7481 +2 x7482 +2 x7483 +2 x7484 -1 x7033 -1 x7034 -1 x7035 -1 x7036 -1 x7037 -1 x7038 -1 x7039 -1 x7040 >= 0 ;
+2 x7485 +2 x7486 +2 x7487 +2 x7488 -1 x7037 -1 x7038 -1 x7039 -1 x7040 -1 x7041 -1 x7042 -1 x7043 -1 x7044 >= 0 ;
+2 x7489 +2 x7490 +2 x7491 +2 x7492 -1 x7041 -1 x7042 -1 x7043 -1 x7044 -1 x7045 -1 x7046 -1 x7047 -1 x7048 >= 0 ;
+2 x7493 +2 x7494 +2 x7495 +2 x7496 -1 x7045 -1 x7046 -1 x7047 -1 x7048 -1 x7049 -1 x7050 -1 x7051 -1 x7052 >= 0 ;
+2 x7497 +2 x7498 +2 x7499 +2 x7500 -1 x7049 -1 x7050 -1 x7051 -1 x7052 -1 x7053 -1 x7054 -1 x7055 -1 x7056 >= 0 ;
+2 x7501 +2 x7502 +2 x7503 +2 x7504 -1 x7053 -1 x7054 -1 x7055 -1 x7056 -1 x7057 -1 x7058 -1 x7059 -1 x7060 >= 0 ;
+2 x7505 +2 x7506 +2 x7507 +2 x7508 -1 x7057 -1 x7058 -1 x7059 -1 x7060 -1 x7061 -1 x7062 -1 x7063 -1 x7064 >= 0 ;
+2 x7509 +2 x7510 +2 x7511 +2 x7512 -1 x7061 -1 x7062 -1 x7063 -1 x7064 -1 x7065 -1 x7066 -1 x7067 -1 x7068 >= 0 ;
+2 x7513 +2 x7514 +2 x7515 +2 x7516 -1 x7065 -1 x7066 -1 x7067 -1 x7068 -1 x7069 -1 x7070 -1 x7071 -1 x7072 >= 0 ;
+2 x7517 +2 x7518 +2 x7519 +2 x7520 -1 x7069 -1 x7070 -1 x7071 -1 x7072 -1 x7073 -1 x7074 -1 x7075 -1 x7076 >= 0 ;
+2 x7521 +2 x7522 +2 x7523 +2 x7524 -1 x7073 -1 x7074 -1 x7075 -1 x7076 -1 x7077 -1 x7078 -1 x7079 -1 x7080 >= 0 ;
+2 x7525 +2 x7526 +2 x7527 +2 x7528 -1 x7077 -1 x7078 -1 x7079 -1 x7080 -1 x7081 -1 x7082 -1 x7083 -1 x7084 >= 0 ;
+2 x7529 +2 x7530 +2 x7531 +2 x7532 -1 x7081 -1 x7082 -1 x7083 -1 x7084 -1 x7085 -1 x7086 -1 x7087 -1 x7088 >= 0 ;
+2 x7533 +2 x7534 +2 x7535 +2 x7536 -1 x7085 -1 x7086 -1 x7087 -1 x7088 -1 x7089 -1 x7090 -1 x7091 -1 x7092 >= 0 ;
+2 x7537 +2 x7538 +2 x7539 +2 x7540 -1 x7089 -1 x7090 -1 x7091 -1 x7092 -1 x7093 -1 x7094 -1 x7095 -1 x7096 >= 0 ;
+2 x7541 +2 x7542 +2 x7543 +2 x7544 -1 x7093 -1 x7094 -1 x7095 -1 x7096 -1 x7097 -1 x7098 -1 x7099 -1 x7100 >= 0 ;
+2 x7545 +2 x7546 +2 x7547 +2 x7548 -1 x7097 -1 x7098 -1 x7099 -1 x7100 -1 x7101 -1 x7102 -1 x7103 -1 x7104 >= 0 ;
+2 x7549 +2 x7550 +2 x7551 +2 x7552 -1 x7101 -1 x7102 -1 x7103 -1 x7104 -1 x7105 -1 x7106 -1 x7107 -1 x7108 >= 0 ;
+2 x7553 +2 x7554 +2 x7555 +2 x7556 -1 x7105 -1 x7106 -1 x7107 -1 x7108 -1 x7109 -1 x7110 -1 x7111 -1 x7112 >= 0 ;
+2 x7557 +2 x7558 +2 x7559 +2 x7560 -1 x7109 -1 x7110 -1 x7111 -1 x7112 -1 x7113 -1 x7114 -1 x7115 -1 x7116 >= 0 ;
+2 x7561 +2 x7562 +2 x7563 +2 x7564 -1 x7113 -1 x7114 -1 x7115 -1 x7116 -1 x7117 -1 x7118 -1 x7119 -1 x7120 >= 0 ;
+2 x7565 +2 x7566 +2 x7567 +2 x7568 -1 x7117 -1 x7118 -1 x7119 -1 x7120 -1 x7121 -1 x7122 -1 x7123 -1 x7124 >= 0 ;
+2 x7569 +2 x7570 +2 x7571 +2 x7572 -1 x7121 -1 x7122 -1 x7123 -1 x7124 -1 x7125 -1 x7126 -1 x7127 -1 x7128 >= 0 ;
+2 x7573 +2 x7574 +2 x7575 +2 x7576 -1 x7125 -1 x7126 -1 x7127 -1 x7128 -1 x7129 -1 x7130 -1 x7131 -1 x7132 >= 0 ;
+2 x7577 +2 x7578 +2 x7579 +2 x7580 -1 x7129 -1 x7130 -1 x7131 -1 x7132 -1 x7133 -1 x7134 -1 x7135 -1 x7136 >= 0 ;
+2 x7581 +2 x7582 +2 x7583 +2 x7584 -1 x7133 -1 x7134 -1 x7135 -1 x7136 -1 x7137 -1 x7138 -1 x7139 -1 x7140 >= 0 ;
+2 x7585 +2 x7586 +2 x7587 +2 x7588 -1 x7141 -1 x7142 -1 x7143 -1 x7144 -1 x7145 -1 x7146 -1 x7147 -1 x7148 >= 0 ;
+2 x7589 +2 x7590 +2 x7591 +2 x7592 -1 x7145 -1 x7146 -1 x7147 -1 x7148 -1 x7149 -1 x7150 -1 x7151 -1 x7152 >= 0 ;
+2 x7593 +2 x7594 +2 x7595 +2 x7596 -1 x7149 -1 x7150 -1 x7151 -1 x7152 -1 x7153 -1 x7154 -1 x7155 -1 x7156 >= 0 ;
+2 x7597 +2 x7598 +2 x7599 +2 x7600 -1 x7153 -1 x7154 -1 x7155 -1 x7156 -1 x7157 -1 x7158 -1 x7159 -1 x7160 >= 0 ;
+2 x7601 +2 x7602 +2 x7603 +2 x7604 -1 x7157 -1 x7158 -1 x7159 -1 x7160 -1 x7161 -1 x7162 -1 x7163 -1 x7164 >= 0 ;
+2 x7605 +2 x7606 +2 x7607 +2 x7608 -1 x7161 -1 x7162 -1 x7163 -1 x7164 -1 x7165 -1 x7166 -1 x7167 -1 x7168 >= 0 ;
+2 x7609 +2 x7610 +2 x7611 +2 x7612 -1 x7165 -1 x7166 -1 x7167 -1 x7168 -1 x7169 -1 x7170 -1 x7171 -1 x7172 >= 0 ;
+2 x7613 +2 x7614 +2 x7615 +2 x7616 -1 x7169 -1 x7170 -1 x7171 -1 x7172 -1 x7173 -1 x7174 -1 x7175 -1 x7176 >= 0 ;
+2 x7617 +2 x7618 +2 x7619 +2 x7620 -1 x7173 -1 x7174 -1 x7175 -1 x7176 -1 x7177 -1 x7178 -1 x7179 -1 x7180 >= 0 ;
+2 x7621 +2 x7622 +2 x7623 +2 x7624 -1 x7177 -1 x7178 -1 x7179 -1 x7180 -1 x7181 -1 x7182 -1 x7183 -1 x7184 >= 0 ;
+2 x7625 +2 x7626 +2 x7627 +2 x7628 -1 x7181 -1 x7182 -1 x7183 -1 x7184 -1 x7185 -1 x7186 -1 x7187 -1 x7188 >= 0 ;
+2 x7629 +2 x7630 +2 x7631 +2 x7632 -1 x7185 -1 x7186 -1 x7187 -1 x7188 -1 x7189 -1 x7190 -1 x7191 -1 x7192 >= 0 ;
+2 x7633 +2 x7634 +2 x7635 +2 x7636 -1 x7189 -1 x7190 -1 x7191 -1 x7192 -1 x7193 -1 x7194 -1 x7195 -1 x7196 >= 0 ;
+2 x7637 +2 x7638 +2 x7639 +2 x7640 -1 x7193 -1 x7194 -1 x7195 -1 x7196 -1 x7197 -1 x7198 -1 x7199 -1 x7200 >= 0 ;
+2 x7641 +2 x7642 +2 x7643 +2 x7644 -1 x7197 -1 x7198 -1 x7199 -1 x7200 -1 x7201 -1 x7202 -1 x7203 -1 x7204 >= 0 ;
+2 x7645 +2 x7646 +2 x7647 +2 x7648 -1 x7201 -1 x7202 -1 x7203 -1 x7204 -1 x7205 -1 x7206 -1 x7207 -1 x7208 >= 0 ;
+2 x7649 +2 x7650 +2 x7651 +2 x7652 -1 x7205 -1 x7206 -1 x7207 -1 x7208 -1 x7209 -1 x7210 -1 x7211 -1 x7212 >= 0 ;
+2 x7653 +2 x7654 +2 x7655 +2 x7656 -1 x7209 -1 x7210 -1 x7211 -1 x7212 -1 x7213 -1 x7214 -1 x7215 -1 x7216 >= 0 ;
+2 x7657 +2 x7658 +2 x7659 +2 x7660 -1 x7213 -1 x7214 -1 x7215 -1 x7216 -1 x7217 -1 x7218 -1 x7219 -1 x7220 >= 0 ;
+2 x7661 +2 x7662 +2 x7663 +2 x7664 -1 x7217 -1 x7218 -1 x7219 -1 x7220 -1 x7221 -1 x7222 -1 x7223 -1 x7224 >= 0 ;
+2 x7665 +2 x7666 +2 x7667 +2 x7668 -1 x7221 -1 x7222 -1 x7223 -1 x7224 -1 x7225 -1 x7226 -1 x7227 -1 x7228 >= 0 ;
+2 x7669 +2 x7670 +2 x7671 +2 x7672 -1 x7225 -1 x7226 -1 x7227 -1 x7228 -1 x7229 -1 x7230 -1 x7231 -1 x7232 >= 0 ;
+2 x7673 +2 x7674 +2 x7675 +2 x7676 -1 x7229 -1 x7230 -1 x7231 -1 x7232 -1 x7233 -1 x7234 -1 x7235 -1 x7236 >= 0 ;
+2 x7677 +2 x7678 +2 x7679 +2 x7680 -1 x7233 -1 x7234 -1 x7235 -1 x7236 -1 x7237 -1 x7238 -1 x7239 -1 x7240 >= 0 ;
+2 x7681 +2 x7682 +2 x7683 +2 x7684 -1 x7237 -1 x7238 -1 x7239 -1 x7240 -1 x7241 -1 x7242 -1 x7243 -1 x7244 >= 0 ;
+2 x7685 +2 x7686 +2 x7687 +2 x7688 -1 x7241 -1 x7242 -1 x7243 -1 x7244 -1 x7245 -1 x7246 -1 x7247 -1 x7248 >= 0 ;
+2 x7689 +2 x7690 +2 x7691 +2 x7692 -1 x7245 -1 x7246 -1 x7247 -1 x7248 -1 x7249 -1 x7250 -1 x7251 -1 x7252 >= 0 ;
+2 x7693 +2 x7694 +2 x7695 +2 x7696 -1 x7249 -1 x7250 -1 x7251 -1 x7252 -1 x7253 -1 x7254 -1 x7255 -1 x7256 >= 0 ;
+2 x7697 +2 x7698 +2 x7699 +2 x7700 -1 x7253 -1 x7254 -1 x7255 -1 x7256 -1 x7257 -1 x7258 -1 x7259 -1 x7260 >= 0 ;
+2 x7701 +2 x7702 +2 x7703 +2 x7704 -1 x7257 -1 x7258 -1 x7259 -1 x7260 -1 x7261 -1 x7262 -1 x7263 -1 x7264 >= 0 ;
+2 x7705 +2 x7706 +2 x7707 +2 x7708 -1 x7261 -1 x7262 -1 x7263 -1 x7264 -1 x7265 -1 x7266 -1 x7267 -1 x7268 >= 0 ;
+2 x7709 +2 x7710 +2 x7711 +2 x7712 -1 x7265 -1 x7266 -1 x7267 -1 x7268 -1 x7269 -1 x7270 -1 x7271 -1 x7272 >= 0 ;
+2 x7713 +2 x7714 +2 x7715 +2 x7716 -1 x7269 -1 x7270 -1 x7271 -1 x7272 -1 x7273 -1 x7274 -1 x7275 -1 x7276 >= 0 ;
+2 x7717 +2 x7718 +2 x7719 +2 x7720 -1 x7273 -1 x7274 -1 x7275 -1 x7276 -1 x7277 -1 x7278 -1 x7279 -1 x7280 >= 0 ;
+2 x7721 +2 x7722 +2 x7723 +2 x7724 -1 x7277 -1 x7278 -1 x7279 -1 x7280 -1 x7281 -1 x7282 -1 x7283 -1 x7284 >= 0 ;
+2 x7725 +2 x7726 +2 x7727 +2 x7728 -1 x7281 -1 x7282 -1 x7283 -1 x7284 -1 x7285 -1 x7286 -1 x7287 -1 x7288 >= 0 ;
+2 x7729 +2 x7730 +2 x7731 +2 x7732 -1 x7285 -1 x7286 -1 x7287 -1 x7288 -1 x7289 -1 x7290 -1 x7291 -1 x7292 >= 0 ;
+2 x7733 +2 x7734 +2 x7735 +2 x7736 -1 x7289 -1 x7290 -1 x7291 -1 x7292 -1 x7293 -1 x7294 -1 x7295 -1 x7296 >= 0 ;
+2 x7737 +2 x7738 +2 x7739 +2 x7740 -1 x7293 -1 x7294 -1 x7295 -1 x7296 -1 x7297 -1 x7298 -1 x7299 -1 x7300 >= 0 ;
+2 x7741 +2 x7742 +2 x7743 +2 x7744 -1 x7297 -1 x7298 -1 x7299 -1 x7300 -1 x7301 -1 x7302 -1 x7303 -1 x7304 >= 0 ;
+2 x7745 +2 x7746 +2 x7747 +2 x7748 -1 x7301 -1 x7302 -1 x7303 -1 x7304 -1 x7305 -1 x7306 -1 x7307 -1 x7308 >= 0 ;
+2 x7749 +2 x7750 +2 x7751 +2 x7752 -1 x7305 -1 x7306 -1 x7307 -1 x7308 -1 x7309 -1 x7310 -1 x7311 -1 x7312 >= 0 ;
+2 x7753 +2 x7754 +2 x7755 +2 x7756 -1 x7309 -1 x7310 -1 x7311 -1 x7312 -1 x7313 -1 x7314 -1 x7315 -1 x7316 >= 0 ;
+2 x7757 +2 x7758 +2 x7759 +2 x7760 -1 x7313 -1 x7314 -1 x7315 -1 x7316 -1 x7317 -1 x7318 -1 x7319 -1 x7320 >= 0 ;
+2 x7761 +2 x7762 +2 x7763 +2 x7764 -1 x7317 -1 x7318 -1 x7319 -1 x7320 -1 x7321 -1 x7322 -1 x7323 -1 x7324 >= 0 ;
+2 x7765 +2 x7766 +2 x7767 +2 x7768 -1 x7321 -1 x7322 -1 x7323 -1 x7324 -1 x7325 -1 x7326 -1 x7327 -1 x7328 >= 0 ;
+2 x7769 +2 x7770 +2 x7771 +2 x7772 -1 x7325 -1 x7326 -1 x7327 -1 x7328 -1 x7329 -1 x7330 -1 x7331 -1 x7332 >= 0 ;
+2 x7773 +2 x7774 +2 x7775 +2 x7776 -1 x7329 -1 x7330 -1 x7331 -1 x7332 -1 x7333 -1 x7334 -1 x7335 -1 x7336 >= 0 ;
+2 x7777 +2 x7778 +2 x7779 +2 x7780 -1 x7333 -1 x7334 -1 x7335 -1 x7336 -1 x7337 -1 x7338 -1 x7339 -1 x7340 >= 0 ;
+2 x7781 +2 x7782 +2 x7783 +2 x7784 -1 x7337 -1 x7338 -1 x7339 -1 x7340 -1 x7341 -1 x7342 -1 x7343 -1 x7344 >= 0 ;
+2 x7785 +2 x7786 +2 x7787 +2 x7788 -1 x7341 -1 x7342 -1 x7343 -1 x7344 -1 x7345 -1 x7346 -1 x7347 -1 x7348 >= 0 ;
+2 x7789 +2 x7790 +2 x7791 +2 x7792 -1 x7345 -1 x7346 -1 x7347 -1 x7348 -1 x7349 -1 x7350 -1 x7351 -1 x7352 >= 0 ;
+2 x7793 +2 x7794 +2 x7795 +2 x7796 -1 x7349 -1 x7350 -1 x7351 -1 x7352 -1 x7353 -1 x7354 -1 x7355 -1 x7356 >= 0 ;
+2 x7797 +2 x7798 +2 x7799 +2 x7800 -1 x7353 -1 x7354 -1 x7355 -1 x7356 -1 x7357 -1 x7358 -1 x7359 -1 x7360 >= 0 ;
+2 x7801 +2 x7802 +2 x7803 +2 x7804 -1 x7357 -1 x7358 -1 x7359 -1 x7360 -1 x7361 -1 x7362 -1 x7363 -1 x7364 >= 0 ;
+2 x7805 +2 x7806 +2 x7807 +2 x7808 -1 x7361 -1 x7362 -1 x7363 -1 x7364 -1 x7365 -1 x7366 -1 x7367 -1 x7368 >= 0 ;
+2 x7809 +2 x7810 +2 x7811 +2 x7812 -1 x7365 -1 x7366 -1 x7367 -1 x7368 -1 x7369 -1 x7370 -1 x7371 -1 x7372 >= 0 ;
+2 x7813 +2 x7814 +2 x7815 +2 x7816 -1 x7369 -1 x7370 -1 x7371 -1 x7372 -1 x7373 -1 x7374 -1 x7375 -1 x7376 >= 0 ;
+2 x7817 +2 x7818 +2 x7819 +2 x7820 -1 x7373 -1 x7374 -1 x7375 -1 x7376 -1 x7377 -1 x7378 -1 x7379 -1 x7380 >= 0 ;
+2 x7821 +2 x7822 +2 x7823 +2 x7824 -1 x7377 -1 x7378 -1 x7379 -1 x7380 -1 x7381 -1 x7382 -1 x7383 -1 x7384 >= 0 ;
+2 x7825 +2 x7826 +2 x7827 +2 x7828 -1 x7381 -1 x7382 -1 x7383 -1 x7384 -1 x7385 -1 x7386 -1 x7387 -1 x7388 >= 0 ;
+2 x7829 +2 x7830 +2 x7831 +2 x7832 -1 x7385 -1 x7386 -1 x7387 -1 x7388 -1 x7389 -1 x7390 -1 x7391 -1 x7392 >= 0 ;
+2 x7833 +2 x7834 +2 x7835 +2 x7836 -1 x7389 -1 x7390 -1 x7391 -1 x7392 -1 x7393 -1 x7394 -1 x7395 -1 x7396 >= 0 ;
+2 x7837 +2 x7838 +2 x7839 +2 x7840 -1 x7393 -1 x7394 -1 x7395 -1 x7396 -1 x7397 -1 x7398 -1 x7399 -1 x7400 >= 0 ;
+2 x7841 +2 x7842 +2 x7843 +2 x7844 -1 x7397 -1 x7398 -1 x7399 -1 x7400 -1 x7401 -1 x7402 -1 x7403 -1 x7404 >= 0 ;
+2 x7845 +2 x7846 +2 x7847 +2 x7848 -1 x7401 -1 x7402 -1 x7403 -1 x7404 -1 x7405 -1 x7406 -1 x7407 -1 x7408 >= 0 ;
+2 x7849 +2 x7850 +2 x7851 +2 x7852 -1 x7405 -1 x7406 -1 x7407 -1 x7408 -1 x7409 -1 x7410 -1 x7411 -1 x7412 >= 0 ;
+2 x7853 +2 x7854 +2 x7855 +2 x7856 -1 x7409 -1 x7410 -1 x7411 -1 x7412 -1 x7413 -1 x7414 -1 x7415 -1 x7416 >= 0 ;
+2 x7857 +2 x7858 +2 x7859 +2 x7860 -1 x7413 -1 x7414 -1 x7415 -1 x7416 -1 x7417 -1 x7418 -1 x7419 -1 x7420 >= 0 ;
+2 x7861 +2 x7862 +2 x7863 +2 x7864 -1 x7417 -1 x7418 -1 x7419 -1 x7420 -1 x7421 -1 x7422 -1 x7423 -1 x7424 >= 0 ;
+2 x7865 +2 x7866 +2 x7867 +2 x7868 -1 x7421 -1 x7422 -1 x7423 -1 x7424 -1 x7425 -1 x7426 -1 x7427 -1 x7428 >= 0 ;
+2 x7869 +2 x7870 +2 x7871 +2 x7872 -1 x7425 -1 x7426 -1 x7427 -1 x7428 -1 x7429 -1 x7430 -1 x7431 -1 x7432 >= 0 ;
+2 x7873 +2 x7874 +2 x7875 +2 x7876 -1 x7429 -1 x7430 -1 x7431 -1 x7432 -1 x7433 -1 x7434 -1 x7435 -1 x7436 >= 0 ;
+2 x7877 +2 x7878 +2 x7879 +2 x7880 -1 x7433 -1 x7434 -1 x7435 -1 x7436 -1 x7437 -1 x7438 -1 x7439 -1 x7440 >= 0 ;
+2 x7881 +2 x7882 +2 x7883 +2 x7884 -1 x7437 -1 x7438 -1 x7439 -1 x7440 -1 x7441 -1 x7442 -1 x7443 -1 x7444 >= 0 ;
+2 x7885 +2 x7886 +2 x7887 +2 x7888 -1 x7441 -1 x7442 -1 x7443 -1 x7444 -1 x7445 -1 x7446 -1 x7447 -1 x7448 >= 0 ;
+2 x7889 +2 x7890 +2 x7891 +2 x7892 -1 x7445 -1 x7446 -1 x7447 -1 x7448 -1 x7449 -1 x7450 -1 x7451 -1 x7452 >= 0 ;
+2 x7893 +2 x7894 +2 x7895 +2 x7896 -1 x7449 -1 x7450 -1 x7451 -1 x7452 -1 x7453 -1 x7454 -1 x7455 -1 x7456 >= 0 ;
+2 x7897 +2 x7898 +2 x7899 +2 x7900 -1 x7453 -1 x7454 -1 x7455 -1 x7456 -1 x7457 -1 x7458 -1 x7459 -1 x7460 >= 0 ;
+2 x7901 +2 x7902 +2 x7903 +2 x7904 -1 x7457 -1 x7458 -1 x7459 -1 x7460 -1 x7461 -1 x7462 -1 x7463 -1 x7464 >= 0 ;
+2 x7905 +2 x7906 +2 x7907 +2 x7908 -1 x7461 -1 x7462 -1 x7463 -1 x7464 -1 x7465 -1 x7466 -1 x7467 -1 x7468 >= 0 ;
+2 x7909 +2 x7910 +2 x7911 +2 x7912 -1 x7465 -1 x7466 -1 x7467 -1 x7468 -1 x7469 -1 x7470 -1 x7471 -1 x7472 >= 0 ;
+2 x7913 +2 x7914 +2 x7915 +2 x7916 -1 x7469 -1 x7470 -1 x7471 -1 x7472 -1 x7473 -1 x7474 -1 x7475 -1 x7476 >= 0 ;
+2 x7917 +2 x7918 +2 x7919 +2 x7920 -1 x7473 -1 x7474 -1 x7475 -1 x7476 -1 x7477 -1 x7478 -1 x7479 -1 x7480 >= 0 ;
+2 x7921 +2 x7922 +2 x7923 +2 x7924 -1 x7477 -1 x7478 -1 x7479 -1 x7480 -1 x7481 -1 x7482 -1 x7483 -1 x7484 >= 0 ;
+2 x7925 +2 x7926 +2 x7927 +2 x7928 -1 x7481 -1 x7482 -1 x7483 -1 x7484 -1 x7485 -1 x7486 -1 x7487 -1 x7488 >= 0 ;
+2 x7929 +2 x7930 +2 x7931 +2 x7932 -1 x7485 -1 x7486 -1 x7487 -1 x7488 -1 x7489 -1 x7490 -1 x7491 -1 x7492 >= 0 ;
+2 x7933 +2 x7934 +2 x7935 +2 x7936 -1 x7489 -1 x7490 -1 x7491 -1 x7492 -1 x7493 -1 x7494 -1 x7495 -1 x7496 >= 0 ;
+2 x7937 +2 x7938 +2 x7939 +2 x7940 -1 x7493 -1 x7494 -1 x7495 -1 x7496 -1 x7497 -1 x7498 -1 x7499 -1 x7500 >= 0 ;
+2 x7941 +2 x7942 +2 x7943 +2 x7944 -1 x7497 -1 x7498 -1 x7499 -1 x7500 -1 x7501 -1 x7502 -1 x7503 -1 x7504 >= 0 ;
+2 x7945 +2 x7946 +2 x7947 +2 x7948 -1 x7501 -1 x7502 -1 x7503 -1 x7504 -1 x7505 -1 x7506 -1 x7507 -1 x7508 >= 0 ;
+2 x7949 +2 x7950 +2 x7951 +2 x7952 -1 x7505 -1 x7506 -1 x7507 -1 x7508 -1 x7509 -1 x7510 -1 x7511 -1 x7512 >= 0 ;
+2 x7953 +2 x7954 +2 x7955 +2 x7956 -1 x7509 -1 x7510 -1 x7511 -1 x7512 -1 x7513 -1 x7514 -1 x7515 -1 x7516 >= 0 ;
+2 x7957 +2 x7958 +2 x7959 +2 x7960 -1 x7513 -1 x7514 -1 x7515 -1 x7516 -1 x7517 -1 x7518 -1 x7519 -1 x7520 >= 0 ;
+2 x7961 +2 x7962 +2 x7963 +2 x7964 -1 x7517 -1 x7518 -1 x7519 -1 x7520 -1 x7521 -1 x7522 -1 x7523 -1 x7524 >= 0 ;
+2 x7965 +2 x7966 +2 x7967 +2 x7968 -1 x7521 -1 x7522 -1 x7523 -1 x7524 -1 x7525 -1 x7526 -1 x7527 -1 x7528 >= 0 ;
+2 x7969 +2 x7970 +2 x7971 +2 x7972 -1 x7525 -1 x7526 -1 x7527 -1 x7528 -1 x7529 -1 x7530 -1 x7531 -1 x7532 >= 0 ;
+2 x7973 +2 x7974 +2 x7975 +2 x7976 -1 x7529 -1 x7530 -1 x7531 -1 x7532 -1 x7533 -1 x7534 -1 x7535 -1 x7536 >= 0 ;
+2 x7977 +2 x7978 +2 x7979 +2 x7980 -1 x7533 -1 x7534 -1 x7535 -1 x7536 -1 x7537 -1 x7538 -1 x7539 -1 x7540 >= 0 ;
+2 x7981 +2 x7982 +2 x7983 +2 x7984 -1 x7537 -1 x7538 -1 x7539 -1 x7540 -1 x7541 -1 x7542 -1 x7543 -1 x7544 >= 0 ;
+2 x7985 +2 x7986 +2 x7987 +2 x7988 -1 x7541 -1 x7542 -1 x7543 -1 x7544 -1 x7545 -1 x7546 -1 x7547 -1 x7548 >= 0 ;
+2 x7989 +2 x7990 +2 x7991 +2 x7992 -1 x7545 -1 x7546 -1 x7547 -1 x7548 -1 x7549 -1 x7550 -1 x7551 -1 x7552 >= 0 ;
+2 x7993 +2 x7994 +2 x7995 +2 x7996 -1 x7549 -1 x7550 -1 x7551 -1 x7552 -1 x7553 -1 x7554 -1 x7555 -1 x7556 >= 0 ;
+2 x7997 +2 x7998 +2 x7999 +2 x8000 -1 x7553 -1 x7554 -1 x7555 -1 x7556 -1 x7557 -1 x7558 -1 x7559 -1 x7560 >= 0 ;
+2 x8001 +2 x8002 +2 x8003 +2 x8004 -1 x7557 -1 x7558 -1 x7559 -1 x7560 -1 x7561 -1 x7562 -1 x7563 -1 x7564 >= 0 ;
+2 x8005 +2 x8006 +2 x8007 +2 x8008 -1 x7561 -1 x7562 -1 x7563 -1 x7564 -1 x7565 -1 x7566 -1 x7567 -1 x7568 >= 0 ;
+2 x8009 +2 x8010 +2 x8011 +2 x8012 -1 x7565 -1 x7566 -1 x7567 -1 x7568 -1 x7569 -1 x7570 -1 x7571 -1 x7572 >= 0 ;
+2 x8013 +2 x8014 +2 x8015 +2 x8016 -1 x7569 -1 x7570 -1 x7571 -1 x7572 -1 x7573 -1 x7574 -1 x7575 -1 x7576 >= 0 ;
+2 x8017 +2 x8018 +2 x8019 +2 x8020 -1 x7573 -1 x7574 -1 x7575 -1 x7576 -1 x7577 -1 x7578 -1 x7579 -1 x7580 >= 0 ;
+2 x8021 +2 x8022 +2 x8023 +2 x8024 -1 x7577 -1 x7578 -1 x7579 -1 x7580 -1 x7581 -1 x7582 -1 x7583 -1 x7584 >= 0 ;
+2 x8025 +2 x8026 +2 x8027 +2 x8028 -1 x7585 -1 x7586 -1 x7587 -1 x7588 -1 x7589 -1 x7590 -1 x7591 -1 x7592 >= 0 ;
+2 x8029 +2 x8030 +2 x8031 +2 x8032 -1 x7589 -1 x7590 -1 x7591 -1 x7592 -1 x7593 -1 x7594 -1 x7595 -1 x7596 >= 0 ;
+2 x8033 +2 x8034 +2 x8035 +2 x8036 -1 x7593 -1 x7594 -1 x7595 -1 x7596 -1 x7597 -1 x7598 -1 x7599 -1 x7600 >= 0 ;
+2 x8037 +2 x8038 +2 x8039 +2 x8040 -1 x7597 -1 x7598 -1 x7599 -1 x7600 -1 x7601 -1 x7602 -1 x7603 -1 x7604 >= 0 ;
+2 x8041 +2 x8042 +2 x8043 +2 x8044 -1 x7601 -1 x7602 -1 x7603 -1 x7604 -1 x7605 -1 x7606 -1 x7607 -1 x7608 >= 0 ;
+2 x8045 +2 x8046 +2 x8047 +2 x8048 -1 x7605 -1 x7606 -1 x7607 -1 x7608 -1 x7609 -1 x7610 -1 x7611 -1 x7612 >= 0 ;
+2 x8049 +2 x8050 +2 x8051 +2 x8052 -1 x7609 -1 x7610 -1 x7611 -1 x7612 -1 x7613 -1 x7614 -1 x7615 -1 x7616 >= 0 ;
+2 x8053 +2 x8054 +2 x8055 +2 x8056 -1 x7613 -1 x7614 -1 x7615 -1 x7616 -1 x7617 -1 x7618 -1 x7619 -1 x7620 >= 0 ;
+2 x8057 +2 x8058 +2 x8059 +2 x8060 -1 x7617 -1 x7618 -1 x7619 -1 x7620 -1 x7621 -1 x7622 -1 x7623 -1 x7624 >= 0 ;
+2 x8061 +2 x8062 +2 x8063 +2 x8064 -1 x7621 -1 x7622 -1 x7623 -1 x7624 -1 x7625 -1 x7626 -1 x7627 -1 x7628 >= 0 ;
+2 x8065 +2 x8066 +2 x8067 +2 x8068 -1 x7625 -1 x7626 -1 x7627 -1 x7628 -1 x7629 -1 x7630 -1 x7631 -1 x7632 >= 0 ;
+2 x8069 +2 x8070 +2 x8071 +2 x8072 -1 x7629 -1 x7630 -1 x7631 -1 x7632 -1 x7633 -1 x7634 -1 x7635 -1 x7636 >= 0 ;
+2 x8073 +2 x8074 +2 x8075 +2 x8076 -1 x7633 -1 x7634 -1 x7635 -1 x7636 -1 x7637 -1 x7638 -1 x7639 -1 x7640 >= 0 ;
+2 x8077 +2 x8078 +2 x8079 +2 x8080 -1 x7637 -1 x7638 -1 x7639 -1 x7640 -1 x7641 -1 x7642 -1 x7643 -1 x7644 >= 0 ;
+2 x8081 +2 x8082 +2 x8083 +2 x8084 -1 x7641 -1 x7642 -1 x7643 -1 x7644 -1 x7645 -1 x7646 -1 x7647 -1 x7648 >= 0 ;
+2 x8085 +2 x8086 +2 x8087 +2 x8088 -1 x7645 -1 x7646 -1 x7647 -1 x7648 -1 x7649 -1 x7650 -1 x7651 -1 x7652 >= 0 ;
+2 x8089 +2 x8090 +2 x8091 +2 x8092 -1 x7649 -1 x7650 -1 x7651 -1 x7652 -1 x7653 -1 x7654 -1 x7655 -1 x7656 >= 0 ;
+2 x8093 +2 x8094 +2 x8095 +2 x8096 -1 x7653 -1 x7654 -1 x7655 -1 x7656 -1 x7657 -1 x7658 -1 x7659 -1 x7660 >= 0 ;
+2 x8097 +2 x8098 +2 x8099 +2 x8100 -1 x7657 -1 x7658 -1 x7659 -1 x7660 -1 x7661 -1 x7662 -1 x7663 -1 x7664 >= 0 ;
+2 x8101 +2 x8102 +2 x8103 +2 x8104 -1 x7661 -1 x7662 -1 x7663 -1 x7664 -1 x7665 -1 x7666 -1 x7667 -1 x7668 >= 0 ;
+2 x8105 +2 x8106 +2 x8107 +2 x8108 -1 x7665 -1 x7666 -1 x7667 -1 x7668 -1 x7669 -1 x7670 -1 x7671 -1 x7672 >= 0 ;
+2 x8109 +2 x8110 +2 x8111 +2 x8112 -1 x7669 -1 x7670 -1 x7671 -1 x7672 -1 x7673 -1 x7674 -1 x7675 -1 x7676 >= 0 ;
+2 x8113 +2 x8114 +2 x8115 +2 x8116 -1 x7673 -1 x7674 -1 x7675 -1 x7676 -1 x7677 -1 x7678 -1 x7679 -1 x7680 >= 0 ;
+2 x8117 +2 x8118 +2 x8119 +2 x8120 -1 x7677 -1 x7678 -1 x7679 -1 x7680 -1 x7681 -1 x7682 -1 x7683 -1 x7684 >= 0 ;
+2 x8121 +2 x8122 +2 x8123 +2 x8124 -1 x7681 -1 x7682 -1 x7683 -1 x7684 -1 x7685 -1 x7686 -1 x7687 -1 x7688 >= 0 ;
+2 x8125 +2 x8126 +2 x8127 +2 x8128 -1 x7685 -1 x7686 -1 x7687 -1 x7688 -1 x7689 -1 x7690 -1 x7691 -1 x7692 >= 0 ;
+2 x8129 +2 x8130 +2 x8131 +2 x8132 -1 x7689 -1 x7690 -1 x7691 -1 x7692 -1 x7693 -1 x7694 -1 x7695 -1 x7696 >= 0 ;
+2 x8133 +2 x8134 +2 x8135 +2 x8136 -1 x7693 -1 x7694 -1 x7695 -1 x7696 -1 x7697 -1 x7698 -1 x7699 -1 x7700 >= 0 ;
+2 x8137 +2 x8138 +2 x8139 +2 x8140 -1 x7697 -1 x7698 -1 x7699 -1 x7700 -1 x7701 -1 x7702 -1 x7703 -1 x7704 >= 0 ;
+2 x8141 +2 x8142 +2 x8143 +2 x8144 -1 x7701 -1 x7702 -1 x7703 -1 x7704 -1 x7705 -1 x7706 -1 x7707 -1 x7708 >= 0 ;
+2 x8145 +2 x8146 +2 x8147 +2 x8148 -1 x7705 -1 x7706 -1 x7707 -1 x7708 -1 x7709 -1 x7710 -1 x7711 -1 x7712 >= 0 ;
+2 x8149 +2 x8150 +2 x8151 +2 x8152 -1 x7709 -1 x7710 -1 x7711 -1 x7712 -1 x7713 -1 x7714 -1 x7715 -1 x7716 >= 0 ;
+2 x8153 +2 x8154 +2 x8155 +2 x8156 -1 x7713 -1 x7714 -1 x7715 -1 x7716 -1 x7717 -1 x7718 -1 x7719 -1 x7720 >= 0 ;
+2 x8157 +2 x8158 +2 x8159 +2 x8160 -1 x7717 -1 x7718 -1 x7719 -1 x7720 -1 x7721 -1 x7722 -1 x7723 -1 x7724 >= 0 ;
+2 x8161 +2 x8162 +2 x8163 +2 x8164 -1 x7721 -1 x7722 -1 x7723 -1 x7724 -1 x7725 -1 x7726 -1 x7727 -1 x7728 >= 0 ;
+2 x8165 +2 x8166 +2 x8167 +2 x8168 -1 x7725 -1 x7726 -1 x7727 -1 x7728 -1 x7729 -1 x7730 -1 x7731 -1 x7732 >= 0 ;
+2 x8169 +2 x8170 +2 x8171 +2 x8172 -1 x7729 -1 x7730 -1 x7731 -1 x7732 -1 x7733 -1 x7734 -1 x7735 -1 x7736 >= 0 ;
+2 x8173 +2 x8174 +2 x8175 +2 x8176 -1 x7733 -1 x7734 -1 x7735 -1 x7736 -1 x7737 -1 x7738 -1 x7739 -1 x7740 >= 0 ;
+2 x8177 +2 x8178 +2 x8179 +2 x8180 -1 x7737 -1 x7738 -1 x7739 -1 x7740 -1 x7741 -1 x7742 -1 x7743 -1 x7744 >= 0 ;
+2 x8181 +2 x8182 +2 x8183 +2 x8184 -1 x7741 -1 x7742 -1 x7743 -1 x7744 -1 x7745 -1 x7746 -1 x7747 -1 x7748 >= 0 ;
+2 x8185 +2 x8186 +2 x8187 +2 x8188 -1 x7745 -1 x7746 -1 x7747 -1 x7748 -1 x7749 -1 x7750 -1 x7751 -1 x7752 >= 0 ;
+2 x8189 +2 x8190 +2 x8191 +2 x8192 -1 x7749 -1 x7750 -1 x7751 -1 x7752 -1 x7753 -1 x7754 -1 x7755 -1 x7756 >= 0 ;
+2 x8193 +2 x8194 +2 x8195 +2 x8196 -1 x7753 -1 x7754 -1 x7755 -1 x7756 -1 x7757 -1 x7758 -1 x7759 -1 x7760 >= 0 ;
+2 x8197 +2 x8198 +2 x8199 +2 x8200 -1 x7757 -1 x7758 -1 x7759 -1 x7760 -1 x7761 -1 x7762 -1 x7763 -1 x7764 >= 0 ;
+2 x8201 +2 x8202 +2 x8203 +2 x8204 -1 x7761 -1 x7762 -1 x7763 -1 x7764 -1 x7765 -1 x7766 -1 x7767 -1 x7768 >= 0 ;
+2 x8205 +2 x8206 +2 x8207 +2 x8208 -1 x7765 -1 x7766 -1 x7767 -1 x7768 -1 x7769 -1 x7770 -1 x7771 -1 x7772 >= 0 ;
+2 x8209 +2 x8210 +2 x8211 +2 x8212 -1 x7769 -1 x7770 -1 x7771 -1 x7772 -1 x7773 -1 x7774 -1 x7775 -1 x7776 >= 0 ;
+2 x8213 +2 x8214 +2 x8215 +2 x8216 -1 x7773 -1 x7774 -1 x7775 -1 x7776 -1 x7777 -1 x7778 -1 x7779 -1 x7780 >= 0 ;
+2 x8217 +2 x8218 +2 x8219 +2 x8220 -1 x7777 -1 x7778 -1 x7779 -1 x7780 -1 x7781 -1 x7782 -1 x7783 -1 x7784 >= 0 ;
+2 x8221 +2 x8222 +2 x8223 +2 x8224 -1 x7781 -1 x7782 -1 x7783 -1 x7784 -1 x7785 -1 x7786 -1 x7787 -1 x7788 >= 0 ;
+2 x8225 +2 x8226 +2 x8227 +2 x8228 -1 x7785 -1 x7786 -1 x7787 -1 x7788 -1 x7789 -1 x7790 -1 x7791 -1 x7792 >= 0 ;
+2 x8229 +2 x8230 +2 x8231 +2 x8232 -1 x7789 -1 x7790 -1 x7791 -1 x7792 -1 x7793 -1 x7794 -1 x7795 -1 x7796 >= 0 ;
+2 x8233 +2 x8234 +2 x8235 +2 x8236 -1 x7793 -1 x7794 -1 x7795 -1 x7796 -1 x7797 -1 x7798 -1 x7799 -1 x7800 >= 0 ;
+2 x8237 +2 x8238 +2 x8239 +2 x8240 -1 x7797 -1 x7798 -1 x7799 -1 x7800 -1 x7801 -1 x7802 -1 x7803 -1 x7804 >= 0 ;
+2 x8241 +2 x8242 +2 x8243 +2 x8244 -1 x7801 -1 x7802 -1 x7803 -1 x7804 -1 x7805 -1 x7806 -1 x7807 -1 x7808 >= 0 ;
+2 x8245 +2 x8246 +2 x8247 +2 x8248 -1 x7805 -1 x7806 -1 x7807 -1 x7808 -1 x7809 -1 x7810 -1 x7811 -1 x7812 >= 0 ;
+2 x8249 +2 x8250 +2 x8251 +2 x8252 -1 x7809 -1 x7810 -1 x7811 -1 x7812 -1 x7813 -1 x7814 -1 x7815 -1 x7816 >= 0 ;
+2 x8253 +2 x8254 +2 x8255 +2 x8256 -1 x7813 -1 x7814 -1 x7815 -1 x7816 -1 x7817 -1 x7818 -1 x7819 -1 x7820 >= 0 ;
+2 x8257 +2 x8258 +2 x8259 +2 x8260 -1 x7817 -1 x7818 -1 x7819 -1 x7820 -1 x7821 -1 x7822 -1 x7823 -1 x7824 >= 0 ;
+2 x8261 +2 x8262 +2 x8263 +2 x8264 -1 x7821 -1 x7822 -1 x7823 -1 x7824 -1 x7825 -1 x7826 -1 x7827 -1 x7828 >= 0 ;
+2 x8265 +2 x8266 +2 x8267 +2 x8268 -1 x7825 -1 x7826 -1 x7827 -1 x7828 -1 x7829 -1 x7830 -1 x7831 -1 x7832 >= 0 ;
+2 x8269 +2 x8270 +2 x8271 +2 x8272 -1 x7829 -1 x7830 -1 x7831 -1 x7832 -1 x7833 -1 x7834 -1 x7835 -1 x7836 >= 0 ;
+2 x8273 +2 x8274 +2 x8275 +2 x8276 -1 x7833 -1 x7834 -1 x7835 -1 x7836 -1 x7837 -1 x7838 -1 x7839 -1 x7840 >= 0 ;
+2 x8277 +2 x8278 +2 x8279 +2 x8280 -1 x7837 -1 x7838 -1 x7839 -1 x7840 -1 x7841 -1 x7842 -1 x7843 -1 x7844 >= 0 ;
+2 x8281 +2 x8282 +2 x8283 +2 x8284 -1 x7841 -1 x7842 -1 x7843 -1 x7844 -1 x7845 -1 x7846 -1 x7847 -1 x7848 >= 0 ;
+2 x8285 +2 x8286 +2 x8287 +2 x8288 -1 x7845 -1 x7846 -1 x7847 -1 x7848 -1 x7849 -1 x7850 -1 x7851 -1 x7852 >= 0 ;
+2 x8289 +2 x8290 +2 x8291 +2 x8292 -1 x7849 -1 x7850 -1 x7851 -1 x7852 -1 x7853 -1 x7854 -1 x7855 -1 x7856 >= 0 ;
+2 x8293 +2 x8294 +2 x8295 +2 x8296 -1 x7853 -1 x7854 -1 x7855 -1 x7856 -1 x7857 -1 x7858 -1 x7859 -1 x7860 >= 0 ;
+2 x8297 +2 x8298 +2 x8299 +2 x8300 -1 x7857 -1 x7858 -1 x7859 -1 x7860 -1 x7861 -1 x7862 -1 x7863 -1 x7864 >= 0 ;
+2 x8301 +2 x8302 +2 x8303 +2 x8304 -1 x7861 -1 x7862 -1 x7863 -1 x7864 -1 x7865 -1 x7866 -1 x7867 -1 x7868 >= 0 ;
+2 x8305 +2 x8306 +2 x8307 +2 x8308 -1 x7865 -1 x7866 -1 x7867 -1 x7868 -1 x7869 -1 x7870 -1 x7871 -1 x7872 >= 0 ;
+2 x8309 +2 x8310 +2 x8311 +2 x8312 -1 x7869 -1 x7870 -1 x7871 -1 x7872 -1 x7873 -1 x7874 -1 x7875 -1 x7876 >= 0 ;
+2 x8313 +2 x8314 +2 x8315 +2 x8316 -1 x7873 -1 x7874 -1 x7875 -1 x7876 -1 x7877 -1 x7878 -1 x7879 -1 x7880 >= 0 ;
+2 x8317 +2 x8318 +2 x8319 +2 x8320 -1 x7877 -1 x7878 -1 x7879 -1 x7880 -1 x7881 -1 x7882 -1 x7883 -1 x7884 >= 0 ;
+2 x8321 +2 x8322 +2 x8323 +2 x8324 -1 x7881 -1 x7882 -1 x7883 -1 x7884 -1 x7885 -1 x7886 -1 x7887 -1 x7888 >= 0 ;
+2 x8325 +2 x8326 +2 x8327 +2 x8328 -1 x7885 -1 x7886 -1 x7887 -1 x7888 -1 x7889 -1 x7890 -1 x7891 -1 x7892 >= 0 ;
+2 x8329 +2 x8330 +2 x8331 +2 x8332 -1 x7889 -1 x7890 -1 x7891 -1 x7892 -1 x7893 -1 x7894 -1 x7895 -1 x7896 >= 0 ;
+2 x8333 +2 x8334 +2 x8335 +2 x8336 -1 x7893 -1 x7894 -1 x7895 -1 x7896 -1 x7897 -1 x7898 -1 x7899 -1 x7900 >= 0 ;
+2 x8337 +2 x8338 +2 x8339 +2 x8340 -1 x7897 -1 x7898 -1 x7899 -1 x7900 -1 x7901 -1 x7902 -1 x7903 -1 x7904 >= 0 ;
+2 x8341 +2 x8342 +2 x8343 +2 x8344 -1 x7901 -1 x7902 -1 x7903 -1 x7904 -1 x7905 -1 x7906 -1 x7907 -1 x7908 >= 0 ;
+2 x8345 +2 x8346 +2 x8347 +2 x8348 -1 x7905 -1 x7906 -1 x7907 -1 x7908 -1 x7909 -1 x7910 -1 x7911 -1 x7912 >= 0 ;
+2 x8349 +2 x8350 +2 x8351 +2 x8352 -1 x7909 -1 x7910 -1 x7911 -1 x7912 -1 x7913 -1 x7914 -1 x7915 -1 x7916 >= 0 ;
+2 x8353 +2 x8354 +2 x8355 +2 x8356 -1 x7913 -1 x7914 -1 x7915 -1 x7916 -1 x7917 -1 x7918 -1 x7919 -1 x7920 >= 0 ;
+2 x8357 +2 x8358 +2 x8359 +2 x8360 -1 x7917 -1 x7918 -1 x7919 -1 x7920 -1 x7921 -1 x7922 -1 x7923 -1 x7924 >= 0 ;
+2 x8361 +2 x8362 +2 x8363 +2 x8364 -1 x7921 -1 x7922 -1 x7923 -1 x7924 -1 x7925 -1 x7926 -1 x7927 -1 x7928 >= 0 ;
+2 x8365 +2 x8366 +2 x8367 +2 x8368 -1 x7925 -1 x7926 -1 x7927 -1 x7928 -1 x7929 -1 x7930 -1 x7931 -1 x7932 >= 0 ;
+2 x8369 +2 x8370 +2 x8371 +2 x8372 -1 x7929 -1 x7930 -1 x7931 -1 x7932 -1 x7933 -1 x7934 -1 x7935 -1 x7936 >= 0 ;
+2 x8373 +2 x8374 +2 x8375 +2 x8376 -1 x7933 -1 x7934 -1 x7935 -1 x7936 -1 x7937 -1 x7938 -1 x7939 -1 x7940 >= 0 ;
+2 x8377 +2 x8378 +2 x8379 +2 x8380 -1 x7937 -1 x7938 -1 x7939 -1 x7940 -1 x7941 -1 x7942 -1 x7943 -1 x7944 >= 0 ;
+2 x8381 +2 x8382 +2 x8383 +2 x8384 -1 x7941 -1 x7942 -1 x7943 -1 x7944 -1 x7945 -1 x7946 -1 x7947 -1 x7948 >= 0 ;
+2 x8385 +2 x8386 +2 x8387 +2 x8388 -1 x7945 -1 x7946 -1 x7947 -1 x7948 -1 x7949 -1 x7950 -1 x7951 -1 x7952 >= 0 ;
+2 x8389 +2 x8390 +2 x8391 +2 x8392 -1 x7949 -1 x7950 -1 x7951 -1 x7952 -1 x7953 -1 x7954 -1 x7955 -1 x7956 >= 0 ;
+2 x8393 +2 x8394 +2 x8395 +2 x8396 -1 x7953 -1 x7954 -1 x7955 -1 x7956 -1 x7957 -1 x7958 -1 x7959 -1 x7960 >= 0 ;
+2 x8397 +2 x8398 +2 x8399 +2 x8400 -1 x7957 -1 x7958 -1 x7959 -1 x7960 -1 x7961 -1 x7962 -1 x7963 -1 x7964 >= 0 ;
+2 x8401 +2 x8402 +2 x8403 +2 x8404 -1 x7961 -1 x7962 -1 x7963 -1 x7964 -1 x7965 -1 x7966 -1 x7967 -1 x7968 >= 0 ;
+2 x8405 +2 x8406 +2 x8407 +2 x8408 -1 x7965 -1 x7966 -1 x7967 -1 x7968 -1 x7969 -1 x7970 -1 x7971 -1 x7972 >= 0 ;
+2 x8409 +2 x8410 +2 x8411 +2 x8412 -1 x7969 -1 x7970 -1 x7971 -1 x7972 -1 x7973 -1 x7974 -1 x7975 -1 x7976 >= 0 ;
+2 x8413 +2 x8414 +2 x8415 +2 x8416 -1 x7973 -1 x7974 -1 x7975 -1 x7976 -1 x7977 -1 x7978 -1 x7979 -1 x7980 >= 0 ;
+2 x8417 +2 x8418 +2 x8419 +2 x8420 -1 x7977 -1 x7978 -1 x7979 -1 x7980 -1 x7981 -1 x7982 -1 x7983 -1 x7984 >= 0 ;
+2 x8421 +2 x8422 +2 x8423 +2 x8424 -1 x7981 -1 x7982 -1 x7983 -1 x7984 -1 x7985 -1 x7986 -1 x7987 -1 x7988 >= 0 ;
+2 x8425 +2 x8426 +2 x8427 +2 x8428 -1 x7985 -1 x7986 -1 x7987 -1 x7988 -1 x7989 -1 x7990 -1 x7991 -1 x7992 >= 0 ;
+2 x8429 +2 x8430 +2 x8431 +2 x8432 -1 x7989 -1 x7990 -1 x7991 -1 x7992 -1 x7993 -1 x7994 -1 x7995 -1 x7996 >= 0 ;
+2 x8433 +2 x8434 +2 x8435 +2 x8436 -1 x7993 -1 x7994 -1 x7995 -1 x7996 -1 x7997 -1 x7998 -1 x7999 -1 x8000 >= 0 ;
+2 x8437 +2 x8438 +2 x8439 +2 x8440 -1 x7997 -1 x7998 -1 x7999 -1 x8000 -1 x8001 -1 x8002 -1 x8003 -1 x8004 >= 0 ;
+2 x8441 +2 x8442 +2 x8443 +2 x8444 -1 x8001 -1 x8002 -1 x8003 -1 x8004 -1 x8005 -1 x8006 -1 x8007 -1 x8008 >= 0 ;
+2 x8445 +2 x8446 +2 x8447 +2 x8448 -1 x8005 -1 x8006 -1 x8007 -1 x8008 -1 x8009 -1 x8010 -1 x8011 -1 x8012 >= 0 ;
+2 x8449 +2 x8450 +2 x8451 +2 x8452 -1 x8009 -1 x8010 -1 x8011 -1 x8012 -1 x8013 -1 x8014 -1 x8015 -1 x8016 >= 0 ;
+2 x8453 +2 x8454 +2 x8455 +2 x8456 -1 x8013 -1 x8014 -1 x8015 -1 x8016 -1 x8017 -1 x8018 -1 x8019 -1 x8020 >= 0 ;
+2 x8457 +2 x8458 +2 x8459 +2 x8460 -1 x8017 -1 x8018 -1 x8019 -1 x8020 -1 x8021 -1 x8022 -1 x8023 -1 x8024 >= 0 ;
+2 x8461 +2 x8462 +2 x8463 +2 x8464 -1 x8025 -1 x8026 -1 x8027 -1 x8028 -1 x8029 -1 x8030 -1 x8031 -1 x8032 >= 0 ;
+2 x8465 +2 x8466 +2 x8467 +2 x8468 -1 x8029 -1 x8030 -1 x8031 -1 x8032 -1 x8033 -1 x8034 -1 x8035 -1 x8036 >= 0 ;
+2 x8469 +2 x8470 +2 x8471 +2 x8472 -1 x8033 -1 x8034 -1 x8035 -1 x8036 -1 x8037 -1 x8038 -1 x8039 -1 x8040 >= 0 ;
+2 x8473 +2 x8474 +2 x8475 +2 x8476 -1 x8037 -1 x8038 -1 x8039 -1 x8040 -1 x8041 -1 x8042 -1 x8043 -1 x8044 >= 0 ;
+2 x8477 +2 x8478 +2 x8479 +2 x8480 -1 x8041 -1 x8042 -1 x8043 -1 x8044 -1 x8045 -1 x8046 -1 x8047 -1 x8048 >= 0 ;
+2 x8481 +2 x8482 +2 x8483 +2 x8484 -1 x8045 -1 x8046 -1 x8047 -1 x8048 -1 x8049 -1 x8050 -1 x8051 -1 x8052 >= 0 ;
+2 x8485 +2 x8486 +2 x8487 +2 x8488 -1 x8049 -1 x8050 -1 x8051 -1 x8052 -1 x8053 -1 x8054 -1 x8055 -1 x8056 >= 0 ;
+2 x8489 +2 x8490 +2 x8491 +2 x8492 -1 x8053 -1 x8054 -1 x8055 -1 x8056 -1 x8057 -1 x8058 -1 x8059 -1 x8060 >= 0 ;
+2 x8493 +2 x8494 +2 x8495 +2 x8496 -1 x8057 -1 x8058 -1 x8059 -1 x8060 -1 x8061 -1 x8062 -1 x8063 -1 x8064 >= 0 ;
+2 x8497 +2 x8498 +2 x8499 +2 x8500 -1 x8061 -1 x8062 -1 x8063 -1 x8064 -1 x8065 -1 x8066 -1 x8067 -1 x8068 >= 0 ;
+2 x8501 +2 x8502 +2 x8503 +2 x8504 -1 x8065 -1 x8066 -1 x8067 -1 x8068 -1 x8069 -1 x8070 -1 x8071 -1 x8072 >= 0 ;
+2 x8505 +2 x8506 +2 x8507 +2 x8508 -1 x8069 -1 x8070 -1 x8071 -1 x8072 -1 x8073 -1 x8074 -1 x8075 -1 x8076 >= 0 ;
+2 x8509 +2 x8510 +2 x8511 +2 x8512 -1 x8073 -1 x8074 -1 x8075 -1 x8076 -1 x8077 -1 x8078 -1 x8079 -1 x8080 >= 0 ;
+2 x8513 +2 x8514 +2 x8515 +2 x8516 -1 x8077 -1 x8078 -1 x8079 -1 x8080 -1 x8081 -1 x8082 -1 x8083 -1 x8084 >= 0 ;
+2 x8517 +2 x8518 +2 x8519 +2 x8520 -1 x8081 -1 x8082 -1 x8083 -1 x8084 -1 x8085 -1 x8086 -1 x8087 -1 x8088 >= 0 ;
+2 x8521 +2 x8522 +2 x8523 +2 x8524 -1 x8085 -1 x8086 -1 x8087 -1 x8088 -1 x8089 -1 x8090 -1 x8091 -1 x8092 >= 0 ;
+2 x8525 +2 x8526 +2 x8527 +2 x8528 -1 x8089 -1 x8090 -1 x8091 -1 x8092 -1 x8093 -1 x8094 -1 x8095 -1 x8096 >= 0 ;
+2 x8529 +2 x8530 +2 x8531 +2 x8532 -1 x8093 -1 x8094 -1 x8095 -1 x8096 -1 x8097 -1 x8098 -1 x8099 -1 x8100 >= 0 ;
+2 x8533 +2 x8534 +2 x8535 +2 x8536 -1 x8097 -1 x8098 -1 x8099 -1 x8100 -1 x8101 -1 x8102 -1 x8103 -1 x8104 >= 0 ;
+2 x8537 +2 x8538 +2 x8539 +2 x8540 -1 x8101 -1 x8102 -1 x8103 -1 x8104 -1 x8105 -1 x8106 -1 x8107 -1 x8108 >= 0 ;
+2 x8541 +2 x8542 +2 x8543 +2 x8544 -1 x8105 -1 x8106 -1 x8107 -1 x8108 -1 x8109 -1 x8110 -1 x8111 -1 x8112 >= 0 ;
+2 x8545 +2 x8546 +2 x8547 +2 x8548 -1 x8109 -1 x8110 -1 x8111 -1 x8112 -1 x8113 -1 x8114 -1 x8115 -1 x8116 >= 0 ;
+2 x8549 +2 x8550 +2 x8551 +2 x8552 -1 x8113 -1 x8114 -1 x8115 -1 x8116 -1 x8117 -1 x8118 -1 x8119 -1 x8120 >= 0 ;
+2 x8553 +2 x8554 +2 x8555 +2 x8556 -1 x8117 -1 x8118 -1 x8119 -1 x8120 -1 x8121 -1 x8122 -1 x8123 -1 x8124 >= 0 ;
+2 x8557 +2 x8558 +2 x8559 +2 x8560 -1 x8121 -1 x8122 -1 x8123 -1 x8124 -1 x8125 -1 x8126 -1 x8127 -1 x8128 >= 0 ;
+2 x8561 +2 x8562 +2 x8563 +2 x8564 -1 x8125 -1 x8126 -1 x8127 -1 x8128 -1 x8129 -1 x8130 -1 x8131 -1 x8132 >= 0 ;
+2 x8565 +2 x8566 +2 x8567 +2 x8568 -1 x8129 -1 x8130 -1 x8131 -1 x8132 -1 x8133 -1 x8134 -1 x8135 -1 x8136 >= 0 ;
+2 x8569 +2 x8570 +2 x8571 +2 x8572 -1 x8133 -1 x8134 -1 x8135 -1 x8136 -1 x8137 -1 x8138 -1 x8139 -1 x8140 >= 0 ;
+2 x8573 +2 x8574 +2 x8575 +2 x8576 -1 x8137 -1 x8138 -1 x8139 -1 x8140 -1 x8141 -1 x8142 -1 x8143 -1 x8144 >= 0 ;
+2 x8577 +2 x8578 +2 x8579 +2 x8580 -1 x8141 -1 x8142 -1 x8143 -1 x8144 -1 x8145 -1 x8146 -1 x8147 -1 x8148 >= 0 ;
+2 x8581 +2 x8582 +2 x8583 +2 x8584 -1 x8145 -1 x8146 -1 x8147 -1 x8148 -1 x8149 -1 x8150 -1 x8151 -1 x8152 >= 0 ;
+2 x8585 +2 x8586 +2 x8587 +2 x8588 -1 x8149 -1 x8150 -1 x8151 -1 x8152 -1 x8153 -1 x8154 -1 x8155 -1 x8156 >= 0 ;
+2 x8589 +2 x8590 +2 x8591 +2 x8592 -1 x8153 -1 x8154 -1 x8155 -1 x8156 -1 x8157 -1 x8158 -1 x8159 -1 x8160 >= 0 ;
+2 x8593 +2 x8594 +2 x8595 +2 x8596 -1 x8157 -1 x8158 -1 x8159 -1 x8160 -1 x8161 -1 x8162 -1 x8163 -1 x8164 >= 0 ;
+2 x8597 +2 x8598 +2 x8599 +2 x8600 -1 x8161 -1 x8162 -1 x8163 -1 x8164 -1 x8165 -1 x8166 -1 x8167 -1 x8168 >= 0 ;
+2 x8601 +2 x8602 +2 x8603 +2 x8604 -1 x8165 -1 x8166 -1 x8167 -1 x8168 -1 x8169 -1 x8170 -1 x8171 -1 x8172 >= 0 ;
+2 x8605 +2 x8606 +2 x8607 +2 x8608 -1 x8169 -1 x8170 -1 x8171 -1 x8172 -1 x8173 -1 x8174 -1 x8175 -1 x8176 >= 0 ;
+2 x8609 +2 x8610 +2 x8611 +2 x8612 -1 x8173 -1 x8174 -1 x8175 -1 x8176 -1 x8177 -1 x8178 -1 x8179 -1 x8180 >= 0 ;
+2 x8613 +2 x8614 +2 x8615 +2 x8616 -1 x8177 -1 x8178 -1 x8179 -1 x8180 -1 x8181 -1 x8182 -1 x8183 -1 x8184 >= 0 ;
+2 x8617 +2 x8618 +2 x8619 +2 x8620 -1 x8181 -1 x8182 -1 x8183 -1 x8184 -1 x8185 -1 x8186 -1 x8187 -1 x8188 >= 0 ;
+2 x8621 +2 x8622 +2 x8623 +2 x8624 -1 x8185 -1 x8186 -1 x8187 -1 x8188 -1 x8189 -1 x8190 -1 x8191 -1 x8192 >= 0 ;
+2 x8625 +2 x8626 +2 x8627 +2 x8628 -1 x8189 -1 x8190 -1 x8191 -1 x8192 -1 x8193 -1 x8194 -1 x8195 -1 x8196 >= 0 ;
+2 x8629 +2 x8630 +2 x8631 +2 x8632 -1 x8193 -1 x8194 -1 x8195 -1 x8196 -1 x8197 -1 x8198 -1 x8199 -1 x8200 >= 0 ;
+2 x8633 +2 x8634 +2 x8635 +2 x8636 -1 x8197 -1 x8198 -1 x8199 -1 x8200 -1 x8201 -1 x8202 -1 x8203 -1 x8204 >= 0 ;
+2 x8637 +2 x8638 +2 x8639 +2 x8640 -1 x8201 -1 x8202 -1 x8203 -1 x8204 -1 x8205 -1 x8206 -1 x8207 -1 x8208 >= 0 ;
+2 x8641 +2 x8642 +2 x8643 +2 x8644 -1 x8205 -1 x8206 -1 x8207 -1 x8208 -1 x8209 -1 x8210 -1 x8211 -1 x8212 >= 0 ;
+2 x8645 +2 x8646 +2 x8647 +2 x8648 -1 x8209 -1 x8210 -1 x8211 -1 x8212 -1 x8213 -1 x8214 -1 x8215 -1 x8216 >= 0 ;
+2 x8649 +2 x8650 +2 x8651 +2 x8652 -1 x8213 -1 x8214 -1 x8215 -1 x8216 -1 x8217 -1 x8218 -1 x8219 -1 x8220 >= 0 ;
+2 x8653 +2 x8654 +2 x8655 +2 x8656 -1 x8217 -1 x8218 -1 x8219 -1 x8220 -1 x8221 -1 x8222 -1 x8223 -1 x8224 >= 0 ;
+2 x8657 +2 x8658 +2 x8659 +2 x8660 -1 x8221 -1 x8222 -1 x8223 -1 x8224 -1 x8225 -1 x8226 -1 x8227 -1 x8228 >= 0 ;
+2 x8661 +2 x8662 +2 x8663 +2 x8664 -1 x8225 -1 x8226 -1 x8227 -1 x8228 -1 x8229 -1 x8230 -1 x8231 -1 x8232 >= 0 ;
+2 x8665 +2 x8666 +2 x8667 +2 x8668 -1 x8229 -1 x8230 -1 x8231 -1 x8232 -1 x8233 -1 x8234 -1 x8235 -1 x8236 >= 0 ;
+2 x8669 +2 x8670 +2 x8671 +2 x8672 -1 x8233 -1 x8234 -1 x8235 -1 x8236 -1 x8237 -1 x8238 -1 x8239 -1 x8240 >= 0 ;
+2 x8673 +2 x8674 +2 x8675 +2 x8676 -1 x8237 -1 x8238 -1 x8239 -1 x8240 -1 x8241 -1 x8242 -1 x8243 -1 x8244 >= 0 ;
+2 x8677 +2 x8678 +2 x8679 +2 x8680 -1 x8241 -1 x8242 -1 x8243 -1 x8244 -1 x8245 -1 x8246 -1 x8247 -1 x8248 >= 0 ;
+2 x8681 +2 x8682 +2 x8683 +2 x8684 -1 x8245 -1 x8246 -1 x8247 -1 x8248 -1 x8249 -1 x8250 -1 x8251 -1 x8252 >= 0 ;
+2 x8685 +2 x8686 +2 x8687 +2 x8688 -1 x8249 -1 x8250 -1 x8251 -1 x8252 -1 x8253 -1 x8254 -1 x8255 -1 x8256 >= 0 ;
+2 x8689 +2 x8690 +2 x8691 +2 x8692 -1 x8253 -1 x8254 -1 x8255 -1 x8256 -1 x8257 -1 x8258 -1 x8259 -1 x8260 >= 0 ;
+2 x8693 +2 x8694 +2 x8695 +2 x8696 -1 x8257 -1 x8258 -1 x8259 -1 x8260 -1 x8261 -1 x8262 -1 x8263 -1 x8264 >= 0 ;
+2 x8697 +2 x8698 +2 x8699 +2 x8700 -1 x8261 -1 x8262 -1 x8263 -1 x8264 -1 x8265 -1 x8266 -1 x8267 -1 x8268 >= 0 ;
+2 x8701 +2 x8702 +2 x8703 +2 x8704 -1 x8265 -1 x8266 -1 x8267 -1 x8268 -1 x8269 -1 x8270 -1 x8271 -1 x8272 >= 0 ;
+2 x8705 +2 x8706 +2 x8707 +2 x8708 -1 x8269 -1 x8270 -1 x8271 -1 x8272 -1 x8273 -1 x8274 -1 x8275 -1 x8276 >= 0 ;
+2 x8709 +2 x8710 +2 x8711 +2 x8712 -1 x8273 -1 x8274 -1 x8275 -1 x8276 -1 x8277 -1 x8278 -1 x8279 -1 x8280 >= 0 ;
+2 x8713 +2 x8714 +2 x8715 +2 x8716 -1 x8277 -1 x8278 -1 x8279 -1 x8280 -1 x8281 -1 x8282 -1 x8283 -1 x8284 >= 0 ;
+2 x8717 +2 x8718 +2 x8719 +2 x8720 -1 x8281 -1 x8282 -1 x8283 -1 x8284 -1 x8285 -1 x8286 -1 x8287 -1 x8288 >= 0 ;
+2 x8721 +2 x8722 +2 x8723 +2 x8724 -1 x8285 -1 x8286 -1 x8287 -1 x8288 -1 x8289 -1 x8290 -1 x8291 -1 x8292 >= 0 ;
+2 x8725 +2 x8726 +2 x8727 +2 x8728 -1 x8289 -1 x8290 -1 x8291 -1 x8292 -1 x8293 -1 x8294 -1 x8295 -1 x8296 >= 0 ;
+2 x8729 +2 x8730 +2 x8731 +2 x8732 -1 x8293 -1 x8294 -1 x8295 -1 x8296 -1 x8297 -1 x8298 -1 x8299 -1 x8300 >= 0 ;
+2 x8733 +2 x8734 +2 x8735 +2 x8736 -1 x8297 -1 x8298 -1 x8299 -1 x8300 -1 x8301 -1 x8302 -1 x8303 -1 x8304 >= 0 ;
+2 x8737 +2 x8738 +2 x8739 +2 x8740 -1 x8301 -1 x8302 -1 x8303 -1 x8304 -1 x8305 -1 x8306 -1 x8307 -1 x8308 >= 0 ;
+2 x8741 +2 x8742 +2 x8743 +2 x8744 -1 x8305 -1 x8306 -1 x8307 -1 x8308 -1 x8309 -1 x8310 -1 x8311 -1 x8312 >= 0 ;
+2 x8745 +2 x8746 +2 x8747 +2 x8748 -1 x8309 -1 x8310 -1 x8311 -1 x8312 -1 x8313 -1 x8314 -1 x8315 -1 x8316 >= 0 ;
+2 x8749 +2 x8750 +2 x8751 +2 x8752 -1 x8313 -1 x8314 -1 x8315 -1 x8316 -1 x8317 -1 x8318 -1 x8319 -1 x8320 >= 0 ;
+2 x8753 +2 x8754 +2 x8755 +2 x8756 -1 x8317 -1 x8318 -1 x8319 -1 x8320 -1 x8321 -1 x8322 -1 x8323 -1 x8324 >= 0 ;
+2 x8757 +2 x8758 +2 x8759 +2 x8760 -1 x8321 -1 x8322 -1 x8323 -1 x8324 -1 x8325 -1 x8326 -1 x8327 -1 x8328 >= 0 ;
+2 x8761 +2 x8762 +2 x8763 +2 x8764 -1 x8325 -1 x8326 -1 x8327 -1 x8328 -1 x8329 -1 x8330 -1 x8331 -1 x8332 >= 0 ;
+2 x8765 +2 x8766 +2 x8767 +2 x8768 -1 x8329 -1 x8330 -1 x8331 -1 x8332 -1 x8333 -1 x8334 -1 x8335 -1 x8336 >= 0 ;
+2 x8769 +2 x8770 +2 x8771 +2 x8772 -1 x8333 -1 x8334 -1 x8335 -1 x8336 -1 x8337 -1 x8338 -1 x8339 -1 x8340 >= 0 ;
+2 x8773 +2 x8774 +2 x8775 +2 x8776 -1 x8337 -1 x8338 -1 x8339 -1 x8340 -1 x8341 -1 x8342 -1 x8343 -1 x8344 >= 0 ;
+2 x8777 +2 x8778 +2 x8779 +2 x8780 -1 x8341 -1 x8342 -1 x8343 -1 x8344 -1 x8345 -1 x8346 -1 x8347 -1 x8348 >= 0 ;
+2 x8781 +2 x8782 +2 x8783 +2 x8784 -1 x8345 -1 x8346 -1 x8347 -1 x8348 -1 x8349 -1 x8350 -1 x8351 -1 x8352 >= 0 ;
+2 x8785 +2 x8786 +2 x8787 +2 x8788 -1 x8349 -1 x8350 -1 x8351 -1 x8352 -1 x8353 -1 x8354 -1 x8355 -1 x8356 >= 0 ;
+2 x8789 +2 x8790 +2 x8791 +2 x8792 -1 x8353 -1 x8354 -1 x8355 -1 x8356 -1 x8357 -1 x8358 -1 x8359 -1 x8360 >= 0 ;
+2 x8793 +2 x8794 +2 x8795 +2 x8796 -1 x8357 -1 x8358 -1 x8359 -1 x8360 -1 x8361 -1 x8362 -1 x8363 -1 x8364 >= 0 ;
+2 x8797 +2 x8798 +2 x8799 +2 x8800 -1 x8361 -1 x8362 -1 x8363 -1 x8364 -1 x8365 -1 x8366 -1 x8367 -1 x8368 >= 0 ;
+2 x8801 +2 x8802 +2 x8803 +2 x8804 -1 x8365 -1 x8366 -1 x8367 -1 x8368 -1 x8369 -1 x8370 -1 x8371 -1 x8372 >= 0 ;
+2 x8805 +2 x8806 +2 x8807 +2 x8808 -1 x8369 -1 x8370 -1 x8371 -1 x8372 -1 x8373 -1 x8374 -1 x8375 -1 x8376 >= 0 ;
+2 x8809 +2 x8810 +2 x8811 +2 x8812 -1 x8373 -1 x8374 -1 x8375 -1 x8376 -1 x8377 -1 x8378 -1 x8379 -1 x8380 >= 0 ;
+2 x8813 +2 x8814 +2 x8815 +2 x8816 -1 x8377 -1 x8378 -1 x8379 -1 x8380 -1 x8381 -1 x8382 -1 x8383 -1 x8384 >= 0 ;
+2 x8817 +2 x8818 +2 x8819 +2 x8820 -1 x8381 -1 x8382 -1 x8383 -1 x8384 -1 x8385 -1 x8386 -1 x8387 -1 x8388 >= 0 ;
+2 x8821 +2 x8822 +2 x8823 +2 x8824 -1 x8385 -1 x8386 -1 x8387 -1 x8388 -1 x8389 -1 x8390 -1 x8391 -1 x8392 >= 0 ;
+2 x8825 +2 x8826 +2 x8827 +2 x8828 -1 x8389 -1 x8390 -1 x8391 -1 x8392 -1 x8393 -1 x8394 -1 x8395 -1 x8396 >= 0 ;
+2 x8829 +2 x8830 +2 x8831 +2 x8832 -1 x8393 -1 x8394 -1 x8395 -1 x8396 -1 x8397 -1 x8398 -1 x8399 -1 x8400 >= 0 ;
+2 x8833 +2 x8834 +2 x8835 +2 x8836 -1 x8397 -1 x8398 -1 x8399 -1 x8400 -1 x8401 -1 x8402 -1 x8403 -1 x8404 >= 0 ;
+2 x8837 +2 x8838 +2 x8839 +2 x8840 -1 x8401 -1 x8402 -1 x8403 -1 x8404 -1 x8405 -1 x8406 -1 x8407 -1 x8408 >= 0 ;
+2 x8841 +2 x8842 +2 x8843 +2 x8844 -1 x8405 -1 x8406 -1 x8407 -1 x8408 -1 x8409 -1 x8410 -1 x8411 -1 x8412 >= 0 ;
+2 x8845 +2 x8846 +2 x8847 +2 x8848 -1 x8409 -1 x8410 -1 x8411 -1 x8412 -1 x8413 -1 x8414 -1 x8415 -1 x8416 >= 0 ;
+2 x8849 +2 x8850 +2 x8851 +2 x8852 -1 x8413 -1 x8414 -1 x8415 -1 x8416 -1 x8417 -1 x8418 -1 x8419 -1 x8420 >= 0 ;
+2 x8853 +2 x8854 +2 x8855 +2 x8856 -1 x8417 -1 x8418 -1 x8419 -1 x8420 -1 x8421 -1 x8422 -1 x8423 -1 x8424 >= 0 ;
+2 x8857 +2 x8858 +2 x8859 +2 x8860 -1 x8421 -1 x8422 -1 x8423 -1 x8424 -1 x8425 -1 x8426 -1 x8427 -1 x8428 >= 0 ;
+2 x8861 +2 x8862 +2 x8863 +2 x8864 -1 x8425 -1 x8426 -1 x8427 -1 x8428 -1 x8429 -1 x8430 -1 x8431 -1 x8432 >= 0 ;
+2 x8865 +2 x8866 +2 x8867 +2 x8868 -1 x8429 -1 x8430 -1 x8431 -1 x8432 -1 x8433 -1 x8434 -1 x8435 -1 x8436 >= 0 ;
+2 x8869 +2 x8870 +2 x8871 +2 x8872 -1 x8433 -1 x8434 -1 x8435 -1 x8436 -1 x8437 -1 x8438 -1 x8439 -1 x8440 >= 0 ;
+2 x8873 +2 x8874 +2 x8875 +2 x8876 -1 x8437 -1 x8438 -1 x8439 -1 x8440 -1 x8441 -1 x8442 -1 x8443 -1 x8444 >= 0 ;
+2 x8877 +2 x8878 +2 x8879 +2 x8880 -1 x8441 -1 x8442 -1 x8443 -1 x8444 -1 x8445 -1 x8446 -1 x8447 -1 x8448 >= 0 ;
+2 x8881 +2 x8882 +2 x8883 +2 x8884 -1 x8445 -1 x8446 -1 x8447 -1 x8448 -1 x8449 -1 x8450 -1 x8451 -1 x8452 >= 0 ;
+2 x8885 +2 x8886 +2 x8887 +2 x8888 -1 x8449 -1 x8450 -1 x8451 -1 x8452 -1 x8453 -1 x8454 -1 x8455 -1 x8456 >= 0 ;
+2 x8889 +2 x8890 +2 x8891 +2 x8892 -1 x8453 -1 x8454 -1 x8455 -1 x8456 -1 x8457 -1 x8458 -1 x8459 -1 x8460 >= 0 ;
+2 x8893 +2 x8894 +2 x8895 +2 x8896 -1 x8461 -1 x8462 -1 x8463 -1 x8464 -1 x8465 -1 x8466 -1 x8467 -1 x8468 >= 0 ;
+2 x8897 +2 x8898 +2 x8899 +2 x8900 -1 x8465 -1 x8466 -1 x8467 -1 x8468 -1 x8469 -1 x8470 -1 x8471 -1 x8472 >= 0 ;
+2 x8901 +2 x8902 +2 x8903 +2 x8904 -1 x8469 -1 x8470 -1 x8471 -1 x8472 -1 x8473 -1 x8474 -1 x8475 -1 x8476 >= 0 ;
+2 x8905 +2 x8906 +2 x8907 +2 x8908 -1 x8473 -1 x8474 -1 x8475 -1 x8476 -1 x8477 -1 x8478 -1 x8479 -1 x8480 >= 0 ;
+2 x8909 +2 x8910 +2 x8911 +2 x8912 -1 x8477 -1 x8478 -1 x8479 -1 x8480 -1 x8481 -1 x8482 -1 x8483 -1 x8484 >= 0 ;
+2 x8913 +2 x8914 +2 x8915 +2 x8916 -1 x8481 -1 x8482 -1 x8483 -1 x8484 -1 x8485 -1 x8486 -1 x8487 -1 x8488 >= 0 ;
+2 x8917 +2 x8918 +2 x8919 +2 x8920 -1 x8485 -1 x8486 -1 x8487 -1 x8488 -1 x8489 -1 x8490 -1 x8491 -1 x8492 >= 0 ;
+2 x8921 +2 x8922 +2 x8923 +2 x8924 -1 x8489 -1 x8490 -1 x8491 -1 x8492 -1 x8493 -1 x8494 -1 x8495 -1 x8496 >= 0 ;
+2 x8925 +2 x8926 +2 x8927 +2 x8928 -1 x8493 -1 x8494 -1 x8495 -1 x8496 -1 x8497 -1 x8498 -1 x8499 -1 x8500 >= 0 ;
+2 x8929 +2 x8930 +2 x8931 +2 x8932 -1 x8497 -1 x8498 -1 x8499 -1 x8500 -1 x8501 -1 x8502 -1 x8503 -1 x8504 >= 0 ;
+2 x8933 +2 x8934 +2 x8935 +2 x8936 -1 x8501 -1 x8502 -1 x8503 -1 x8504 -1 x8505 -1 x8506 -1 x8507 -1 x8508 >= 0 ;
+2 x8937 +2 x8938 +2 x8939 +2 x8940 -1 x8505 -1 x8506 -1 x8507 -1 x8508 -1 x8509 -1 x8510 -1 x8511 -1 x8512 >= 0 ;
+2 x8941 +2 x8942 +2 x8943 +2 x8944 -1 x8509 -1 x8510 -1 x8511 -1 x8512 -1 x8513 -1 x8514 -1 x8515 -1 x8516 >= 0 ;
+2 x8945 +2 x8946 +2 x8947 +2 x8948 -1 x8513 -1 x8514 -1 x8515 -1 x8516 -1 x8517 -1 x8518 -1 x8519 -1 x8520 >= 0 ;
+2 x8949 +2 x8950 +2 x8951 +2 x8952 -1 x8517 -1 x8518 -1 x8519 -1 x8520 -1 x8521 -1 x8522 -1 x8523 -1 x8524 >= 0 ;
+2 x8953 +2 x8954 +2 x8955 +2 x8956 -1 x8521 -1 x8522 -1 x8523 -1 x8524 -1 x8525 -1 x8526 -1 x8527 -1 x8528 >= 0 ;
+2 x8957 +2 x8958 +2 x8959 +2 x8960 -1 x8525 -1 x8526 -1 x8527 -1 x8528 -1 x8529 -1 x8530 -1 x8531 -1 x8532 >= 0 ;
+2 x8961 +2 x8962 +2 x8963 +2 x8964 -1 x8529 -1 x8530 -1 x8531 -1 x8532 -1 x8533 -1 x8534 -1 x8535 -1 x8536 >= 0 ;
+2 x8965 +2 x8966 +2 x8967 +2 x8968 -1 x8533 -1 x8534 -1 x8535 -1 x8536 -1 x8537 -1 x8538 -1 x8539 -1 x8540 >= 0 ;
+2 x8969 +2 x8970 +2 x8971 +2 x8972 -1 x8537 -1 x8538 -1 x8539 -1 x8540 -1 x8541 -1 x8542 -1 x8543 -1 x8544 >= 0 ;
+2 x8973 +2 x8974 +2 x8975 +2 x8976 -1 x8541 -1 x8542 -1 x8543 -1 x8544 -1 x8545 -1 x8546 -1 x8547 -1 x8548 >= 0 ;
+2 x8977 +2 x8978 +2 x8979 +2 x8980 -1 x8545 -1 x8546 -1 x8547 -1 x8548 -1 x8549 -1 x8550 -1 x8551 -1 x8552 >= 0 ;
+2 x8981 +2 x8982 +2 x8983 +2 x8984 -1 x8549 -1 x8550 -1 x8551 -1 x8552 -1 x8553 -1 x8554 -1 x8555 -1 x8556 >= 0 ;
+2 x8985 +2 x8986 +2 x8987 +2 x8988 -1 x8553 -1 x8554 -1 x8555 -1 x8556 -1 x8557 -1 x8558 -1 x8559 -1 x8560 >= 0 ;
+2 x8989 +2 x8990 +2 x8991 +2 x8992 -1 x8557 -1 x8558 -1 x8559 -1 x8560 -1 x8561 -1 x8562 -1 x8563 -1 x8564 >= 0 ;
+2 x8993 +2 x8994 +2 x8995 +2 x8996 -1 x8561 -1 x8562 -1 x8563 -1 x8564 -1 x8565 -1 x8566 -1 x8567 -1 x8568 >= 0 ;
+2 x8997 +2 x8998 +2 x8999 +2 x9000 -1 x8565 -1 x8566 -1 x8567 -1 x8568 -1 x8569 -1 x8570 -1 x8571 -1 x8572 >= 0 ;
+2 x9001 +2 x9002 +2 x9003 +2 x9004 -1 x8569 -1 x8570 -1 x8571 -1 x8572 -1 x8573 -1 x8574 -1 x8575 -1 x8576 >= 0 ;
+2 x9005 +2 x9006 +2 x9007 +2 x9008 -1 x8573 -1 x8574 -1 x8575 -1 x8576 -1 x8577 -1 x8578 -1 x8579 -1 x8580 >= 0 ;
+2 x9009 +2 x9010 +2 x9011 +2 x9012 -1 x8577 -1 x8578 -1 x8579 -1 x8580 -1 x8581 -1 x8582 -1 x8583 -1 x8584 >= 0 ;
+2 x9013 +2 x9014 +2 x9015 +2 x9016 -1 x8581 -1 x8582 -1 x8583 -1 x8584 -1 x8585 -1 x8586 -1 x8587 -1 x8588 >= 0 ;
+2 x9017 +2 x9018 +2 x9019 +2 x9020 -1 x8585 -1 x8586 -1 x8587 -1 x8588 -1 x8589 -1 x8590 -1 x8591 -1 x8592 >= 0 ;
+2 x9021 +2 x9022 +2 x9023 +2 x9024 -1 x8589 -1 x8590 -1 x8591 -1 x8592 -1 x8593 -1 x8594 -1 x8595 -1 x8596 >= 0 ;
+2 x9025 +2 x9026 +2 x9027 +2 x9028 -1 x8593 -1 x8594 -1 x8595 -1 x8596 -1 x8597 -1 x8598 -1 x8599 -1 x8600 >= 0 ;
+2 x9029 +2 x9030 +2 x9031 +2 x9032 -1 x8597 -1 x8598 -1 x8599 -1 x8600 -1 x8601 -1 x8602 -1 x8603 -1 x8604 >= 0 ;
+2 x9033 +2 x9034 +2 x9035 +2 x9036 -1 x8601 -1 x8602 -1 x8603 -1 x8604 -1 x8605 -1 x8606 -1 x8607 -1 x8608 >= 0 ;
+2 x9037 +2 x9038 +2 x9039 +2 x9040 -1 x8605 -1 x8606 -1 x8607 -1 x8608 -1 x8609 -1 x8610 -1 x8611 -1 x8612 >= 0 ;
+2 x9041 +2 x9042 +2 x9043 +2 x9044 -1 x8609 -1 x8610 -1 x8611 -1 x8612 -1 x8613 -1 x8614 -1 x8615 -1 x8616 >= 0 ;
+2 x9045 +2 x9046 +2 x9047 +2 x9048 -1 x8613 -1 x8614 -1 x8615 -1 x8616 -1 x8617 -1 x8618 -1 x8619 -1 x8620 >= 0 ;
+2 x9049 +2 x9050 +2 x9051 +2 x9052 -1 x8617 -1 x8618 -1 x8619 -1 x8620 -1 x8621 -1 x8622 -1 x8623 -1 x8624 >= 0 ;
+2 x9053 +2 x9054 +2 x9055 +2 x9056 -1 x8621 -1 x8622 -1 x8623 -1 x8624 -1 x8625 -1 x8626 -1 x8627 -1 x8628 >= 0 ;
+2 x9057 +2 x9058 +2 x9059 +2 x9060 -1 x8625 -1 x8626 -1 x8627 -1 x8628 -1 x8629 -1 x8630 -1 x8631 -1 x8632 >= 0 ;
+2 x9061 +2 x9062 +2 x9063 +2 x9064 -1 x8629 -1 x8630 -1 x8631 -1 x8632 -1 x8633 -1 x8634 -1 x8635 -1 x8636 >= 0 ;
+2 x9065 +2 x9066 +2 x9067 +2 x9068 -1 x8633 -1 x8634 -1 x8635 -1 x8636 -1 x8637 -1 x8638 -1 x8639 -1 x8640 >= 0 ;
+2 x9069 +2 x9070 +2 x9071 +2 x9072 -1 x8637 -1 x8638 -1 x8639 -1 x8640 -1 x8641 -1 x8642 -1 x8643 -1 x8644 >= 0 ;
+2 x9073 +2 x9074 +2 x9075 +2 x9076 -1 x8641 -1 x8642 -1 x8643 -1 x8644 -1 x8645 -1 x8646 -1 x8647 -1 x8648 >= 0 ;
+2 x9077 +2 x9078 +2 x9079 +2 x9080 -1 x8645 -1 x8646 -1 x8647 -1 x8648 -1 x8649 -1 x8650 -1 x8651 -1 x8652 >= 0 ;
+2 x9081 +2 x9082 +2 x9083 +2 x9084 -1 x8649 -1 x8650 -1 x8651 -1 x8652 -1 x8653 -1 x8654 -1 x8655 -1 x8656 >= 0 ;
+2 x9085 +2 x9086 +2 x9087 +2 x9088 -1 x8653 -1 x8654 -1 x8655 -1 x8656 -1 x8657 -1 x8658 -1 x8659 -1 x8660 >= 0 ;
+2 x9089 +2 x9090 +2 x9091 +2 x9092 -1 x8657 -1 x8658 -1 x8659 -1 x8660 -1 x8661 -1 x8662 -1 x8663 -1 x8664 >= 0 ;
+2 x9093 +2 x9094 +2 x9095 +2 x9096 -1 x8661 -1 x8662 -1 x8663 -1 x8664 -1 x8665 -1 x8666 -1 x8667 -1 x8668 >= 0 ;
+2 x9097 +2 x9098 +2 x9099 +2 x9100 -1 x8665 -1 x8666 -1 x8667 -1 x8668 -1 x8669 -1 x8670 -1 x8671 -1 x8672 >= 0 ;
+2 x9101 +2 x9102 +2 x9103 +2 x9104 -1 x8669 -1 x8670 -1 x8671 -1 x8672 -1 x8673 -1 x8674 -1 x8675 -1 x8676 >= 0 ;
+2 x9105 +2 x9106 +2 x9107 +2 x9108 -1 x8673 -1 x8674 -1 x8675 -1 x8676 -1 x8677 -1 x8678 -1 x8679 -1 x8680 >= 0 ;
+2 x9109 +2 x9110 +2 x9111 +2 x9112 -1 x8677 -1 x8678 -1 x8679 -1 x8680 -1 x8681 -1 x8682 -1 x8683 -1 x8684 >= 0 ;
+2 x9113 +2 x9114 +2 x9115 +2 x9116 -1 x8681 -1 x8682 -1 x8683 -1 x8684 -1 x8685 -1 x8686 -1 x8687 -1 x8688 >= 0 ;
+2 x9117 +2 x9118 +2 x9119 +2 x9120 -1 x8685 -1 x8686 -1 x8687 -1 x8688 -1 x8689 -1 x8690 -1 x8691 -1 x8692 >= 0 ;
+2 x9121 +2 x9122 +2 x9123 +2 x9124 -1 x8689 -1 x8690 -1 x8691 -1 x8692 -1 x8693 -1 x8694 -1 x8695 -1 x8696 >= 0 ;
+2 x9125 +2 x9126 +2 x9127 +2 x9128 -1 x8693 -1 x8694 -1 x8695 -1 x8696 -1 x8697 -1 x8698 -1 x8699 -1 x8700 >= 0 ;
+2 x9129 +2 x9130 +2 x9131 +2 x9132 -1 x8697 -1 x8698 -1 x8699 -1 x8700 -1 x8701 -1 x8702 -1 x8703 -1 x8704 >= 0 ;
+2 x9133 +2 x9134 +2 x9135 +2 x9136 -1 x8701 -1 x8702 -1 x8703 -1 x8704 -1 x8705 -1 x8706 -1 x8707 -1 x8708 >= 0 ;
+2 x9137 +2 x9138 +2 x9139 +2 x9140 -1 x8705 -1 x8706 -1 x8707 -1 x8708 -1 x8709 -1 x8710 -1 x8711 -1 x8712 >= 0 ;
+2 x9141 +2 x9142 +2 x9143 +2 x9144 -1 x8709 -1 x8710 -1 x8711 -1 x8712 -1 x8713 -1 x8714 -1 x8715 -1 x8716 >= 0 ;
+2 x9145 +2 x9146 +2 x9147 +2 x9148 -1 x8713 -1 x8714 -1 x8715 -1 x8716 -1 x8717 -1 x8718 -1 x8719 -1 x8720 >= 0 ;
+2 x9149 +2 x9150 +2 x9151 +2 x9152 -1 x8717 -1 x8718 -1 x8719 -1 x8720 -1 x8721 -1 x8722 -1 x8723 -1 x8724 >= 0 ;
+2 x9153 +2 x9154 +2 x9155 +2 x9156 -1 x8721 -1 x8722 -1 x8723 -1 x8724 -1 x8725 -1 x8726 -1 x8727 -1 x8728 >= 0 ;
+2 x9157 +2 x9158 +2 x9159 +2 x9160 -1 x8725 -1 x8726 -1 x8727 -1 x8728 -1 x8729 -1 x8730 -1 x8731 -1 x8732 >= 0 ;
+2 x9161 +2 x9162 +2 x9163 +2 x9164 -1 x8729 -1 x8730 -1 x8731 -1 x8732 -1 x8733 -1 x8734 -1 x8735 -1 x8736 >= 0 ;
+2 x9165 +2 x9166 +2 x9167 +2 x9168 -1 x8733 -1 x8734 -1 x8735 -1 x8736 -1 x8737 -1 x8738 -1 x8739 -1 x8740 >= 0 ;
+2 x9169 +2 x9170 +2 x9171 +2 x9172 -1 x8737 -1 x8738 -1 x8739 -1 x8740 -1 x8741 -1 x8742 -1 x8743 -1 x8744 >= 0 ;
+2 x9173 +2 x9174 +2 x9175 +2 x9176 -1 x8741 -1 x8742 -1 x8743 -1 x8744 -1 x8745 -1 x8746 -1 x8747 -1 x8748 >= 0 ;
+2 x9177 +2 x9178 +2 x9179 +2 x9180 -1 x8745 -1 x8746 -1 x8747 -1 x8748 -1 x8749 -1 x8750 -1 x8751 -1 x8752 >= 0 ;
+2 x9181 +2 x9182 +2 x9183 +2 x9184 -1 x8749 -1 x8750 -1 x8751 -1 x8752 -1 x8753 -1 x8754 -1 x8755 -1 x8756 >= 0 ;
+2 x9185 +2 x9186 +2 x9187 +2 x9188 -1 x8753 -1 x8754 -1 x8755 -1 x8756 -1 x8757 -1 x8758 -1 x8759 -1 x8760 >= 0 ;
+2 x9189 +2 x9190 +2 x9191 +2 x9192 -1 x8757 -1 x8758 -1 x8759 -1 x8760 -1 x8761 -1 x8762 -1 x8763 -1 x8764 >= 0 ;
+2 x9193 +2 x9194 +2 x9195 +2 x9196 -1 x8761 -1 x8762 -1 x8763 -1 x8764 -1 x8765 -1 x8766 -1 x8767 -1 x8768 >= 0 ;
+2 x9197 +2 x9198 +2 x9199 +2 x9200 -1 x8765 -1 x8766 -1 x8767 -1 x8768 -1 x8769 -1 x8770 -1 x8771 -1 x8772 >= 0 ;
+2 x9201 +2 x9202 +2 x9203 +2 x9204 -1 x8769 -1 x8770 -1 x8771 -1 x8772 -1 x8773 -1 x8774 -1 x8775 -1 x8776 >= 0 ;
+2 x9205 +2 x9206 +2 x9207 +2 x9208 -1 x8773 -1 x8774 -1 x8775 -1 x8776 -1 x8777 -1 x8778 -1 x8779 -1 x8780 >= 0 ;
+2 x9209 +2 x9210 +2 x9211 +2 x9212 -1 x8777 -1 x8778 -1 x8779 -1 x8780 -1 x8781 -1 x8782 -1 x8783 -1 x8784 >= 0 ;
+2 x9213 +2 x9214 +2 x9215 +2 x9216 -1 x8781 -1 x8782 -1 x8783 -1 x8784 -1 x8785 -1 x8786 -1 x8787 -1 x8788 >= 0 ;
+2 x9217 +2 x9218 +2 x9219 +2 x9220 -1 x8785 -1 x8786 -1 x8787 -1 x8788 -1 x8789 -1 x8790 -1 x8791 -1 x8792 >= 0 ;
+2 x9221 +2 x9222 +2 x9223 +2 x9224 -1 x8789 -1 x8790 -1 x8791 -1 x8792 -1 x8793 -1 x8794 -1 x8795 -1 x8796 >= 0 ;
+2 x9225 +2 x9226 +2 x9227 +2 x9228 -1 x8793 -1 x8794 -1 x8795 -1 x8796 -1 x8797 -1 x8798 -1 x8799 -1 x8800 >= 0 ;
+2 x9229 +2 x9230 +2 x9231 +2 x9232 -1 x8797 -1 x8798 -1 x8799 -1 x8800 -1 x8801 -1 x8802 -1 x8803 -1 x8804 >= 0 ;
+2 x9233 +2 x9234 +2 x9235 +2 x9236 -1 x8801 -1 x8802 -1 x8803 -1 x8804 -1 x8805 -1 x8806 -1 x8807 -1 x8808 >= 0 ;
+2 x9237 +2 x9238 +2 x9239 +2 x9240 -1 x8805 -1 x8806 -1 x8807 -1 x8808 -1 x8809 -1 x8810 -1 x8811 -1 x8812 >= 0 ;
+2 x9241 +2 x9242 +2 x9243 +2 x9244 -1 x8809 -1 x8810 -1 x8811 -1 x8812 -1 x8813 -1 x8814 -1 x8815 -1 x8816 >= 0 ;
+2 x9245 +2 x9246 +2 x9247 +2 x9248 -1 x8813 -1 x8814 -1 x8815 -1 x8816 -1 x8817 -1 x8818 -1 x8819 -1 x8820 >= 0 ;
+2 x9249 +2 x9250 +2 x9251 +2 x9252 -1 x8817 -1 x8818 -1 x8819 -1 x8820 -1 x8821 -1 x8822 -1 x8823 -1 x8824 >= 0 ;
+2 x9253 +2 x9254 +2 x9255 +2 x9256 -1 x8821 -1 x8822 -1 x8823 -1 x8824 -1 x8825 -1 x8826 -1 x8827 -1 x8828 >= 0 ;
+2 x9257 +2 x9258 +2 x9259 +2 x9260 -1 x8825 -1 x8826 -1 x8827 -1 x8828 -1 x8829 -1 x8830 -1 x8831 -1 x8832 >= 0 ;
+2 x9261 +2 x9262 +2 x9263 +2 x9264 -1 x8829 -1 x8830 -1 x8831 -1 x8832 -1 x8833 -1 x8834 -1 x8835 -1 x8836 >= 0 ;
+2 x9265 +2 x9266 +2 x9267 +2 x9268 -1 x8833 -1 x8834 -1 x8835 -1 x8836 -1 x8837 -1 x8838 -1 x8839 -1 x8840 >= 0 ;
+2 x9269 +2 x9270 +2 x9271 +2 x9272 -1 x8837 -1 x8838 -1 x8839 -1 x8840 -1 x8841 -1 x8842 -1 x8843 -1 x8844 >= 0 ;
+2 x9273 +2 x9274 +2 x9275 +2 x9276 -1 x8841 -1 x8842 -1 x8843 -1 x8844 -1 x8845 -1 x8846 -1 x8847 -1 x8848 >= 0 ;
+2 x9277 +2 x9278 +2 x9279 +2 x9280 -1 x8845 -1 x8846 -1 x8847 -1 x8848 -1 x8849 -1 x8850 -1 x8851 -1 x8852 >= 0 ;
+2 x9281 +2 x9282 +2 x9283 +2 x9284 -1 x8849 -1 x8850 -1 x8851 -1 x8852 -1 x8853 -1 x8854 -1 x8855 -1 x8856 >= 0 ;
+2 x9285 +2 x9286 +2 x9287 +2 x9288 -1 x8853 -1 x8854 -1 x8855 -1 x8856 -1 x8857 -1 x8858 -1 x8859 -1 x8860 >= 0 ;
+2 x9289 +2 x9290 +2 x9291 +2 x9292 -1 x8857 -1 x8858 -1 x8859 -1 x8860 -1 x8861 -1 x8862 -1 x8863 -1 x8864 >= 0 ;
+2 x9293 +2 x9294 +2 x9295 +2 x9296 -1 x8861 -1 x8862 -1 x8863 -1 x8864 -1 x8865 -1 x8866 -1 x8867 -1 x8868 >= 0 ;
+2 x9297 +2 x9298 +2 x9299 +2 x9300 -1 x8865 -1 x8866 -1 x8867 -1 x8868 -1 x8869 -1 x8870 -1 x8871 -1 x8872 >= 0 ;
+2 x9301 +2 x9302 +2 x9303 +2 x9304 -1 x8869 -1 x8870 -1 x8871 -1 x8872 -1 x8873 -1 x8874 -1 x8875 -1 x8876 >= 0 ;
+2 x9305 +2 x9306 +2 x9307 +2 x9308 -1 x8873 -1 x8874 -1 x8875 -1 x8876 -1 x8877 -1 x8878 -1 x8879 -1 x8880 >= 0 ;
+2 x9309 +2 x9310 +2 x9311 +2 x9312 -1 x8877 -1 x8878 -1 x8879 -1 x8880 -1 x8881 -1 x8882 -1 x8883 -1 x8884 >= 0 ;
+2 x9313 +2 x9314 +2 x9315 +2 x9316 -1 x8881 -1 x8882 -1 x8883 -1 x8884 -1 x8885 -1 x8886 -1 x8887 -1 x8888 >= 0 ;
+2 x9317 +2 x9318 +2 x9319 +2 x9320 -1 x8885 -1 x8886 -1 x8887 -1 x8888 -1 x8889 -1 x8890 -1 x8891 -1 x8892 >= 0 ;
+2 x9321 +2 x9322 +2 x9323 +2 x9324 -1 x8893 -1 x8894 -1 x8895 -1 x8896 -1 x8897 -1 x8898 -1 x8899 -1 x8900 >= 0 ;
+2 x9325 +2 x9326 +2 x9327 +2 x9328 -1 x8897 -1 x8898 -1 x8899 -1 x8900 -1 x8901 -1 x8902 -1 x8903 -1 x8904 >= 0 ;
+2 x9329 +2 x9330 +2 x9331 +2 x9332 -1 x8901 -1 x8902 -1 x8903 -1 x8904 -1 x8905 -1 x8906 -1 x8907 -1 x8908 >= 0 ;
+2 x9333 +2 x9334 +2 x9335 +2 x9336 -1 x8905 -1 x8906 -1 x8907 -1 x8908 -1 x8909 -1 x8910 -1 x8911 -1 x8912 >= 0 ;
+2 x9337 +2 x9338 +2 x9339 +2 x9340 -1 x8909 -1 x8910 -1 x8911 -1 x8912 -1 x8913 -1 x8914 -1 x8915 -1 x8916 >= 0 ;
+2 x9341 +2 x9342 +2 x9343 +2 x9344 -1 x8913 -1 x8914 -1 x8915 -1 x8916 -1 x8917 -1 x8918 -1 x8919 -1 x8920 >= 0 ;
+2 x9345 +2 x9346 +2 x9347 +2 x9348 -1 x8917 -1 x8918 -1 x8919 -1 x8920 -1 x8921 -1 x8922 -1 x8923 -1 x8924 >= 0 ;
+2 x9349 +2 x9350 +2 x9351 +2 x9352 -1 x8921 -1 x8922 -1 x8923 -1 x8924 -1 x8925 -1 x8926 -1 x8927 -1 x8928 >= 0 ;
+2 x9353 +2 x9354 +2 x9355 +2 x9356 -1 x8925 -1 x8926 -1 x8927 -1 x8928 -1 x8929 -1 x8930 -1 x8931 -1 x8932 >= 0 ;
+2 x9357 +2 x9358 +2 x9359 +2 x9360 -1 x8929 -1 x8930 -1 x8931 -1 x8932 -1 x8933 -1 x8934 -1 x8935 -1 x8936 >= 0 ;
+2 x9361 +2 x9362 +2 x9363 +2 x9364 -1 x8933 -1 x8934 -1 x8935 -1 x8936 -1 x8937 -1 x8938 -1 x8939 -1 x8940 >= 0 ;
+2 x9365 +2 x9366 +2 x9367 +2 x9368 -1 x8937 -1 x8938 -1 x8939 -1 x8940 -1 x8941 -1 x8942 -1 x8943 -1 x8944 >= 0 ;
+2 x9369 +2 x9370 +2 x9371 +2 x9372 -1 x8941 -1 x8942 -1 x8943 -1 x8944 -1 x8945 -1 x8946 -1 x8947 -1 x8948 >= 0 ;
+2 x9373 +2 x9374 +2 x9375 +2 x9376 -1 x8945 -1 x8946 -1 x8947 -1 x8948 -1 x8949 -1 x8950 -1 x8951 -1 x8952 >= 0 ;
+2 x9377 +2 x9378 +2 x9379 +2 x9380 -1 x8949 -1 x8950 -1 x8951 -1 x8952 -1 x8953 -1 x8954 -1 x8955 -1 x8956 >= 0 ;
+2 x9381 +2 x9382 +2 x9383 +2 x9384 -1 x8953 -1 x8954 -1 x8955 -1 x8956 -1 x8957 -1 x8958 -1 x8959 -1 x8960 >= 0 ;
+2 x9385 +2 x9386 +2 x9387 +2 x9388 -1 x8957 -1 x8958 -1 x8959 -1 x8960 -1 x8961 -1 x8962 -1 x8963 -1 x8964 >= 0 ;
+2 x9389 +2 x9390 +2 x9391 +2 x9392 -1 x8961 -1 x8962 -1 x8963 -1 x8964 -1 x8965 -1 x8966 -1 x8967 -1 x8968 >= 0 ;
+2 x9393 +2 x9394 +2 x9395 +2 x9396 -1 x8965 -1 x8966 -1 x8967 -1 x8968 -1 x8969 -1 x8970 -1 x8971 -1 x8972 >= 0 ;
+2 x9397 +2 x9398 +2 x9399 +2 x9400 -1 x8969 -1 x8970 -1 x8971 -1 x8972 -1 x8973 -1 x8974 -1 x8975 -1 x8976 >= 0 ;
+2 x9401 +2 x9402 +2 x9403 +2 x9404 -1 x8973 -1 x8974 -1 x8975 -1 x8976 -1 x8977 -1 x8978 -1 x8979 -1 x8980 >= 0 ;
+2 x9405 +2 x9406 +2 x9407 +2 x9408 -1 x8977 -1 x8978 -1 x8979 -1 x8980 -1 x8981 -1 x8982 -1 x8983 -1 x8984 >= 0 ;
+2 x9409 +2 x9410 +2 x9411 +2 x9412 -1 x8981 -1 x8982 -1 x8983 -1 x8984 -1 x8985 -1 x8986 -1 x8987 -1 x8988 >= 0 ;
+2 x9413 +2 x9414 +2 x9415 +2 x9416 -1 x8985 -1 x8986 -1 x8987 -1 x8988 -1 x8989 -1 x8990 -1 x8991 -1 x8992 >= 0 ;
+2 x9417 +2 x9418 +2 x9419 +2 x9420 -1 x8989 -1 x8990 -1 x8991 -1 x8992 -1 x8993 -1 x8994 -1 x8995 -1 x8996 >= 0 ;
+2 x9421 +2 x9422 +2 x9423 +2 x9424 -1 x8993 -1 x8994 -1 x8995 -1 x8996 -1 x8997 -1 x8998 -1 x8999 -1 x9000 >= 0 ;
+2 x9425 +2 x9426 +2 x9427 +2 x9428 -1 x8997 -1 x8998 -1 x8999 -1 x9000 -1 x9001 -1 x9002 -1 x9003 -1 x9004 >= 0 ;
+2 x9429 +2 x9430 +2 x9431 +2 x9432 -1 x9001 -1 x9002 -1 x9003 -1 x9004 -1 x9005 -1 x9006 -1 x9007 -1 x9008 >= 0 ;
+2 x9433 +2 x9434 +2 x9435 +2 x9436 -1 x9005 -1 x9006 -1 x9007 -1 x9008 -1 x9009 -1 x9010 -1 x9011 -1 x9012 >= 0 ;
+2 x9437 +2 x9438 +2 x9439 +2 x9440 -1 x9009 -1 x9010 -1 x9011 -1 x9012 -1 x9013 -1 x9014 -1 x9015 -1 x9016 >= 0 ;
+2 x9441 +2 x9442 +2 x9443 +2 x9444 -1 x9013 -1 x9014 -1 x9015 -1 x9016 -1 x9017 -1 x9018 -1 x9019 -1 x9020 >= 0 ;
+2 x9445 +2 x9446 +2 x9447 +2 x9448 -1 x9017 -1 x9018 -1 x9019 -1 x9020 -1 x9021 -1 x9022 -1 x9023 -1 x9024 >= 0 ;
+2 x9449 +2 x9450 +2 x9451 +2 x9452 -1 x9021 -1 x9022 -1 x9023 -1 x9024 -1 x9025 -1 x9026 -1 x9027 -1 x9028 >= 0 ;
+2 x9453 +2 x9454 +2 x9455 +2 x9456 -1 x9025 -1 x9026 -1 x9027 -1 x9028 -1 x9029 -1 x9030 -1 x9031 -1 x9032 >= 0 ;
+2 x9457 +2 x9458 +2 x9459 +2 x9460 -1 x9029 -1 x9030 -1 x9031 -1 x9032 -1 x9033 -1 x9034 -1 x9035 -1 x9036 >= 0 ;
+2 x9461 +2 x9462 +2 x9463 +2 x9464 -1 x9033 -1 x9034 -1 x9035 -1 x9036 -1 x9037 -1 x9038 -1 x9039 -1 x9040 >= 0 ;
+2 x9465 +2 x9466 +2 x9467 +2 x9468 -1 x9037 -1 x9038 -1 x9039 -1 x9040 -1 x9041 -1 x9042 -1 x9043 -1 x9044 >= 0 ;
+2 x9469 +2 x9470 +2 x9471 +2 x9472 -1 x9041 -1 x9042 -1 x9043 -1 x9044 -1 x9045 -1 x9046 -1 x9047 -1 x9048 >= 0 ;
+2 x9473 +2 x9474 +2 x9475 +2 x9476 -1 x9045 -1 x9046 -1 x9047 -1 x9048 -1 x9049 -1 x9050 -1 x9051 -1 x9052 >= 0 ;
+2 x9477 +2 x9478 +2 x9479 +2 x9480 -1 x9049 -1 x9050 -1 x9051 -1 x9052 -1 x9053 -1 x9054 -1 x9055 -1 x9056 >= 0 ;
+2 x9481 +2 x9482 +2 x9483 +2 x9484 -1 x9053 -1 x9054 -1 x9055 -1 x9056 -1 x9057 -1 x9058 -1 x9059 -1 x9060 >= 0 ;
+2 x9485 +2 x9486 +2 x9487 +2 x9488 -1 x9057 -1 x9058 -1 x9059 -1 x9060 -1 x9061 -1 x9062 -1 x9063 -1 x9064 >= 0 ;
+2 x9489 +2 x9490 +2 x9491 +2 x9492 -1 x9061 -1 x9062 -1 x9063 -1 x9064 -1 x9065 -1 x9066 -1 x9067 -1 x9068 >= 0 ;
+2 x9493 +2 x9494 +2 x9495 +2 x9496 -1 x9065 -1 x9066 -1 x9067 -1 x9068 -1 x9069 -1 x9070 -1 x9071 -1 x9072 >= 0 ;
+2 x9497 +2 x9498 +2 x9499 +2 x9500 -1 x9069 -1 x9070 -1 x9071 -1 x9072 -1 x9073 -1 x9074 -1 x9075 -1 x9076 >= 0 ;
+2 x9501 +2 x9502 +2 x9503 +2 x9504 -1 x9073 -1 x9074 -1 x9075 -1 x9076 -1 x9077 -1 x9078 -1 x9079 -1 x9080 >= 0 ;
+2 x9505 +2 x9506 +2 x9507 +2 x9508 -1 x9077 -1 x9078 -1 x9079 -1 x9080 -1 x9081 -1 x9082 -1 x9083 -1 x9084 >= 0 ;
+2 x9509 +2 x9510 +2 x9511 +2 x9512 -1 x9081 -1 x9082 -1 x9083 -1 x9084 -1 x9085 -1 x9086 -1 x9087 -1 x9088 >= 0 ;
+2 x9513 +2 x9514 +2 x9515 +2 x9516 -1 x9085 -1 x9086 -1 x9087 -1 x9088 -1 x9089 -1 x9090 -1 x9091 -1 x9092 >= 0 ;
+2 x9517 +2 x9518 +2 x9519 +2 x9520 -1 x9089 -1 x9090 -1 x9091 -1 x9092 -1 x9093 -1 x9094 -1 x9095 -1 x9096 >= 0 ;
+2 x9521 +2 x9522 +2 x9523 +2 x9524 -1 x9093 -1 x9094 -1 x9095 -1 x9096 -1 x9097 -1 x9098 -1 x9099 -1 x9100 >= 0 ;
+2 x9525 +2 x9526 +2 x9527 +2 x9528 -1 x9097 -1 x9098 -1 x9099 -1 x9100 -1 x9101 -1 x9102 -1 x9103 -1 x9104 >= 0 ;
+2 x9529 +2 x9530 +2 x9531 +2 x9532 -1 x9101 -1 x9102 -1 x9103 -1 x9104 -1 x9105 -1 x9106 -1 x9107 -1 x9108 >= 0 ;
+2 x9533 +2 x9534 +2 x9535 +2 x9536 -1 x9105 -1 x9106 -1 x9107 -1 x9108 -1 x9109 -1 x9110 -1 x9111 -1 x9112 >= 0 ;
+2 x9537 +2 x9538 +2 x9539 +2 x9540 -1 x9109 -1 x9110 -1 x9111 -1 x9112 -1 x9113 -1 x9114 -1 x9115 -1 x9116 >= 0 ;
+2 x9541 +2 x9542 +2 x9543 +2 x9544 -1 x9113 -1 x9114 -1 x9115 -1 x9116 -1 x9117 -1 x9118 -1 x9119 -1 x9120 >= 0 ;
+2 x9545 +2 x9546 +2 x9547 +2 x9548 -1 x9117 -1 x9118 -1 x9119 -1 x9120 -1 x9121 -1 x9122 -1 x9123 -1 x9124 >= 0 ;
+2 x9549 +2 x9550 +2 x9551 +2 x9552 -1 x9121 -1 x9122 -1 x9123 -1 x9124 -1 x9125 -1 x9126 -1 x9127 -1 x9128 >= 0 ;
+2 x9553 +2 x9554 +2 x9555 +2 x9556 -1 x9125 -1 x9126 -1 x9127 -1 x9128 -1 x9129 -1 x9130 -1 x9131 -1 x9132 >= 0 ;
+2 x9557 +2 x9558 +2 x9559 +2 x9560 -1 x9129 -1 x9130 -1 x9131 -1 x9132 -1 x9133 -1 x9134 -1 x9135 -1 x9136 >= 0 ;
+2 x9561 +2 x9562 +2 x9563 +2 x9564 -1 x9133 -1 x9134 -1 x9135 -1 x9136 -1 x9137 -1 x9138 -1 x9139 -1 x9140 >= 0 ;
+2 x9565 +2 x9566 +2 x9567 +2 x9568 -1 x9137 -1 x9138 -1 x9139 -1 x9140 -1 x9141 -1 x9142 -1 x9143 -1 x9144 >= 0 ;
+2 x9569 +2 x9570 +2 x9571 +2 x9572 -1 x9141 -1 x9142 -1 x9143 -1 x9144 -1 x9145 -1 x9146 -1 x9147 -1 x9148 >= 0 ;
+2 x9573 +2 x9574 +2 x9575 +2 x9576 -1 x9145 -1 x9146 -1 x9147 -1 x9148 -1 x9149 -1 x9150 -1 x9151 -1 x9152 >= 0 ;
+2 x9577 +2 x9578 +2 x9579 +2 x9580 -1 x9149 -1 x9150 -1 x9151 -1 x9152 -1 x9153 -1 x9154 -1 x9155 -1 x9156 >= 0 ;
+2 x9581 +2 x9582 +2 x9583 +2 x9584 -1 x9153 -1 x9154 -1 x9155 -1 x9156 -1 x9157 -1 x9158 -1 x9159 -1 x9160 >= 0 ;
+2 x9585 +2 x9586 +2 x9587 +2 x9588 -1 x9157 -1 x9158 -1 x9159 -1 x9160 -1 x9161 -1 x9162 -1 x9163 -1 x9164 >= 0 ;
+2 x9589 +2 x9590 +2 x9591 +2 x9592 -1 x9161 -1 x9162 -1 x9163 -1 x9164 -1 x9165 -1 x9166 -1 x9167 -1 x9168 >= 0 ;
+2 x9593 +2 x9594 +2 x9595 +2 x9596 -1 x9165 -1 x9166 -1 x9167 -1 x9168 -1 x9169 -1 x9170 -1 x9171 -1 x9172 >= 0 ;
+2 x9597 +2 x9598 +2 x9599 +2 x9600 -1 x9169 -1 x9170 -1 x9171 -1 x9172 -1 x9173 -1 x9174 -1 x9175 -1 x9176 >= 0 ;
+2 x9601 +2 x9602 +2 x9603 +2 x9604 -1 x9173 -1 x9174 -1 x9175 -1 x9176 -1 x9177 -1 x9178 -1 x9179 -1 x9180 >= 0 ;
+2 x9605 +2 x9606 +2 x9607 +2 x9608 -1 x9177 -1 x9178 -1 x9179 -1 x9180 -1 x9181 -1 x9182 -1 x9183 -1 x9184 >= 0 ;
+2 x9609 +2 x9610 +2 x9611 +2 x9612 -1 x9181 -1 x9182 -1 x9183 -1 x9184 -1 x9185 -1 x9186 -1 x9187 -1 x9188 >= 0 ;
+2 x9613 +2 x9614 +2 x9615 +2 x9616 -1 x9185 -1 x9186 -1 x9187 -1 x9188 -1 x9189 -1 x9190 -1 x9191 -1 x9192 >= 0 ;
+2 x9617 +2 x9618 +2 x9619 +2 x9620 -1 x9189 -1 x9190 -1 x9191 -1 x9192 -1 x9193 -1 x9194 -1 x9195 -1 x9196 >= 0 ;
+2 x9621 +2 x9622 +2 x9623 +2 x9624 -1 x9193 -1 x9194 -1 x9195 -1 x9196 -1 x9197 -1 x9198 -1 x9199 -1 x9200 >= 0 ;
+2 x9625 +2 x9626 +2 x9627 +2 x9628 -1 x9197 -1 x9198 -1 x9199 -1 x9200 -1 x9201 -1 x9202 -1 x9203 -1 x9204 >= 0 ;
+2 x9629 +2 x9630 +2 x9631 +2 x9632 -1 x9201 -1 x9202 -1 x9203 -1 x9204 -1 x9205 -1 x9206 -1 x9207 -1 x9208 >= 0 ;
+2 x9633 +2 x9634 +2 x9635 +2 x9636 -1 x9205 -1 x9206 -1 x9207 -1 x9208 -1 x9209 -1 x9210 -1 x9211 -1 x9212 >= 0 ;
+2 x9637 +2 x9638 +2 x9639 +2 x9640 -1 x9209 -1 x9210 -1 x9211 -1 x9212 -1 x9213 -1 x9214 -1 x9215 -1 x9216 >= 0 ;
+2 x9641 +2 x9642 +2 x9643 +2 x9644 -1 x9213 -1 x9214 -1 x9215 -1 x9216 -1 x9217 -1 x9218 -1 x9219 -1 x9220 >= 0 ;
+2 x9645 +2 x9646 +2 x9647 +2 x9648 -1 x9217 -1 x9218 -1 x9219 -1 x9220 -1 x9221 -1 x9222 -1 x9223 -1 x9224 >= 0 ;
+2 x9649 +2 x9650 +2 x9651 +2 x9652 -1 x9221 -1 x9222 -1 x9223 -1 x9224 -1 x9225 -1 x9226 -1 x9227 -1 x9228 >= 0 ;
+2 x9653 +2 x9654 +2 x9655 +2 x9656 -1 x9225 -1 x9226 -1 x9227 -1 x9228 -1 x9229 -1 x9230 -1 x9231 -1 x9232 >= 0 ;
+2 x9657 +2 x9658 +2 x9659 +2 x9660 -1 x9229 -1 x9230 -1 x9231 -1 x9232 -1 x9233 -1 x9234 -1 x9235 -1 x9236 >= 0 ;
+2 x9661 +2 x9662 +2 x9663 +2 x9664 -1 x9233 -1 x9234 -1 x9235 -1 x9236 -1 x9237 -1 x9238 -1 x9239 -1 x9240 >= 0 ;
+2 x9665 +2 x9666 +2 x9667 +2 x9668 -1 x9237 -1 x9238 -1 x9239 -1 x9240 -1 x9241 -1 x9242 -1 x9243 -1 x9244 >= 0 ;
+2 x9669 +2 x9670 +2 x9671 +2 x9672 -1 x9241 -1 x9242 -1 x9243 -1 x9244 -1 x9245 -1 x9246 -1 x9247 -1 x9248 >= 0 ;
+2 x9673 +2 x9674 +2 x9675 +2 x9676 -1 x9245 -1 x9246 -1 x9247 -1 x9248 -1 x9249 -1 x9250 -1 x9251 -1 x9252 >= 0 ;
+2 x9677 +2 x9678 +2 x9679 +2 x9680 -1 x9249 -1 x9250 -1 x9251 -1 x9252 -1 x9253 -1 x9254 -1 x9255 -1 x9256 >= 0 ;
+2 x9681 +2 x9682 +2 x9683 +2 x9684 -1 x9253 -1 x9254 -1 x9255 -1 x9256 -1 x9257 -1 x9258 -1 x9259 -1 x9260 >= 0 ;
+2 x9685 +2 x9686 +2 x9687 +2 x9688 -1 x9257 -1 x9258 -1 x9259 -1 x9260 -1 x9261 -1 x9262 -1 x9263 -1 x9264 >= 0 ;
+2 x9689 +2 x9690 +2 x9691 +2 x9692 -1 x9261 -1 x9262 -1 x9263 -1 x9264 -1 x9265 -1 x9266 -1 x9267 -1 x9268 >= 0 ;
+2 x9693 +2 x9694 +2 x9695 +2 x9696 -1 x9265 -1 x9266 -1 x9267 -1 x9268 -1 x9269 -1 x9270 -1 x9271 -1 x9272 >= 0 ;
+2 x9697 +2 x9698 +2 x9699 +2 x9700 -1 x9269 -1 x9270 -1 x9271 -1 x9272 -1 x9273 -1 x9274 -1 x9275 -1 x9276 >= 0 ;
+2 x9701 +2 x9702 +2 x9703 +2 x9704 -1 x9273 -1 x9274 -1 x9275 -1 x9276 -1 x9277 -1 x9278 -1 x9279 -1 x9280 >= 0 ;
+2 x9705 +2 x9706 +2 x9707 +2 x9708 -1 x9277 -1 x9278 -1 x9279 -1 x9280 -1 x9281 -1 x9282 -1 x9283 -1 x9284 >= 0 ;
+2 x9709 +2 x9710 +2 x9711 +2 x9712 -1 x9281 -1 x9282 -1 x9283 -1 x9284 -1 x9285 -1 x9286 -1 x9287 -1 x9288 >= 0 ;
+2 x9713 +2 x9714 +2 x9715 +2 x9716 -1 x9285 -1 x9286 -1 x9287 -1 x9288 -1 x9289 -1 x9290 -1 x9291 -1 x9292 >= 0 ;
+2 x9717 +2 x9718 +2 x9719 +2 x9720 -1 x9289 -1 x9290 -1 x9291 -1 x9292 -1 x9293 -1 x9294 -1 x9295 -1 x9296 >= 0 ;
+2 x9721 +2 x9722 +2 x9723 +2 x9724 -1 x9293 -1 x9294 -1 x9295 -1 x9296 -1 x9297 -1 x9298 -1 x9299 -1 x9300 >= 0 ;
+2 x9725 +2 x9726 +2 x9727 +2 x9728 -1 x9297 -1 x9298 -1 x9299 -1 x9300 -1 x9301 -1 x9302 -1 x9303 -1 x9304 >= 0 ;
+2 x9729 +2 x9730 +2 x9731 +2 x9732 -1 x9301 -1 x9302 -1 x9303 -1 x9304 -1 x9305 -1 x9306 -1 x9307 -1 x9308 >= 0 ;
+2 x9733 +2 x9734 +2 x9735 +2 x9736 -1 x9305 -1 x9306 -1 x9307 -1 x9308 -1 x9309 -1 x9310 -1 x9311 -1 x9312 >= 0 ;
+2 x9737 +2 x9738 +2 x9739 +2 x9740 -1 x9309 -1 x9310 -1 x9311 -1 x9312 -1 x9313 -1 x9314 -1 x9315 -1 x9316 >= 0 ;
+2 x9741 +2 x9742 +2 x9743 +2 x9744 -1 x9313 -1 x9314 -1 x9315 -1 x9316 -1 x9317 -1 x9318 -1 x9319 -1 x9320 >= 0 ;
+2 x9745 +2 x9746 +2 x9747 +2 x9748 -1 x9321 -1 x9322 -1 x9323 -1 x9324 -1 x9325 -1 x9326 -1 x9327 -1 x9328 >= 0 ;
+2 x9749 +2 x9750 +2 x9751 +2 x9752 -1 x9325 -1 x9326 -1 x9327 -1 x9328 -1 x9329 -1 x9330 -1 x9331 -1 x9332 >= 0 ;
+2 x9753 +2 x9754 +2 x9755 +2 x9756 -1 x9329 -1 x9330 -1 x9331 -1 x9332 -1 x9333 -1 x9334 -1 x9335 -1 x9336 >= 0 ;
+2 x9757 +2 x9758 +2 x9759 +2 x9760 -1 x9333 -1 x9334 -1 x9335 -1 x9336 -1 x9337 -1 x9338 -1 x9339 -1 x9340 >= 0 ;
+2 x9761 +2 x9762 +2 x9763 +2 x9764 -1 x9337 -1 x9338 -1 x9339 -1 x9340 -1 x9341 -1 x9342 -1 x9343 -1 x9344 >= 0 ;
+2 x9765 +2 x9766 +2 x9767 +2 x9768 -1 x9341 -1 x9342 -1 x9343 -1 x9344 -1 x9345 -1 x9346 -1 x9347 -1 x9348 >= 0 ;
+2 x9769 +2 x9770 +2 x9771 +2 x9772 -1 x9345 -1 x9346 -1 x9347 -1 x9348 -1 x9349 -1 x9350 -1 x9351 -1 x9352 >= 0 ;
+2 x9773 +2 x9774 +2 x9775 +2 x9776 -1 x9349 -1 x9350 -1 x9351 -1 x9352 -1 x9353 -1 x9354 -1 x9355 -1 x9356 >= 0 ;
+2 x9777 +2 x9778 +2 x9779 +2 x9780 -1 x9353 -1 x9354 -1 x9355 -1 x9356 -1 x9357 -1 x9358 -1 x9359 -1 x9360 >= 0 ;
+2 x9781 +2 x9782 +2 x9783 +2 x9784 -1 x9357 -1 x9358 -1 x9359 -1 x9360 -1 x9361 -1 x9362 -1 x9363 -1 x9364 >= 0 ;
+2 x9785 +2 x9786 +2 x9787 +2 x9788 -1 x9361 -1 x9362 -1 x9363 -1 x9364 -1 x9365 -1 x9366 -1 x9367 -1 x9368 >= 0 ;
+2 x9789 +2 x9790 +2 x9791 +2 x9792 -1 x9365 -1 x9366 -1 x9367 -1 x9368 -1 x9369 -1 x9370 -1 x9371 -1 x9372 >= 0 ;
+2 x9793 +2 x9794 +2 x9795 +2 x9796 -1 x9369 -1 x9370 -1 x9371 -1 x9372 -1 x9373 -1 x9374 -1 x9375 -1 x9376 >= 0 ;
+2 x9797 +2 x9798 +2 x9799 +2 x9800 -1 x9373 -1 x9374 -1 x9375 -1 x9376 -1 x9377 -1 x9378 -1 x9379 -1 x9380 >= 0 ;
+2 x9801 +2 x9802 +2 x9803 +2 x9804 -1 x9377 -1 x9378 -1 x9379 -1 x9380 -1 x9381 -1 x9382 -1 x9383 -1 x9384 >= 0 ;
+2 x9805 +2 x9806 +2 x9807 +2 x9808 -1 x9381 -1 x9382 -1 x9383 -1 x9384 -1 x9385 -1 x9386 -1 x9387 -1 x9388 >= 0 ;
+2 x9809 +2 x9810 +2 x9811 +2 x9812 -1 x9385 -1 x9386 -1 x9387 -1 x9388 -1 x9389 -1 x9390 -1 x9391 -1 x9392 >= 0 ;
+2 x9813 +2 x9814 +2 x9815 +2 x9816 -1 x9389 -1 x9390 -1 x9391 -1 x9392 -1 x9393 -1 x9394 -1 x9395 -1 x9396 >= 0 ;
+2 x9817 +2 x9818 +2 x9819 +2 x9820 -1 x9393 -1 x9394 -1 x9395 -1 x9396 -1 x9397 -1 x9398 -1 x9399 -1 x9400 >= 0 ;
+2 x9821 +2 x9822 +2 x9823 +2 x9824 -1 x9397 -1 x9398 -1 x9399 -1 x9400 -1 x9401 -1 x9402 -1 x9403 -1 x9404 >= 0 ;
+2 x9825 +2 x9826 +2 x9827 +2 x9828 -1 x9401 -1 x9402 -1 x9403 -1 x9404 -1 x9405 -1 x9406 -1 x9407 -1 x9408 >= 0 ;
+2 x9829 +2 x9830 +2 x9831 +2 x9832 -1 x9405 -1 x9406 -1 x9407 -1 x9408 -1 x9409 -1 x9410 -1 x9411 -1 x9412 >= 0 ;
+2 x9833 +2 x9834 +2 x9835 +2 x9836 -1 x9409 -1 x9410 -1 x9411 -1 x9412 -1 x9413 -1 x9414 -1 x9415 -1 x9416 >= 0 ;
+2 x9837 +2 x9838 +2 x9839 +2 x9840 -1 x9413 -1 x9414 -1 x9415 -1 x9416 -1 x9417 -1 x9418 -1 x9419 -1 x9420 >= 0 ;
+2 x9841 +2 x9842 +2 x9843 +2 x9844 -1 x9417 -1 x9418 -1 x9419 -1 x9420 -1 x9421 -1 x9422 -1 x9423 -1 x9424 >= 0 ;
+2 x9845 +2 x9846 +2 x9847 +2 x9848 -1 x9421 -1 x9422 -1 x9423 -1 x9424 -1 x9425 -1 x9426 -1 x9427 -1 x9428 >= 0 ;
+2 x9849 +2 x9850 +2 x9851 +2 x9852 -1 x9425 -1 x9426 -1 x9427 -1 x9428 -1 x9429 -1 x9430 -1 x9431 -1 x9432 >= 0 ;
+2 x9853 +2 x9854 +2 x9855 +2 x9856 -1 x9429 -1 x9430 -1 x9431 -1 x9432 -1 x9433 -1 x9434 -1 x9435 -1 x9436 >= 0 ;
+2 x9857 +2 x9858 +2 x9859 +2 x9860 -1 x9433 -1 x9434 -1 x9435 -1 x9436 -1 x9437 -1 x9438 -1 x9439 -1 x9440 >= 0 ;
+2 x9861 +2 x9862 +2 x9863 +2 x9864 -1 x9437 -1 x9438 -1 x9439 -1 x9440 -1 x9441 -1 x9442 -1 x9443 -1 x9444 >= 0 ;
+2 x9865 +2 x9866 +2 x9867 +2 x9868 -1 x9441 -1 x9442 -1 x9443 -1 x9444 -1 x9445 -1 x9446 -1 x9447 -1 x9448 >= 0 ;
+2 x9869 +2 x9870 +2 x9871 +2 x9872 -1 x9445 -1 x9446 -1 x9447 -1 x9448 -1 x9449 -1 x9450 -1 x9451 -1 x9452 >= 0 ;
+2 x9873 +2 x9874 +2 x9875 +2 x9876 -1 x9449 -1 x9450 -1 x9451 -1 x9452 -1 x9453 -1 x9454 -1 x9455 -1 x9456 >= 0 ;
+2 x9877 +2 x9878 +2 x9879 +2 x9880 -1 x9453 -1 x9454 -1 x9455 -1 x9456 -1 x9457 -1 x9458 -1 x9459 -1 x9460 >= 0 ;
+2 x9881 +2 x9882 +2 x9883 +2 x9884 -1 x9457 -1 x9458 -1 x9459 -1 x9460 -1 x9461 -1 x9462 -1 x9463 -1 x9464 >= 0 ;
+2 x9885 +2 x9886 +2 x9887 +2 x9888 -1 x9461 -1 x9462 -1 x9463 -1 x9464 -1 x9465 -1 x9466 -1 x9467 -1 x9468 >= 0 ;
+2 x9889 +2 x9890 +2 x9891 +2 x9892 -1 x9465 -1 x9466 -1 x9467 -1 x9468 -1 x9469 -1 x9470 -1 x9471 -1 x9472 >= 0 ;
+2 x9893 +2 x9894 +2 x9895 +2 x9896 -1 x9469 -1 x9470 -1 x9471 -1 x9472 -1 x9473 -1 x9474 -1 x9475 -1 x9476 >= 0 ;
+2 x9897 +2 x9898 +2 x9899 +2 x9900 -1 x9473 -1 x9474 -1 x9475 -1 x9476 -1 x9477 -1 x9478 -1 x9479 -1 x9480 >= 0 ;
+2 x9901 +2 x9902 +2 x9903 +2 x9904 -1 x9477 -1 x9478 -1 x9479 -1 x9480 -1 x9481 -1 x9482 -1 x9483 -1 x9484 >= 0 ;
+2 x9905 +2 x9906 +2 x9907 +2 x9908 -1 x9481 -1 x9482 -1 x9483 -1 x9484 -1 x9485 -1 x9486 -1 x9487 -1 x9488 >= 0 ;
+2 x9909 +2 x9910 +2 x9911 +2 x9912 -1 x9485 -1 x9486 -1 x9487 -1 x9488 -1 x9489 -1 x9490 -1 x9491 -1 x9492 >= 0 ;
+2 x9913 +2 x9914 +2 x9915 +2 x9916 -1 x9489 -1 x9490 -1 x9491 -1 x9492 -1 x9493 -1 x9494 -1 x9495 -1 x9496 >= 0 ;
+2 x9917 +2 x9918 +2 x9919 +2 x9920 -1 x9493 -1 x9494 -1 x9495 -1 x9496 -1 x9497 -1 x9498 -1 x9499 -1 x9500 >= 0 ;
+2 x9921 +2 x9922 +2 x9923 +2 x9924 -1 x9497 -1 x9498 -1 x9499 -1 x9500 -1 x9501 -1 x9502 -1 x9503 -1 x9504 >= 0 ;
+2 x9925 +2 x9926 +2 x9927 +2 x9928 -1 x9501 -1 x9502 -1 x9503 -1 x9504 -1 x9505 -1 x9506 -1 x9507 -1 x9508 >= 0 ;
+2 x9929 +2 x9930 +2 x9931 +2 x9932 -1 x9505 -1 x9506 -1 x9507 -1 x9508 -1 x9509 -1 x9510 -1 x9511 -1 x9512 >= 0 ;
+2 x9933 +2 x9934 +2 x9935 +2 x9936 -1 x9509 -1 x9510 -1 x9511 -1 x9512 -1 x9513 -1 x9514 -1 x9515 -1 x9516 >= 0 ;
+2 x9937 +2 x9938 +2 x9939 +2 x9940 -1 x9513 -1 x9514 -1 x9515 -1 x9516 -1 x9517 -1 x9518 -1 x9519 -1 x9520 >= 0 ;
+2 x9941 +2 x9942 +2 x9943 +2 x9944 -1 x9517 -1 x9518 -1 x9519 -1 x9520 -1 x9521 -1 x9522 -1 x9523 -1 x9524 >= 0 ;
+2 x9945 +2 x9946 +2 x9947 +2 x9948 -1 x9521 -1 x9522 -1 x9523 -1 x9524 -1 x9525 -1 x9526 -1 x9527 -1 x9528 >= 0 ;
+2 x9949 +2 x9950 +2 x9951 +2 x9952 -1 x9525 -1 x9526 -1 x9527 -1 x9528 -1 x9529 -1 x9530 -1 x9531 -1 x9532 >= 0 ;
+2 x9953 +2 x9954 +2 x9955 +2 x9956 -1 x9529 -1 x9530 -1 x9531 -1 x9532 -1 x9533 -1 x9534 -1 x9535 -1 x9536 >= 0 ;
+2 x9957 +2 x9958 +2 x9959 +2 x9960 -1 x9533 -1 x9534 -1 x9535 -1 x9536 -1 x9537 -1 x9538 -1 x9539 -1 x9540 >= 0 ;
+2 x9961 +2 x9962 +2 x9963 +2 x9964 -1 x9537 -1 x9538 -1 x9539 -1 x9540 -1 x9541 -1 x9542 -1 x9543 -1 x9544 >= 0 ;
+2 x9965 +2 x9966 +2 x9967 +2 x9968 -1 x9541 -1 x9542 -1 x9543 -1 x9544 -1 x9545 -1 x9546 -1 x9547 -1 x9548 >= 0 ;
+2 x9969 +2 x9970 +2 x9971 +2 x9972 -1 x9545 -1 x9546 -1 x9547 -1 x9548 -1 x9549 -1 x9550 -1 x9551 -1 x9552 >= 0 ;
+2 x9973 +2 x9974 +2 x9975 +2 x9976 -1 x9549 -1 x9550 -1 x9551 -1 x9552 -1 x9553 -1 x9554 -1 x9555 -1 x9556 >= 0 ;
+2 x9977 +2 x9978 +2 x9979 +2 x9980 -1 x9553 -1 x9554 -1 x9555 -1 x9556 -1 x9557 -1 x9558 -1 x9559 -1 x9560 >= 0 ;
+2 x9981 +2 x9982 +2 x9983 +2 x9984 -1 x9557 -1 x9558 -1 x9559 -1 x9560 -1 x9561 -1 x9562 -1 x9563 -1 x9564 >= 0 ;
+2 x9985 +2 x9986 +2 x9987 +2 x9988 -1 x9561 -1 x9562 -1 x9563 -1 x9564 -1 x9565 -1 x9566 -1 x9567 -1 x9568 >= 0 ;
+2 x9989 +2 x9990 +2 x9991 +2 x9992 -1 x9565 -1 x9566 -1 x9567 -1 x9568 -1 x9569 -1 x9570 -1 x9571 -1 x9572 >= 0 ;
+2 x9993 +2 x9994 +2 x9995 +2 x9996 -1 x9569 -1 x9570 -1 x9571 -1 x9572 -1 x9573 -1 x9574 -1 x9575 -1 x9576 >= 0 ;
+2 x9997 +2 x9998 +2 x9999 +2 x10000 -1 x9573 -1 x9574 -1 x9575 -1 x9576 -1 x9577 -1 x9578 -1 x9579 -1 x9580 >= 0 ;
+2 x10001 +2 x10002 +2 x10003 +2 x10004 -1 x9577 -1 x9578 -1 x9579 -1 x9580 -1 x9581 -1 x9582 -1 x9583 -1 x9584 >= 0 ;
+2 x10005 +2 x10006 +2 x10007 +2 x10008 -1 x9581 -1 x9582 -1 x9583 -1 x9584 -1 x9585 -1 x9586 -1 x9587 -1 x9588 >= 0 ;
+2 x10009 +2 x10010 +2 x10011 +2 x10012 -1 x9585 -1 x9586 -1 x9587 -1 x9588 -1 x9589 -1 x9590 -1 x9591 -1 x9592 >= 0 ;
+2 x10013 +2 x10014 +2 x10015 +2 x10016 -1 x9589 -1 x9590 -1 x9591 -1 x9592 -1 x9593 -1 x9594 -1 x9595 -1 x9596 >= 0 ;
+2 x10017 +2 x10018 +2 x10019 +2 x10020 -1 x9593 -1 x9594 -1 x9595 -1 x9596 -1 x9597 -1 x9598 -1 x9599 -1 x9600 >= 0 ;
+2 x10021 +2 x10022 +2 x10023 +2 x10024 -1 x9597 -1 x9598 -1 x9599 -1 x9600 -1 x9601 -1 x9602 -1 x9603 -1 x9604 >= 0 ;
+2 x10025 +2 x10026 +2 x10027 +2 x10028 -1 x9601 -1 x9602 -1 x9603 -1 x9604 -1 x9605 -1 x9606 -1 x9607 -1 x9608 >= 0 ;
+2 x10029 +2 x10030 +2 x10031 +2 x10032 -1 x9605 -1 x9606 -1 x9607 -1 x9608 -1 x9609 -1 x9610 -1 x9611 -1 x9612 >= 0 ;
+2 x10033 +2 x10034 +2 x10035 +2 x10036 -1 x9609 -1 x9610 -1 x9611 -1 x9612 -1 x9613 -1 x9614 -1 x9615 -1 x9616 >= 0 ;
+2 x10037 +2 x10038 +2 x10039 +2 x10040 -1 x9613 -1 x9614 -1 x9615 -1 x9616 -1 x9617 -1 x9618 -1 x9619 -1 x9620 >= 0 ;
+2 x10041 +2 x10042 +2 x10043 +2 x10044 -1 x9617 -1 x9618 -1 x9619 -1 x9620 -1 x9621 -1 x9622 -1 x9623 -1 x9624 >= 0 ;
+2 x10045 +2 x10046 +2 x10047 +2 x10048 -1 x9621 -1 x9622 -1 x9623 -1 x9624 -1 x9625 -1 x9626 -1 x9627 -1 x9628 >= 0 ;
+2 x10049 +2 x10050 +2 x10051 +2 x10052 -1 x9625 -1 x9626 -1 x9627 -1 x9628 -1 x9629 -1 x9630 -1 x9631 -1 x9632 >= 0 ;
+2 x10053 +2 x10054 +2 x10055 +2 x10056 -1 x9629 -1 x9630 -1 x9631 -1 x9632 -1 x9633 -1 x9634 -1 x9635 -1 x9636 >= 0 ;
+2 x10057 +2 x10058 +2 x10059 +2 x10060 -1 x9633 -1 x9634 -1 x9635 -1 x9636 -1 x9637 -1 x9638 -1 x9639 -1 x9640 >= 0 ;
+2 x10061 +2 x10062 +2 x10063 +2 x10064 -1 x9637 -1 x9638 -1 x9639 -1 x9640 -1 x9641 -1 x9642 -1 x9643 -1 x9644 >= 0 ;
+2 x10065 +2 x10066 +2 x10067 +2 x10068 -1 x9641 -1 x9642 -1 x9643 -1 x9644 -1 x9645 -1 x9646 -1 x9647 -1 x9648 >= 0 ;
+2 x10069 +2 x10070 +2 x10071 +2 x10072 -1 x9645 -1 x9646 -1 x9647 -1 x9648 -1 x9649 -1 x9650 -1 x9651 -1 x9652 >= 0 ;
+2 x10073 +2 x10074 +2 x10075 +2 x10076 -1 x9649 -1 x9650 -1 x9651 -1 x9652 -1 x9653 -1 x9654 -1 x9655 -1 x9656 >= 0 ;
+2 x10077 +2 x10078 +2 x10079 +2 x10080 -1 x9653 -1 x9654 -1 x9655 -1 x9656 -1 x9657 -1 x9658 -1 x9659 -1 x9660 >= 0 ;
+2 x10081 +2 x10082 +2 x10083 +2 x10084 -1 x9657 -1 x9658 -1 x9659 -1 x9660 -1 x9661 -1 x9662 -1 x9663 -1 x9664 >= 0 ;
+2 x10085 +2 x10086 +2 x10087 +2 x10088 -1 x9661 -1 x9662 -1 x9663 -1 x9664 -1 x9665 -1 x9666 -1 x9667 -1 x9668 >= 0 ;
+2 x10089 +2 x10090 +2 x10091 +2 x10092 -1 x9665 -1 x9666 -1 x9667 -1 x9668 -1 x9669 -1 x9670 -1 x9671 -1 x9672 >= 0 ;
+2 x10093 +2 x10094 +2 x10095 +2 x10096 -1 x9669 -1 x9670 -1 x9671 -1 x9672 -1 x9673 -1 x9674 -1 x9675 -1 x9676 >= 0 ;
+2 x10097 +2 x10098 +2 x10099 +2 x10100 -1 x9673 -1 x9674 -1 x9675 -1 x9676 -1 x9677 -1 x9678 -1 x9679 -1 x9680 >= 0 ;
+2 x10101 +2 x10102 +2 x10103 +2 x10104 -1 x9677 -1 x9678 -1 x9679 -1 x9680 -1 x9681 -1 x9682 -1 x9683 -1 x9684 >= 0 ;
+2 x10105 +2 x10106 +2 x10107 +2 x10108 -1 x9681 -1 x9682 -1 x9683 -1 x9684 -1 x9685 -1 x9686 -1 x9687 -1 x9688 >= 0 ;
+2 x10109 +2 x10110 +2 x10111 +2 x10112 -1 x9685 -1 x9686 -1 x9687 -1 x9688 -1 x9689 -1 x9690 -1 x9691 -1 x9692 >= 0 ;
+2 x10113 +2 x10114 +2 x10115 +2 x10116 -1 x9689 -1 x9690 -1 x9691 -1 x9692 -1 x9693 -1 x9694 -1 x9695 -1 x9696 >= 0 ;
+2 x10117 +2 x10118 +2 x10119 +2 x10120 -1 x9693 -1 x9694 -1 x9695 -1 x9696 -1 x9697 -1 x9698 -1 x9699 -1 x9700 >= 0 ;
+2 x10121 +2 x10122 +2 x10123 +2 x10124 -1 x9697 -1 x9698 -1 x9699 -1 x9700 -1 x9701 -1 x9702 -1 x9703 -1 x9704 >= 0 ;
+2 x10125 +2 x10126 +2 x10127 +2 x10128 -1 x9701 -1 x9702 -1 x9703 -1 x9704 -1 x9705 -1 x9706 -1 x9707 -1 x9708 >= 0 ;
+2 x10129 +2 x10130 +2 x10131 +2 x10132 -1 x9705 -1 x9706 -1 x9707 -1 x9708 -1 x9709 -1 x9710 -1 x9711 -1 x9712 >= 0 ;
+2 x10133 +2 x10134 +2 x10135 +2 x10136 -1 x9709 -1 x9710 -1 x9711 -1 x9712 -1 x9713 -1 x9714 -1 x9715 -1 x9716 >= 0 ;
+2 x10137 +2 x10138 +2 x10139 +2 x10140 -1 x9713 -1 x9714 -1 x9715 -1 x9716 -1 x9717 -1 x9718 -1 x9719 -1 x9720 >= 0 ;
+2 x10141 +2 x10142 +2 x10143 +2 x10144 -1 x9717 -1 x9718 -1 x9719 -1 x9720 -1 x9721 -1 x9722 -1 x9723 -1 x9724 >= 0 ;
+2 x10145 +2 x10146 +2 x10147 +2 x10148 -1 x9721 -1 x9722 -1 x9723 -1 x9724 -1 x9725 -1 x9726 -1 x9727 -1 x9728 >= 0 ;
+2 x10149 +2 x10150 +2 x10151 +2 x10152 -1 x9725 -1 x9726 -1 x9727 -1 x9728 -1 x9729 -1 x9730 -1 x9731 -1 x9732 >= 0 ;
+2 x10153 +2 x10154 +2 x10155 +2 x10156 -1 x9729 -1 x9730 -1 x9731 -1 x9732 -1 x9733 -1 x9734 -1 x9735 -1 x9736 >= 0 ;
+2 x10157 +2 x10158 +2 x10159 +2 x10160 -1 x9733 -1 x9734 -1 x9735 -1 x9736 -1 x9737 -1 x9738 -1 x9739 -1 x9740 >= 0 ;
+2 x10161 +2 x10162 +2 x10163 +2 x10164 -1 x9737 -1 x9738 -1 x9739 -1 x9740 -1 x9741 -1 x9742 -1 x9743 -1 x9744 >= 0 ;
+2 x10165 +2 x10166 +2 x10167 +2 x10168 -1 x9745 -1 x9746 -1 x9747 -1 x9748 -1 x9749 -1 x9750 -1 x9751 -1 x9752 >= 0 ;
+2 x10169 +2 x10170 +2 x10171 +2 x10172 -1 x9749 -1 x9750 -1 x9751 -1 x9752 -1 x9753 -1 x9754 -1 x9755 -1 x9756 >= 0 ;
+2 x10173 +2 x10174 +2 x10175 +2 x10176 -1 x9753 -1 x9754 -1 x9755 -1 x9756 -1 x9757 -1 x9758 -1 x9759 -1 x9760 >= 0 ;
+2 x10177 +2 x10178 +2 x10179 +2 x10180 -1 x9757 -1 x9758 -1 x9759 -1 x9760 -1 x9761 -1 x9762 -1 x9763 -1 x9764 >= 0 ;
+2 x10181 +2 x10182 +2 x10183 +2 x10184 -1 x9761 -1 x9762 -1 x9763 -1 x9764 -1 x9765 -1 x9766 -1 x9767 -1 x9768 >= 0 ;
+2 x10185 +2 x10186 +2 x10187 +2 x10188 -1 x9765 -1 x9766 -1 x9767 -1 x9768 -1 x9769 -1 x9770 -1 x9771 -1 x9772 >= 0 ;
+2 x10189 +2 x10190 +2 x10191 +2 x10192 -1 x9769 -1 x9770 -1 x9771 -1 x9772 -1 x9773 -1 x9774 -1 x9775 -1 x9776 >= 0 ;
+2 x10193 +2 x10194 +2 x10195 +2 x10196 -1 x9773 -1 x9774 -1 x9775 -1 x9776 -1 x9777 -1 x9778 -1 x9779 -1 x9780 >= 0 ;
+2 x10197 +2 x10198 +2 x10199 +2 x10200 -1 x9777 -1 x9778 -1 x9779 -1 x9780 -1 x9781 -1 x9782 -1 x9783 -1 x9784 >= 0 ;
+2 x10201 +2 x10202 +2 x10203 +2 x10204 -1 x9781 -1 x9782 -1 x9783 -1 x9784 -1 x9785 -1 x9786 -1 x9787 -1 x9788 >= 0 ;
+2 x10205 +2 x10206 +2 x10207 +2 x10208 -1 x9785 -1 x9786 -1 x9787 -1 x9788 -1 x9789 -1 x9790 -1 x9791 -1 x9792 >= 0 ;
+2 x10209 +2 x10210 +2 x10211 +2 x10212 -1 x9789 -1 x9790 -1 x9791 -1 x9792 -1 x9793 -1 x9794 -1 x9795 -1 x9796 >= 0 ;
+2 x10213 +2 x10214 +2 x10215 +2 x10216 -1 x9793 -1 x9794 -1 x9795 -1 x9796 -1 x9797 -1 x9798 -1 x9799 -1 x9800 >= 0 ;
+2 x10217 +2 x10218 +2 x10219 +2 x10220 -1 x9797 -1 x9798 -1 x9799 -1 x9800 -1 x9801 -1 x9802 -1 x9803 -1 x9804 >= 0 ;
+2 x10221 +2 x10222 +2 x10223 +2 x10224 -1 x9801 -1 x9802 -1 x9803 -1 x9804 -1 x9805 -1 x9806 -1 x9807 -1 x9808 >= 0 ;
+2 x10225 +2 x10226 +2 x10227 +2 x10228 -1 x9805 -1 x9806 -1 x9807 -1 x9808 -1 x9809 -1 x9810 -1 x9811 -1 x9812 >= 0 ;
+2 x10229 +2 x10230 +2 x10231 +2 x10232 -1 x9809 -1 x9810 -1 x9811 -1 x9812 -1 x9813 -1 x9814 -1 x9815 -1 x9816 >= 0 ;
+2 x10233 +2 x10234 +2 x10235 +2 x10236 -1 x9813 -1 x9814 -1 x9815 -1 x9816 -1 x9817 -1 x9818 -1 x9819 -1 x9820 >= 0 ;
+2 x10237 +2 x10238 +2 x10239 +2 x10240 -1 x9817 -1 x9818 -1 x9819 -1 x9820 -1 x9821 -1 x9822 -1 x9823 -1 x9824 >= 0 ;
+2 x10241 +2 x10242 +2 x10243 +2 x10244 -1 x9821 -1 x9822 -1 x9823 -1 x9824 -1 x9825 -1 x9826 -1 x9827 -1 x9828 >= 0 ;
+2 x10245 +2 x10246 +2 x10247 +2 x10248 -1 x9825 -1 x9826 -1 x9827 -1 x9828 -1 x9829 -1 x9830 -1 x9831 -1 x9832 >= 0 ;
+2 x10249 +2 x10250 +2 x10251 +2 x10252 -1 x9829 -1 x9830 -1 x9831 -1 x9832 -1 x9833 -1 x9834 -1 x9835 -1 x9836 >= 0 ;
+2 x10253 +2 x10254 +2 x10255 +2 x10256 -1 x9833 -1 x9834 -1 x9835 -1 x9836 -1 x9837 -1 x9838 -1 x9839 -1 x9840 >= 0 ;
+2 x10257 +2 x10258 +2 x10259 +2 x10260 -1 x9837 -1 x9838 -1 x9839 -1 x9840 -1 x9841 -1 x9842 -1 x9843 -1 x9844 >= 0 ;
+2 x10261 +2 x10262 +2 x10263 +2 x10264 -1 x9841 -1 x9842 -1 x9843 -1 x9844 -1 x9845 -1 x9846 -1 x9847 -1 x9848 >= 0 ;
+2 x10265 +2 x10266 +2 x10267 +2 x10268 -1 x9845 -1 x9846 -1 x9847 -1 x9848 -1 x9849 -1 x9850 -1 x9851 -1 x9852 >= 0 ;
+2 x10269 +2 x10270 +2 x10271 +2 x10272 -1 x9849 -1 x9850 -1 x9851 -1 x9852 -1 x9853 -1 x9854 -1 x9855 -1 x9856 >= 0 ;
+2 x10273 +2 x10274 +2 x10275 +2 x10276 -1 x9853 -1 x9854 -1 x9855 -1 x9856 -1 x9857 -1 x9858 -1 x9859 -1 x9860 >= 0 ;
+2 x10277 +2 x10278 +2 x10279 +2 x10280 -1 x9857 -1 x9858 -1 x9859 -1 x9860 -1 x9861 -1 x9862 -1 x9863 -1 x9864 >= 0 ;
+2 x10281 +2 x10282 +2 x10283 +2 x10284 -1 x9861 -1 x9862 -1 x9863 -1 x9864 -1 x9865 -1 x9866 -1 x9867 -1 x9868 >= 0 ;
+2 x10285 +2 x10286 +2 x10287 +2 x10288 -1 x9865 -1 x9866 -1 x9867 -1 x9868 -1 x9869 -1 x9870 -1 x9871 -1 x9872 >= 0 ;
+2 x10289 +2 x10290 +2 x10291 +2 x10292 -1 x9869 -1 x9870 -1 x9871 -1 x9872 -1 x9873 -1 x9874 -1 x9875 -1 x9876 >= 0 ;
+2 x10293 +2 x10294 +2 x10295 +2 x10296 -1 x9873 -1 x9874 -1 x9875 -1 x9876 -1 x9877 -1 x9878 -1 x9879 -1 x9880 >= 0 ;
+2 x10297 +2 x10298 +2 x10299 +2 x10300 -1 x9877 -1 x9878 -1 x9879 -1 x9880 -1 x9881 -1 x9882 -1 x9883 -1 x9884 >= 0 ;
+2 x10301 +2 x10302 +2 x10303 +2 x10304 -1 x9881 -1 x9882 -1 x9883 -1 x9884 -1 x9885 -1 x9886 -1 x9887 -1 x9888 >= 0 ;
+2 x10305 +2 x10306 +2 x10307 +2 x10308 -1 x9885 -1 x9886 -1 x9887 -1 x9888 -1 x9889 -1 x9890 -1 x9891 -1 x9892 >= 0 ;
+2 x10309 +2 x10310 +2 x10311 +2 x10312 -1 x9889 -1 x9890 -1 x9891 -1 x9892 -1 x9893 -1 x9894 -1 x9895 -1 x9896 >= 0 ;
+2 x10313 +2 x10314 +2 x10315 +2 x10316 -1 x9893 -1 x9894 -1 x9895 -1 x9896 -1 x9897 -1 x9898 -1 x9899 -1 x9900 >= 0 ;
+2 x10317 +2 x10318 +2 x10319 +2 x10320 -1 x9897 -1 x9898 -1 x9899 -1 x9900 -1 x9901 -1 x9902 -1 x9903 -1 x9904 >= 0 ;
+2 x10321 +2 x10322 +2 x10323 +2 x10324 -1 x9901 -1 x9902 -1 x9903 -1 x9904 -1 x9905 -1 x9906 -1 x9907 -1 x9908 >= 0 ;
+2 x10325 +2 x10326 +2 x10327 +2 x10328 -1 x9905 -1 x9906 -1 x9907 -1 x9908 -1 x9909 -1 x9910 -1 x9911 -1 x9912 >= 0 ;
+2 x10329 +2 x10330 +2 x10331 +2 x10332 -1 x9909 -1 x9910 -1 x9911 -1 x9912 -1 x9913 -1 x9914 -1 x9915 -1 x9916 >= 0 ;
+2 x10333 +2 x10334 +2 x10335 +2 x10336 -1 x9913 -1 x9914 -1 x9915 -1 x9916 -1 x9917 -1 x9918 -1 x9919 -1 x9920 >= 0 ;
+2 x10337 +2 x10338 +2 x10339 +2 x10340 -1 x9917 -1 x9918 -1 x9919 -1 x9920 -1 x9921 -1 x9922 -1 x9923 -1 x9924 >= 0 ;
+2 x10341 +2 x10342 +2 x10343 +2 x10344 -1 x9921 -1 x9922 -1 x9923 -1 x9924 -1 x9925 -1 x9926 -1 x9927 -1 x9928 >= 0 ;
+2 x10345 +2 x10346 +2 x10347 +2 x10348 -1 x9925 -1 x9926 -1 x9927 -1 x9928 -1 x9929 -1 x9930 -1 x9931 -1 x9932 >= 0 ;
+2 x10349 +2 x10350 +2 x10351 +2 x10352 -1 x9929 -1 x9930 -1 x9931 -1 x9932 -1 x9933 -1 x9934 -1 x9935 -1 x9936 >= 0 ;
+2 x10353 +2 x10354 +2 x10355 +2 x10356 -1 x9933 -1 x9934 -1 x9935 -1 x9936 -1 x9937 -1 x9938 -1 x9939 -1 x9940 >= 0 ;
+2 x10357 +2 x10358 +2 x10359 +2 x10360 -1 x9937 -1 x9938 -1 x9939 -1 x9940 -1 x9941 -1 x9942 -1 x9943 -1 x9944 >= 0 ;
+2 x10361 +2 x10362 +2 x10363 +2 x10364 -1 x9941 -1 x9942 -1 x9943 -1 x9944 -1 x9945 -1 x9946 -1 x9947 -1 x9948 >= 0 ;
+2 x10365 +2 x10366 +2 x10367 +2 x10368 -1 x9945 -1 x9946 -1 x9947 -1 x9948 -1 x9949 -1 x9950 -1 x9951 -1 x9952 >= 0 ;
+2 x10369 +2 x10370 +2 x10371 +2 x10372 -1 x9949 -1 x9950 -1 x9951 -1 x9952 -1 x9953 -1 x9954 -1 x9955 -1 x9956 >= 0 ;
+2 x10373 +2 x10374 +2 x10375 +2 x10376 -1 x9953 -1 x9954 -1 x9955 -1 x9956 -1 x9957 -1 x9958 -1 x9959 -1 x9960 >= 0 ;
+2 x10377 +2 x10378 +2 x10379 +2 x10380 -1 x9957 -1 x9958 -1 x9959 -1 x9960 -1 x9961 -1 x9962 -1 x9963 -1 x9964 >= 0 ;
+2 x10381 +2 x10382 +2 x10383 +2 x10384 -1 x9961 -1 x9962 -1 x9963 -1 x9964 -1 x9965 -1 x9966 -1 x9967 -1 x9968 >= 0 ;
+2 x10385 +2 x10386 +2 x10387 +2 x10388 -1 x9965 -1 x9966 -1 x9967 -1 x9968 -1 x9969 -1 x9970 -1 x9971 -1 x9972 >= 0 ;
+2 x10389 +2 x10390 +2 x10391 +2 x10392 -1 x9969 -1 x9970 -1 x9971 -1 x9972 -1 x9973 -1 x9974 -1 x9975 -1 x9976 >= 0 ;
+2 x10393 +2 x10394 +2 x10395 +2 x10396 -1 x9973 -1 x9974 -1 x9975 -1 x9976 -1 x9977 -1 x9978 -1 x9979 -1 x9980 >= 0 ;
+2 x10397 +2 x10398 +2 x10399 +2 x10400 -1 x9977 -1 x9978 -1 x9979 -1 x9980 -1 x9981 -1 x9982 -1 x9983 -1 x9984 >= 0 ;
+2 x10401 +2 x10402 +2 x10403 +2 x10404 -1 x9981 -1 x9982 -1 x9983 -1 x9984 -1 x9985 -1 x9986 -1 x9987 -1 x9988 >= 0 ;
+2 x10405 +2 x10406 +2 x10407 +2 x10408 -1 x9985 -1 x9986 -1 x9987 -1 x9988 -1 x9989 -1 x9990 -1 x9991 -1 x9992 >= 0 ;
+2 x10409 +2 x10410 +2 x10411 +2 x10412 -1 x9989 -1 x9990 -1 x9991 -1 x9992 -1 x9993 -1 x9994 -1 x9995 -1 x9996 >= 0 ;
+2 x10413 +2 x10414 +2 x10415 +2 x10416 -1 x9993 -1 x9994 -1 x9995 -1 x9996 -1 x9997 -1 x9998 -1 x9999 -1 x10000 >= 0 ;
+2 x10417 +2 x10418 +2 x10419 +2 x10420 -1 x9997 -1 x9998 -1 x9999 -1 x10000 -1 x10001 -1 x10002 -1 x10003 -1 x10004 >= 0 ;
+2 x10421 +2 x10422 +2 x10423 +2 x10424 -1 x10001 -1 x10002 -1 x10003 -1 x10004 -1 x10005 -1 x10006 -1 x10007 -1 x10008 >= 0 ;
+2 x10425 +2 x10426 +2 x10427 +2 x10428 -1 x10005 -1 x10006 -1 x10007 -1 x10008 -1 x10009 -1 x10010 -1 x10011 -1 x10012 >= 0 ;
+2 x10429 +2 x10430 +2 x10431 +2 x10432 -1 x10009 -1 x10010 -1 x10011 -1 x10012 -1 x10013 -1 x10014 -1 x10015 -1 x10016 >= 0 ;
+2 x10433 +2 x10434 +2 x10435 +2 x10436 -1 x10013 -1 x10014 -1 x10015 -1 x10016 -1 x10017 -1 x10018 -1 x10019 -1 x10020 >= 0 ;
+2 x10437 +2 x10438 +2 x10439 +2 x10440 -1 x10017 -1 x10018 -1 x10019 -1 x10020 -1 x10021 -1 x10022 -1 x10023 -1 x10024 >= 0 ;
+2 x10441 +2 x10442 +2 x10443 +2 x10444 -1 x10021 -1 x10022 -1 x10023 -1 x10024 -1 x10025 -1 x10026 -1 x10027 -1 x10028 >= 0 ;
+2 x10445 +2 x10446 +2 x10447 +2 x10448 -1 x10025 -1 x10026 -1 x10027 -1 x10028 -1 x10029 -1 x10030 -1 x10031 -1 x10032 >= 0 ;
+2 x10449 +2 x10450 +2 x10451 +2 x10452 -1 x10029 -1 x10030 -1 x10031 -1 x10032 -1 x10033 -1 x10034 -1 x10035 -1 x10036 >= 0 ;
+2 x10453 +2 x10454 +2 x10455 +2 x10456 -1 x10033 -1 x10034 -1 x10035 -1 x10036 -1 x10037 -1 x10038 -1 x10039 -1 x10040 >= 0 ;
+2 x10457 +2 x10458 +2 x10459 +2 x10460 -1 x10037 -1 x10038 -1 x10039 -1 x10040 -1 x10041 -1 x10042 -1 x10043 -1 x10044 >= 0 ;
+2 x10461 +2 x10462 +2 x10463 +2 x10464 -1 x10041 -1 x10042 -1 x10043 -1 x10044 -1 x10045 -1 x10046 -1 x10047 -1 x10048 >= 0 ;
+2 x10465 +2 x10466 +2 x10467 +2 x10468 -1 x10045 -1 x10046 -1 x10047 -1 x10048 -1 x10049 -1 x10050 -1 x10051 -1 x10052 >= 0 ;
+2 x10469 +2 x10470 +2 x10471 +2 x10472 -1 x10049 -1 x10050 -1 x10051 -1 x10052 -1 x10053 -1 x10054 -1 x10055 -1 x10056 >= 0 ;
+2 x10473 +2 x10474 +2 x10475 +2 x10476 -1 x10053 -1 x10054 -1 x10055 -1 x10056 -1 x10057 -1 x10058 -1 x10059 -1 x10060 >= 0 ;
+2 x10477 +2 x10478 +2 x10479 +2 x10480 -1 x10057 -1 x10058 -1 x10059 -1 x10060 -1 x10061 -1 x10062 -1 x10063 -1 x10064 >= 0 ;
+2 x10481 +2 x10482 +2 x10483 +2 x10484 -1 x10061 -1 x10062 -1 x10063 -1 x10064 -1 x10065 -1 x10066 -1 x10067 -1 x10068 >= 0 ;
+2 x10485 +2 x10486 +2 x10487 +2 x10488 -1 x10065 -1 x10066 -1 x10067 -1 x10068 -1 x10069 -1 x10070 -1 x10071 -1 x10072 >= 0 ;
+2 x10489 +2 x10490 +2 x10491 +2 x10492 -1 x10069 -1 x10070 -1 x10071 -1 x10072 -1 x10073 -1 x10074 -1 x10075 -1 x10076 >= 0 ;
+2 x10493 +2 x10494 +2 x10495 +2 x10496 -1 x10073 -1 x10074 -1 x10075 -1 x10076 -1 x10077 -1 x10078 -1 x10079 -1 x10080 >= 0 ;
+2 x10497 +2 x10498 +2 x10499 +2 x10500 -1 x10077 -1 x10078 -1 x10079 -1 x10080 -1 x10081 -1 x10082 -1 x10083 -1 x10084 >= 0 ;
+2 x10501 +2 x10502 +2 x10503 +2 x10504 -1 x10081 -1 x10082 -1 x10083 -1 x10084 -1 x10085 -1 x10086 -1 x10087 -1 x10088 >= 0 ;
+2 x10505 +2 x10506 +2 x10507 +2 x10508 -1 x10085 -1 x10086 -1 x10087 -1 x10088 -1 x10089 -1 x10090 -1 x10091 -1 x10092 >= 0 ;
+2 x10509 +2 x10510 +2 x10511 +2 x10512 -1 x10089 -1 x10090 -1 x10091 -1 x10092 -1 x10093 -1 x10094 -1 x10095 -1 x10096 >= 0 ;
+2 x10513 +2 x10514 +2 x10515 +2 x10516 -1 x10093 -1 x10094 -1 x10095 -1 x10096 -1 x10097 -1 x10098 -1 x10099 -1 x10100 >= 0 ;
+2 x10517 +2 x10518 +2 x10519 +2 x10520 -1 x10097 -1 x10098 -1 x10099 -1 x10100 -1 x10101 -1 x10102 -1 x10103 -1 x10104 >= 0 ;
+2 x10521 +2 x10522 +2 x10523 +2 x10524 -1 x10101 -1 x10102 -1 x10103 -1 x10104 -1 x10105 -1 x10106 -1 x10107 -1 x10108 >= 0 ;
+2 x10525 +2 x10526 +2 x10527 +2 x10528 -1 x10105 -1 x10106 -1 x10107 -1 x10108 -1 x10109 -1 x10110 -1 x10111 -1 x10112 >= 0 ;
+2 x10529 +2 x10530 +2 x10531 +2 x10532 -1 x10109 -1 x10110 -1 x10111 -1 x10112 -1 x10113 -1 x10114 -1 x10115 -1 x10116 >= 0 ;
+2 x10533 +2 x10534 +2 x10535 +2 x10536 -1 x10113 -1 x10114 -1 x10115 -1 x10116 -1 x10117 -1 x10118 -1 x10119 -1 x10120 >= 0 ;
+2 x10537 +2 x10538 +2 x10539 +2 x10540 -1 x10117 -1 x10118 -1 x10119 -1 x10120 -1 x10121 -1 x10122 -1 x10123 -1 x10124 >= 0 ;
+2 x10541 +2 x10542 +2 x10543 +2 x10544 -1 x10121 -1 x10122 -1 x10123 -1 x10124 -1 x10125 -1 x10126 -1 x10127 -1 x10128 >= 0 ;
+2 x10545 +2 x10546 +2 x10547 +2 x10548 -1 x10125 -1 x10126 -1 x10127 -1 x10128 -1 x10129 -1 x10130 -1 x10131 -1 x10132 >= 0 ;
+2 x10549 +2 x10550 +2 x10551 +2 x10552 -1 x10129 -1 x10130 -1 x10131 -1 x10132 -1 x10133 -1 x10134 -1 x10135 -1 x10136 >= 0 ;
+2 x10553 +2 x10554 +2 x10555 +2 x10556 -1 x10133 -1 x10134 -1 x10135 -1 x10136 -1 x10137 -1 x10138 -1 x10139 -1 x10140 >= 0 ;
+2 x10557 +2 x10558 +2 x10559 +2 x10560 -1 x10137 -1 x10138 -1 x10139 -1 x10140 -1 x10141 -1 x10142 -1 x10143 -1 x10144 >= 0 ;
+2 x10561 +2 x10562 +2 x10563 +2 x10564 -1 x10141 -1 x10142 -1 x10143 -1 x10144 -1 x10145 -1 x10146 -1 x10147 -1 x10148 >= 0 ;
+2 x10565 +2 x10566 +2 x10567 +2 x10568 -1 x10145 -1 x10146 -1 x10147 -1 x10148 -1 x10149 -1 x10150 -1 x10151 -1 x10152 >= 0 ;
+2 x10569 +2 x10570 +2 x10571 +2 x10572 -1 x10149 -1 x10150 -1 x10151 -1 x10152 -1 x10153 -1 x10154 -1 x10155 -1 x10156 >= 0 ;
+2 x10573 +2 x10574 +2 x10575 +2 x10576 -1 x10153 -1 x10154 -1 x10155 -1 x10156 -1 x10157 -1 x10158 -1 x10159 -1 x10160 >= 0 ;
+2 x10577 +2 x10578 +2 x10579 +2 x10580 -1 x10157 -1 x10158 -1 x10159 -1 x10160 -1 x10161 -1 x10162 -1 x10163 -1 x10164 >= 0 ;
+2 x10581 +2 x10582 +2 x10583 +2 x10584 -1 x10165 -1 x10166 -1 x10167 -1 x10168 -1 x10169 -1 x10170 -1 x10171 -1 x10172 >= 0 ;
+2 x10585 +2 x10586 +2 x10587 +2 x10588 -1 x10169 -1 x10170 -1 x10171 -1 x10172 -1 x10173 -1 x10174 -1 x10175 -1 x10176 >= 0 ;
+2 x10589 +2 x10590 +2 x10591 +2 x10592 -1 x10173 -1 x10174 -1 x10175 -1 x10176 -1 x10177 -1 x10178 -1 x10179 -1 x10180 >= 0 ;
+2 x10593 +2 x10594 +2 x10595 +2 x10596 -1 x10177 -1 x10178 -1 x10179 -1 x10180 -1 x10181 -1 x10182 -1 x10183 -1 x10184 >= 0 ;
+2 x10597 +2 x10598 +2 x10599 +2 x10600 -1 x10181 -1 x10182 -1 x10183 -1 x10184 -1 x10185 -1 x10186 -1 x10187 -1 x10188 >= 0 ;
+2 x10601 +2 x10602 +2 x10603 +2 x10604 -1 x10185 -1 x10186 -1 x10187 -1 x10188 -1 x10189 -1 x10190 -1 x10191 -1 x10192 >= 0 ;
+2 x10605 +2 x10606 +2 x10607 +2 x10608 -1 x10189 -1 x10190 -1 x10191 -1 x10192 -1 x10193 -1 x10194 -1 x10195 -1 x10196 >= 0 ;
+2 x10609 +2 x10610 +2 x10611 +2 x10612 -1 x10193 -1 x10194 -1 x10195 -1 x10196 -1 x10197 -1 x10198 -1 x10199 -1 x10200 >= 0 ;
+2 x10613 +2 x10614 +2 x10615 +2 x10616 -1 x10197 -1 x10198 -1 x10199 -1 x10200 -1 x10201 -1 x10202 -1 x10203 -1 x10204 >= 0 ;
+2 x10617 +2 x10618 +2 x10619 +2 x10620 -1 x10201 -1 x10202 -1 x10203 -1 x10204 -1 x10205 -1 x10206 -1 x10207 -1 x10208 >= 0 ;
+2 x10621 +2 x10622 +2 x10623 +2 x10624 -1 x10205 -1 x10206 -1 x10207 -1 x10208 -1 x10209 -1 x10210 -1 x10211 -1 x10212 >= 0 ;
+2 x10625 +2 x10626 +2 x10627 +2 x10628 -1 x10209 -1 x10210 -1 x10211 -1 x10212 -1 x10213 -1 x10214 -1 x10215 -1 x10216 >= 0 ;
+2 x10629 +2 x10630 +2 x10631 +2 x10632 -1 x10213 -1 x10214 -1 x10215 -1 x10216 -1 x10217 -1 x10218 -1 x10219 -1 x10220 >= 0 ;
+2 x10633 +2 x10634 +2 x10635 +2 x10636 -1 x10217 -1 x10218 -1 x10219 -1 x10220 -1 x10221 -1 x10222 -1 x10223 -1 x10224 >= 0 ;
+2 x10637 +2 x10638 +2 x10639 +2 x10640 -1 x10221 -1 x10222 -1 x10223 -1 x10224 -1 x10225 -1 x10226 -1 x10227 -1 x10228 >= 0 ;
+2 x10641 +2 x10642 +2 x10643 +2 x10644 -1 x10225 -1 x10226 -1 x10227 -1 x10228 -1 x10229 -1 x10230 -1 x10231 -1 x10232 >= 0 ;
+2 x10645 +2 x10646 +2 x10647 +2 x10648 -1 x10229 -1 x10230 -1 x10231 -1 x10232 -1 x10233 -1 x10234 -1 x10235 -1 x10236 >= 0 ;
+2 x10649 +2 x10650 +2 x10651 +2 x10652 -1 x10233 -1 x10234 -1 x10235 -1 x10236 -1 x10237 -1 x10238 -1 x10239 -1 x10240 >= 0 ;
+2 x10653 +2 x10654 +2 x10655 +2 x10656 -1 x10237 -1 x10238 -1 x10239 -1 x10240 -1 x10241 -1 x10242 -1 x10243 -1 x10244 >= 0 ;
+2 x10657 +2 x10658 +2 x10659 +2 x10660 -1 x10241 -1 x10242 -1 x10243 -1 x10244 -1 x10245 -1 x10246 -1 x10247 -1 x10248 >= 0 ;
+2 x10661 +2 x10662 +2 x10663 +2 x10664 -1 x10245 -1 x10246 -1 x10247 -1 x10248 -1 x10249 -1 x10250 -1 x10251 -1 x10252 >= 0 ;
+2 x10665 +2 x10666 +2 x10667 +2 x10668 -1 x10249 -1 x10250 -1 x10251 -1 x10252 -1 x10253 -1 x10254 -1 x10255 -1 x10256 >= 0 ;
+2 x10669 +2 x10670 +2 x10671 +2 x10672 -1 x10253 -1 x10254 -1 x10255 -1 x10256 -1 x10257 -1 x10258 -1 x10259 -1 x10260 >= 0 ;
+2 x10673 +2 x10674 +2 x10675 +2 x10676 -1 x10257 -1 x10258 -1 x10259 -1 x10260 -1 x10261 -1 x10262 -1 x10263 -1 x10264 >= 0 ;
+2 x10677 +2 x10678 +2 x10679 +2 x10680 -1 x10261 -1 x10262 -1 x10263 -1 x10264 -1 x10265 -1 x10266 -1 x10267 -1 x10268 >= 0 ;
+2 x10681 +2 x10682 +2 x10683 +2 x10684 -1 x10265 -1 x10266 -1 x10267 -1 x10268 -1 x10269 -1 x10270 -1 x10271 -1 x10272 >= 0 ;
+2 x10685 +2 x10686 +2 x10687 +2 x10688 -1 x10269 -1 x10270 -1 x10271 -1 x10272 -1 x10273 -1 x10274 -1 x10275 -1 x10276 >= 0 ;
+2 x10689 +2 x10690 +2 x10691 +2 x10692 -1 x10273 -1 x10274 -1 x10275 -1 x10276 -1 x10277 -1 x10278 -1 x10279 -1 x10280 >= 0 ;
+2 x10693 +2 x10694 +2 x10695 +2 x10696 -1 x10277 -1 x10278 -1 x10279 -1 x10280 -1 x10281 -1 x10282 -1 x10283 -1 x10284 >= 0 ;
+2 x10697 +2 x10698 +2 x10699 +2 x10700 -1 x10281 -1 x10282 -1 x10283 -1 x10284 -1 x10285 -1 x10286 -1 x10287 -1 x10288 >= 0 ;
+2 x10701 +2 x10702 +2 x10703 +2 x10704 -1 x10285 -1 x10286 -1 x10287 -1 x10288 -1 x10289 -1 x10290 -1 x10291 -1 x10292 >= 0 ;
+2 x10705 +2 x10706 +2 x10707 +2 x10708 -1 x10289 -1 x10290 -1 x10291 -1 x10292 -1 x10293 -1 x10294 -1 x10295 -1 x10296 >= 0 ;
+2 x10709 +2 x10710 +2 x10711 +2 x10712 -1 x10293 -1 x10294 -1 x10295 -1 x10296 -1 x10297 -1 x10298 -1 x10299 -1 x10300 >= 0 ;
+2 x10713 +2 x10714 +2 x10715 +2 x10716 -1 x10297 -1 x10298 -1 x10299 -1 x10300 -1 x10301 -1 x10302 -1 x10303 -1 x10304 >= 0 ;
+2 x10717 +2 x10718 +2 x10719 +2 x10720 -1 x10301 -1 x10302 -1 x10303 -1 x10304 -1 x10305 -1 x10306 -1 x10307 -1 x10308 >= 0 ;
+2 x10721 +2 x10722 +2 x10723 +2 x10724 -1 x10305 -1 x10306 -1 x10307 -1 x10308 -1 x10309 -1 x10310 -1 x10311 -1 x10312 >= 0 ;
+2 x10725 +2 x10726 +2 x10727 +2 x10728 -1 x10309 -1 x10310 -1 x10311 -1 x10312 -1 x10313 -1 x10314 -1 x10315 -1 x10316 >= 0 ;
+2 x10729 +2 x10730 +2 x10731 +2 x10732 -1 x10313 -1 x10314 -1 x10315 -1 x10316 -1 x10317 -1 x10318 -1 x10319 -1 x10320 >= 0 ;
+2 x10733 +2 x10734 +2 x10735 +2 x10736 -1 x10317 -1 x10318 -1 x10319 -1 x10320 -1 x10321 -1 x10322 -1 x10323 -1 x10324 >= 0 ;
+2 x10737 +2 x10738 +2 x10739 +2 x10740 -1 x10321 -1 x10322 -1 x10323 -1 x10324 -1 x10325 -1 x10326 -1 x10327 -1 x10328 >= 0 ;
+2 x10741 +2 x10742 +2 x10743 +2 x10744 -1 x10325 -1 x10326 -1 x10327 -1 x10328 -1 x10329 -1 x10330 -1 x10331 -1 x10332 >= 0 ;
+2 x10745 +2 x10746 +2 x10747 +2 x10748 -1 x10329 -1 x10330 -1 x10331 -1 x10332 -1 x10333 -1 x10334 -1 x10335 -1 x10336 >= 0 ;
+2 x10749 +2 x10750 +2 x10751 +2 x10752 -1 x10333 -1 x10334 -1 x10335 -1 x10336 -1 x10337 -1 x10338 -1 x10339 -1 x10340 >= 0 ;
+2 x10753 +2 x10754 +2 x10755 +2 x10756 -1 x10337 -1 x10338 -1 x10339 -1 x10340 -1 x10341 -1 x10342 -1 x10343 -1 x10344 >= 0 ;
+2 x10757 +2 x10758 +2 x10759 +2 x10760 -1 x10341 -1 x10342 -1 x10343 -1 x10344 -1 x10345 -1 x10346 -1 x10347 -1 x10348 >= 0 ;
+2 x10761 +2 x10762 +2 x10763 +2 x10764 -1 x10345 -1 x10346 -1 x10347 -1 x10348 -1 x10349 -1 x10350 -1 x10351 -1 x10352 >= 0 ;
+2 x10765 +2 x10766 +2 x10767 +2 x10768 -1 x10349 -1 x10350 -1 x10351 -1 x10352 -1 x10353 -1 x10354 -1 x10355 -1 x10356 >= 0 ;
+2 x10769 +2 x10770 +2 x10771 +2 x10772 -1 x10353 -1 x10354 -1 x10355 -1 x10356 -1 x10357 -1 x10358 -1 x10359 -1 x10360 >= 0 ;
+2 x10773 +2 x10774 +2 x10775 +2 x10776 -1 x10357 -1 x10358 -1 x10359 -1 x10360 -1 x10361 -1 x10362 -1 x10363 -1 x10364 >= 0 ;
+2 x10777 +2 x10778 +2 x10779 +2 x10780 -1 x10361 -1 x10362 -1 x10363 -1 x10364 -1 x10365 -1 x10366 -1 x10367 -1 x10368 >= 0 ;
+2 x10781 +2 x10782 +2 x10783 +2 x10784 -1 x10365 -1 x10366 -1 x10367 -1 x10368 -1 x10369 -1 x10370 -1 x10371 -1 x10372 >= 0 ;
+2 x10785 +2 x10786 +2 x10787 +2 x10788 -1 x10369 -1 x10370 -1 x10371 -1 x10372 -1 x10373 -1 x10374 -1 x10375 -1 x10376 >= 0 ;
+2 x10789 +2 x10790 +2 x10791 +2 x10792 -1 x10373 -1 x10374 -1 x10375 -1 x10376 -1 x10377 -1 x10378 -1 x10379 -1 x10380 >= 0 ;
+2 x10793 +2 x10794 +2 x10795 +2 x10796 -1 x10377 -1 x10378 -1 x10379 -1 x10380 -1 x10381 -1 x10382 -1 x10383 -1 x10384 >= 0 ;
+2 x10797 +2 x10798 +2 x10799 +2 x10800 -1 x10381 -1 x10382 -1 x10383 -1 x10384 -1 x10385 -1 x10386 -1 x10387 -1 x10388 >= 0 ;
+2 x10801 +2 x10802 +2 x10803 +2 x10804 -1 x10385 -1 x10386 -1 x10387 -1 x10388 -1 x10389 -1 x10390 -1 x10391 -1 x10392 >= 0 ;
+2 x10805 +2 x10806 +2 x10807 +2 x10808 -1 x10389 -1 x10390 -1 x10391 -1 x10392 -1 x10393 -1 x10394 -1 x10395 -1 x10396 >= 0 ;
+2 x10809 +2 x10810 +2 x10811 +2 x10812 -1 x10393 -1 x10394 -1 x10395 -1 x10396 -1 x10397 -1 x10398 -1 x10399 -1 x10400 >= 0 ;
+2 x10813 +2 x10814 +2 x10815 +2 x10816 -1 x10397 -1 x10398 -1 x10399 -1 x10400 -1 x10401 -1 x10402 -1 x10403 -1 x10404 >= 0 ;
+2 x10817 +2 x10818 +2 x10819 +2 x10820 -1 x10401 -1 x10402 -1 x10403 -1 x10404 -1 x10405 -1 x10406 -1 x10407 -1 x10408 >= 0 ;
+2 x10821 +2 x10822 +2 x10823 +2 x10824 -1 x10405 -1 x10406 -1 x10407 -1 x10408 -1 x10409 -1 x10410 -1 x10411 -1 x10412 >= 0 ;
+2 x10825 +2 x10826 +2 x10827 +2 x10828 -1 x10409 -1 x10410 -1 x10411 -1 x10412 -1 x10413 -1 x10414 -1 x10415 -1 x10416 >= 0 ;
+2 x10829 +2 x10830 +2 x10831 +2 x10832 -1 x10413 -1 x10414 -1 x10415 -1 x10416 -1 x10417 -1 x10418 -1 x10419 -1 x10420 >= 0 ;
+2 x10833 +2 x10834 +2 x10835 +2 x10836 -1 x10417 -1 x10418 -1 x10419 -1 x10420 -1 x10421 -1 x10422 -1 x10423 -1 x10424 >= 0 ;
+2 x10837 +2 x10838 +2 x10839 +2 x10840 -1 x10421 -1 x10422 -1 x10423 -1 x10424 -1 x10425 -1 x10426 -1 x10427 -1 x10428 >= 0 ;
+2 x10841 +2 x10842 +2 x10843 +2 x10844 -1 x10425 -1 x10426 -1 x10427 -1 x10428 -1 x10429 -1 x10430 -1 x10431 -1 x10432 >= 0 ;
+2 x10845 +2 x10846 +2 x10847 +2 x10848 -1 x10429 -1 x10430 -1 x10431 -1 x10432 -1 x10433 -1 x10434 -1 x10435 -1 x10436 >= 0 ;
+2 x10849 +2 x10850 +2 x10851 +2 x10852 -1 x10433 -1 x10434 -1 x10435 -1 x10436 -1 x10437 -1 x10438 -1 x10439 -1 x10440 >= 0 ;
+2 x10853 +2 x10854 +2 x10855 +2 x10856 -1 x10437 -1 x10438 -1 x10439 -1 x10440 -1 x10441 -1 x10442 -1 x10443 -1 x10444 >= 0 ;
+2 x10857 +2 x10858 +2 x10859 +2 x10860 -1 x10441 -1 x10442 -1 x10443 -1 x10444 -1 x10445 -1 x10446 -1 x10447 -1 x10448 >= 0 ;
+2 x10861 +2 x10862 +2 x10863 +2 x10864 -1 x10445 -1 x10446 -1 x10447 -1 x10448 -1 x10449 -1 x10450 -1 x10451 -1 x10452 >= 0 ;
+2 x10865 +2 x10866 +2 x10867 +2 x10868 -1 x10449 -1 x10450 -1 x10451 -1 x10452 -1 x10453 -1 x10454 -1 x10455 -1 x10456 >= 0 ;
+2 x10869 +2 x10870 +2 x10871 +2 x10872 -1 x10453 -1 x10454 -1 x10455 -1 x10456 -1 x10457 -1 x10458 -1 x10459 -1 x10460 >= 0 ;
+2 x10873 +2 x10874 +2 x10875 +2 x10876 -1 x10457 -1 x10458 -1 x10459 -1 x10460 -1 x10461 -1 x10462 -1 x10463 -1 x10464 >= 0 ;
+2 x10877 +2 x10878 +2 x10879 +2 x10880 -1 x10461 -1 x10462 -1 x10463 -1 x10464 -1 x10465 -1 x10466 -1 x10467 -1 x10468 >= 0 ;
+2 x10881 +2 x10882 +2 x10883 +2 x10884 -1 x10465 -1 x10466 -1 x10467 -1 x10468 -1 x10469 -1 x10470 -1 x10471 -1 x10472 >= 0 ;
+2 x10885 +2 x10886 +2 x10887 +2 x10888 -1 x10469 -1 x10470 -1 x10471 -1 x10472 -1 x10473 -1 x10474 -1 x10475 -1 x10476 >= 0 ;
+2 x10889 +2 x10890 +2 x10891 +2 x10892 -1 x10473 -1 x10474 -1 x10475 -1 x10476 -1 x10477 -1 x10478 -1 x10479 -1 x10480 >= 0 ;
+2 x10893 +2 x10894 +2 x10895 +2 x10896 -1 x10477 -1 x10478 -1 x10479 -1 x10480 -1 x10481 -1 x10482 -1 x10483 -1 x10484 >= 0 ;
+2 x10897 +2 x10898 +2 x10899 +2 x10900 -1 x10481 -1 x10482 -1 x10483 -1 x10484 -1 x10485 -1 x10486 -1 x10487 -1 x10488 >= 0 ;
+2 x10901 +2 x10902 +2 x10903 +2 x10904 -1 x10485 -1 x10486 -1 x10487 -1 x10488 -1 x10489 -1 x10490 -1 x10491 -1 x10492 >= 0 ;
+2 x10905 +2 x10906 +2 x10907 +2 x10908 -1 x10489 -1 x10490 -1 x10491 -1 x10492 -1 x10493 -1 x10494 -1 x10495 -1 x10496 >= 0 ;
+2 x10909 +2 x10910 +2 x10911 +2 x10912 -1 x10493 -1 x10494 -1 x10495 -1 x10496 -1 x10497 -1 x10498 -1 x10499 -1 x10500 >= 0 ;
+2 x10913 +2 x10914 +2 x10915 +2 x10916 -1 x10497 -1 x10498 -1 x10499 -1 x10500 -1 x10501 -1 x10502 -1 x10503 -1 x10504 >= 0 ;
+2 x10917 +2 x10918 +2 x10919 +2 x10920 -1 x10501 -1 x10502 -1 x10503 -1 x10504 -1 x10505 -1 x10506 -1 x10507 -1 x10508 >= 0 ;
+2 x10921 +2 x10922 +2 x10923 +2 x10924 -1 x10505 -1 x10506 -1 x10507 -1 x10508 -1 x10509 -1 x10510 -1 x10511 -1 x10512 >= 0 ;
+2 x10925 +2 x10926 +2 x10927 +2 x10928 -1 x10509 -1 x10510 -1 x10511 -1 x10512 -1 x10513 -1 x10514 -1 x10515 -1 x10516 >= 0 ;
+2 x10929 +2 x10930 +2 x10931 +2 x10932 -1 x10513 -1 x10514 -1 x10515 -1 x10516 -1 x10517 -1 x10518 -1 x10519 -1 x10520 >= 0 ;
+2 x10933 +2 x10934 +2 x10935 +2 x10936 -1 x10517 -1 x10518 -1 x10519 -1 x10520 -1 x10521 -1 x10522 -1 x10523 -1 x10524 >= 0 ;
+2 x10937 +2 x10938 +2 x10939 +2 x10940 -1 x10521 -1 x10522 -1 x10523 -1 x10524 -1 x10525 -1 x10526 -1 x10527 -1 x10528 >= 0 ;
+2 x10941 +2 x10942 +2 x10943 +2 x10944 -1 x10525 -1 x10526 -1 x10527 -1 x10528 -1 x10529 -1 x10530 -1 x10531 -1 x10532 >= 0 ;
+2 x10945 +2 x10946 +2 x10947 +2 x10948 -1 x10529 -1 x10530 -1 x10531 -1 x10532 -1 x10533 -1 x10534 -1 x10535 -1 x10536 >= 0 ;
+2 x10949 +2 x10950 +2 x10951 +2 x10952 -1 x10533 -1 x10534 -1 x10535 -1 x10536 -1 x10537 -1 x10538 -1 x10539 -1 x10540 >= 0 ;
+2 x10953 +2 x10954 +2 x10955 +2 x10956 -1 x10537 -1 x10538 -1 x10539 -1 x10540 -1 x10541 -1 x10542 -1 x10543 -1 x10544 >= 0 ;
+2 x10957 +2 x10958 +2 x10959 +2 x10960 -1 x10541 -1 x10542 -1 x10543 -1 x10544 -1 x10545 -1 x10546 -1 x10547 -1 x10548 >= 0 ;
+2 x10961 +2 x10962 +2 x10963 +2 x10964 -1 x10545 -1 x10546 -1 x10547 -1 x10548 -1 x10549 -1 x10550 -1 x10551 -1 x10552 >= 0 ;
+2 x10965 +2 x10966 +2 x10967 +2 x10968 -1 x10549 -1 x10550 -1 x10551 -1 x10552 -1 x10553 -1 x10554 -1 x10555 -1 x10556 >= 0 ;
+2 x10969 +2 x10970 +2 x10971 +2 x10972 -1 x10553 -1 x10554 -1 x10555 -1 x10556 -1 x10557 -1 x10558 -1 x10559 -1 x10560 >= 0 ;
+2 x10973 +2 x10974 +2 x10975 +2 x10976 -1 x10557 -1 x10558 -1 x10559 -1 x10560 -1 x10561 -1 x10562 -1 x10563 -1 x10564 >= 0 ;
+2 x10977 +2 x10978 +2 x10979 +2 x10980 -1 x10561 -1 x10562 -1 x10563 -1 x10564 -1 x10565 -1 x10566 -1 x10567 -1 x10568 >= 0 ;
+2 x10981 +2 x10982 +2 x10983 +2 x10984 -1 x10565 -1 x10566 -1 x10567 -1 x10568 -1 x10569 -1 x10570 -1 x10571 -1 x10572 >= 0 ;
+2 x10985 +2 x10986 +2 x10987 +2 x10988 -1 x10569 -1 x10570 -1 x10571 -1 x10572 -1 x10573 -1 x10574 -1 x10575 -1 x10576 >= 0 ;
+2 x10989 +2 x10990 +2 x10991 +2 x10992 -1 x10573 -1 x10574 -1 x10575 -1 x10576 -1 x10577 -1 x10578 -1 x10579 -1 x10580 >= 0 ;
+2 x10993 +2 x10994 +2 x10995 +2 x10996 -1 x10581 -1 x10582 -1 x10583 -1 x10584 -1 x10585 -1 x10586 -1 x10587 -1 x10588 >= 0 ;
+2 x10997 +2 x10998 +2 x10999 +2 x11000 -1 x10585 -1 x10586 -1 x10587 -1 x10588 -1 x10589 -1 x10590 -1 x10591 -1 x10592 >= 0 ;
+2 x11001 +2 x11002 +2 x11003 +2 x11004 -1 x10589 -1 x10590 -1 x10591 -1 x10592 -1 x10593 -1 x10594 -1 x10595 -1 x10596 >= 0 ;
+2 x11005 +2 x11006 +2 x11007 +2 x11008 -1 x10593 -1 x10594 -1 x10595 -1 x10596 -1 x10597 -1 x10598 -1 x10599 -1 x10600 >= 0 ;
+2 x11009 +2 x11010 +2 x11011 +2 x11012 -1 x10597 -1 x10598 -1 x10599 -1 x10600 -1 x10601 -1 x10602 -1 x10603 -1 x10604 >= 0 ;
+2 x11013 +2 x11014 +2 x11015 +2 x11016 -1 x10601 -1 x10602 -1 x10603 -1 x10604 -1 x10605 -1 x10606 -1 x10607 -1 x10608 >= 0 ;
+2 x11017 +2 x11018 +2 x11019 +2 x11020 -1 x10605 -1 x10606 -1 x10607 -1 x10608 -1 x10609 -1 x10610 -1 x10611 -1 x10612 >= 0 ;
+2 x11021 +2 x11022 +2 x11023 +2 x11024 -1 x10609 -1 x10610 -1 x10611 -1 x10612 -1 x10613 -1 x10614 -1 x10615 -1 x10616 >= 0 ;
+2 x11025 +2 x11026 +2 x11027 +2 x11028 -1 x10613 -1 x10614 -1 x10615 -1 x10616 -1 x10617 -1 x10618 -1 x10619 -1 x10620 >= 0 ;
+2 x11029 +2 x11030 +2 x11031 +2 x11032 -1 x10617 -1 x10618 -1 x10619 -1 x10620 -1 x10621 -1 x10622 -1 x10623 -1 x10624 >= 0 ;
+2 x11033 +2 x11034 +2 x11035 +2 x11036 -1 x10621 -1 x10622 -1 x10623 -1 x10624 -1 x10625 -1 x10626 -1 x10627 -1 x10628 >= 0 ;
+2 x11037 +2 x11038 +2 x11039 +2 x11040 -1 x10625 -1 x10626 -1 x10627 -1 x10628 -1 x10629 -1 x10630 -1 x10631 -1 x10632 >= 0 ;
+2 x11041 +2 x11042 +2 x11043 +2 x11044 -1 x10629 -1 x10630 -1 x10631 -1 x10632 -1 x10633 -1 x10634 -1 x10635 -1 x10636 >= 0 ;
+2 x11045 +2 x11046 +2 x11047 +2 x11048 -1 x10633 -1 x10634 -1 x10635 -1 x10636 -1 x10637 -1 x10638 -1 x10639 -1 x10640 >= 0 ;
+2 x11049 +2 x11050 +2 x11051 +2 x11052 -1 x10637 -1 x10638 -1 x10639 -1 x10640 -1 x10641 -1 x10642 -1 x10643 -1 x10644 >= 0 ;
+2 x11053 +2 x11054 +2 x11055 +2 x11056 -1 x10641 -1 x10642 -1 x10643 -1 x10644 -1 x10645 -1 x10646 -1 x10647 -1 x10648 >= 0 ;
+2 x11057 +2 x11058 +2 x11059 +2 x11060 -1 x10645 -1 x10646 -1 x10647 -1 x10648 -1 x10649 -1 x10650 -1 x10651 -1 x10652 >= 0 ;
+2 x11061 +2 x11062 +2 x11063 +2 x11064 -1 x10649 -1 x10650 -1 x10651 -1 x10652 -1 x10653 -1 x10654 -1 x10655 -1 x10656 >= 0 ;
+2 x11065 +2 x11066 +2 x11067 +2 x11068 -1 x10653 -1 x10654 -1 x10655 -1 x10656 -1 x10657 -1 x10658 -1 x10659 -1 x10660 >= 0 ;
+2 x11069 +2 x11070 +2 x11071 +2 x11072 -1 x10657 -1 x10658 -1 x10659 -1 x10660 -1 x10661 -1 x10662 -1 x10663 -1 x10664 >= 0 ;
+2 x11073 +2 x11074 +2 x11075 +2 x11076 -1 x10661 -1 x10662 -1 x10663 -1 x10664 -1 x10665 -1 x10666 -1 x10667 -1 x10668 >= 0 ;
+2 x11077 +2 x11078 +2 x11079 +2 x11080 -1 x10665 -1 x10666 -1 x10667 -1 x10668 -1 x10669 -1 x10670 -1 x10671 -1 x10672 >= 0 ;
+2 x11081 +2 x11082 +2 x11083 +2 x11084 -1 x10669 -1 x10670 -1 x10671 -1 x10672 -1 x10673 -1 x10674 -1 x10675 -1 x10676 >= 0 ;
+2 x11085 +2 x11086 +2 x11087 +2 x11088 -1 x10673 -1 x10674 -1 x10675 -1 x10676 -1 x10677 -1 x10678 -1 x10679 -1 x10680 >= 0 ;
+2 x11089 +2 x11090 +2 x11091 +2 x11092 -1 x10677 -1 x10678 -1 x10679 -1 x10680 -1 x10681 -1 x10682 -1 x10683 -1 x10684 >= 0 ;
+2 x11093 +2 x11094 +2 x11095 +2 x11096 -1 x10681 -1 x10682 -1 x10683 -1 x10684 -1 x10685 -1 x10686 -1 x10687 -1 x10688 >= 0 ;
+2 x11097 +2 x11098 +2 x11099 +2 x11100 -1 x10685 -1 x10686 -1 x10687 -1 x10688 -1 x10689 -1 x10690 -1 x10691 -1 x10692 >= 0 ;
+2 x11101 +2 x11102 +2 x11103 +2 x11104 -1 x10689 -1 x10690 -1 x10691 -1 x10692 -1 x10693 -1 x10694 -1 x10695 -1 x10696 >= 0 ;
+2 x11105 +2 x11106 +2 x11107 +2 x11108 -1 x10693 -1 x10694 -1 x10695 -1 x10696 -1 x10697 -1 x10698 -1 x10699 -1 x10700 >= 0 ;
+2 x11109 +2 x11110 +2 x11111 +2 x11112 -1 x10697 -1 x10698 -1 x10699 -1 x10700 -1 x10701 -1 x10702 -1 x10703 -1 x10704 >= 0 ;
+2 x11113 +2 x11114 +2 x11115 +2 x11116 -1 x10701 -1 x10702 -1 x10703 -1 x10704 -1 x10705 -1 x10706 -1 x10707 -1 x10708 >= 0 ;
+2 x11117 +2 x11118 +2 x11119 +2 x11120 -1 x10705 -1 x10706 -1 x10707 -1 x10708 -1 x10709 -1 x10710 -1 x10711 -1 x10712 >= 0 ;
+2 x11121 +2 x11122 +2 x11123 +2 x11124 -1 x10709 -1 x10710 -1 x10711 -1 x10712 -1 x10713 -1 x10714 -1 x10715 -1 x10716 >= 0 ;
+2 x11125 +2 x11126 +2 x11127 +2 x11128 -1 x10713 -1 x10714 -1 x10715 -1 x10716 -1 x10717 -1 x10718 -1 x10719 -1 x10720 >= 0 ;
+2 x11129 +2 x11130 +2 x11131 +2 x11132 -1 x10717 -1 x10718 -1 x10719 -1 x10720 -1 x10721 -1 x10722 -1 x10723 -1 x10724 >= 0 ;
+2 x11133 +2 x11134 +2 x11135 +2 x11136 -1 x10721 -1 x10722 -1 x10723 -1 x10724 -1 x10725 -1 x10726 -1 x10727 -1 x10728 >= 0 ;
+2 x11137 +2 x11138 +2 x11139 +2 x11140 -1 x10725 -1 x10726 -1 x10727 -1 x10728 -1 x10729 -1 x10730 -1 x10731 -1 x10732 >= 0 ;
+2 x11141 +2 x11142 +2 x11143 +2 x11144 -1 x10729 -1 x10730 -1 x10731 -1 x10732 -1 x10733 -1 x10734 -1 x10735 -1 x10736 >= 0 ;
+2 x11145 +2 x11146 +2 x11147 +2 x11148 -1 x10733 -1 x10734 -1 x10735 -1 x10736 -1 x10737 -1 x10738 -1 x10739 -1 x10740 >= 0 ;
+2 x11149 +2 x11150 +2 x11151 +2 x11152 -1 x10737 -1 x10738 -1 x10739 -1 x10740 -1 x10741 -1 x10742 -1 x10743 -1 x10744 >= 0 ;
+2 x11153 +2 x11154 +2 x11155 +2 x11156 -1 x10741 -1 x10742 -1 x10743 -1 x10744 -1 x10745 -1 x10746 -1 x10747 -1 x10748 >= 0 ;
+2 x11157 +2 x11158 +2 x11159 +2 x11160 -1 x10745 -1 x10746 -1 x10747 -1 x10748 -1 x10749 -1 x10750 -1 x10751 -1 x10752 >= 0 ;
+2 x11161 +2 x11162 +2 x11163 +2 x11164 -1 x10749 -1 x10750 -1 x10751 -1 x10752 -1 x10753 -1 x10754 -1 x10755 -1 x10756 >= 0 ;
+2 x11165 +2 x11166 +2 x11167 +2 x11168 -1 x10753 -1 x10754 -1 x10755 -1 x10756 -1 x10757 -1 x10758 -1 x10759 -1 x10760 >= 0 ;
+2 x11169 +2 x11170 +2 x11171 +2 x11172 -1 x10757 -1 x10758 -1 x10759 -1 x10760 -1 x10761 -1 x10762 -1 x10763 -1 x10764 >= 0 ;
+2 x11173 +2 x11174 +2 x11175 +2 x11176 -1 x10761 -1 x10762 -1 x10763 -1 x10764 -1 x10765 -1 x10766 -1 x10767 -1 x10768 >= 0 ;
+2 x11177 +2 x11178 +2 x11179 +2 x11180 -1 x10765 -1 x10766 -1 x10767 -1 x10768 -1 x10769 -1 x10770 -1 x10771 -1 x10772 >= 0 ;
+2 x11181 +2 x11182 +2 x11183 +2 x11184 -1 x10769 -1 x10770 -1 x10771 -1 x10772 -1 x10773 -1 x10774 -1 x10775 -1 x10776 >= 0 ;
+2 x11185 +2 x11186 +2 x11187 +2 x11188 -1 x10773 -1 x10774 -1 x10775 -1 x10776 -1 x10777 -1 x10778 -1 x10779 -1 x10780 >= 0 ;
+2 x11189 +2 x11190 +2 x11191 +2 x11192 -1 x10777 -1 x10778 -1 x10779 -1 x10780 -1 x10781 -1 x10782 -1 x10783 -1 x10784 >= 0 ;
+2 x11193 +2 x11194 +2 x11195 +2 x11196 -1 x10781 -1 x10782 -1 x10783 -1 x10784 -1 x10785 -1 x10786 -1 x10787 -1 x10788 >= 0 ;
+2 x11197 +2 x11198 +2 x11199 +2 x11200 -1 x10785 -1 x10786 -1 x10787 -1 x10788 -1 x10789 -1 x10790 -1 x10791 -1 x10792 >= 0 ;
+2 x11201 +2 x11202 +2 x11203 +2 x11204 -1 x10789 -1 x10790 -1 x10791 -1 x10792 -1 x10793 -1 x10794 -1 x10795 -1 x10796 >= 0 ;
+2 x11205 +2 x11206 +2 x11207 +2 x11208 -1 x10793 -1 x10794 -1 x10795 -1 x10796 -1 x10797 -1 x10798 -1 x10799 -1 x10800 >= 0 ;
+2 x11209 +2 x11210 +2 x11211 +2 x11212 -1 x10797 -1 x10798 -1 x10799 -1 x10800 -1 x10801 -1 x10802 -1 x10803 -1 x10804 >= 0 ;
+2 x11213 +2 x11214 +2 x11215 +2 x11216 -1 x10801 -1 x10802 -1 x10803 -1 x10804 -1 x10805 -1 x10806 -1 x10807 -1 x10808 >= 0 ;
+2 x11217 +2 x11218 +2 x11219 +2 x11220 -1 x10805 -1 x10806 -1 x10807 -1 x10808 -1 x10809 -1 x10810 -1 x10811 -1 x10812 >= 0 ;
+2 x11221 +2 x11222 +2 x11223 +2 x11224 -1 x10809 -1 x10810 -1 x10811 -1 x10812 -1 x10813 -1 x10814 -1 x10815 -1 x10816 >= 0 ;
+2 x11225 +2 x11226 +2 x11227 +2 x11228 -1 x10813 -1 x10814 -1 x10815 -1 x10816 -1 x10817 -1 x10818 -1 x10819 -1 x10820 >= 0 ;
+2 x11229 +2 x11230 +2 x11231 +2 x11232 -1 x10817 -1 x10818 -1 x10819 -1 x10820 -1 x10821 -1 x10822 -1 x10823 -1 x10824 >= 0 ;
+2 x11233 +2 x11234 +2 x11235 +2 x11236 -1 x10821 -1 x10822 -1 x10823 -1 x10824 -1 x10825 -1 x10826 -1 x10827 -1 x10828 >= 0 ;
+2 x11237 +2 x11238 +2 x11239 +2 x11240 -1 x10825 -1 x10826 -1 x10827 -1 x10828 -1 x10829 -1 x10830 -1 x10831 -1 x10832 >= 0 ;
+2 x11241 +2 x11242 +2 x11243 +2 x11244 -1 x10829 -1 x10830 -1 x10831 -1 x10832 -1 x10833 -1 x10834 -1 x10835 -1 x10836 >= 0 ;
+2 x11245 +2 x11246 +2 x11247 +2 x11248 -1 x10833 -1 x10834 -1 x10835 -1 x10836 -1 x10837 -1 x10838 -1 x10839 -1 x10840 >= 0 ;
+2 x11249 +2 x11250 +2 x11251 +2 x11252 -1 x10837 -1 x10838 -1 x10839 -1 x10840 -1 x10841 -1 x10842 -1 x10843 -1 x10844 >= 0 ;
+2 x11253 +2 x11254 +2 x11255 +2 x11256 -1 x10841 -1 x10842 -1 x10843 -1 x10844 -1 x10845 -1 x10846 -1 x10847 -1 x10848 >= 0 ;
+2 x11257 +2 x11258 +2 x11259 +2 x11260 -1 x10845 -1 x10846 -1 x10847 -1 x10848 -1 x10849 -1 x10850 -1 x10851 -1 x10852 >= 0 ;
+2 x11261 +2 x11262 +2 x11263 +2 x11264 -1 x10849 -1 x10850 -1 x10851 -1 x10852 -1 x10853 -1 x10854 -1 x10855 -1 x10856 >= 0 ;
+2 x11265 +2 x11266 +2 x11267 +2 x11268 -1 x10853 -1 x10854 -1 x10855 -1 x10856 -1 x10857 -1 x10858 -1 x10859 -1 x10860 >= 0 ;
+2 x11269 +2 x11270 +2 x11271 +2 x11272 -1 x10857 -1 x10858 -1 x10859 -1 x10860 -1 x10861 -1 x10862 -1 x10863 -1 x10864 >= 0 ;
+2 x11273 +2 x11274 +2 x11275 +2 x11276 -1 x10861 -1 x10862 -1 x10863 -1 x10864 -1 x10865 -1 x10866 -1 x10867 -1 x10868 >= 0 ;
+2 x11277 +2 x11278 +2 x11279 +2 x11280 -1 x10865 -1 x10866 -1 x10867 -1 x10868 -1 x10869 -1 x10870 -1 x10871 -1 x10872 >= 0 ;
+2 x11281 +2 x11282 +2 x11283 +2 x11284 -1 x10869 -1 x10870 -1 x10871 -1 x10872 -1 x10873 -1 x10874 -1 x10875 -1 x10876 >= 0 ;
+2 x11285 +2 x11286 +2 x11287 +2 x11288 -1 x10873 -1 x10874 -1 x10875 -1 x10876 -1 x10877 -1 x10878 -1 x10879 -1 x10880 >= 0 ;
+2 x11289 +2 x11290 +2 x11291 +2 x11292 -1 x10877 -1 x10878 -1 x10879 -1 x10880 -1 x10881 -1 x10882 -1 x10883 -1 x10884 >= 0 ;
+2 x11293 +2 x11294 +2 x11295 +2 x11296 -1 x10881 -1 x10882 -1 x10883 -1 x10884 -1 x10885 -1 x10886 -1 x10887 -1 x10888 >= 0 ;
+2 x11297 +2 x11298 +2 x11299 +2 x11300 -1 x10885 -1 x10886 -1 x10887 -1 x10888 -1 x10889 -1 x10890 -1 x10891 -1 x10892 >= 0 ;
+2 x11301 +2 x11302 +2 x11303 +2 x11304 -1 x10889 -1 x10890 -1 x10891 -1 x10892 -1 x10893 -1 x10894 -1 x10895 -1 x10896 >= 0 ;
+2 x11305 +2 x11306 +2 x11307 +2 x11308 -1 x10893 -1 x10894 -1 x10895 -1 x10896 -1 x10897 -1 x10898 -1 x10899 -1 x10900 >= 0 ;
+2 x11309 +2 x11310 +2 x11311 +2 x11312 -1 x10897 -1 x10898 -1 x10899 -1 x10900 -1 x10901 -1 x10902 -1 x10903 -1 x10904 >= 0 ;
+2 x11313 +2 x11314 +2 x11315 +2 x11316 -1 x10901 -1 x10902 -1 x10903 -1 x10904 -1 x10905 -1 x10906 -1 x10907 -1 x10908 >= 0 ;
+2 x11317 +2 x11318 +2 x11319 +2 x11320 -1 x10905 -1 x10906 -1 x10907 -1 x10908 -1 x10909 -1 x10910 -1 x10911 -1 x10912 >= 0 ;
+2 x11321 +2 x11322 +2 x11323 +2 x11324 -1 x10909 -1 x10910 -1 x10911 -1 x10912 -1 x10913 -1 x10914 -1 x10915 -1 x10916 >= 0 ;
+2 x11325 +2 x11326 +2 x11327 +2 x11328 -1 x10913 -1 x10914 -1 x10915 -1 x10916 -1 x10917 -1 x10918 -1 x10919 -1 x10920 >= 0 ;
+2 x11329 +2 x11330 +2 x11331 +2 x11332 -1 x10917 -1 x10918 -1 x10919 -1 x10920 -1 x10921 -1 x10922 -1 x10923 -1 x10924 >= 0 ;
+2 x11333 +2 x11334 +2 x11335 +2 x11336 -1 x10921 -1 x10922 -1 x10923 -1 x10924 -1 x10925 -1 x10926 -1 x10927 -1 x10928 >= 0 ;
+2 x11337 +2 x11338 +2 x11339 +2 x11340 -1 x10925 -1 x10926 -1 x10927 -1 x10928 -1 x10929 -1 x10930 -1 x10931 -1 x10932 >= 0 ;
+2 x11341 +2 x11342 +2 x11343 +2 x11344 -1 x10929 -1 x10930 -1 x10931 -1 x10932 -1 x10933 -1 x10934 -1 x10935 -1 x10936 >= 0 ;
+2 x11345 +2 x11346 +2 x11347 +2 x11348 -1 x10933 -1 x10934 -1 x10935 -1 x10936 -1 x10937 -1 x10938 -1 x10939 -1 x10940 >= 0 ;
+2 x11349 +2 x11350 +2 x11351 +2 x11352 -1 x10937 -1 x10938 -1 x10939 -1 x10940 -1 x10941 -1 x10942 -1 x10943 -1 x10944 >= 0 ;
+2 x11353 +2 x11354 +2 x11355 +2 x11356 -1 x10941 -1 x10942 -1 x10943 -1 x10944 -1 x10945 -1 x10946 -1 x10947 -1 x10948 >= 0 ;
+2 x11357 +2 x11358 +2 x11359 +2 x11360 -1 x10945 -1 x10946 -1 x10947 -1 x10948 -1 x10949 -1 x10950 -1 x10951 -1 x10952 >= 0 ;
+2 x11361 +2 x11362 +2 x11363 +2 x11364 -1 x10949 -1 x10950 -1 x10951 -1 x10952 -1 x10953 -1 x10954 -1 x10955 -1 x10956 >= 0 ;
+2 x11365 +2 x11366 +2 x11367 +2 x11368 -1 x10953 -1 x10954 -1 x10955 -1 x10956 -1 x10957 -1 x10958 -1 x10959 -1 x10960 >= 0 ;
+2 x11369 +2 x11370 +2 x11371 +2 x11372 -1 x10957 -1 x10958 -1 x10959 -1 x10960 -1 x10961 -1 x10962 -1 x10963 -1 x10964 >= 0 ;
+2 x11373 +2 x11374 +2 x11375 +2 x11376 -1 x10961 -1 x10962 -1 x10963 -1 x10964 -1 x10965 -1 x10966 -1 x10967 -1 x10968 >= 0 ;
+2 x11377 +2 x11378 +2 x11379 +2 x11380 -1 x10965 -1 x10966 -1 x10967 -1 x10968 -1 x10969 -1 x10970 -1 x10971 -1 x10972 >= 0 ;
+2 x11381 +2 x11382 +2 x11383 +2 x11384 -1 x10969 -1 x10970 -1 x10971 -1 x10972 -1 x10973 -1 x10974 -1 x10975 -1 x10976 >= 0 ;
+2 x11385 +2 x11386 +2 x11387 +2 x11388 -1 x10973 -1 x10974 -1 x10975 -1 x10976 -1 x10977 -1 x10978 -1 x10979 -1 x10980 >= 0 ;
+2 x11389 +2 x11390 +2 x11391 +2 x11392 -1 x10977 -1 x10978 -1 x10979 -1 x10980 -1 x10981 -1 x10982 -1 x10983 -1 x10984 >= 0 ;
+2 x11393 +2 x11394 +2 x11395 +2 x11396 -1 x10981 -1 x10982 -1 x10983 -1 x10984 -1 x10985 -1 x10986 -1 x10987 -1 x10988 >= 0 ;
+2 x11397 +2 x11398 +2 x11399 +2 x11400 -1 x10985 -1 x10986 -1 x10987 -1 x10988 -1 x10989 -1 x10990 -1 x10991 -1 x10992 >= 0 ;
+2 x11401 +2 x11402 +2 x11403 +2 x11404 -1 x10993 -1 x10994 -1 x10995 -1 x10996 -1 x10997 -1 x10998 -1 x10999 -1 x11000 >= 0 ;
+2 x11405 +2 x11406 +2 x11407 +2 x11408 -1 x10997 -1 x10998 -1 x10999 -1 x11000 -1 x11001 -1 x11002 -1 x11003 -1 x11004 >= 0 ;
+2 x11409 +2 x11410 +2 x11411 +2 x11412 -1 x11001 -1 x11002 -1 x11003 -1 x11004 -1 x11005 -1 x11006 -1 x11007 -1 x11008 >= 0 ;
+2 x11413 +2 x11414 +2 x11415 +2 x11416 -1 x11005 -1 x11006 -1 x11007 -1 x11008 -1 x11009 -1 x11010 -1 x11011 -1 x11012 >= 0 ;
+2 x11417 +2 x11418 +2 x11419 +2 x11420 -1 x11009 -1 x11010 -1 x11011 -1 x11012 -1 x11013 -1 x11014 -1 x11015 -1 x11016 >= 0 ;
+2 x11421 +2 x11422 +2 x11423 +2 x11424 -1 x11013 -1 x11014 -1 x11015 -1 x11016 -1 x11017 -1 x11018 -1 x11019 -1 x11020 >= 0 ;
+2 x11425 +2 x11426 +2 x11427 +2 x11428 -1 x11017 -1 x11018 -1 x11019 -1 x11020 -1 x11021 -1 x11022 -1 x11023 -1 x11024 >= 0 ;
+2 x11429 +2 x11430 +2 x11431 +2 x11432 -1 x11021 -1 x11022 -1 x11023 -1 x11024 -1 x11025 -1 x11026 -1 x11027 -1 x11028 >= 0 ;
+2 x11433 +2 x11434 +2 x11435 +2 x11436 -1 x11025 -1 x11026 -1 x11027 -1 x11028 -1 x11029 -1 x11030 -1 x11031 -1 x11032 >= 0 ;
+2 x11437 +2 x11438 +2 x11439 +2 x11440 -1 x11029 -1 x11030 -1 x11031 -1 x11032 -1 x11033 -1 x11034 -1 x11035 -1 x11036 >= 0 ;
+2 x11441 +2 x11442 +2 x11443 +2 x11444 -1 x11033 -1 x11034 -1 x11035 -1 x11036 -1 x11037 -1 x11038 -1 x11039 -1 x11040 >= 0 ;
+2 x11445 +2 x11446 +2 x11447 +2 x11448 -1 x11037 -1 x11038 -1 x11039 -1 x11040 -1 x11041 -1 x11042 -1 x11043 -1 x11044 >= 0 ;
+2 x11449 +2 x11450 +2 x11451 +2 x11452 -1 x11041 -1 x11042 -1 x11043 -1 x11044 -1 x11045 -1 x11046 -1 x11047 -1 x11048 >= 0 ;
+2 x11453 +2 x11454 +2 x11455 +2 x11456 -1 x11045 -1 x11046 -1 x11047 -1 x11048 -1 x11049 -1 x11050 -1 x11051 -1 x11052 >= 0 ;
+2 x11457 +2 x11458 +2 x11459 +2 x11460 -1 x11049 -1 x11050 -1 x11051 -1 x11052 -1 x11053 -1 x11054 -1 x11055 -1 x11056 >= 0 ;
+2 x11461 +2 x11462 +2 x11463 +2 x11464 -1 x11053 -1 x11054 -1 x11055 -1 x11056 -1 x11057 -1 x11058 -1 x11059 -1 x11060 >= 0 ;
+2 x11465 +2 x11466 +2 x11467 +2 x11468 -1 x11057 -1 x11058 -1 x11059 -1 x11060 -1 x11061 -1 x11062 -1 x11063 -1 x11064 >= 0 ;
+2 x11469 +2 x11470 +2 x11471 +2 x11472 -1 x11061 -1 x11062 -1 x11063 -1 x11064 -1 x11065 -1 x11066 -1 x11067 -1 x11068 >= 0 ;
+2 x11473 +2 x11474 +2 x11475 +2 x11476 -1 x11065 -1 x11066 -1 x11067 -1 x11068 -1 x11069 -1 x11070 -1 x11071 -1 x11072 >= 0 ;
+2 x11477 +2 x11478 +2 x11479 +2 x11480 -1 x11069 -1 x11070 -1 x11071 -1 x11072 -1 x11073 -1 x11074 -1 x11075 -1 x11076 >= 0 ;
+2 x11481 +2 x11482 +2 x11483 +2 x11484 -1 x11073 -1 x11074 -1 x11075 -1 x11076 -1 x11077 -1 x11078 -1 x11079 -1 x11080 >= 0 ;
+2 x11485 +2 x11486 +2 x11487 +2 x11488 -1 x11077 -1 x11078 -1 x11079 -1 x11080 -1 x11081 -1 x11082 -1 x11083 -1 x11084 >= 0 ;
+2 x11489 +2 x11490 +2 x11491 +2 x11492 -1 x11081 -1 x11082 -1 x11083 -1 x11084 -1 x11085 -1 x11086 -1 x11087 -1 x11088 >= 0 ;
+2 x11493 +2 x11494 +2 x11495 +2 x11496 -1 x11085 -1 x11086 -1 x11087 -1 x11088 -1 x11089 -1 x11090 -1 x11091 -1 x11092 >= 0 ;
+2 x11497 +2 x11498 +2 x11499 +2 x11500 -1 x11089 -1 x11090 -1 x11091 -1 x11092 -1 x11093 -1 x11094 -1 x11095 -1 x11096 >= 0 ;
+2 x11501 +2 x11502 +2 x11503 +2 x11504 -1 x11093 -1 x11094 -1 x11095 -1 x11096 -1 x11097 -1 x11098 -1 x11099 -1 x11100 >= 0 ;
+2 x11505 +2 x11506 +2 x11507 +2 x11508 -1 x11097 -1 x11098 -1 x11099 -1 x11100 -1 x11101 -1 x11102 -1 x11103 -1 x11104 >= 0 ;
+2 x11509 +2 x11510 +2 x11511 +2 x11512 -1 x11101 -1 x11102 -1 x11103 -1 x11104 -1 x11105 -1 x11106 -1 x11107 -1 x11108 >= 0 ;
+2 x11513 +2 x11514 +2 x11515 +2 x11516 -1 x11105 -1 x11106 -1 x11107 -1 x11108 -1 x11109 -1 x11110 -1 x11111 -1 x11112 >= 0 ;
+2 x11517 +2 x11518 +2 x11519 +2 x11520 -1 x11109 -1 x11110 -1 x11111 -1 x11112 -1 x11113 -1 x11114 -1 x11115 -1 x11116 >= 0 ;
+2 x11521 +2 x11522 +2 x11523 +2 x11524 -1 x11113 -1 x11114 -1 x11115 -1 x11116 -1 x11117 -1 x11118 -1 x11119 -1 x11120 >= 0 ;
+2 x11525 +2 x11526 +2 x11527 +2 x11528 -1 x11117 -1 x11118 -1 x11119 -1 x11120 -1 x11121 -1 x11122 -1 x11123 -1 x11124 >= 0 ;
+2 x11529 +2 x11530 +2 x11531 +2 x11532 -1 x11121 -1 x11122 -1 x11123 -1 x11124 -1 x11125 -1 x11126 -1 x11127 -1 x11128 >= 0 ;
+2 x11533 +2 x11534 +2 x11535 +2 x11536 -1 x11125 -1 x11126 -1 x11127 -1 x11128 -1 x11129 -1 x11130 -1 x11131 -1 x11132 >= 0 ;
+2 x11537 +2 x11538 +2 x11539 +2 x11540 -1 x11129 -1 x11130 -1 x11131 -1 x11132 -1 x11133 -1 x11134 -1 x11135 -1 x11136 >= 0 ;
+2 x11541 +2 x11542 +2 x11543 +2 x11544 -1 x11133 -1 x11134 -1 x11135 -1 x11136 -1 x11137 -1 x11138 -1 x11139 -1 x11140 >= 0 ;
+2 x11545 +2 x11546 +2 x11547 +2 x11548 -1 x11137 -1 x11138 -1 x11139 -1 x11140 -1 x11141 -1 x11142 -1 x11143 -1 x11144 >= 0 ;
+2 x11549 +2 x11550 +2 x11551 +2 x11552 -1 x11141 -1 x11142 -1 x11143 -1 x11144 -1 x11145 -1 x11146 -1 x11147 -1 x11148 >= 0 ;
+2 x11553 +2 x11554 +2 x11555 +2 x11556 -1 x11145 -1 x11146 -1 x11147 -1 x11148 -1 x11149 -1 x11150 -1 x11151 -1 x11152 >= 0 ;
+2 x11557 +2 x11558 +2 x11559 +2 x11560 -1 x11149 -1 x11150 -1 x11151 -1 x11152 -1 x11153 -1 x11154 -1 x11155 -1 x11156 >= 0 ;
+2 x11561 +2 x11562 +2 x11563 +2 x11564 -1 x11153 -1 x11154 -1 x11155 -1 x11156 -1 x11157 -1 x11158 -1 x11159 -1 x11160 >= 0 ;
+2 x11565 +2 x11566 +2 x11567 +2 x11568 -1 x11157 -1 x11158 -1 x11159 -1 x11160 -1 x11161 -1 x11162 -1 x11163 -1 x11164 >= 0 ;
+2 x11569 +2 x11570 +2 x11571 +2 x11572 -1 x11161 -1 x11162 -1 x11163 -1 x11164 -1 x11165 -1 x11166 -1 x11167 -1 x11168 >= 0 ;
+2 x11573 +2 x11574 +2 x11575 +2 x11576 -1 x11165 -1 x11166 -1 x11167 -1 x11168 -1 x11169 -1 x11170 -1 x11171 -1 x11172 >= 0 ;
+2 x11577 +2 x11578 +2 x11579 +2 x11580 -1 x11169 -1 x11170 -1 x11171 -1 x11172 -1 x11173 -1 x11174 -1 x11175 -1 x11176 >= 0 ;
+2 x11581 +2 x11582 +2 x11583 +2 x11584 -1 x11173 -1 x11174 -1 x11175 -1 x11176 -1 x11177 -1 x11178 -1 x11179 -1 x11180 >= 0 ;
+2 x11585 +2 x11586 +2 x11587 +2 x11588 -1 x11177 -1 x11178 -1 x11179 -1 x11180 -1 x11181 -1 x11182 -1 x11183 -1 x11184 >= 0 ;
+2 x11589 +2 x11590 +2 x11591 +2 x11592 -1 x11181 -1 x11182 -1 x11183 -1 x11184 -1 x11185 -1 x11186 -1 x11187 -1 x11188 >= 0 ;
+2 x11593 +2 x11594 +2 x11595 +2 x11596 -1 x11185 -1 x11186 -1 x11187 -1 x11188 -1 x11189 -1 x11190 -1 x11191 -1 x11192 >= 0 ;
+2 x11597 +2 x11598 +2 x11599 +2 x11600 -1 x11189 -1 x11190 -1 x11191 -1 x11192 -1 x11193 -1 x11194 -1 x11195 -1 x11196 >= 0 ;
+2 x11601 +2 x11602 +2 x11603 +2 x11604 -1 x11193 -1 x11194 -1 x11195 -1 x11196 -1 x11197 -1 x11198 -1 x11199 -1 x11200 >= 0 ;
+2 x11605 +2 x11606 +2 x11607 +2 x11608 -1 x11197 -1 x11198 -1 x11199 -1 x11200 -1 x11201 -1 x11202 -1 x11203 -1 x11204 >= 0 ;
+2 x11609 +2 x11610 +2 x11611 +2 x11612 -1 x11201 -1 x11202 -1 x11203 -1 x11204 -1 x11205 -1 x11206 -1 x11207 -1 x11208 >= 0 ;
+2 x11613 +2 x11614 +2 x11615 +2 x11616 -1 x11205 -1 x11206 -1 x11207 -1 x11208 -1 x11209 -1 x11210 -1 x11211 -1 x11212 >= 0 ;
+2 x11617 +2 x11618 +2 x11619 +2 x11620 -1 x11209 -1 x11210 -1 x11211 -1 x11212 -1 x11213 -1 x11214 -1 x11215 -1 x11216 >= 0 ;
+2 x11621 +2 x11622 +2 x11623 +2 x11624 -1 x11213 -1 x11214 -1 x11215 -1 x11216 -1 x11217 -1 x11218 -1 x11219 -1 x11220 >= 0 ;
+2 x11625 +2 x11626 +2 x11627 +2 x11628 -1 x11217 -1 x11218 -1 x11219 -1 x11220 -1 x11221 -1 x11222 -1 x11223 -1 x11224 >= 0 ;
+2 x11629 +2 x11630 +2 x11631 +2 x11632 -1 x11221 -1 x11222 -1 x11223 -1 x11224 -1 x11225 -1 x11226 -1 x11227 -1 x11228 >= 0 ;
+2 x11633 +2 x11634 +2 x11635 +2 x11636 -1 x11225 -1 x11226 -1 x11227 -1 x11228 -1 x11229 -1 x11230 -1 x11231 -1 x11232 >= 0 ;
+2 x11637 +2 x11638 +2 x11639 +2 x11640 -1 x11229 -1 x11230 -1 x11231 -1 x11232 -1 x11233 -1 x11234 -1 x11235 -1 x11236 >= 0 ;
+2 x11641 +2 x11642 +2 x11643 +2 x11644 -1 x11233 -1 x11234 -1 x11235 -1 x11236 -1 x11237 -1 x11238 -1 x11239 -1 x11240 >= 0 ;
+2 x11645 +2 x11646 +2 x11647 +2 x11648 -1 x11237 -1 x11238 -1 x11239 -1 x11240 -1 x11241 -1 x11242 -1 x11243 -1 x11244 >= 0 ;
+2 x11649 +2 x11650 +2 x11651 +2 x11652 -1 x11241 -1 x11242 -1 x11243 -1 x11244 -1 x11245 -1 x11246 -1 x11247 -1 x11248 >= 0 ;
+2 x11653 +2 x11654 +2 x11655 +2 x11656 -1 x11245 -1 x11246 -1 x11247 -1 x11248 -1 x11249 -1 x11250 -1 x11251 -1 x11252 >= 0 ;
+2 x11657 +2 x11658 +2 x11659 +2 x11660 -1 x11249 -1 x11250 -1 x11251 -1 x11252 -1 x11253 -1 x11254 -1 x11255 -1 x11256 >= 0 ;
+2 x11661 +2 x11662 +2 x11663 +2 x11664 -1 x11253 -1 x11254 -1 x11255 -1 x11256 -1 x11257 -1 x11258 -1 x11259 -1 x11260 >= 0 ;
+2 x11665 +2 x11666 +2 x11667 +2 x11668 -1 x11257 -1 x11258 -1 x11259 -1 x11260 -1 x11261 -1 x11262 -1 x11263 -1 x11264 >= 0 ;
+2 x11669 +2 x11670 +2 x11671 +2 x11672 -1 x11261 -1 x11262 -1 x11263 -1 x11264 -1 x11265 -1 x11266 -1 x11267 -1 x11268 >= 0 ;
+2 x11673 +2 x11674 +2 x11675 +2 x11676 -1 x11265 -1 x11266 -1 x11267 -1 x11268 -1 x11269 -1 x11270 -1 x11271 -1 x11272 >= 0 ;
+2 x11677 +2 x11678 +2 x11679 +2 x11680 -1 x11269 -1 x11270 -1 x11271 -1 x11272 -1 x11273 -1 x11274 -1 x11275 -1 x11276 >= 0 ;
+2 x11681 +2 x11682 +2 x11683 +2 x11684 -1 x11273 -1 x11274 -1 x11275 -1 x11276 -1 x11277 -1 x11278 -1 x11279 -1 x11280 >= 0 ;
+2 x11685 +2 x11686 +2 x11687 +2 x11688 -1 x11277 -1 x11278 -1 x11279 -1 x11280 -1 x11281 -1 x11282 -1 x11283 -1 x11284 >= 0 ;
+2 x11689 +2 x11690 +2 x11691 +2 x11692 -1 x11281 -1 x11282 -1 x11283 -1 x11284 -1 x11285 -1 x11286 -1 x11287 -1 x11288 >= 0 ;
+2 x11693 +2 x11694 +2 x11695 +2 x11696 -1 x11285 -1 x11286 -1 x11287 -1 x11288 -1 x11289 -1 x11290 -1 x11291 -1 x11292 >= 0 ;
+2 x11697 +2 x11698 +2 x11699 +2 x11700 -1 x11289 -1 x11290 -1 x11291 -1 x11292 -1 x11293 -1 x11294 -1 x11295 -1 x11296 >= 0 ;
+2 x11701 +2 x11702 +2 x11703 +2 x11704 -1 x11293 -1 x11294 -1 x11295 -1 x11296 -1 x11297 -1 x11298 -1 x11299 -1 x11300 >= 0 ;
+2 x11705 +2 x11706 +2 x11707 +2 x11708 -1 x11297 -1 x11298 -1 x11299 -1 x11300 -1 x11301 -1 x11302 -1 x11303 -1 x11304 >= 0 ;
+2 x11709 +2 x11710 +2 x11711 +2 x11712 -1 x11301 -1 x11302 -1 x11303 -1 x11304 -1 x11305 -1 x11306 -1 x11307 -1 x11308 >= 0 ;
+2 x11713 +2 x11714 +2 x11715 +2 x11716 -1 x11305 -1 x11306 -1 x11307 -1 x11308 -1 x11309 -1 x11310 -1 x11311 -1 x11312 >= 0 ;
+2 x11717 +2 x11718 +2 x11719 +2 x11720 -1 x11309 -1 x11310 -1 x11311 -1 x11312 -1 x11313 -1 x11314 -1 x11315 -1 x11316 >= 0 ;
+2 x11721 +2 x11722 +2 x11723 +2 x11724 -1 x11313 -1 x11314 -1 x11315 -1 x11316 -1 x11317 -1 x11318 -1 x11319 -1 x11320 >= 0 ;
+2 x11725 +2 x11726 +2 x11727 +2 x11728 -1 x11317 -1 x11318 -1 x11319 -1 x11320 -1 x11321 -1 x11322 -1 x11323 -1 x11324 >= 0 ;
+2 x11729 +2 x11730 +2 x11731 +2 x11732 -1 x11321 -1 x11322 -1 x11323 -1 x11324 -1 x11325 -1 x11326 -1 x11327 -1 x11328 >= 0 ;
+2 x11733 +2 x11734 +2 x11735 +2 x11736 -1 x11325 -1 x11326 -1 x11327 -1 x11328 -1 x11329 -1 x11330 -1 x11331 -1 x11332 >= 0 ;
+2 x11737 +2 x11738 +2 x11739 +2 x11740 -1 x11329 -1 x11330 -1 x11331 -1 x11332 -1 x11333 -1 x11334 -1 x11335 -1 x11336 >= 0 ;
+2 x11741 +2 x11742 +2 x11743 +2 x11744 -1 x11333 -1 x11334 -1 x11335 -1 x11336 -1 x11337 -1 x11338 -1 x11339 -1 x11340 >= 0 ;
+2 x11745 +2 x11746 +2 x11747 +2 x11748 -1 x11337 -1 x11338 -1 x11339 -1 x11340 -1 x11341 -1 x11342 -1 x11343 -1 x11344 >= 0 ;
+2 x11749 +2 x11750 +2 x11751 +2 x11752 -1 x11341 -1 x11342 -1 x11343 -1 x11344 -1 x11345 -1 x11346 -1 x11347 -1 x11348 >= 0 ;
+2 x11753 +2 x11754 +2 x11755 +2 x11756 -1 x11345 -1 x11346 -1 x11347 -1 x11348 -1 x11349 -1 x11350 -1 x11351 -1 x11352 >= 0 ;
+2 x11757 +2 x11758 +2 x11759 +2 x11760 -1 x11349 -1 x11350 -1 x11351 -1 x11352 -1 x11353 -1 x11354 -1 x11355 -1 x11356 >= 0 ;
+2 x11761 +2 x11762 +2 x11763 +2 x11764 -1 x11353 -1 x11354 -1 x11355 -1 x11356 -1 x11357 -1 x11358 -1 x11359 -1 x11360 >= 0 ;
+2 x11765 +2 x11766 +2 x11767 +2 x11768 -1 x11357 -1 x11358 -1 x11359 -1 x11360 -1 x11361 -1 x11362 -1 x11363 -1 x11364 >= 0 ;
+2 x11769 +2 x11770 +2 x11771 +2 x11772 -1 x11361 -1 x11362 -1 x11363 -1 x11364 -1 x11365 -1 x11366 -1 x11367 -1 x11368 >= 0 ;
+2 x11773 +2 x11774 +2 x11775 +2 x11776 -1 x11365 -1 x11366 -1 x11367 -1 x11368 -1 x11369 -1 x11370 -1 x11371 -1 x11372 >= 0 ;
+2 x11777 +2 x11778 +2 x11779 +2 x11780 -1 x11369 -1 x11370 -1 x11371 -1 x11372 -1 x11373 -1 x11374 -1 x11375 -1 x11376 >= 0 ;
+2 x11781 +2 x11782 +2 x11783 +2 x11784 -1 x11373 -1 x11374 -1 x11375 -1 x11376 -1 x11377 -1 x11378 -1 x11379 -1 x11380 >= 0 ;
+2 x11785 +2 x11786 +2 x11787 +2 x11788 -1 x11377 -1 x11378 -1 x11379 -1 x11380 -1 x11381 -1 x11382 -1 x11383 -1 x11384 >= 0 ;
+2 x11789 +2 x11790 +2 x11791 +2 x11792 -1 x11381 -1 x11382 -1 x11383 -1 x11384 -1 x11385 -1 x11386 -1 x11387 -1 x11388 >= 0 ;
+2 x11793 +2 x11794 +2 x11795 +2 x11796 -1 x11385 -1 x11386 -1 x11387 -1 x11388 -1 x11389 -1 x11390 -1 x11391 -1 x11392 >= 0 ;
+2 x11797 +2 x11798 +2 x11799 +2 x11800 -1 x11389 -1 x11390 -1 x11391 -1 x11392 -1 x11393 -1 x11394 -1 x11395 -1 x11396 >= 0 ;
+2 x11801 +2 x11802 +2 x11803 +2 x11804 -1 x11393 -1 x11394 -1 x11395 -1 x11396 -1 x11397 -1 x11398 -1 x11399 -1 x11400 >= 0 ;
+2 x11805 +2 x11806 +2 x11807 +2 x11808 -1 x11401 -1 x11402 -1 x11403 -1 x11404 -1 x11405 -1 x11406 -1 x11407 -1 x11408 >= 0 ;
+2 x11809 +2 x11810 +2 x11811 +2 x11812 -1 x11405 -1 x11406 -1 x11407 -1 x11408 -1 x11409 -1 x11410 -1 x11411 -1 x11412 >= 0 ;
+2 x11813 +2 x11814 +2 x11815 +2 x11816 -1 x11409 -1 x11410 -1 x11411 -1 x11412 -1 x11413 -1 x11414 -1 x11415 -1 x11416 >= 0 ;
+2 x11817 +2 x11818 +2 x11819 +2 x11820 -1 x11413 -1 x11414 -1 x11415 -1 x11416 -1 x11417 -1 x11418 -1 x11419 -1 x11420 >= 0 ;
+2 x11821 +2 x11822 +2 x11823 +2 x11824 -1 x11417 -1 x11418 -1 x11419 -1 x11420 -1 x11421 -1 x11422 -1 x11423 -1 x11424 >= 0 ;
+2 x11825 +2 x11826 +2 x11827 +2 x11828 -1 x11421 -1 x11422 -1 x11423 -1 x11424 -1 x11425 -1 x11426 -1 x11427 -1 x11428 >= 0 ;
+2 x11829 +2 x11830 +2 x11831 +2 x11832 -1 x11425 -1 x11426 -1 x11427 -1 x11428 -1 x11429 -1 x11430 -1 x11431 -1 x11432 >= 0 ;
+2 x11833 +2 x11834 +2 x11835 +2 x11836 -1 x11429 -1 x11430 -1 x11431 -1 x11432 -1 x11433 -1 x11434 -1 x11435 -1 x11436 >= 0 ;
+2 x11837 +2 x11838 +2 x11839 +2 x11840 -1 x11433 -1 x11434 -1 x11435 -1 x11436 -1 x11437 -1 x11438 -1 x11439 -1 x11440 >= 0 ;
+2 x11841 +2 x11842 +2 x11843 +2 x11844 -1 x11437 -1 x11438 -1 x11439 -1 x11440 -1 x11441 -1 x11442 -1 x11443 -1 x11444 >= 0 ;
+2 x11845 +2 x11846 +2 x11847 +2 x11848 -1 x11441 -1 x11442 -1 x11443 -1 x11444 -1 x11445 -1 x11446 -1 x11447 -1 x11448 >= 0 ;
+2 x11849 +2 x11850 +2 x11851 +2 x11852 -1 x11445 -1 x11446 -1 x11447 -1 x11448 -1 x11449 -1 x11450 -1 x11451 -1 x11452 >= 0 ;
+2 x11853 +2 x11854 +2 x11855 +2 x11856 -1 x11449 -1 x11450 -1 x11451 -1 x11452 -1 x11453 -1 x11454 -1 x11455 -1 x11456 >= 0 ;
+2 x11857 +2 x11858 +2 x11859 +2 x11860 -1 x11453 -1 x11454 -1 x11455 -1 x11456 -1 x11457 -1 x11458 -1 x11459 -1 x11460 >= 0 ;
+2 x11861 +2 x11862 +2 x11863 +2 x11864 -1 x11457 -1 x11458 -1 x11459 -1 x11460 -1 x11461 -1 x11462 -1 x11463 -1 x11464 >= 0 ;
+2 x11865 +2 x11866 +2 x11867 +2 x11868 -1 x11461 -1 x11462 -1 x11463 -1 x11464 -1 x11465 -1 x11466 -1 x11467 -1 x11468 >= 0 ;
+2 x11869 +2 x11870 +2 x11871 +2 x11872 -1 x11465 -1 x11466 -1 x11467 -1 x11468 -1 x11469 -1 x11470 -1 x11471 -1 x11472 >= 0 ;
+2 x11873 +2 x11874 +2 x11875 +2 x11876 -1 x11469 -1 x11470 -1 x11471 -1 x11472 -1 x11473 -1 x11474 -1 x11475 -1 x11476 >= 0 ;
+2 x11877 +2 x11878 +2 x11879 +2 x11880 -1 x11473 -1 x11474 -1 x11475 -1 x11476 -1 x11477 -1 x11478 -1 x11479 -1 x11480 >= 0 ;
+2 x11881 +2 x11882 +2 x11883 +2 x11884 -1 x11477 -1 x11478 -1 x11479 -1 x11480 -1 x11481 -1 x11482 -1 x11483 -1 x11484 >= 0 ;
+2 x11885 +2 x11886 +2 x11887 +2 x11888 -1 x11481 -1 x11482 -1 x11483 -1 x11484 -1 x11485 -1 x11486 -1 x11487 -1 x11488 >= 0 ;
+2 x11889 +2 x11890 +2 x11891 +2 x11892 -1 x11485 -1 x11486 -1 x11487 -1 x11488 -1 x11489 -1 x11490 -1 x11491 -1 x11492 >= 0 ;
+2 x11893 +2 x11894 +2 x11895 +2 x11896 -1 x11489 -1 x11490 -1 x11491 -1 x11492 -1 x11493 -1 x11494 -1 x11495 -1 x11496 >= 0 ;
+2 x11897 +2 x11898 +2 x11899 +2 x11900 -1 x11493 -1 x11494 -1 x11495 -1 x11496 -1 x11497 -1 x11498 -1 x11499 -1 x11500 >= 0 ;
+2 x11901 +2 x11902 +2 x11903 +2 x11904 -1 x11497 -1 x11498 -1 x11499 -1 x11500 -1 x11501 -1 x11502 -1 x11503 -1 x11504 >= 0 ;
+2 x11905 +2 x11906 +2 x11907 +2 x11908 -1 x11501 -1 x11502 -1 x11503 -1 x11504 -1 x11505 -1 x11506 -1 x11507 -1 x11508 >= 0 ;
+2 x11909 +2 x11910 +2 x11911 +2 x11912 -1 x11505 -1 x11506 -1 x11507 -1 x11508 -1 x11509 -1 x11510 -1 x11511 -1 x11512 >= 0 ;
+2 x11913 +2 x11914 +2 x11915 +2 x11916 -1 x11509 -1 x11510 -1 x11511 -1 x11512 -1 x11513 -1 x11514 -1 x11515 -1 x11516 >= 0 ;
+2 x11917 +2 x11918 +2 x11919 +2 x11920 -1 x11513 -1 x11514 -1 x11515 -1 x11516 -1 x11517 -1 x11518 -1 x11519 -1 x11520 >= 0 ;
+2 x11921 +2 x11922 +2 x11923 +2 x11924 -1 x11517 -1 x11518 -1 x11519 -1 x11520 -1 x11521 -1 x11522 -1 x11523 -1 x11524 >= 0 ;
+2 x11925 +2 x11926 +2 x11927 +2 x11928 -1 x11521 -1 x11522 -1 x11523 -1 x11524 -1 x11525 -1 x11526 -1 x11527 -1 x11528 >= 0 ;
+2 x11929 +2 x11930 +2 x11931 +2 x11932 -1 x11525 -1 x11526 -1 x11527 -1 x11528 -1 x11529 -1 x11530 -1 x11531 -1 x11532 >= 0 ;
+2 x11933 +2 x11934 +2 x11935 +2 x11936 -1 x11529 -1 x11530 -1 x11531 -1 x11532 -1 x11533 -1 x11534 -1 x11535 -1 x11536 >= 0 ;
+2 x11937 +2 x11938 +2 x11939 +2 x11940 -1 x11533 -1 x11534 -1 x11535 -1 x11536 -1 x11537 -1 x11538 -1 x11539 -1 x11540 >= 0 ;
+2 x11941 +2 x11942 +2 x11943 +2 x11944 -1 x11537 -1 x11538 -1 x11539 -1 x11540 -1 x11541 -1 x11542 -1 x11543 -1 x11544 >= 0 ;
+2 x11945 +2 x11946 +2 x11947 +2 x11948 -1 x11541 -1 x11542 -1 x11543 -1 x11544 -1 x11545 -1 x11546 -1 x11547 -1 x11548 >= 0 ;
+2 x11949 +2 x11950 +2 x11951 +2 x11952 -1 x11545 -1 x11546 -1 x11547 -1 x11548 -1 x11549 -1 x11550 -1 x11551 -1 x11552 >= 0 ;
+2 x11953 +2 x11954 +2 x11955 +2 x11956 -1 x11549 -1 x11550 -1 x11551 -1 x11552 -1 x11553 -1 x11554 -1 x11555 -1 x11556 >= 0 ;
+2 x11957 +2 x11958 +2 x11959 +2 x11960 -1 x11553 -1 x11554 -1 x11555 -1 x11556 -1 x11557 -1 x11558 -1 x11559 -1 x11560 >= 0 ;
+2 x11961 +2 x11962 +2 x11963 +2 x11964 -1 x11557 -1 x11558 -1 x11559 -1 x11560 -1 x11561 -1 x11562 -1 x11563 -1 x11564 >= 0 ;
+2 x11965 +2 x11966 +2 x11967 +2 x11968 -1 x11561 -1 x11562 -1 x11563 -1 x11564 -1 x11565 -1 x11566 -1 x11567 -1 x11568 >= 0 ;
+2 x11969 +2 x11970 +2 x11971 +2 x11972 -1 x11565 -1 x11566 -1 x11567 -1 x11568 -1 x11569 -1 x11570 -1 x11571 -1 x11572 >= 0 ;
+2 x11973 +2 x11974 +2 x11975 +2 x11976 -1 x11569 -1 x11570 -1 x11571 -1 x11572 -1 x11573 -1 x11574 -1 x11575 -1 x11576 >= 0 ;
+2 x11977 +2 x11978 +2 x11979 +2 x11980 -1 x11573 -1 x11574 -1 x11575 -1 x11576 -1 x11577 -1 x11578 -1 x11579 -1 x11580 >= 0 ;
+2 x11981 +2 x11982 +2 x11983 +2 x11984 -1 x11577 -1 x11578 -1 x11579 -1 x11580 -1 x11581 -1 x11582 -1 x11583 -1 x11584 >= 0 ;
+2 x11985 +2 x11986 +2 x11987 +2 x11988 -1 x11581 -1 x11582 -1 x11583 -1 x11584 -1 x11585 -1 x11586 -1 x11587 -1 x11588 >= 0 ;
+2 x11989 +2 x11990 +2 x11991 +2 x11992 -1 x11585 -1 x11586 -1 x11587 -1 x11588 -1 x11589 -1 x11590 -1 x11591 -1 x11592 >= 0 ;
+2 x11993 +2 x11994 +2 x11995 +2 x11996 -1 x11589 -1 x11590 -1 x11591 -1 x11592 -1 x11593 -1 x11594 -1 x11595 -1 x11596 >= 0 ;
+2 x11997 +2 x11998 +2 x11999 +2 x12000 -1 x11593 -1 x11594 -1 x11595 -1 x11596 -1 x11597 -1 x11598 -1 x11599 -1 x11600 >= 0 ;
+2 x12001 +2 x12002 +2 x12003 +2 x12004 -1 x11597 -1 x11598 -1 x11599 -1 x11600 -1 x11601 -1 x11602 -1 x11603 -1 x11604 >= 0 ;
+2 x12005 +2 x12006 +2 x12007 +2 x12008 -1 x11601 -1 x11602 -1 x11603 -1 x11604 -1 x11605 -1 x11606 -1 x11607 -1 x11608 >= 0 ;
+2 x12009 +2 x12010 +2 x12011 +2 x12012 -1 x11605 -1 x11606 -1 x11607 -1 x11608 -1 x11609 -1 x11610 -1 x11611 -1 x11612 >= 0 ;
+2 x12013 +2 x12014 +2 x12015 +2 x12016 -1 x11609 -1 x11610 -1 x11611 -1 x11612 -1 x11613 -1 x11614 -1 x11615 -1 x11616 >= 0 ;
+2 x12017 +2 x12018 +2 x12019 +2 x12020 -1 x11613 -1 x11614 -1 x11615 -1 x11616 -1 x11617 -1 x11618 -1 x11619 -1 x11620 >= 0 ;
+2 x12021 +2 x12022 +2 x12023 +2 x12024 -1 x11617 -1 x11618 -1 x11619 -1 x11620 -1 x11621 -1 x11622 -1 x11623 -1 x11624 >= 0 ;
+2 x12025 +2 x12026 +2 x12027 +2 x12028 -1 x11621 -1 x11622 -1 x11623 -1 x11624 -1 x11625 -1 x11626 -1 x11627 -1 x11628 >= 0 ;
+2 x12029 +2 x12030 +2 x12031 +2 x12032 -1 x11625 -1 x11626 -1 x11627 -1 x11628 -1 x11629 -1 x11630 -1 x11631 -1 x11632 >= 0 ;
+2 x12033 +2 x12034 +2 x12035 +2 x12036 -1 x11629 -1 x11630 -1 x11631 -1 x11632 -1 x11633 -1 x11634 -1 x11635 -1 x11636 >= 0 ;
+2 x12037 +2 x12038 +2 x12039 +2 x12040 -1 x11633 -1 x11634 -1 x11635 -1 x11636 -1 x11637 -1 x11638 -1 x11639 -1 x11640 >= 0 ;
+2 x12041 +2 x12042 +2 x12043 +2 x12044 -1 x11637 -1 x11638 -1 x11639 -1 x11640 -1 x11641 -1 x11642 -1 x11643 -1 x11644 >= 0 ;
+2 x12045 +2 x12046 +2 x12047 +2 x12048 -1 x11641 -1 x11642 -1 x11643 -1 x11644 -1 x11645 -1 x11646 -1 x11647 -1 x11648 >= 0 ;
+2 x12049 +2 x12050 +2 x12051 +2 x12052 -1 x11645 -1 x11646 -1 x11647 -1 x11648 -1 x11649 -1 x11650 -1 x11651 -1 x11652 >= 0 ;
+2 x12053 +2 x12054 +2 x12055 +2 x12056 -1 x11649 -1 x11650 -1 x11651 -1 x11652 -1 x11653 -1 x11654 -1 x11655 -1 x11656 >= 0 ;
+2 x12057 +2 x12058 +2 x12059 +2 x12060 -1 x11653 -1 x11654 -1 x11655 -1 x11656 -1 x11657 -1 x11658 -1 x11659 -1 x11660 >= 0 ;
+2 x12061 +2 x12062 +2 x12063 +2 x12064 -1 x11657 -1 x11658 -1 x11659 -1 x11660 -1 x11661 -1 x11662 -1 x11663 -1 x11664 >= 0 ;
+2 x12065 +2 x12066 +2 x12067 +2 x12068 -1 x11661 -1 x11662 -1 x11663 -1 x11664 -1 x11665 -1 x11666 -1 x11667 -1 x11668 >= 0 ;
+2 x12069 +2 x12070 +2 x12071 +2 x12072 -1 x11665 -1 x11666 -1 x11667 -1 x11668 -1 x11669 -1 x11670 -1 x11671 -1 x11672 >= 0 ;
+2 x12073 +2 x12074 +2 x12075 +2 x12076 -1 x11669 -1 x11670 -1 x11671 -1 x11672 -1 x11673 -1 x11674 -1 x11675 -1 x11676 >= 0 ;
+2 x12077 +2 x12078 +2 x12079 +2 x12080 -1 x11673 -1 x11674 -1 x11675 -1 x11676 -1 x11677 -1 x11678 -1 x11679 -1 x11680 >= 0 ;
+2 x12081 +2 x12082 +2 x12083 +2 x12084 -1 x11677 -1 x11678 -1 x11679 -1 x11680 -1 x11681 -1 x11682 -1 x11683 -1 x11684 >= 0 ;
+2 x12085 +2 x12086 +2 x12087 +2 x12088 -1 x11681 -1 x11682 -1 x11683 -1 x11684 -1 x11685 -1 x11686 -1 x11687 -1 x11688 >= 0 ;
+2 x12089 +2 x12090 +2 x12091 +2 x12092 -1 x11685 -1 x11686 -1 x11687 -1 x11688 -1 x11689 -1 x11690 -1 x11691 -1 x11692 >= 0 ;
+2 x12093 +2 x12094 +2 x12095 +2 x12096 -1 x11689 -1 x11690 -1 x11691 -1 x11692 -1 x11693 -1 x11694 -1 x11695 -1 x11696 >= 0 ;
+2 x12097 +2 x12098 +2 x12099 +2 x12100 -1 x11693 -1 x11694 -1 x11695 -1 x11696 -1 x11697 -1 x11698 -1 x11699 -1 x11700 >= 0 ;
+2 x12101 +2 x12102 +2 x12103 +2 x12104 -1 x11697 -1 x11698 -1 x11699 -1 x11700 -1 x11701 -1 x11702 -1 x11703 -1 x11704 >= 0 ;
+2 x12105 +2 x12106 +2 x12107 +2 x12108 -1 x11701 -1 x11702 -1 x11703 -1 x11704 -1 x11705 -1 x11706 -1 x11707 -1 x11708 >= 0 ;
+2 x12109 +2 x12110 +2 x12111 +2 x12112 -1 x11705 -1 x11706 -1 x11707 -1 x11708 -1 x11709 -1 x11710 -1 x11711 -1 x11712 >= 0 ;
+2 x12113 +2 x12114 +2 x12115 +2 x12116 -1 x11709 -1 x11710 -1 x11711 -1 x11712 -1 x11713 -1 x11714 -1 x11715 -1 x11716 >= 0 ;
+2 x12117 +2 x12118 +2 x12119 +2 x12120 -1 x11713 -1 x11714 -1 x11715 -1 x11716 -1 x11717 -1 x11718 -1 x11719 -1 x11720 >= 0 ;
+2 x12121 +2 x12122 +2 x12123 +2 x12124 -1 x11717 -1 x11718 -1 x11719 -1 x11720 -1 x11721 -1 x11722 -1 x11723 -1 x11724 >= 0 ;
+2 x12125 +2 x12126 +2 x12127 +2 x12128 -1 x11721 -1 x11722 -1 x11723 -1 x11724 -1 x11725 -1 x11726 -1 x11727 -1 x11728 >= 0 ;
+2 x12129 +2 x12130 +2 x12131 +2 x12132 -1 x11725 -1 x11726 -1 x11727 -1 x11728 -1 x11729 -1 x11730 -1 x11731 -1 x11732 >= 0 ;
+2 x12133 +2 x12134 +2 x12135 +2 x12136 -1 x11729 -1 x11730 -1 x11731 -1 x11732 -1 x11733 -1 x11734 -1 x11735 -1 x11736 >= 0 ;
+2 x12137 +2 x12138 +2 x12139 +2 x12140 -1 x11733 -1 x11734 -1 x11735 -1 x11736 -1 x11737 -1 x11738 -1 x11739 -1 x11740 >= 0 ;
+2 x12141 +2 x12142 +2 x12143 +2 x12144 -1 x11737 -1 x11738 -1 x11739 -1 x11740 -1 x11741 -1 x11742 -1 x11743 -1 x11744 >= 0 ;
+2 x12145 +2 x12146 +2 x12147 +2 x12148 -1 x11741 -1 x11742 -1 x11743 -1 x11744 -1 x11745 -1 x11746 -1 x11747 -1 x11748 >= 0 ;
+2 x12149 +2 x12150 +2 x12151 +2 x12152 -1 x11745 -1 x11746 -1 x11747 -1 x11748 -1 x11749 -1 x11750 -1 x11751 -1 x11752 >= 0 ;
+2 x12153 +2 x12154 +2 x12155 +2 x12156 -1 x11749 -1 x11750 -1 x11751 -1 x11752 -1 x11753 -1 x11754 -1 x11755 -1 x11756 >= 0 ;
+2 x12157 +2 x12158 +2 x12159 +2 x12160 -1 x11753 -1 x11754 -1 x11755 -1 x11756 -1 x11757 -1 x11758 -1 x11759 -1 x11760 >= 0 ;
+2 x12161 +2 x12162 +2 x12163 +2 x12164 -1 x11757 -1 x11758 -1 x11759 -1 x11760 -1 x11761 -1 x11762 -1 x11763 -1 x11764 >= 0 ;
+2 x12165 +2 x12166 +2 x12167 +2 x12168 -1 x11761 -1 x11762 -1 x11763 -1 x11764 -1 x11765 -1 x11766 -1 x11767 -1 x11768 >= 0 ;
+2 x12169 +2 x12170 +2 x12171 +2 x12172 -1 x11765 -1 x11766 -1 x11767 -1 x11768 -1 x11769 -1 x11770 -1 x11771 -1 x11772 >= 0 ;
+2 x12173 +2 x12174 +2 x12175 +2 x12176 -1 x11769 -1 x11770 -1 x11771 -1 x11772 -1 x11773 -1 x11774 -1 x11775 -1 x11776 >= 0 ;
+2 x12177 +2 x12178 +2 x12179 +2 x12180 -1 x11773 -1 x11774 -1 x11775 -1 x11776 -1 x11777 -1 x11778 -1 x11779 -1 x11780 >= 0 ;
+2 x12181 +2 x12182 +2 x12183 +2 x12184 -1 x11777 -1 x11778 -1 x11779 -1 x11780 -1 x11781 -1 x11782 -1 x11783 -1 x11784 >= 0 ;
+2 x12185 +2 x12186 +2 x12187 +2 x12188 -1 x11781 -1 x11782 -1 x11783 -1 x11784 -1 x11785 -1 x11786 -1 x11787 -1 x11788 >= 0 ;
+2 x12189 +2 x12190 +2 x12191 +2 x12192 -1 x11785 -1 x11786 -1 x11787 -1 x11788 -1 x11789 -1 x11790 -1 x11791 -1 x11792 >= 0 ;
+2 x12193 +2 x12194 +2 x12195 +2 x12196 -1 x11789 -1 x11790 -1 x11791 -1 x11792 -1 x11793 -1 x11794 -1 x11795 -1 x11796 >= 0 ;
+2 x12197 +2 x12198 +2 x12199 +2 x12200 -1 x11793 -1 x11794 -1 x11795 -1 x11796 -1 x11797 -1 x11798 -1 x11799 -1 x11800 >= 0 ;
+2 x12201 +2 x12202 +2 x12203 +2 x12204 -1 x11797 -1 x11798 -1 x11799 -1 x11800 -1 x11801 -1 x11802 -1 x11803 -1 x11804 >= 0 ;
+2 x12205 +2 x12206 +2 x12207 +2 x12208 -1 x11805 -1 x11806 -1 x11807 -1 x11808 -1 x11809 -1 x11810 -1 x11811 -1 x11812 >= 0 ;
+2 x12209 +2 x12210 +2 x12211 +2 x12212 -1 x11809 -1 x11810 -1 x11811 -1 x11812 -1 x11813 -1 x11814 -1 x11815 -1 x11816 >= 0 ;
+2 x12213 +2 x12214 +2 x12215 +2 x12216 -1 x11813 -1 x11814 -1 x11815 -1 x11816 -1 x11817 -1 x11818 -1 x11819 -1 x11820 >= 0 ;
+2 x12217 +2 x12218 +2 x12219 +2 x12220 -1 x11817 -1 x11818 -1 x11819 -1 x11820 -1 x11821 -1 x11822 -1 x11823 -1 x11824 >= 0 ;
+2 x12221 +2 x12222 +2 x12223 +2 x12224 -1 x11821 -1 x11822 -1 x11823 -1 x11824 -1 x11825 -1 x11826 -1 x11827 -1 x11828 >= 0 ;
+2 x12225 +2 x12226 +2 x12227 +2 x12228 -1 x11825 -1 x11826 -1 x11827 -1 x11828 -1 x11829 -1 x11830 -1 x11831 -1 x11832 >= 0 ;
+2 x12229 +2 x12230 +2 x12231 +2 x12232 -1 x11829 -1 x11830 -1 x11831 -1 x11832 -1 x11833 -1 x11834 -1 x11835 -1 x11836 >= 0 ;
+2 x12233 +2 x12234 +2 x12235 +2 x12236 -1 x11833 -1 x11834 -1 x11835 -1 x11836 -1 x11837 -1 x11838 -1 x11839 -1 x11840 >= 0 ;
+2 x12237 +2 x12238 +2 x12239 +2 x12240 -1 x11837 -1 x11838 -1 x11839 -1 x11840 -1 x11841 -1 x11842 -1 x11843 -1 x11844 >= 0 ;
+2 x12241 +2 x12242 +2 x12243 +2 x12244 -1 x11841 -1 x11842 -1 x11843 -1 x11844 -1 x11845 -1 x11846 -1 x11847 -1 x11848 >= 0 ;
+2 x12245 +2 x12246 +2 x12247 +2 x12248 -1 x11845 -1 x11846 -1 x11847 -1 x11848 -1 x11849 -1 x11850 -1 x11851 -1 x11852 >= 0 ;
+2 x12249 +2 x12250 +2 x12251 +2 x12252 -1 x11849 -1 x11850 -1 x11851 -1 x11852 -1 x11853 -1 x11854 -1 x11855 -1 x11856 >= 0 ;
+2 x12253 +2 x12254 +2 x12255 +2 x12256 -1 x11853 -1 x11854 -1 x11855 -1 x11856 -1 x11857 -1 x11858 -1 x11859 -1 x11860 >= 0 ;
+2 x12257 +2 x12258 +2 x12259 +2 x12260 -1 x11857 -1 x11858 -1 x11859 -1 x11860 -1 x11861 -1 x11862 -1 x11863 -1 x11864 >= 0 ;
+2 x12261 +2 x12262 +2 x12263 +2 x12264 -1 x11861 -1 x11862 -1 x11863 -1 x11864 -1 x11865 -1 x11866 -1 x11867 -1 x11868 >= 0 ;
+2 x12265 +2 x12266 +2 x12267 +2 x12268 -1 x11865 -1 x11866 -1 x11867 -1 x11868 -1 x11869 -1 x11870 -1 x11871 -1 x11872 >= 0 ;
+2 x12269 +2 x12270 +2 x12271 +2 x12272 -1 x11869 -1 x11870 -1 x11871 -1 x11872 -1 x11873 -1 x11874 -1 x11875 -1 x11876 >= 0 ;
+2 x12273 +2 x12274 +2 x12275 +2 x12276 -1 x11873 -1 x11874 -1 x11875 -1 x11876 -1 x11877 -1 x11878 -1 x11879 -1 x11880 >= 0 ;
+2 x12277 +2 x12278 +2 x12279 +2 x12280 -1 x11877 -1 x11878 -1 x11879 -1 x11880 -1 x11881 -1 x11882 -1 x11883 -1 x11884 >= 0 ;
+2 x12281 +2 x12282 +2 x12283 +2 x12284 -1 x11881 -1 x11882 -1 x11883 -1 x11884 -1 x11885 -1 x11886 -1 x11887 -1 x11888 >= 0 ;
+2 x12285 +2 x12286 +2 x12287 +2 x12288 -1 x11885 -1 x11886 -1 x11887 -1 x11888 -1 x11889 -1 x11890 -1 x11891 -1 x11892 >= 0 ;
+2 x12289 +2 x12290 +2 x12291 +2 x12292 -1 x11889 -1 x11890 -1 x11891 -1 x11892 -1 x11893 -1 x11894 -1 x11895 -1 x11896 >= 0 ;
+2 x12293 +2 x12294 +2 x12295 +2 x12296 -1 x11893 -1 x11894 -1 x11895 -1 x11896 -1 x11897 -1 x11898 -1 x11899 -1 x11900 >= 0 ;
+2 x12297 +2 x12298 +2 x12299 +2 x12300 -1 x11897 -1 x11898 -1 x11899 -1 x11900 -1 x11901 -1 x11902 -1 x11903 -1 x11904 >= 0 ;
+2 x12301 +2 x12302 +2 x12303 +2 x12304 -1 x11901 -1 x11902 -1 x11903 -1 x11904 -1 x11905 -1 x11906 -1 x11907 -1 x11908 >= 0 ;
+2 x12305 +2 x12306 +2 x12307 +2 x12308 -1 x11905 -1 x11906 -1 x11907 -1 x11908 -1 x11909 -1 x11910 -1 x11911 -1 x11912 >= 0 ;
+2 x12309 +2 x12310 +2 x12311 +2 x12312 -1 x11909 -1 x11910 -1 x11911 -1 x11912 -1 x11913 -1 x11914 -1 x11915 -1 x11916 >= 0 ;
+2 x12313 +2 x12314 +2 x12315 +2 x12316 -1 x11913 -1 x11914 -1 x11915 -1 x11916 -1 x11917 -1 x11918 -1 x11919 -1 x11920 >= 0 ;
+2 x12317 +2 x12318 +2 x12319 +2 x12320 -1 x11917 -1 x11918 -1 x11919 -1 x11920 -1 x11921 -1 x11922 -1 x11923 -1 x11924 >= 0 ;
+2 x12321 +2 x12322 +2 x12323 +2 x12324 -1 x11921 -1 x11922 -1 x11923 -1 x11924 -1 x11925 -1 x11926 -1 x11927 -1 x11928 >= 0 ;
+2 x12325 +2 x12326 +2 x12327 +2 x12328 -1 x11925 -1 x11926 -1 x11927 -1 x11928 -1 x11929 -1 x11930 -1 x11931 -1 x11932 >= 0 ;
+2 x12329 +2 x12330 +2 x12331 +2 x12332 -1 x11929 -1 x11930 -1 x11931 -1 x11932 -1 x11933 -1 x11934 -1 x11935 -1 x11936 >= 0 ;
+2 x12333 +2 x12334 +2 x12335 +2 x12336 -1 x11933 -1 x11934 -1 x11935 -1 x11936 -1 x11937 -1 x11938 -1 x11939 -1 x11940 >= 0 ;
+2 x12337 +2 x12338 +2 x12339 +2 x12340 -1 x11937 -1 x11938 -1 x11939 -1 x11940 -1 x11941 -1 x11942 -1 x11943 -1 x11944 >= 0 ;
+2 x12341 +2 x12342 +2 x12343 +2 x12344 -1 x11941 -1 x11942 -1 x11943 -1 x11944 -1 x11945 -1 x11946 -1 x11947 -1 x11948 >= 0 ;
+2 x12345 +2 x12346 +2 x12347 +2 x12348 -1 x11945 -1 x11946 -1 x11947 -1 x11948 -1 x11949 -1 x11950 -1 x11951 -1 x11952 >= 0 ;
+2 x12349 +2 x12350 +2 x12351 +2 x12352 -1 x11949 -1 x11950 -1 x11951 -1 x11952 -1 x11953 -1 x11954 -1 x11955 -1 x11956 >= 0 ;
+2 x12353 +2 x12354 +2 x12355 +2 x12356 -1 x11953 -1 x11954 -1 x11955 -1 x11956 -1 x11957 -1 x11958 -1 x11959 -1 x11960 >= 0 ;
+2 x12357 +2 x12358 +2 x12359 +2 x12360 -1 x11957 -1 x11958 -1 x11959 -1 x11960 -1 x11961 -1 x11962 -1 x11963 -1 x11964 >= 0 ;
+2 x12361 +2 x12362 +2 x12363 +2 x12364 -1 x11961 -1 x11962 -1 x11963 -1 x11964 -1 x11965 -1 x11966 -1 x11967 -1 x11968 >= 0 ;
+2 x12365 +2 x12366 +2 x12367 +2 x12368 -1 x11965 -1 x11966 -1 x11967 -1 x11968 -1 x11969 -1 x11970 -1 x11971 -1 x11972 >= 0 ;
+2 x12369 +2 x12370 +2 x12371 +2 x12372 -1 x11969 -1 x11970 -1 x11971 -1 x11972 -1 x11973 -1 x11974 -1 x11975 -1 x11976 >= 0 ;
+2 x12373 +2 x12374 +2 x12375 +2 x12376 -1 x11973 -1 x11974 -1 x11975 -1 x11976 -1 x11977 -1 x11978 -1 x11979 -1 x11980 >= 0 ;
+2 x12377 +2 x12378 +2 x12379 +2 x12380 -1 x11977 -1 x11978 -1 x11979 -1 x11980 -1 x11981 -1 x11982 -1 x11983 -1 x11984 >= 0 ;
+2 x12381 +2 x12382 +2 x12383 +2 x12384 -1 x11981 -1 x11982 -1 x11983 -1 x11984 -1 x11985 -1 x11986 -1 x11987 -1 x11988 >= 0 ;
+2 x12385 +2 x12386 +2 x12387 +2 x12388 -1 x11985 -1 x11986 -1 x11987 -1 x11988 -1 x11989 -1 x11990 -1 x11991 -1 x11992 >= 0 ;
+2 x12389 +2 x12390 +2 x12391 +2 x12392 -1 x11989 -1 x11990 -1 x11991 -1 x11992 -1 x11993 -1 x11994 -1 x11995 -1 x11996 >= 0 ;
+2 x12393 +2 x12394 +2 x12395 +2 x12396 -1 x11993 -1 x11994 -1 x11995 -1 x11996 -1 x11997 -1 x11998 -1 x11999 -1 x12000 >= 0 ;
+2 x12397 +2 x12398 +2 x12399 +2 x12400 -1 x11997 -1 x11998 -1 x11999 -1 x12000 -1 x12001 -1 x12002 -1 x12003 -1 x12004 >= 0 ;
+2 x12401 +2 x12402 +2 x12403 +2 x12404 -1 x12001 -1 x12002 -1 x12003 -1 x12004 -1 x12005 -1 x12006 -1 x12007 -1 x12008 >= 0 ;
+2 x12405 +2 x12406 +2 x12407 +2 x12408 -1 x12005 -1 x12006 -1 x12007 -1 x12008 -1 x12009 -1 x12010 -1 x12011 -1 x12012 >= 0 ;
+2 x12409 +2 x12410 +2 x12411 +2 x12412 -1 x12009 -1 x12010 -1 x12011 -1 x12012 -1 x12013 -1 x12014 -1 x12015 -1 x12016 >= 0 ;
+2 x12413 +2 x12414 +2 x12415 +2 x12416 -1 x12013 -1 x12014 -1 x12015 -1 x12016 -1 x12017 -1 x12018 -1 x12019 -1 x12020 >= 0 ;
+2 x12417 +2 x12418 +2 x12419 +2 x12420 -1 x12017 -1 x12018 -1 x12019 -1 x12020 -1 x12021 -1 x12022 -1 x12023 -1 x12024 >= 0 ;
+2 x12421 +2 x12422 +2 x12423 +2 x12424 -1 x12021 -1 x12022 -1 x12023 -1 x12024 -1 x12025 -1 x12026 -1 x12027 -1 x12028 >= 0 ;
+2 x12425 +2 x12426 +2 x12427 +2 x12428 -1 x12025 -1 x12026 -1 x12027 -1 x12028 -1 x12029 -1 x12030 -1 x12031 -1 x12032 >= 0 ;
+2 x12429 +2 x12430 +2 x12431 +2 x12432 -1 x12029 -1 x12030 -1 x12031 -1 x12032 -1 x12033 -1 x12034 -1 x12035 -1 x12036 >= 0 ;
+2 x12433 +2 x12434 +2 x12435 +2 x12436 -1 x12033 -1 x12034 -1 x12035 -1 x12036 -1 x12037 -1 x12038 -1 x12039 -1 x12040 >= 0 ;
+2 x12437 +2 x12438 +2 x12439 +2 x12440 -1 x12037 -1 x12038 -1 x12039 -1 x12040 -1 x12041 -1 x12042 -1 x12043 -1 x12044 >= 0 ;
+2 x12441 +2 x12442 +2 x12443 +2 x12444 -1 x12041 -1 x12042 -1 x12043 -1 x12044 -1 x12045 -1 x12046 -1 x12047 -1 x12048 >= 0 ;
+2 x12445 +2 x12446 +2 x12447 +2 x12448 -1 x12045 -1 x12046 -1 x12047 -1 x12048 -1 x12049 -1 x12050 -1 x12051 -1 x12052 >= 0 ;
+2 x12449 +2 x12450 +2 x12451 +2 x12452 -1 x12049 -1 x12050 -1 x12051 -1 x12052 -1 x12053 -1 x12054 -1 x12055 -1 x12056 >= 0 ;
+2 x12453 +2 x12454 +2 x12455 +2 x12456 -1 x12053 -1 x12054 -1 x12055 -1 x12056 -1 x12057 -1 x12058 -1 x12059 -1 x12060 >= 0 ;
+2 x12457 +2 x12458 +2 x12459 +2 x12460 -1 x12057 -1 x12058 -1 x12059 -1 x12060 -1 x12061 -1 x12062 -1 x12063 -1 x12064 >= 0 ;
+2 x12461 +2 x12462 +2 x12463 +2 x12464 -1 x12061 -1 x12062 -1 x12063 -1 x12064 -1 x12065 -1 x12066 -1 x12067 -1 x12068 >= 0 ;
+2 x12465 +2 x12466 +2 x12467 +2 x12468 -1 x12065 -1 x12066 -1 x12067 -1 x12068 -1 x12069 -1 x12070 -1 x12071 -1 x12072 >= 0 ;
+2 x12469 +2 x12470 +2 x12471 +2 x12472 -1 x12069 -1 x12070 -1 x12071 -1 x12072 -1 x12073 -1 x12074 -1 x12075 -1 x12076 >= 0 ;
+2 x12473 +2 x12474 +2 x12475 +2 x12476 -1 x12073 -1 x12074 -1 x12075 -1 x12076 -1 x12077 -1 x12078 -1 x12079 -1 x12080 >= 0 ;
+2 x12477 +2 x12478 +2 x12479 +2 x12480 -1 x12077 -1 x12078 -1 x12079 -1 x12080 -1 x12081 -1 x12082 -1 x12083 -1 x12084 >= 0 ;
+2 x12481 +2 x12482 +2 x12483 +2 x12484 -1 x12081 -1 x12082 -1 x12083 -1 x12084 -1 x12085 -1 x12086 -1 x12087 -1 x12088 >= 0 ;
+2 x12485 +2 x12486 +2 x12487 +2 x12488 -1 x12085 -1 x12086 -1 x12087 -1 x12088 -1 x12089 -1 x12090 -1 x12091 -1 x12092 >= 0 ;
+2 x12489 +2 x12490 +2 x12491 +2 x12492 -1 x12089 -1 x12090 -1 x12091 -1 x12092 -1 x12093 -1 x12094 -1 x12095 -1 x12096 >= 0 ;
+2 x12493 +2 x12494 +2 x12495 +2 x12496 -1 x12093 -1 x12094 -1 x12095 -1 x12096 -1 x12097 -1 x12098 -1 x12099 -1 x12100 >= 0 ;
+2 x12497 +2 x12498 +2 x12499 +2 x12500 -1 x12097 -1 x12098 -1 x12099 -1 x12100 -1 x12101 -1 x12102 -1 x12103 -1 x12104 >= 0 ;
+2 x12501 +2 x12502 +2 x12503 +2 x12504 -1 x12101 -1 x12102 -1 x12103 -1 x12104 -1 x12105 -1 x12106 -1 x12107 -1 x12108 >= 0 ;
+2 x12505 +2 x12506 +2 x12507 +2 x12508 -1 x12105 -1 x12106 -1 x12107 -1 x12108 -1 x12109 -1 x12110 -1 x12111 -1 x12112 >= 0 ;
+2 x12509 +2 x12510 +2 x12511 +2 x12512 -1 x12109 -1 x12110 -1 x12111 -1 x12112 -1 x12113 -1 x12114 -1 x12115 -1 x12116 >= 0 ;
+2 x12513 +2 x12514 +2 x12515 +2 x12516 -1 x12113 -1 x12114 -1 x12115 -1 x12116 -1 x12117 -1 x12118 -1 x12119 -1 x12120 >= 0 ;
+2 x12517 +2 x12518 +2 x12519 +2 x12520 -1 x12117 -1 x12118 -1 x12119 -1 x12120 -1 x12121 -1 x12122 -1 x12123 -1 x12124 >= 0 ;
+2 x12521 +2 x12522 +2 x12523 +2 x12524 -1 x12121 -1 x12122 -1 x12123 -1 x12124 -1 x12125 -1 x12126 -1 x12127 -1 x12128 >= 0 ;
+2 x12525 +2 x12526 +2 x12527 +2 x12528 -1 x12125 -1 x12126 -1 x12127 -1 x12128 -1 x12129 -1 x12130 -1 x12131 -1 x12132 >= 0 ;
+2 x12529 +2 x12530 +2 x12531 +2 x12532 -1 x12129 -1 x12130 -1 x12131 -1 x12132 -1 x12133 -1 x12134 -1 x12135 -1 x12136 >= 0 ;
+2 x12533 +2 x12534 +2 x12535 +2 x12536 -1 x12133 -1 x12134 -1 x12135 -1 x12136 -1 x12137 -1 x12138 -1 x12139 -1 x12140 >= 0 ;
+2 x12537 +2 x12538 +2 x12539 +2 x12540 -1 x12137 -1 x12138 -1 x12139 -1 x12140 -1 x12141 -1 x12142 -1 x12143 -1 x12144 >= 0 ;
+2 x12541 +2 x12542 +2 x12543 +2 x12544 -1 x12141 -1 x12142 -1 x12143 -1 x12144 -1 x12145 -1 x12146 -1 x12147 -1 x12148 >= 0 ;
+2 x12545 +2 x12546 +2 x12547 +2 x12548 -1 x12145 -1 x12146 -1 x12147 -1 x12148 -1 x12149 -1 x12150 -1 x12151 -1 x12152 >= 0 ;
+2 x12549 +2 x12550 +2 x12551 +2 x12552 -1 x12149 -1 x12150 -1 x12151 -1 x12152 -1 x12153 -1 x12154 -1 x12155 -1 x12156 >= 0 ;
+2 x12553 +2 x12554 +2 x12555 +2 x12556 -1 x12153 -1 x12154 -1 x12155 -1 x12156 -1 x12157 -1 x12158 -1 x12159 -1 x12160 >= 0 ;
+2 x12557 +2 x12558 +2 x12559 +2 x12560 -1 x12157 -1 x12158 -1 x12159 -1 x12160 -1 x12161 -1 x12162 -1 x12163 -1 x12164 >= 0 ;
+2 x12561 +2 x12562 +2 x12563 +2 x12564 -1 x12161 -1 x12162 -1 x12163 -1 x12164 -1 x12165 -1 x12166 -1 x12167 -1 x12168 >= 0 ;
+2 x12565 +2 x12566 +2 x12567 +2 x12568 -1 x12165 -1 x12166 -1 x12167 -1 x12168 -1 x12169 -1 x12170 -1 x12171 -1 x12172 >= 0 ;
+2 x12569 +2 x12570 +2 x12571 +2 x12572 -1 x12169 -1 x12170 -1 x12171 -1 x12172 -1 x12173 -1 x12174 -1 x12175 -1 x12176 >= 0 ;
+2 x12573 +2 x12574 +2 x12575 +2 x12576 -1 x12173 -1 x12174 -1 x12175 -1 x12176 -1 x12177 -1 x12178 -1 x12179 -1 x12180 >= 0 ;
+2 x12577 +2 x12578 +2 x12579 +2 x12580 -1 x12177 -1 x12178 -1 x12179 -1 x12180 -1 x12181 -1 x12182 -1 x12183 -1 x12184 >= 0 ;
+2 x12581 +2 x12582 +2 x12583 +2 x12584 -1 x12181 -1 x12182 -1 x12183 -1 x12184 -1 x12185 -1 x12186 -1 x12187 -1 x12188 >= 0 ;
+2 x12585 +2 x12586 +2 x12587 +2 x12588 -1 x12185 -1 x12186 -1 x12187 -1 x12188 -1 x12189 -1 x12190 -1 x12191 -1 x12192 >= 0 ;
+2 x12589 +2 x12590 +2 x12591 +2 x12592 -1 x12189 -1 x12190 -1 x12191 -1 x12192 -1 x12193 -1 x12194 -1 x12195 -1 x12196 >= 0 ;
+2 x12593 +2 x12594 +2 x12595 +2 x12596 -1 x12193 -1 x12194 -1 x12195 -1 x12196 -1 x12197 -1 x12198 -1 x12199 -1 x12200 >= 0 ;
+2 x12597 +2 x12598 +2 x12599 +2 x12600 -1 x12197 -1 x12198 -1 x12199 -1 x12200 -1 x12201 -1 x12202 -1 x12203 -1 x12204 >= 0 ;
+2 x12601 +2 x12602 +2 x12603 +2 x12604 -1 x12205 -1 x12206 -1 x12207 -1 x12208 -1 x12209 -1 x12210 -1 x12211 -1 x12212 >= 0 ;
+2 x12605 +2 x12606 +2 x12607 +2 x12608 -1 x12209 -1 x12210 -1 x12211 -1 x12212 -1 x12213 -1 x12214 -1 x12215 -1 x12216 >= 0 ;
+2 x12609 +2 x12610 +2 x12611 +2 x12612 -1 x12213 -1 x12214 -1 x12215 -1 x12216 -1 x12217 -1 x12218 -1 x12219 -1 x12220 >= 0 ;
+2 x12613 +2 x12614 +2 x12615 +2 x12616 -1 x12217 -1 x12218 -1 x12219 -1 x12220 -1 x12221 -1 x12222 -1 x12223 -1 x12224 >= 0 ;
+2 x12617 +2 x12618 +2 x12619 +2 x12620 -1 x12221 -1 x12222 -1 x12223 -1 x12224 -1 x12225 -1 x12226 -1 x12227 -1 x12228 >= 0 ;
+2 x12621 +2 x12622 +2 x12623 +2 x12624 -1 x12225 -1 x12226 -1 x12227 -1 x12228 -1 x12229 -1 x12230 -1 x12231 -1 x12232 >= 0 ;
+2 x12625 +2 x12626 +2 x12627 +2 x12628 -1 x12229 -1 x12230 -1 x12231 -1 x12232 -1 x12233 -1 x12234 -1 x12235 -1 x12236 >= 0 ;
+2 x12629 +2 x12630 +2 x12631 +2 x12632 -1 x12233 -1 x12234 -1 x12235 -1 x12236 -1 x12237 -1 x12238 -1 x12239 -1 x12240 >= 0 ;
+2 x12633 +2 x12634 +2 x12635 +2 x12636 -1 x12237 -1 x12238 -1 x12239 -1 x12240 -1 x12241 -1 x12242 -1 x12243 -1 x12244 >= 0 ;
+2 x12637 +2 x12638 +2 x12639 +2 x12640 -1 x12241 -1 x12242 -1 x12243 -1 x12244 -1 x12245 -1 x12246 -1 x12247 -1 x12248 >= 0 ;
+2 x12641 +2 x12642 +2 x12643 +2 x12644 -1 x12245 -1 x12246 -1 x12247 -1 x12248 -1 x12249 -1 x12250 -1 x12251 -1 x12252 >= 0 ;
+2 x12645 +2 x12646 +2 x12647 +2 x12648 -1 x12249 -1 x12250 -1 x12251 -1 x12252 -1 x12253 -1 x12254 -1 x12255 -1 x12256 >= 0 ;
+2 x12649 +2 x12650 +2 x12651 +2 x12652 -1 x12253 -1 x12254 -1 x12255 -1 x12256 -1 x12257 -1 x12258 -1 x12259 -1 x12260 >= 0 ;
+2 x12653 +2 x12654 +2 x12655 +2 x12656 -1 x12257 -1 x12258 -1 x12259 -1 x12260 -1 x12261 -1 x12262 -1 x12263 -1 x12264 >= 0 ;
+2 x12657 +2 x12658 +2 x12659 +2 x12660 -1 x12261 -1 x12262 -1 x12263 -1 x12264 -1 x12265 -1 x12266 -1 x12267 -1 x12268 >= 0 ;
+2 x12661 +2 x12662 +2 x12663 +2 x12664 -1 x12265 -1 x12266 -1 x12267 -1 x12268 -1 x12269 -1 x12270 -1 x12271 -1 x12272 >= 0 ;
+2 x12665 +2 x12666 +2 x12667 +2 x12668 -1 x12269 -1 x12270 -1 x12271 -1 x12272 -1 x12273 -1 x12274 -1 x12275 -1 x12276 >= 0 ;
+2 x12669 +2 x12670 +2 x12671 +2 x12672 -1 x12273 -1 x12274 -1 x12275 -1 x12276 -1 x12277 -1 x12278 -1 x12279 -1 x12280 >= 0 ;
+2 x12673 +2 x12674 +2 x12675 +2 x12676 -1 x12277 -1 x12278 -1 x12279 -1 x12280 -1 x12281 -1 x12282 -1 x12283 -1 x12284 >= 0 ;
+2 x12677 +2 x12678 +2 x12679 +2 x12680 -1 x12281 -1 x12282 -1 x12283 -1 x12284 -1 x12285 -1 x12286 -1 x12287 -1 x12288 >= 0 ;
+2 x12681 +2 x12682 +2 x12683 +2 x12684 -1 x12285 -1 x12286 -1 x12287 -1 x12288 -1 x12289 -1 x12290 -1 x12291 -1 x12292 >= 0 ;
+2 x12685 +2 x12686 +2 x12687 +2 x12688 -1 x12289 -1 x12290 -1 x12291 -1 x12292 -1 x12293 -1 x12294 -1 x12295 -1 x12296 >= 0 ;
+2 x12689 +2 x12690 +2 x12691 +2 x12692 -1 x12293 -1 x12294 -1 x12295 -1 x12296 -1 x12297 -1 x12298 -1 x12299 -1 x12300 >= 0 ;
+2 x12693 +2 x12694 +2 x12695 +2 x12696 -1 x12297 -1 x12298 -1 x12299 -1 x12300 -1 x12301 -1 x12302 -1 x12303 -1 x12304 >= 0 ;
+2 x12697 +2 x12698 +2 x12699 +2 x12700 -1 x12301 -1 x12302 -1 x12303 -1 x12304 -1 x12305 -1 x12306 -1 x12307 -1 x12308 >= 0 ;
+2 x12701 +2 x12702 +2 x12703 +2 x12704 -1 x12305 -1 x12306 -1 x12307 -1 x12308 -1 x12309 -1 x12310 -1 x12311 -1 x12312 >= 0 ;
+2 x12705 +2 x12706 +2 x12707 +2 x12708 -1 x12309 -1 x12310 -1 x12311 -1 x12312 -1 x12313 -1 x12314 -1 x12315 -1 x12316 >= 0 ;
+2 x12709 +2 x12710 +2 x12711 +2 x12712 -1 x12313 -1 x12314 -1 x12315 -1 x12316 -1 x12317 -1 x12318 -1 x12319 -1 x12320 >= 0 ;
+2 x12713 +2 x12714 +2 x12715 +2 x12716 -1 x12317 -1 x12318 -1 x12319 -1 x12320 -1 x12321 -1 x12322 -1 x12323 -1 x12324 >= 0 ;
+2 x12717 +2 x12718 +2 x12719 +2 x12720 -1 x12321 -1 x12322 -1 x12323 -1 x12324 -1 x12325 -1 x12326 -1 x12327 -1 x12328 >= 0 ;
+2 x12721 +2 x12722 +2 x12723 +2 x12724 -1 x12325 -1 x12326 -1 x12327 -1 x12328 -1 x12329 -1 x12330 -1 x12331 -1 x12332 >= 0 ;
+2 x12725 +2 x12726 +2 x12727 +2 x12728 -1 x12329 -1 x12330 -1 x12331 -1 x12332 -1 x12333 -1 x12334 -1 x12335 -1 x12336 >= 0 ;
+2 x12729 +2 x12730 +2 x12731 +2 x12732 -1 x12333 -1 x12334 -1 x12335 -1 x12336 -1 x12337 -1 x12338 -1 x12339 -1 x12340 >= 0 ;
+2 x12733 +2 x12734 +2 x12735 +2 x12736 -1 x12337 -1 x12338 -1 x12339 -1 x12340 -1 x12341 -1 x12342 -1 x12343 -1 x12344 >= 0 ;
+2 x12737 +2 x12738 +2 x12739 +2 x12740 -1 x12341 -1 x12342 -1 x12343 -1 x12344 -1 x12345 -1 x12346 -1 x12347 -1 x12348 >= 0 ;
+2 x12741 +2 x12742 +2 x12743 +2 x12744 -1 x12345 -1 x12346 -1 x12347 -1 x12348 -1 x12349 -1 x12350 -1 x12351 -1 x12352 >= 0 ;
+2 x12745 +2 x12746 +2 x12747 +2 x12748 -1 x12349 -1 x12350 -1 x12351 -1 x12352 -1 x12353 -1 x12354 -1 x12355 -1 x12356 >= 0 ;
+2 x12749 +2 x12750 +2 x12751 +2 x12752 -1 x12353 -1 x12354 -1 x12355 -1 x12356 -1 x12357 -1 x12358 -1 x12359 -1 x12360 >= 0 ;
+2 x12753 +2 x12754 +2 x12755 +2 x12756 -1 x12357 -1 x12358 -1 x12359 -1 x12360 -1 x12361 -1 x12362 -1 x12363 -1 x12364 >= 0 ;
+2 x12757 +2 x12758 +2 x12759 +2 x12760 -1 x12361 -1 x12362 -1 x12363 -1 x12364 -1 x12365 -1 x12366 -1 x12367 -1 x12368 >= 0 ;
+2 x12761 +2 x12762 +2 x12763 +2 x12764 -1 x12365 -1 x12366 -1 x12367 -1 x12368 -1 x12369 -1 x12370 -1 x12371 -1 x12372 >= 0 ;
+2 x12765 +2 x12766 +2 x12767 +2 x12768 -1 x12369 -1 x12370 -1 x12371 -1 x12372 -1 x12373 -1 x12374 -1 x12375 -1 x12376 >= 0 ;
+2 x12769 +2 x12770 +2 x12771 +2 x12772 -1 x12373 -1 x12374 -1 x12375 -1 x12376 -1 x12377 -1 x12378 -1 x12379 -1 x12380 >= 0 ;
+2 x12773 +2 x12774 +2 x12775 +2 x12776 -1 x12377 -1 x12378 -1 x12379 -1 x12380 -1 x12381 -1 x12382 -1 x12383 -1 x12384 >= 0 ;
+2 x12777 +2 x12778 +2 x12779 +2 x12780 -1 x12381 -1 x12382 -1 x12383 -1 x12384 -1 x12385 -1 x12386 -1 x12387 -1 x12388 >= 0 ;
+2 x12781 +2 x12782 +2 x12783 +2 x12784 -1 x12385 -1 x12386 -1 x12387 -1 x12388 -1 x12389 -1 x12390 -1 x12391 -1 x12392 >= 0 ;
+2 x12785 +2 x12786 +2 x12787 +2 x12788 -1 x12389 -1 x12390 -1 x12391 -1 x12392 -1 x12393 -1 x12394 -1 x12395 -1 x12396 >= 0 ;
+2 x12789 +2 x12790 +2 x12791 +2 x12792 -1 x12393 -1 x12394 -1 x12395 -1 x12396 -1 x12397 -1 x12398 -1 x12399 -1 x12400 >= 0 ;
+2 x12793 +2 x12794 +2 x12795 +2 x12796 -1 x12397 -1 x12398 -1 x12399 -1 x12400 -1 x12401 -1 x12402 -1 x12403 -1 x12404 >= 0 ;
+2 x12797 +2 x12798 +2 x12799 +2 x12800 -1 x12401 -1 x12402 -1 x12403 -1 x12404 -1 x12405 -1 x12406 -1 x12407 -1 x12408 >= 0 ;
+2 x12801 +2 x12802 +2 x12803 +2 x12804 -1 x12405 -1 x12406 -1 x12407 -1 x12408 -1 x12409 -1 x12410 -1 x12411 -1 x12412 >= 0 ;
+2 x12805 +2 x12806 +2 x12807 +2 x12808 -1 x12409 -1 x12410 -1 x12411 -1 x12412 -1 x12413 -1 x12414 -1 x12415 -1 x12416 >= 0 ;
+2 x12809 +2 x12810 +2 x12811 +2 x12812 -1 x12413 -1 x12414 -1 x12415 -1 x12416 -1 x12417 -1 x12418 -1 x12419 -1 x12420 >= 0 ;
+2 x12813 +2 x12814 +2 x12815 +2 x12816 -1 x12417 -1 x12418 -1 x12419 -1 x12420 -1 x12421 -1 x12422 -1 x12423 -1 x12424 >= 0 ;
+2 x12817 +2 x12818 +2 x12819 +2 x12820 -1 x12421 -1 x12422 -1 x12423 -1 x12424 -1 x12425 -1 x12426 -1 x12427 -1 x12428 >= 0 ;
+2 x12821 +2 x12822 +2 x12823 +2 x12824 -1 x12425 -1 x12426 -1 x12427 -1 x12428 -1 x12429 -1 x12430 -1 x12431 -1 x12432 >= 0 ;
+2 x12825 +2 x12826 +2 x12827 +2 x12828 -1 x12429 -1 x12430 -1 x12431 -1 x12432 -1 x12433 -1 x12434 -1 x12435 -1 x12436 >= 0 ;
+2 x12829 +2 x12830 +2 x12831 +2 x12832 -1 x12433 -1 x12434 -1 x12435 -1 x12436 -1 x12437 -1 x12438 -1 x12439 -1 x12440 >= 0 ;
+2 x12833 +2 x12834 +2 x12835 +2 x12836 -1 x12437 -1 x12438 -1 x12439 -1 x12440 -1 x12441 -1 x12442 -1 x12443 -1 x12444 >= 0 ;
+2 x12837 +2 x12838 +2 x12839 +2 x12840 -1 x12441 -1 x12442 -1 x12443 -1 x12444 -1 x12445 -1 x12446 -1 x12447 -1 x12448 >= 0 ;
+2 x12841 +2 x12842 +2 x12843 +2 x12844 -1 x12445 -1 x12446 -1 x12447 -1 x12448 -1 x12449 -1 x12450 -1 x12451 -1 x12452 >= 0 ;
+2 x12845 +2 x12846 +2 x12847 +2 x12848 -1 x12449 -1 x12450 -1 x12451 -1 x12452 -1 x12453 -1 x12454 -1 x12455 -1 x12456 >= 0 ;
+2 x12849 +2 x12850 +2 x12851 +2 x12852 -1 x12453 -1 x12454 -1 x12455 -1 x12456 -1 x12457 -1 x12458 -1 x12459 -1 x12460 >= 0 ;
+2 x12853 +2 x12854 +2 x12855 +2 x12856 -1 x12457 -1 x12458 -1 x12459 -1 x12460 -1 x12461 -1 x12462 -1 x12463 -1 x12464 >= 0 ;
+2 x12857 +2 x12858 +2 x12859 +2 x12860 -1 x12461 -1 x12462 -1 x12463 -1 x12464 -1 x12465 -1 x12466 -1 x12467 -1 x12468 >= 0 ;
+2 x12861 +2 x12862 +2 x12863 +2 x12864 -1 x12465 -1 x12466 -1 x12467 -1 x12468 -1 x12469 -1 x12470 -1 x12471 -1 x12472 >= 0 ;
+2 x12865 +2 x12866 +2 x12867 +2 x12868 -1 x12469 -1 x12470 -1 x12471 -1 x12472 -1 x12473 -1 x12474 -1 x12475 -1 x12476 >= 0 ;
+2 x12869 +2 x12870 +2 x12871 +2 x12872 -1 x12473 -1 x12474 -1 x12475 -1 x12476 -1 x12477 -1 x12478 -1 x12479 -1 x12480 >= 0 ;
+2 x12873 +2 x12874 +2 x12875 +2 x12876 -1 x12477 -1 x12478 -1 x12479 -1 x12480 -1 x12481 -1 x12482 -1 x12483 -1 x12484 >= 0 ;
+2 x12877 +2 x12878 +2 x12879 +2 x12880 -1 x12481 -1 x12482 -1 x12483 -1 x12484 -1 x12485 -1 x12486 -1 x12487 -1 x12488 >= 0 ;
+2 x12881 +2 x12882 +2 x12883 +2 x12884 -1 x12485 -1 x12486 -1 x12487 -1 x12488 -1 x12489 -1 x12490 -1 x12491 -1 x12492 >= 0 ;
+2 x12885 +2 x12886 +2 x12887 +2 x12888 -1 x12489 -1 x12490 -1 x12491 -1 x12492 -1 x12493 -1 x12494 -1 x12495 -1 x12496 >= 0 ;
+2 x12889 +2 x12890 +2 x12891 +2 x12892 -1 x12493 -1 x12494 -1 x12495 -1 x12496 -1 x12497 -1 x12498 -1 x12499 -1 x12500 >= 0 ;
+2 x12893 +2 x12894 +2 x12895 +2 x12896 -1 x12497 -1 x12498 -1 x12499 -1 x12500 -1 x12501 -1 x12502 -1 x12503 -1 x12504 >= 0 ;
+2 x12897 +2 x12898 +2 x12899 +2 x12900 -1 x12501 -1 x12502 -1 x12503 -1 x12504 -1 x12505 -1 x12506 -1 x12507 -1 x12508 >= 0 ;
+2 x12901 +2 x12902 +2 x12903 +2 x12904 -1 x12505 -1 x12506 -1 x12507 -1 x12508 -1 x12509 -1 x12510 -1 x12511 -1 x12512 >= 0 ;
+2 x12905 +2 x12906 +2 x12907 +2 x12908 -1 x12509 -1 x12510 -1 x12511 -1 x12512 -1 x12513 -1 x12514 -1 x12515 -1 x12516 >= 0 ;
+2 x12909 +2 x12910 +2 x12911 +2 x12912 -1 x12513 -1 x12514 -1 x12515 -1 x12516 -1 x12517 -1 x12518 -1 x12519 -1 x12520 >= 0 ;
+2 x12913 +2 x12914 +2 x12915 +2 x12916 -1 x12517 -1 x12518 -1 x12519 -1 x12520 -1 x12521 -1 x12522 -1 x12523 -1 x12524 >= 0 ;
+2 x12917 +2 x12918 +2 x12919 +2 x12920 -1 x12521 -1 x12522 -1 x12523 -1 x12524 -1 x12525 -1 x12526 -1 x12527 -1 x12528 >= 0 ;
+2 x12921 +2 x12922 +2 x12923 +2 x12924 -1 x12525 -1 x12526 -1 x12527 -1 x12528 -1 x12529 -1 x12530 -1 x12531 -1 x12532 >= 0 ;
+2 x12925 +2 x12926 +2 x12927 +2 x12928 -1 x12529 -1 x12530 -1 x12531 -1 x12532 -1 x12533 -1 x12534 -1 x12535 -1 x12536 >= 0 ;
+2 x12929 +2 x12930 +2 x12931 +2 x12932 -1 x12533 -1 x12534 -1 x12535 -1 x12536 -1 x12537 -1 x12538 -1 x12539 -1 x12540 >= 0 ;
+2 x12933 +2 x12934 +2 x12935 +2 x12936 -1 x12537 -1 x12538 -1 x12539 -1 x12540 -1 x12541 -1 x12542 -1 x12543 -1 x12544 >= 0 ;
+2 x12937 +2 x12938 +2 x12939 +2 x12940 -1 x12541 -1 x12542 -1 x12543 -1 x12544 -1 x12545 -1 x12546 -1 x12547 -1 x12548 >= 0 ;
+2 x12941 +2 x12942 +2 x12943 +2 x12944 -1 x12545 -1 x12546 -1 x12547 -1 x12548 -1 x12549 -1 x12550 -1 x12551 -1 x12552 >= 0 ;
+2 x12945 +2 x12946 +2 x12947 +2 x12948 -1 x12549 -1 x12550 -1 x12551 -1 x12552 -1 x12553 -1 x12554 -1 x12555 -1 x12556 >= 0 ;
+2 x12949 +2 x12950 +2 x12951 +2 x12952 -1 x12553 -1 x12554 -1 x12555 -1 x12556 -1 x12557 -1 x12558 -1 x12559 -1 x12560 >= 0 ;
+2 x12953 +2 x12954 +2 x12955 +2 x12956 -1 x12557 -1 x12558 -1 x12559 -1 x12560 -1 x12561 -1 x12562 -1 x12563 -1 x12564 >= 0 ;
+2 x12957 +2 x12958 +2 x12959 +2 x12960 -1 x12561 -1 x12562 -1 x12563 -1 x12564 -1 x12565 -1 x12566 -1 x12567 -1 x12568 >= 0 ;
+2 x12961 +2 x12962 +2 x12963 +2 x12964 -1 x12565 -1 x12566 -1 x12567 -1 x12568 -1 x12569 -1 x12570 -1 x12571 -1 x12572 >= 0 ;
+2 x12965 +2 x12966 +2 x12967 +2 x12968 -1 x12569 -1 x12570 -1 x12571 -1 x12572 -1 x12573 -1 x12574 -1 x12575 -1 x12576 >= 0 ;
+2 x12969 +2 x12970 +2 x12971 +2 x12972 -1 x12573 -1 x12574 -1 x12575 -1 x12576 -1 x12577 -1 x12578 -1 x12579 -1 x12580 >= 0 ;
+2 x12973 +2 x12974 +2 x12975 +2 x12976 -1 x12577 -1 x12578 -1 x12579 -1 x12580 -1 x12581 -1 x12582 -1 x12583 -1 x12584 >= 0 ;
+2 x12977 +2 x12978 +2 x12979 +2 x12980 -1 x12581 -1 x12582 -1 x12583 -1 x12584 -1 x12585 -1 x12586 -1 x12587 -1 x12588 >= 0 ;
+2 x12981 +2 x12982 +2 x12983 +2 x12984 -1 x12585 -1 x12586 -1 x12587 -1 x12588 -1 x12589 -1 x12590 -1 x12591 -1 x12592 >= 0 ;
+2 x12985 +2 x12986 +2 x12987 +2 x12988 -1 x12589 -1 x12590 -1 x12591 -1 x12592 -1 x12593 -1 x12594 -1 x12595 -1 x12596 >= 0 ;
+2 x12989 +2 x12990 +2 x12991 +2 x12992 -1 x12593 -1 x12594 -1 x12595 -1 x12596 -1 x12597 -1 x12598 -1 x12599 -1 x12600 >= 0 ;
+2 x12993 +2 x12994 +2 x12995 +2 x12996 -1 x12601 -1 x12602 -1 x12603 -1 x12604 -1 x12605 -1 x12606 -1 x12607 -1 x12608 >= 0 ;
+2 x12997 +2 x12998 +2 x12999 +2 x13000 -1 x12605 -1 x12606 -1 x12607 -1 x12608 -1 x12609 -1 x12610 -1 x12611 -1 x12612 >= 0 ;
+2 x13001 +2 x13002 +2 x13003 +2 x13004 -1 x12609 -1 x12610 -1 x12611 -1 x12612 -1 x12613 -1 x12614 -1 x12615 -1 x12616 >= 0 ;
+2 x13005 +2 x13006 +2 x13007 +2 x13008 -1 x12613 -1 x12614 -1 x12615 -1 x12616 -1 x12617 -1 x12618 -1 x12619 -1 x12620 >= 0 ;
+2 x13009 +2 x13010 +2 x13011 +2 x13012 -1 x12617 -1 x12618 -1 x12619 -1 x12620 -1 x12621 -1 x12622 -1 x12623 -1 x12624 >= 0 ;
+2 x13013 +2 x13014 +2 x13015 +2 x13016 -1 x12621 -1 x12622 -1 x12623 -1 x12624 -1 x12625 -1 x12626 -1 x12627 -1 x12628 >= 0 ;
+2 x13017 +2 x13018 +2 x13019 +2 x13020 -1 x12625 -1 x12626 -1 x12627 -1 x12628 -1 x12629 -1 x12630 -1 x12631 -1 x12632 >= 0 ;
+2 x13021 +2 x13022 +2 x13023 +2 x13024 -1 x12629 -1 x12630 -1 x12631 -1 x12632 -1 x12633 -1 x12634 -1 x12635 -1 x12636 >= 0 ;
+2 x13025 +2 x13026 +2 x13027 +2 x13028 -1 x12633 -1 x12634 -1 x12635 -1 x12636 -1 x12637 -1 x12638 -1 x12639 -1 x12640 >= 0 ;
+2 x13029 +2 x13030 +2 x13031 +2 x13032 -1 x12637 -1 x12638 -1 x12639 -1 x12640 -1 x12641 -1 x12642 -1 x12643 -1 x12644 >= 0 ;
+2 x13033 +2 x13034 +2 x13035 +2 x13036 -1 x12641 -1 x12642 -1 x12643 -1 x12644 -1 x12645 -1 x12646 -1 x12647 -1 x12648 >= 0 ;
+2 x13037 +2 x13038 +2 x13039 +2 x13040 -1 x12645 -1 x12646 -1 x12647 -1 x12648 -1 x12649 -1 x12650 -1 x12651 -1 x12652 >= 0 ;
+2 x13041 +2 x13042 +2 x13043 +2 x13044 -1 x12649 -1 x12650 -1 x12651 -1 x12652 -1 x12653 -1 x12654 -1 x12655 -1 x12656 >= 0 ;
+2 x13045 +2 x13046 +2 x13047 +2 x13048 -1 x12653 -1 x12654 -1 x12655 -1 x12656 -1 x12657 -1 x12658 -1 x12659 -1 x12660 >= 0 ;
+2 x13049 +2 x13050 +2 x13051 +2 x13052 -1 x12657 -1 x12658 -1 x12659 -1 x12660 -1 x12661 -1 x12662 -1 x12663 -1 x12664 >= 0 ;
+2 x13053 +2 x13054 +2 x13055 +2 x13056 -1 x12661 -1 x12662 -1 x12663 -1 x12664 -1 x12665 -1 x12666 -1 x12667 -1 x12668 >= 0 ;
+2 x13057 +2 x13058 +2 x13059 +2 x13060 -1 x12665 -1 x12666 -1 x12667 -1 x12668 -1 x12669 -1 x12670 -1 x12671 -1 x12672 >= 0 ;
+2 x13061 +2 x13062 +2 x13063 +2 x13064 -1 x12669 -1 x12670 -1 x12671 -1 x12672 -1 x12673 -1 x12674 -1 x12675 -1 x12676 >= 0 ;
+2 x13065 +2 x13066 +2 x13067 +2 x13068 -1 x12673 -1 x12674 -1 x12675 -1 x12676 -1 x12677 -1 x12678 -1 x12679 -1 x12680 >= 0 ;
+2 x13069 +2 x13070 +2 x13071 +2 x13072 -1 x12677 -1 x12678 -1 x12679 -1 x12680 -1 x12681 -1 x12682 -1 x12683 -1 x12684 >= 0 ;
+2 x13073 +2 x13074 +2 x13075 +2 x13076 -1 x12681 -1 x12682 -1 x12683 -1 x12684 -1 x12685 -1 x12686 -1 x12687 -1 x12688 >= 0 ;
+2 x13077 +2 x13078 +2 x13079 +2 x13080 -1 x12685 -1 x12686 -1 x12687 -1 x12688 -1 x12689 -1 x12690 -1 x12691 -1 x12692 >= 0 ;
+2 x13081 +2 x13082 +2 x13083 +2 x13084 -1 x12689 -1 x12690 -1 x12691 -1 x12692 -1 x12693 -1 x12694 -1 x12695 -1 x12696 >= 0 ;
+2 x13085 +2 x13086 +2 x13087 +2 x13088 -1 x12693 -1 x12694 -1 x12695 -1 x12696 -1 x12697 -1 x12698 -1 x12699 -1 x12700 >= 0 ;
+2 x13089 +2 x13090 +2 x13091 +2 x13092 -1 x12697 -1 x12698 -1 x12699 -1 x12700 -1 x12701 -1 x12702 -1 x12703 -1 x12704 >= 0 ;
+2 x13093 +2 x13094 +2 x13095 +2 x13096 -1 x12701 -1 x12702 -1 x12703 -1 x12704 -1 x12705 -1 x12706 -1 x12707 -1 x12708 >= 0 ;
+2 x13097 +2 x13098 +2 x13099 +2 x13100 -1 x12705 -1 x12706 -1 x12707 -1 x12708 -1 x12709 -1 x12710 -1 x12711 -1 x12712 >= 0 ;
+2 x13101 +2 x13102 +2 x13103 +2 x13104 -1 x12709 -1 x12710 -1 x12711 -1 x12712 -1 x12713 -1 x12714 -1 x12715 -1 x12716 >= 0 ;
+2 x13105 +2 x13106 +2 x13107 +2 x13108 -1 x12713 -1 x12714 -1 x12715 -1 x12716 -1 x12717 -1 x12718 -1 x12719 -1 x12720 >= 0 ;
+2 x13109 +2 x13110 +2 x13111 +2 x13112 -1 x12717 -1 x12718 -1 x12719 -1 x12720 -1 x12721 -1 x12722 -1 x12723 -1 x12724 >= 0 ;
+2 x13113 +2 x13114 +2 x13115 +2 x13116 -1 x12721 -1 x12722 -1 x12723 -1 x12724 -1 x12725 -1 x12726 -1 x12727 -1 x12728 >= 0 ;
+2 x13117 +2 x13118 +2 x13119 +2 x13120 -1 x12725 -1 x12726 -1 x12727 -1 x12728 -1 x12729 -1 x12730 -1 x12731 -1 x12732 >= 0 ;
+2 x13121 +2 x13122 +2 x13123 +2 x13124 -1 x12729 -1 x12730 -1 x12731 -1 x12732 -1 x12733 -1 x12734 -1 x12735 -1 x12736 >= 0 ;
+2 x13125 +2 x13126 +2 x13127 +2 x13128 -1 x12733 -1 x12734 -1 x12735 -1 x12736 -1 x12737 -1 x12738 -1 x12739 -1 x12740 >= 0 ;
+2 x13129 +2 x13130 +2 x13131 +2 x13132 -1 x12737 -1 x12738 -1 x12739 -1 x12740 -1 x12741 -1 x12742 -1 x12743 -1 x12744 >= 0 ;
+2 x13133 +2 x13134 +2 x13135 +2 x13136 -1 x12741 -1 x12742 -1 x12743 -1 x12744 -1 x12745 -1 x12746 -1 x12747 -1 x12748 >= 0 ;
+2 x13137 +2 x13138 +2 x13139 +2 x13140 -1 x12745 -1 x12746 -1 x12747 -1 x12748 -1 x12749 -1 x12750 -1 x12751 -1 x12752 >= 0 ;
+2 x13141 +2 x13142 +2 x13143 +2 x13144 -1 x12749 -1 x12750 -1 x12751 -1 x12752 -1 x12753 -1 x12754 -1 x12755 -1 x12756 >= 0 ;
+2 x13145 +2 x13146 +2 x13147 +2 x13148 -1 x12753 -1 x12754 -1 x12755 -1 x12756 -1 x12757 -1 x12758 -1 x12759 -1 x12760 >= 0 ;
+2 x13149 +2 x13150 +2 x13151 +2 x13152 -1 x12757 -1 x12758 -1 x12759 -1 x12760 -1 x12761 -1 x12762 -1 x12763 -1 x12764 >= 0 ;
+2 x13153 +2 x13154 +2 x13155 +2 x13156 -1 x12761 -1 x12762 -1 x12763 -1 x12764 -1 x12765 -1 x12766 -1 x12767 -1 x12768 >= 0 ;
+2 x13157 +2 x13158 +2 x13159 +2 x13160 -1 x12765 -1 x12766 -1 x12767 -1 x12768 -1 x12769 -1 x12770 -1 x12771 -1 x12772 >= 0 ;
+2 x13161 +2 x13162 +2 x13163 +2 x13164 -1 x12769 -1 x12770 -1 x12771 -1 x12772 -1 x12773 -1 x12774 -1 x12775 -1 x12776 >= 0 ;
+2 x13165 +2 x13166 +2 x13167 +2 x13168 -1 x12773 -1 x12774 -1 x12775 -1 x12776 -1 x12777 -1 x12778 -1 x12779 -1 x12780 >= 0 ;
+2 x13169 +2 x13170 +2 x13171 +2 x13172 -1 x12777 -1 x12778 -1 x12779 -1 x12780 -1 x12781 -1 x12782 -1 x12783 -1 x12784 >= 0 ;
+2 x13173 +2 x13174 +2 x13175 +2 x13176 -1 x12781 -1 x12782 -1 x12783 -1 x12784 -1 x12785 -1 x12786 -1 x12787 -1 x12788 >= 0 ;
+2 x13177 +2 x13178 +2 x13179 +2 x13180 -1 x12785 -1 x12786 -1 x12787 -1 x12788 -1 x12789 -1 x12790 -1 x12791 -1 x12792 >= 0 ;
+2 x13181 +2 x13182 +2 x13183 +2 x13184 -1 x12789 -1 x12790 -1 x12791 -1 x12792 -1 x12793 -1 x12794 -1 x12795 -1 x12796 >= 0 ;
+2 x13185 +2 x13186 +2 x13187 +2 x13188 -1 x12793 -1 x12794 -1 x12795 -1 x12796 -1 x12797 -1 x12798 -1 x12799 -1 x12800 >= 0 ;
+2 x13189 +2 x13190 +2 x13191 +2 x13192 -1 x12797 -1 x12798 -1 x12799 -1 x12800 -1 x12801 -1 x12802 -1 x12803 -1 x12804 >= 0 ;
+2 x13193 +2 x13194 +2 x13195 +2 x13196 -1 x12801 -1 x12802 -1 x12803 -1 x12804 -1 x12805 -1 x12806 -1 x12807 -1 x12808 >= 0 ;
+2 x13197 +2 x13198 +2 x13199 +2 x13200 -1 x12805 -1 x12806 -1 x12807 -1 x12808 -1 x12809 -1 x12810 -1 x12811 -1 x12812 >= 0 ;
+2 x13201 +2 x13202 +2 x13203 +2 x13204 -1 x12809 -1 x12810 -1 x12811 -1 x12812 -1 x12813 -1 x12814 -1 x12815 -1 x12816 >= 0 ;
+2 x13205 +2 x13206 +2 x13207 +2 x13208 -1 x12813 -1 x12814 -1 x12815 -1 x12816 -1 x12817 -1 x12818 -1 x12819 -1 x12820 >= 0 ;
+2 x13209 +2 x13210 +2 x13211 +2 x13212 -1 x12817 -1 x12818 -1 x12819 -1 x12820 -1 x12821 -1 x12822 -1 x12823 -1 x12824 >= 0 ;
+2 x13213 +2 x13214 +2 x13215 +2 x13216 -1 x12821 -1 x12822 -1 x12823 -1 x12824 -1 x12825 -1 x12826 -1 x12827 -1 x12828 >= 0 ;
+2 x13217 +2 x13218 +2 x13219 +2 x13220 -1 x12825 -1 x12826 -1 x12827 -1 x12828 -1 x12829 -1 x12830 -1 x12831 -1 x12832 >= 0 ;
+2 x13221 +2 x13222 +2 x13223 +2 x13224 -1 x12829 -1 x12830 -1 x12831 -1 x12832 -1 x12833 -1 x12834 -1 x12835 -1 x12836 >= 0 ;
+2 x13225 +2 x13226 +2 x13227 +2 x13228 -1 x12833 -1 x12834 -1 x12835 -1 x12836 -1 x12837 -1 x12838 -1 x12839 -1 x12840 >= 0 ;
+2 x13229 +2 x13230 +2 x13231 +2 x13232 -1 x12837 -1 x12838 -1 x12839 -1 x12840 -1 x12841 -1 x12842 -1 x12843 -1 x12844 >= 0 ;
+2 x13233 +2 x13234 +2 x13235 +2 x13236 -1 x12841 -1 x12842 -1 x12843 -1 x12844 -1 x12845 -1 x12846 -1 x12847 -1 x12848 >= 0 ;
+2 x13237 +2 x13238 +2 x13239 +2 x13240 -1 x12845 -1 x12846 -1 x12847 -1 x12848 -1 x12849 -1 x12850 -1 x12851 -1 x12852 >= 0 ;
+2 x13241 +2 x13242 +2 x13243 +2 x13244 -1 x12849 -1 x12850 -1 x12851 -1 x12852 -1 x12853 -1 x12854 -1 x12855 -1 x12856 >= 0 ;
+2 x13245 +2 x13246 +2 x13247 +2 x13248 -1 x12853 -1 x12854 -1 x12855 -1 x12856 -1 x12857 -1 x12858 -1 x12859 -1 x12860 >= 0 ;
+2 x13249 +2 x13250 +2 x13251 +2 x13252 -1 x12857 -1 x12858 -1 x12859 -1 x12860 -1 x12861 -1 x12862 -1 x12863 -1 x12864 >= 0 ;
+2 x13253 +2 x13254 +2 x13255 +2 x13256 -1 x12861 -1 x12862 -1 x12863 -1 x12864 -1 x12865 -1 x12866 -1 x12867 -1 x12868 >= 0 ;
+2 x13257 +2 x13258 +2 x13259 +2 x13260 -1 x12865 -1 x12866 -1 x12867 -1 x12868 -1 x12869 -1 x12870 -1 x12871 -1 x12872 >= 0 ;
+2 x13261 +2 x13262 +2 x13263 +2 x13264 -1 x12869 -1 x12870 -1 x12871 -1 x12872 -1 x12873 -1 x12874 -1 x12875 -1 x12876 >= 0 ;
+2 x13265 +2 x13266 +2 x13267 +2 x13268 -1 x12873 -1 x12874 -1 x12875 -1 x12876 -1 x12877 -1 x12878 -1 x12879 -1 x12880 >= 0 ;
+2 x13269 +2 x13270 +2 x13271 +2 x13272 -1 x12877 -1 x12878 -1 x12879 -1 x12880 -1 x12881 -1 x12882 -1 x12883 -1 x12884 >= 0 ;
+2 x13273 +2 x13274 +2 x13275 +2 x13276 -1 x12881 -1 x12882 -1 x12883 -1 x12884 -1 x12885 -1 x12886 -1 x12887 -1 x12888 >= 0 ;
+2 x13277 +2 x13278 +2 x13279 +2 x13280 -1 x12885 -1 x12886 -1 x12887 -1 x12888 -1 x12889 -1 x12890 -1 x12891 -1 x12892 >= 0 ;
+2 x13281 +2 x13282 +2 x13283 +2 x13284 -1 x12889 -1 x12890 -1 x12891 -1 x12892 -1 x12893 -1 x12894 -1 x12895 -1 x12896 >= 0 ;
+2 x13285 +2 x13286 +2 x13287 +2 x13288 -1 x12893 -1 x12894 -1 x12895 -1 x12896 -1 x12897 -1 x12898 -1 x12899 -1 x12900 >= 0 ;
+2 x13289 +2 x13290 +2 x13291 +2 x13292 -1 x12897 -1 x12898 -1 x12899 -1 x12900 -1 x12901 -1 x12902 -1 x12903 -1 x12904 >= 0 ;
+2 x13293 +2 x13294 +2 x13295 +2 x13296 -1 x12901 -1 x12902 -1 x12903 -1 x12904 -1 x12905 -1 x12906 -1 x12907 -1 x12908 >= 0 ;
+2 x13297 +2 x13298 +2 x13299 +2 x13300 -1 x12905 -1 x12906 -1 x12907 -1 x12908 -1 x12909 -1 x12910 -1 x12911 -1 x12912 >= 0 ;
+2 x13301 +2 x13302 +2 x13303 +2 x13304 -1 x12909 -1 x12910 -1 x12911 -1 x12912 -1 x12913 -1 x12914 -1 x12915 -1 x12916 >= 0 ;
+2 x13305 +2 x13306 +2 x13307 +2 x13308 -1 x12913 -1 x12914 -1 x12915 -1 x12916 -1 x12917 -1 x12918 -1 x12919 -1 x12920 >= 0 ;
+2 x13309 +2 x13310 +2 x13311 +2 x13312 -1 x12917 -1 x12918 -1 x12919 -1 x12920 -1 x12921 -1 x12922 -1 x12923 -1 x12924 >= 0 ;
+2 x13313 +2 x13314 +2 x13315 +2 x13316 -1 x12921 -1 x12922 -1 x12923 -1 x12924 -1 x12925 -1 x12926 -1 x12927 -1 x12928 >= 0 ;
+2 x13317 +2 x13318 +2 x13319 +2 x13320 -1 x12925 -1 x12926 -1 x12927 -1 x12928 -1 x12929 -1 x12930 -1 x12931 -1 x12932 >= 0 ;
+2 x13321 +2 x13322 +2 x13323 +2 x13324 -1 x12929 -1 x12930 -1 x12931 -1 x12932 -1 x12933 -1 x12934 -1 x12935 -1 x12936 >= 0 ;
+2 x13325 +2 x13326 +2 x13327 +2 x13328 -1 x12933 -1 x12934 -1 x12935 -1 x12936 -1 x12937 -1 x12938 -1 x12939 -1 x12940 >= 0 ;
+2 x13329 +2 x13330 +2 x13331 +2 x13332 -1 x12937 -1 x12938 -1 x12939 -1 x12940 -1 x12941 -1 x12942 -1 x12943 -1 x12944 >= 0 ;
+2 x13333 +2 x13334 +2 x13335 +2 x13336 -1 x12941 -1 x12942 -1 x12943 -1 x12944 -1 x12945 -1 x12946 -1 x12947 -1 x12948 >= 0 ;
+2 x13337 +2 x13338 +2 x13339 +2 x13340 -1 x12945 -1 x12946 -1 x12947 -1 x12948 -1 x12949 -1 x12950 -1 x12951 -1 x12952 >= 0 ;
+2 x13341 +2 x13342 +2 x13343 +2 x13344 -1 x12949 -1 x12950 -1 x12951 -1 x12952 -1 x12953 -1 x12954 -1 x12955 -1 x12956 >= 0 ;
+2 x13345 +2 x13346 +2 x13347 +2 x13348 -1 x12953 -1 x12954 -1 x12955 -1 x12956 -1 x12957 -1 x12958 -1 x12959 -1 x12960 >= 0 ;
+2 x13349 +2 x13350 +2 x13351 +2 x13352 -1 x12957 -1 x12958 -1 x12959 -1 x12960 -1 x12961 -1 x12962 -1 x12963 -1 x12964 >= 0 ;
+2 x13353 +2 x13354 +2 x13355 +2 x13356 -1 x12961 -1 x12962 -1 x12963 -1 x12964 -1 x12965 -1 x12966 -1 x12967 -1 x12968 >= 0 ;
+2 x13357 +2 x13358 +2 x13359 +2 x13360 -1 x12965 -1 x12966 -1 x12967 -1 x12968 -1 x12969 -1 x12970 -1 x12971 -1 x12972 >= 0 ;
+2 x13361 +2 x13362 +2 x13363 +2 x13364 -1 x12969 -1 x12970 -1 x12971 -1 x12972 -1 x12973 -1 x12974 -1 x12975 -1 x12976 >= 0 ;
+2 x13365 +2 x13366 +2 x13367 +2 x13368 -1 x12973 -1 x12974 -1 x12975 -1 x12976 -1 x12977 -1 x12978 -1 x12979 -1 x12980 >= 0 ;
+2 x13369 +2 x13370 +2 x13371 +2 x13372 -1 x12977 -1 x12978 -1 x12979 -1 x12980 -1 x12981 -1 x12982 -1 x12983 -1 x12984 >= 0 ;
+2 x13373 +2 x13374 +2 x13375 +2 x13376 -1 x12981 -1 x12982 -1 x12983 -1 x12984 -1 x12985 -1 x12986 -1 x12987 -1 x12988 >= 0 ;
+2 x13377 +2 x13378 +2 x13379 +2 x13380 -1 x12985 -1 x12986 -1 x12987 -1 x12988 -1 x12989 -1 x12990 -1 x12991 -1 x12992 >= 0 ;
+2 x13381 +2 x13382 +2 x13383 +2 x13384 -1 x12993 -1 x12994 -1 x12995 -1 x12996 -1 x12997 -1 x12998 -1 x12999 -1 x13000 >= 0 ;
+2 x13385 +2 x13386 +2 x13387 +2 x13388 -1 x12997 -1 x12998 -1 x12999 -1 x13000 -1 x13001 -1 x13002 -1 x13003 -1 x13004 >= 0 ;
+2 x13389 +2 x13390 +2 x13391 +2 x13392 -1 x13001 -1 x13002 -1 x13003 -1 x13004 -1 x13005 -1 x13006 -1 x13007 -1 x13008 >= 0 ;
+2 x13393 +2 x13394 +2 x13395 +2 x13396 -1 x13005 -1 x13006 -1 x13007 -1 x13008 -1 x13009 -1 x13010 -1 x13011 -1 x13012 >= 0 ;
+2 x13397 +2 x13398 +2 x13399 +2 x13400 -1 x13009 -1 x13010 -1 x13011 -1 x13012 -1 x13013 -1 x13014 -1 x13015 -1 x13016 >= 0 ;
+2 x13401 +2 x13402 +2 x13403 +2 x13404 -1 x13013 -1 x13014 -1 x13015 -1 x13016 -1 x13017 -1 x13018 -1 x13019 -1 x13020 >= 0 ;
+2 x13405 +2 x13406 +2 x13407 +2 x13408 -1 x13017 -1 x13018 -1 x13019 -1 x13020 -1 x13021 -1 x13022 -1 x13023 -1 x13024 >= 0 ;
+2 x13409 +2 x13410 +2 x13411 +2 x13412 -1 x13021 -1 x13022 -1 x13023 -1 x13024 -1 x13025 -1 x13026 -1 x13027 -1 x13028 >= 0 ;
+2 x13413 +2 x13414 +2 x13415 +2 x13416 -1 x13025 -1 x13026 -1 x13027 -1 x13028 -1 x13029 -1 x13030 -1 x13031 -1 x13032 >= 0 ;
+2 x13417 +2 x13418 +2 x13419 +2 x13420 -1 x13029 -1 x13030 -1 x13031 -1 x13032 -1 x13033 -1 x13034 -1 x13035 -1 x13036 >= 0 ;
+2 x13421 +2 x13422 +2 x13423 +2 x13424 -1 x13033 -1 x13034 -1 x13035 -1 x13036 -1 x13037 -1 x13038 -1 x13039 -1 x13040 >= 0 ;
+2 x13425 +2 x13426 +2 x13427 +2 x13428 -1 x13037 -1 x13038 -1 x13039 -1 x13040 -1 x13041 -1 x13042 -1 x13043 -1 x13044 >= 0 ;
+2 x13429 +2 x13430 +2 x13431 +2 x13432 -1 x13041 -1 x13042 -1 x13043 -1 x13044 -1 x13045 -1 x13046 -1 x13047 -1 x13048 >= 0 ;
+2 x13433 +2 x13434 +2 x13435 +2 x13436 -1 x13045 -1 x13046 -1 x13047 -1 x13048 -1 x13049 -1 x13050 -1 x13051 -1 x13052 >= 0 ;
+2 x13437 +2 x13438 +2 x13439 +2 x13440 -1 x13049 -1 x13050 -1 x13051 -1 x13052 -1 x13053 -1 x13054 -1 x13055 -1 x13056 >= 0 ;
+2 x13441 +2 x13442 +2 x13443 +2 x13444 -1 x13053 -1 x13054 -1 x13055 -1 x13056 -1 x13057 -1 x13058 -1 x13059 -1 x13060 >= 0 ;
+2 x13445 +2 x13446 +2 x13447 +2 x13448 -1 x13057 -1 x13058 -1 x13059 -1 x13060 -1 x13061 -1 x13062 -1 x13063 -1 x13064 >= 0 ;
+2 x13449 +2 x13450 +2 x13451 +2 x13452 -1 x13061 -1 x13062 -1 x13063 -1 x13064 -1 x13065 -1 x13066 -1 x13067 -1 x13068 >= 0 ;
+2 x13453 +2 x13454 +2 x13455 +2 x13456 -1 x13065 -1 x13066 -1 x13067 -1 x13068 -1 x13069 -1 x13070 -1 x13071 -1 x13072 >= 0 ;
+2 x13457 +2 x13458 +2 x13459 +2 x13460 -1 x13069 -1 x13070 -1 x13071 -1 x13072 -1 x13073 -1 x13074 -1 x13075 -1 x13076 >= 0 ;
+2 x13461 +2 x13462 +2 x13463 +2 x13464 -1 x13073 -1 x13074 -1 x13075 -1 x13076 -1 x13077 -1 x13078 -1 x13079 -1 x13080 >= 0 ;
+2 x13465 +2 x13466 +2 x13467 +2 x13468 -1 x13077 -1 x13078 -1 x13079 -1 x13080 -1 x13081 -1 x13082 -1 x13083 -1 x13084 >= 0 ;
+2 x13469 +2 x13470 +2 x13471 +2 x13472 -1 x13081 -1 x13082 -1 x13083 -1 x13084 -1 x13085 -1 x13086 -1 x13087 -1 x13088 >= 0 ;
+2 x13473 +2 x13474 +2 x13475 +2 x13476 -1 x13085 -1 x13086 -1 x13087 -1 x13088 -1 x13089 -1 x13090 -1 x13091 -1 x13092 >= 0 ;
+2 x13477 +2 x13478 +2 x13479 +2 x13480 -1 x13089 -1 x13090 -1 x13091 -1 x13092 -1 x13093 -1 x13094 -1 x13095 -1 x13096 >= 0 ;
+2 x13481 +2 x13482 +2 x13483 +2 x13484 -1 x13093 -1 x13094 -1 x13095 -1 x13096 -1 x13097 -1 x13098 -1 x13099 -1 x13100 >= 0 ;
+2 x13485 +2 x13486 +2 x13487 +2 x13488 -1 x13097 -1 x13098 -1 x13099 -1 x13100 -1 x13101 -1 x13102 -1 x13103 -1 x13104 >= 0 ;
+2 x13489 +2 x13490 +2 x13491 +2 x13492 -1 x13101 -1 x13102 -1 x13103 -1 x13104 -1 x13105 -1 x13106 -1 x13107 -1 x13108 >= 0 ;
+2 x13493 +2 x13494 +2 x13495 +2 x13496 -1 x13105 -1 x13106 -1 x13107 -1 x13108 -1 x13109 -1 x13110 -1 x13111 -1 x13112 >= 0 ;
+2 x13497 +2 x13498 +2 x13499 +2 x13500 -1 x13109 -1 x13110 -1 x13111 -1 x13112 -1 x13113 -1 x13114 -1 x13115 -1 x13116 >= 0 ;
+2 x13501 +2 x13502 +2 x13503 +2 x13504 -1 x13113 -1 x13114 -1 x13115 -1 x13116 -1 x13117 -1 x13118 -1 x13119 -1 x13120 >= 0 ;
+2 x13505 +2 x13506 +2 x13507 +2 x13508 -1 x13117 -1 x13118 -1 x13119 -1 x13120 -1 x13121 -1 x13122 -1 x13123 -1 x13124 >= 0 ;
+2 x13509 +2 x13510 +2 x13511 +2 x13512 -1 x13121 -1 x13122 -1 x13123 -1 x13124 -1 x13125 -1 x13126 -1 x13127 -1 x13128 >= 0 ;
+2 x13513 +2 x13514 +2 x13515 +2 x13516 -1 x13125 -1 x13126 -1 x13127 -1 x13128 -1 x13129 -1 x13130 -1 x13131 -1 x13132 >= 0 ;
+2 x13517 +2 x13518 +2 x13519 +2 x13520 -1 x13129 -1 x13130 -1 x13131 -1 x13132 -1 x13133 -1 x13134 -1 x13135 -1 x13136 >= 0 ;
+2 x13521 +2 x13522 +2 x13523 +2 x13524 -1 x13133 -1 x13134 -1 x13135 -1 x13136 -1 x13137 -1 x13138 -1 x13139 -1 x13140 >= 0 ;
+2 x13525 +2 x13526 +2 x13527 +2 x13528 -1 x13137 -1 x13138 -1 x13139 -1 x13140 -1 x13141 -1 x13142 -1 x13143 -1 x13144 >= 0 ;
+2 x13529 +2 x13530 +2 x13531 +2 x13532 -1 x13141 -1 x13142 -1 x13143 -1 x13144 -1 x13145 -1 x13146 -1 x13147 -1 x13148 >= 0 ;
+2 x13533 +2 x13534 +2 x13535 +2 x13536 -1 x13145 -1 x13146 -1 x13147 -1 x13148 -1 x13149 -1 x13150 -1 x13151 -1 x13152 >= 0 ;
+2 x13537 +2 x13538 +2 x13539 +2 x13540 -1 x13149 -1 x13150 -1 x13151 -1 x13152 -1 x13153 -1 x13154 -1 x13155 -1 x13156 >= 0 ;
+2 x13541 +2 x13542 +2 x13543 +2 x13544 -1 x13153 -1 x13154 -1 x13155 -1 x13156 -1 x13157 -1 x13158 -1 x13159 -1 x13160 >= 0 ;
+2 x13545 +2 x13546 +2 x13547 +2 x13548 -1 x13157 -1 x13158 -1 x13159 -1 x13160 -1 x13161 -1 x13162 -1 x13163 -1 x13164 >= 0 ;
+2 x13549 +2 x13550 +2 x13551 +2 x13552 -1 x13161 -1 x13162 -1 x13163 -1 x13164 -1 x13165 -1 x13166 -1 x13167 -1 x13168 >= 0 ;
+2 x13553 +2 x13554 +2 x13555 +2 x13556 -1 x13165 -1 x13166 -1 x13167 -1 x13168 -1 x13169 -1 x13170 -1 x13171 -1 x13172 >= 0 ;
+2 x13557 +2 x13558 +2 x13559 +2 x13560 -1 x13169 -1 x13170 -1 x13171 -1 x13172 -1 x13173 -1 x13174 -1 x13175 -1 x13176 >= 0 ;
+2 x13561 +2 x13562 +2 x13563 +2 x13564 -1 x13173 -1 x13174 -1 x13175 -1 x13176 -1 x13177 -1 x13178 -1 x13179 -1 x13180 >= 0 ;
+2 x13565 +2 x13566 +2 x13567 +2 x13568 -1 x13177 -1 x13178 -1 x13179 -1 x13180 -1 x13181 -1 x13182 -1 x13183 -1 x13184 >= 0 ;
+2 x13569 +2 x13570 +2 x13571 +2 x13572 -1 x13181 -1 x13182 -1 x13183 -1 x13184 -1 x13185 -1 x13186 -1 x13187 -1 x13188 >= 0 ;
+2 x13573 +2 x13574 +2 x13575 +2 x13576 -1 x13185 -1 x13186 -1 x13187 -1 x13188 -1 x13189 -1 x13190 -1 x13191 -1 x13192 >= 0 ;
+2 x13577 +2 x13578 +2 x13579 +2 x13580 -1 x13189 -1 x13190 -1 x13191 -1 x13192 -1 x13193 -1 x13194 -1 x13195 -1 x13196 >= 0 ;
+2 x13581 +2 x13582 +2 x13583 +2 x13584 -1 x13193 -1 x13194 -1 x13195 -1 x13196 -1 x13197 -1 x13198 -1 x13199 -1 x13200 >= 0 ;
+2 x13585 +2 x13586 +2 x13587 +2 x13588 -1 x13197 -1 x13198 -1 x13199 -1 x13200 -1 x13201 -1 x13202 -1 x13203 -1 x13204 >= 0 ;
+2 x13589 +2 x13590 +2 x13591 +2 x13592 -1 x13201 -1 x13202 -1 x13203 -1 x13204 -1 x13205 -1 x13206 -1 x13207 -1 x13208 >= 0 ;
+2 x13593 +2 x13594 +2 x13595 +2 x13596 -1 x13205 -1 x13206 -1 x13207 -1 x13208 -1 x13209 -1 x13210 -1 x13211 -1 x13212 >= 0 ;
+2 x13597 +2 x13598 +2 x13599 +2 x13600 -1 x13209 -1 x13210 -1 x13211 -1 x13212 -1 x13213 -1 x13214 -1 x13215 -1 x13216 >= 0 ;
+2 x13601 +2 x13602 +2 x13603 +2 x13604 -1 x13213 -1 x13214 -1 x13215 -1 x13216 -1 x13217 -1 x13218 -1 x13219 -1 x13220 >= 0 ;
+2 x13605 +2 x13606 +2 x13607 +2 x13608 -1 x13217 -1 x13218 -1 x13219 -1 x13220 -1 x13221 -1 x13222 -1 x13223 -1 x13224 >= 0 ;
+2 x13609 +2 x13610 +2 x13611 +2 x13612 -1 x13221 -1 x13222 -1 x13223 -1 x13224 -1 x13225 -1 x13226 -1 x13227 -1 x13228 >= 0 ;
+2 x13613 +2 x13614 +2 x13615 +2 x13616 -1 x13225 -1 x13226 -1 x13227 -1 x13228 -1 x13229 -1 x13230 -1 x13231 -1 x13232 >= 0 ;
+2 x13617 +2 x13618 +2 x13619 +2 x13620 -1 x13229 -1 x13230 -1 x13231 -1 x13232 -1 x13233 -1 x13234 -1 x13235 -1 x13236 >= 0 ;
+2 x13621 +2 x13622 +2 x13623 +2 x13624 -1 x13233 -1 x13234 -1 x13235 -1 x13236 -1 x13237 -1 x13238 -1 x13239 -1 x13240 >= 0 ;
+2 x13625 +2 x13626 +2 x13627 +2 x13628 -1 x13237 -1 x13238 -1 x13239 -1 x13240 -1 x13241 -1 x13242 -1 x13243 -1 x13244 >= 0 ;
+2 x13629 +2 x13630 +2 x13631 +2 x13632 -1 x13241 -1 x13242 -1 x13243 -1 x13244 -1 x13245 -1 x13246 -1 x13247 -1 x13248 >= 0 ;
+2 x13633 +2 x13634 +2 x13635 +2 x13636 -1 x13245 -1 x13246 -1 x13247 -1 x13248 -1 x13249 -1 x13250 -1 x13251 -1 x13252 >= 0 ;
+2 x13637 +2 x13638 +2 x13639 +2 x13640 -1 x13249 -1 x13250 -1 x13251 -1 x13252 -1 x13253 -1 x13254 -1 x13255 -1 x13256 >= 0 ;
+2 x13641 +2 x13642 +2 x13643 +2 x13644 -1 x13253 -1 x13254 -1 x13255 -1 x13256 -1 x13257 -1 x13258 -1 x13259 -1 x13260 >= 0 ;
+2 x13645 +2 x13646 +2 x13647 +2 x13648 -1 x13257 -1 x13258 -1 x13259 -1 x13260 -1 x13261 -1 x13262 -1 x13263 -1 x13264 >= 0 ;
+2 x13649 +2 x13650 +2 x13651 +2 x13652 -1 x13261 -1 x13262 -1 x13263 -1 x13264 -1 x13265 -1 x13266 -1 x13267 -1 x13268 >= 0 ;
+2 x13653 +2 x13654 +2 x13655 +2 x13656 -1 x13265 -1 x13266 -1 x13267 -1 x13268 -1 x13269 -1 x13270 -1 x13271 -1 x13272 >= 0 ;
+2 x13657 +2 x13658 +2 x13659 +2 x13660 -1 x13269 -1 x13270 -1 x13271 -1 x13272 -1 x13273 -1 x13274 -1 x13275 -1 x13276 >= 0 ;
+2 x13661 +2 x13662 +2 x13663 +2 x13664 -1 x13273 -1 x13274 -1 x13275 -1 x13276 -1 x13277 -1 x13278 -1 x13279 -1 x13280 >= 0 ;
+2 x13665 +2 x13666 +2 x13667 +2 x13668 -1 x13277 -1 x13278 -1 x13279 -1 x13280 -1 x13281 -1 x13282 -1 x13283 -1 x13284 >= 0 ;
+2 x13669 +2 x13670 +2 x13671 +2 x13672 -1 x13281 -1 x13282 -1 x13283 -1 x13284 -1 x13285 -1 x13286 -1 x13287 -1 x13288 >= 0 ;
+2 x13673 +2 x13674 +2 x13675 +2 x13676 -1 x13285 -1 x13286 -1 x13287 -1 x13288 -1 x13289 -1 x13290 -1 x13291 -1 x13292 >= 0 ;
+2 x13677 +2 x13678 +2 x13679 +2 x13680 -1 x13289 -1 x13290 -1 x13291 -1 x13292 -1 x13293 -1 x13294 -1 x13295 -1 x13296 >= 0 ;
+2 x13681 +2 x13682 +2 x13683 +2 x13684 -1 x13293 -1 x13294 -1 x13295 -1 x13296 -1 x13297 -1 x13298 -1 x13299 -1 x13300 >= 0 ;
+2 x13685 +2 x13686 +2 x13687 +2 x13688 -1 x13297 -1 x13298 -1 x13299 -1 x13300 -1 x13301 -1 x13302 -1 x13303 -1 x13304 >= 0 ;
+2 x13689 +2 x13690 +2 x13691 +2 x13692 -1 x13301 -1 x13302 -1 x13303 -1 x13304 -1 x13305 -1 x13306 -1 x13307 -1 x13308 >= 0 ;
+2 x13693 +2 x13694 +2 x13695 +2 x13696 -1 x13305 -1 x13306 -1 x13307 -1 x13308 -1 x13309 -1 x13310 -1 x13311 -1 x13312 >= 0 ;
+2 x13697 +2 x13698 +2 x13699 +2 x13700 -1 x13309 -1 x13310 -1 x13311 -1 x13312 -1 x13313 -1 x13314 -1 x13315 -1 x13316 >= 0 ;
+2 x13701 +2 x13702 +2 x13703 +2 x13704 -1 x13313 -1 x13314 -1 x13315 -1 x13316 -1 x13317 -1 x13318 -1 x13319 -1 x13320 >= 0 ;
+2 x13705 +2 x13706 +2 x13707 +2 x13708 -1 x13317 -1 x13318 -1 x13319 -1 x13320 -1 x13321 -1 x13322 -1 x13323 -1 x13324 >= 0 ;
+2 x13709 +2 x13710 +2 x13711 +2 x13712 -1 x13321 -1 x13322 -1 x13323 -1 x13324 -1 x13325 -1 x13326 -1 x13327 -1 x13328 >= 0 ;
+2 x13713 +2 x13714 +2 x13715 +2 x13716 -1 x13325 -1 x13326 -1 x13327 -1 x13328 -1 x13329 -1 x13330 -1 x13331 -1 x13332 >= 0 ;
+2 x13717 +2 x13718 +2 x13719 +2 x13720 -1 x13329 -1 x13330 -1 x13331 -1 x13332 -1 x13333 -1 x13334 -1 x13335 -1 x13336 >= 0 ;
+2 x13721 +2 x13722 +2 x13723 +2 x13724 -1 x13333 -1 x13334 -1 x13335 -1 x13336 -1 x13337 -1 x13338 -1 x13339 -1 x13340 >= 0 ;
+2 x13725 +2 x13726 +2 x13727 +2 x13728 -1 x13337 -1 x13338 -1 x13339 -1 x13340 -1 x13341 -1 x13342 -1 x13343 -1 x13344 >= 0 ;
+2 x13729 +2 x13730 +2 x13731 +2 x13732 -1 x13341 -1 x13342 -1 x13343 -1 x13344 -1 x13345 -1 x13346 -1 x13347 -1 x13348 >= 0 ;
+2 x13733 +2 x13734 +2 x13735 +2 x13736 -1 x13345 -1 x13346 -1 x13347 -1 x13348 -1 x13349 -1 x13350 -1 x13351 -1 x13352 >= 0 ;
+2 x13737 +2 x13738 +2 x13739 +2 x13740 -1 x13349 -1 x13350 -1 x13351 -1 x13352 -1 x13353 -1 x13354 -1 x13355 -1 x13356 >= 0 ;
+2 x13741 +2 x13742 +2 x13743 +2 x13744 -1 x13353 -1 x13354 -1 x13355 -1 x13356 -1 x13357 -1 x13358 -1 x13359 -1 x13360 >= 0 ;
+2 x13745 +2 x13746 +2 x13747 +2 x13748 -1 x13357 -1 x13358 -1 x13359 -1 x13360 -1 x13361 -1 x13362 -1 x13363 -1 x13364 >= 0 ;
+2 x13749 +2 x13750 +2 x13751 +2 x13752 -1 x13361 -1 x13362 -1 x13363 -1 x13364 -1 x13365 -1 x13366 -1 x13367 -1 x13368 >= 0 ;
+2 x13753 +2 x13754 +2 x13755 +2 x13756 -1 x13365 -1 x13366 -1 x13367 -1 x13368 -1 x13369 -1 x13370 -1 x13371 -1 x13372 >= 0 ;
+2 x13757 +2 x13758 +2 x13759 +2 x13760 -1 x13369 -1 x13370 -1 x13371 -1 x13372 -1 x13373 -1 x13374 -1 x13375 -1 x13376 >= 0 ;
+2 x13761 +2 x13762 +2 x13763 +2 x13764 -1 x13373 -1 x13374 -1 x13375 -1 x13376 -1 x13377 -1 x13378 -1 x13379 -1 x13380 >= 0 ;
+2 x13765 +2 x13766 +2 x13767 +2 x13768 -1 x13381 -1 x13382 -1 x13383 -1 x13384 -1 x13385 -1 x13386 -1 x13387 -1 x13388 >= 0 ;
+2 x13769 +2 x13770 +2 x13771 +2 x13772 -1 x13385 -1 x13386 -1 x13387 -1 x13388 -1 x13389 -1 x13390 -1 x13391 -1 x13392 >= 0 ;
+2 x13773 +2 x13774 +2 x13775 +2 x13776 -1 x13389 -1 x13390 -1 x13391 -1 x13392 -1 x13393 -1 x13394 -1 x13395 -1 x13396 >= 0 ;
+2 x13777 +2 x13778 +2 x13779 +2 x13780 -1 x13393 -1 x13394 -1 x13395 -1 x13396 -1 x13397 -1 x13398 -1 x13399 -1 x13400 >= 0 ;
+2 x13781 +2 x13782 +2 x13783 +2 x13784 -1 x13397 -1 x13398 -1 x13399 -1 x13400 -1 x13401 -1 x13402 -1 x13403 -1 x13404 >= 0 ;
+2 x13785 +2 x13786 +2 x13787 +2 x13788 -1 x13401 -1 x13402 -1 x13403 -1 x13404 -1 x13405 -1 x13406 -1 x13407 -1 x13408 >= 0 ;
+2 x13789 +2 x13790 +2 x13791 +2 x13792 -1 x13405 -1 x13406 -1 x13407 -1 x13408 -1 x13409 -1 x13410 -1 x13411 -1 x13412 >= 0 ;
+2 x13793 +2 x13794 +2 x13795 +2 x13796 -1 x13409 -1 x13410 -1 x13411 -1 x13412 -1 x13413 -1 x13414 -1 x13415 -1 x13416 >= 0 ;
+2 x13797 +2 x13798 +2 x13799 +2 x13800 -1 x13413 -1 x13414 -1 x13415 -1 x13416 -1 x13417 -1 x13418 -1 x13419 -1 x13420 >= 0 ;
+2 x13801 +2 x13802 +2 x13803 +2 x13804 -1 x13417 -1 x13418 -1 x13419 -1 x13420 -1 x13421 -1 x13422 -1 x13423 -1 x13424 >= 0 ;
+2 x13805 +2 x13806 +2 x13807 +2 x13808 -1 x13421 -1 x13422 -1 x13423 -1 x13424 -1 x13425 -1 x13426 -1 x13427 -1 x13428 >= 0 ;
+2 x13809 +2 x13810 +2 x13811 +2 x13812 -1 x13425 -1 x13426 -1 x13427 -1 x13428 -1 x13429 -1 x13430 -1 x13431 -1 x13432 >= 0 ;
+2 x13813 +2 x13814 +2 x13815 +2 x13816 -1 x13429 -1 x13430 -1 x13431 -1 x13432 -1 x13433 -1 x13434 -1 x13435 -1 x13436 >= 0 ;
+2 x13817 +2 x13818 +2 x13819 +2 x13820 -1 x13433 -1 x13434 -1 x13435 -1 x13436 -1 x13437 -1 x13438 -1 x13439 -1 x13440 >= 0 ;
+2 x13821 +2 x13822 +2 x13823 +2 x13824 -1 x13437 -1 x13438 -1 x13439 -1 x13440 -1 x13441 -1 x13442 -1 x13443 -1 x13444 >= 0 ;
+2 x13825 +2 x13826 +2 x13827 +2 x13828 -1 x13441 -1 x13442 -1 x13443 -1 x13444 -1 x13445 -1 x13446 -1 x13447 -1 x13448 >= 0 ;
+2 x13829 +2 x13830 +2 x13831 +2 x13832 -1 x13445 -1 x13446 -1 x13447 -1 x13448 -1 x13449 -1 x13450 -1 x13451 -1 x13452 >= 0 ;
+2 x13833 +2 x13834 +2 x13835 +2 x13836 -1 x13449 -1 x13450 -1 x13451 -1 x13452 -1 x13453 -1 x13454 -1 x13455 -1 x13456 >= 0 ;
+2 x13837 +2 x13838 +2 x13839 +2 x13840 -1 x13453 -1 x13454 -1 x13455 -1 x13456 -1 x13457 -1 x13458 -1 x13459 -1 x13460 >= 0 ;
+2 x13841 +2 x13842 +2 x13843 +2 x13844 -1 x13457 -1 x13458 -1 x13459 -1 x13460 -1 x13461 -1 x13462 -1 x13463 -1 x13464 >= 0 ;
+2 x13845 +2 x13846 +2 x13847 +2 x13848 -1 x13461 -1 x13462 -1 x13463 -1 x13464 -1 x13465 -1 x13466 -1 x13467 -1 x13468 >= 0 ;
+2 x13849 +2 x13850 +2 x13851 +2 x13852 -1 x13465 -1 x13466 -1 x13467 -1 x13468 -1 x13469 -1 x13470 -1 x13471 -1 x13472 >= 0 ;
+2 x13853 +2 x13854 +2 x13855 +2 x13856 -1 x13469 -1 x13470 -1 x13471 -1 x13472 -1 x13473 -1 x13474 -1 x13475 -1 x13476 >= 0 ;
+2 x13857 +2 x13858 +2 x13859 +2 x13860 -1 x13473 -1 x13474 -1 x13475 -1 x13476 -1 x13477 -1 x13478 -1 x13479 -1 x13480 >= 0 ;
+2 x13861 +2 x13862 +2 x13863 +2 x13864 -1 x13477 -1 x13478 -1 x13479 -1 x13480 -1 x13481 -1 x13482 -1 x13483 -1 x13484 >= 0 ;
+2 x13865 +2 x13866 +2 x13867 +2 x13868 -1 x13481 -1 x13482 -1 x13483 -1 x13484 -1 x13485 -1 x13486 -1 x13487 -1 x13488 >= 0 ;
+2 x13869 +2 x13870 +2 x13871 +2 x13872 -1 x13485 -1 x13486 -1 x13487 -1 x13488 -1 x13489 -1 x13490 -1 x13491 -1 x13492 >= 0 ;
+2 x13873 +2 x13874 +2 x13875 +2 x13876 -1 x13489 -1 x13490 -1 x13491 -1 x13492 -1 x13493 -1 x13494 -1 x13495 -1 x13496 >= 0 ;
+2 x13877 +2 x13878 +2 x13879 +2 x13880 -1 x13493 -1 x13494 -1 x13495 -1 x13496 -1 x13497 -1 x13498 -1 x13499 -1 x13500 >= 0 ;
+2 x13881 +2 x13882 +2 x13883 +2 x13884 -1 x13497 -1 x13498 -1 x13499 -1 x13500 -1 x13501 -1 x13502 -1 x13503 -1 x13504 >= 0 ;
+2 x13885 +2 x13886 +2 x13887 +2 x13888 -1 x13501 -1 x13502 -1 x13503 -1 x13504 -1 x13505 -1 x13506 -1 x13507 -1 x13508 >= 0 ;
+2 x13889 +2 x13890 +2 x13891 +2 x13892 -1 x13505 -1 x13506 -1 x13507 -1 x13508 -1 x13509 -1 x13510 -1 x13511 -1 x13512 >= 0 ;
+2 x13893 +2 x13894 +2 x13895 +2 x13896 -1 x13509 -1 x13510 -1 x13511 -1 x13512 -1 x13513 -1 x13514 -1 x13515 -1 x13516 >= 0 ;
+2 x13897 +2 x13898 +2 x13899 +2 x13900 -1 x13513 -1 x13514 -1 x13515 -1 x13516 -1 x13517 -1 x13518 -1 x13519 -1 x13520 >= 0 ;
+2 x13901 +2 x13902 +2 x13903 +2 x13904 -1 x13517 -1 x13518 -1 x13519 -1 x13520 -1 x13521 -1 x13522 -1 x13523 -1 x13524 >= 0 ;
+2 x13905 +2 x13906 +2 x13907 +2 x13908 -1 x13521 -1 x13522 -1 x13523 -1 x13524 -1 x13525 -1 x13526 -1 x13527 -1 x13528 >= 0 ;
+2 x13909 +2 x13910 +2 x13911 +2 x13912 -1 x13525 -1 x13526 -1 x13527 -1 x13528 -1 x13529 -1 x13530 -1 x13531 -1 x13532 >= 0 ;
+2 x13913 +2 x13914 +2 x13915 +2 x13916 -1 x13529 -1 x13530 -1 x13531 -1 x13532 -1 x13533 -1 x13534 -1 x13535 -1 x13536 >= 0 ;
+2 x13917 +2 x13918 +2 x13919 +2 x13920 -1 x13533 -1 x13534 -1 x13535 -1 x13536 -1 x13537 -1 x13538 -1 x13539 -1 x13540 >= 0 ;
+2 x13921 +2 x13922 +2 x13923 +2 x13924 -1 x13537 -1 x13538 -1 x13539 -1 x13540 -1 x13541 -1 x13542 -1 x13543 -1 x13544 >= 0 ;
+2 x13925 +2 x13926 +2 x13927 +2 x13928 -1 x13541 -1 x13542 -1 x13543 -1 x13544 -1 x13545 -1 x13546 -1 x13547 -1 x13548 >= 0 ;
+2 x13929 +2 x13930 +2 x13931 +2 x13932 -1 x13545 -1 x13546 -1 x13547 -1 x13548 -1 x13549 -1 x13550 -1 x13551 -1 x13552 >= 0 ;
+2 x13933 +2 x13934 +2 x13935 +2 x13936 -1 x13549 -1 x13550 -1 x13551 -1 x13552 -1 x13553 -1 x13554 -1 x13555 -1 x13556 >= 0 ;
+2 x13937 +2 x13938 +2 x13939 +2 x13940 -1 x13553 -1 x13554 -1 x13555 -1 x13556 -1 x13557 -1 x13558 -1 x13559 -1 x13560 >= 0 ;
+2 x13941 +2 x13942 +2 x13943 +2 x13944 -1 x13557 -1 x13558 -1 x13559 -1 x13560 -1 x13561 -1 x13562 -1 x13563 -1 x13564 >= 0 ;
+2 x13945 +2 x13946 +2 x13947 +2 x13948 -1 x13561 -1 x13562 -1 x13563 -1 x13564 -1 x13565 -1 x13566 -1 x13567 -1 x13568 >= 0 ;
+2 x13949 +2 x13950 +2 x13951 +2 x13952 -1 x13565 -1 x13566 -1 x13567 -1 x13568 -1 x13569 -1 x13570 -1 x13571 -1 x13572 >= 0 ;
+2 x13953 +2 x13954 +2 x13955 +2 x13956 -1 x13569 -1 x13570 -1 x13571 -1 x13572 -1 x13573 -1 x13574 -1 x13575 -1 x13576 >= 0 ;
+2 x13957 +2 x13958 +2 x13959 +2 x13960 -1 x13573 -1 x13574 -1 x13575 -1 x13576 -1 x13577 -1 x13578 -1 x13579 -1 x13580 >= 0 ;
+2 x13961 +2 x13962 +2 x13963 +2 x13964 -1 x13577 -1 x13578 -1 x13579 -1 x13580 -1 x13581 -1 x13582 -1 x13583 -1 x13584 >= 0 ;
+2 x13965 +2 x13966 +2 x13967 +2 x13968 -1 x13581 -1 x13582 -1 x13583 -1 x13584 -1 x13585 -1 x13586 -1 x13587 -1 x13588 >= 0 ;
+2 x13969 +2 x13970 +2 x13971 +2 x13972 -1 x13585 -1 x13586 -1 x13587 -1 x13588 -1 x13589 -1 x13590 -1 x13591 -1 x13592 >= 0 ;
+2 x13973 +2 x13974 +2 x13975 +2 x13976 -1 x13589 -1 x13590 -1 x13591 -1 x13592 -1 x13593 -1 x13594 -1 x13595 -1 x13596 >= 0 ;
+2 x13977 +2 x13978 +2 x13979 +2 x13980 -1 x13593 -1 x13594 -1 x13595 -1 x13596 -1 x13597 -1 x13598 -1 x13599 -1 x13600 >= 0 ;
+2 x13981 +2 x13982 +2 x13983 +2 x13984 -1 x13597 -1 x13598 -1 x13599 -1 x13600 -1 x13601 -1 x13602 -1 x13603 -1 x13604 >= 0 ;
+2 x13985 +2 x13986 +2 x13987 +2 x13988 -1 x13601 -1 x13602 -1 x13603 -1 x13604 -1 x13605 -1 x13606 -1 x13607 -1 x13608 >= 0 ;
+2 x13989 +2 x13990 +2 x13991 +2 x13992 -1 x13605 -1 x13606 -1 x13607 -1 x13608 -1 x13609 -1 x13610 -1 x13611 -1 x13612 >= 0 ;
+2 x13993 +2 x13994 +2 x13995 +2 x13996 -1 x13609 -1 x13610 -1 x13611 -1 x13612 -1 x13613 -1 x13614 -1 x13615 -1 x13616 >= 0 ;
+2 x13997 +2 x13998 +2 x13999 +2 x14000 -1 x13613 -1 x13614 -1 x13615 -1 x13616 -1 x13617 -1 x13618 -1 x13619 -1 x13620 >= 0 ;
+2 x14001 +2 x14002 +2 x14003 +2 x14004 -1 x13617 -1 x13618 -1 x13619 -1 x13620 -1 x13621 -1 x13622 -1 x13623 -1 x13624 >= 0 ;
+2 x14005 +2 x14006 +2 x14007 +2 x14008 -1 x13621 -1 x13622 -1 x13623 -1 x13624 -1 x13625 -1 x13626 -1 x13627 -1 x13628 >= 0 ;
+2 x14009 +2 x14010 +2 x14011 +2 x14012 -1 x13625 -1 x13626 -1 x13627 -1 x13628 -1 x13629 -1 x13630 -1 x13631 -1 x13632 >= 0 ;
+2 x14013 +2 x14014 +2 x14015 +2 x14016 -1 x13629 -1 x13630 -1 x13631 -1 x13632 -1 x13633 -1 x13634 -1 x13635 -1 x13636 >= 0 ;
+2 x14017 +2 x14018 +2 x14019 +2 x14020 -1 x13633 -1 x13634 -1 x13635 -1 x13636 -1 x13637 -1 x13638 -1 x13639 -1 x13640 >= 0 ;
+2 x14021 +2 x14022 +2 x14023 +2 x14024 -1 x13637 -1 x13638 -1 x13639 -1 x13640 -1 x13641 -1 x13642 -1 x13643 -1 x13644 >= 0 ;
+2 x14025 +2 x14026 +2 x14027 +2 x14028 -1 x13641 -1 x13642 -1 x13643 -1 x13644 -1 x13645 -1 x13646 -1 x13647 -1 x13648 >= 0 ;
+2 x14029 +2 x14030 +2 x14031 +2 x14032 -1 x13645 -1 x13646 -1 x13647 -1 x13648 -1 x13649 -1 x13650 -1 x13651 -1 x13652 >= 0 ;
+2 x14033 +2 x14034 +2 x14035 +2 x14036 -1 x13649 -1 x13650 -1 x13651 -1 x13652 -1 x13653 -1 x13654 -1 x13655 -1 x13656 >= 0 ;
+2 x14037 +2 x14038 +2 x14039 +2 x14040 -1 x13653 -1 x13654 -1 x13655 -1 x13656 -1 x13657 -1 x13658 -1 x13659 -1 x13660 >= 0 ;
+2 x14041 +2 x14042 +2 x14043 +2 x14044 -1 x13657 -1 x13658 -1 x13659 -1 x13660 -1 x13661 -1 x13662 -1 x13663 -1 x13664 >= 0 ;
+2 x14045 +2 x14046 +2 x14047 +2 x14048 -1 x13661 -1 x13662 -1 x13663 -1 x13664 -1 x13665 -1 x13666 -1 x13667 -1 x13668 >= 0 ;
+2 x14049 +2 x14050 +2 x14051 +2 x14052 -1 x13665 -1 x13666 -1 x13667 -1 x13668 -1 x13669 -1 x13670 -1 x13671 -1 x13672 >= 0 ;
+2 x14053 +2 x14054 +2 x14055 +2 x14056 -1 x13669 -1 x13670 -1 x13671 -1 x13672 -1 x13673 -1 x13674 -1 x13675 -1 x13676 >= 0 ;
+2 x14057 +2 x14058 +2 x14059 +2 x14060 -1 x13673 -1 x13674 -1 x13675 -1 x13676 -1 x13677 -1 x13678 -1 x13679 -1 x13680 >= 0 ;
+2 x14061 +2 x14062 +2 x14063 +2 x14064 -1 x13677 -1 x13678 -1 x13679 -1 x13680 -1 x13681 -1 x13682 -1 x13683 -1 x13684 >= 0 ;
+2 x14065 +2 x14066 +2 x14067 +2 x14068 -1 x13681 -1 x13682 -1 x13683 -1 x13684 -1 x13685 -1 x13686 -1 x13687 -1 x13688 >= 0 ;
+2 x14069 +2 x14070 +2 x14071 +2 x14072 -1 x13685 -1 x13686 -1 x13687 -1 x13688 -1 x13689 -1 x13690 -1 x13691 -1 x13692 >= 0 ;
+2 x14073 +2 x14074 +2 x14075 +2 x14076 -1 x13689 -1 x13690 -1 x13691 -1 x13692 -1 x13693 -1 x13694 -1 x13695 -1 x13696 >= 0 ;
+2 x14077 +2 x14078 +2 x14079 +2 x14080 -1 x13693 -1 x13694 -1 x13695 -1 x13696 -1 x13697 -1 x13698 -1 x13699 -1 x13700 >= 0 ;
+2 x14081 +2 x14082 +2 x14083 +2 x14084 -1 x13697 -1 x13698 -1 x13699 -1 x13700 -1 x13701 -1 x13702 -1 x13703 -1 x13704 >= 0 ;
+2 x14085 +2 x14086 +2 x14087 +2 x14088 -1 x13701 -1 x13702 -1 x13703 -1 x13704 -1 x13705 -1 x13706 -1 x13707 -1 x13708 >= 0 ;
+2 x14089 +2 x14090 +2 x14091 +2 x14092 -1 x13705 -1 x13706 -1 x13707 -1 x13708 -1 x13709 -1 x13710 -1 x13711 -1 x13712 >= 0 ;
+2 x14093 +2 x14094 +2 x14095 +2 x14096 -1 x13709 -1 x13710 -1 x13711 -1 x13712 -1 x13713 -1 x13714 -1 x13715 -1 x13716 >= 0 ;
+2 x14097 +2 x14098 +2 x14099 +2 x14100 -1 x13713 -1 x13714 -1 x13715 -1 x13716 -1 x13717 -1 x13718 -1 x13719 -1 x13720 >= 0 ;
+2 x14101 +2 x14102 +2 x14103 +2 x14104 -1 x13717 -1 x13718 -1 x13719 -1 x13720 -1 x13721 -1 x13722 -1 x13723 -1 x13724 >= 0 ;
+2 x14105 +2 x14106 +2 x14107 +2 x14108 -1 x13721 -1 x13722 -1 x13723 -1 x13724 -1 x13725 -1 x13726 -1 x13727 -1 x13728 >= 0 ;
+2 x14109 +2 x14110 +2 x14111 +2 x14112 -1 x13725 -1 x13726 -1 x13727 -1 x13728 -1 x13729 -1 x13730 -1 x13731 -1 x13732 >= 0 ;
+2 x14113 +2 x14114 +2 x14115 +2 x14116 -1 x13729 -1 x13730 -1 x13731 -1 x13732 -1 x13733 -1 x13734 -1 x13735 -1 x13736 >= 0 ;
+2 x14117 +2 x14118 +2 x14119 +2 x14120 -1 x13733 -1 x13734 -1 x13735 -1 x13736 -1 x13737 -1 x13738 -1 x13739 -1 x13740 >= 0 ;
+2 x14121 +2 x14122 +2 x14123 +2 x14124 -1 x13737 -1 x13738 -1 x13739 -1 x13740 -1 x13741 -1 x13742 -1 x13743 -1 x13744 >= 0 ;
+2 x14125 +2 x14126 +2 x14127 +2 x14128 -1 x13741 -1 x13742 -1 x13743 -1 x13744 -1 x13745 -1 x13746 -1 x13747 -1 x13748 >= 0 ;
+2 x14129 +2 x14130 +2 x14131 +2 x14132 -1 x13745 -1 x13746 -1 x13747 -1 x13748 -1 x13749 -1 x13750 -1 x13751 -1 x13752 >= 0 ;
+2 x14133 +2 x14134 +2 x14135 +2 x14136 -1 x13749 -1 x13750 -1 x13751 -1 x13752 -1 x13753 -1 x13754 -1 x13755 -1 x13756 >= 0 ;
+2 x14137 +2 x14138 +2 x14139 +2 x14140 -1 x13753 -1 x13754 -1 x13755 -1 x13756 -1 x13757 -1 x13758 -1 x13759 -1 x13760 >= 0 ;
+2 x14141 +2 x14142 +2 x14143 +2 x14144 -1 x13757 -1 x13758 -1 x13759 -1 x13760 -1 x13761 -1 x13762 -1 x13763 -1 x13764 >= 0 ;
+2 x14145 +2 x14146 +2 x14147 +2 x14148 -1 x13765 -1 x13766 -1 x13767 -1 x13768 -1 x13769 -1 x13770 -1 x13771 -1 x13772 >= 0 ;
+2 x14149 +2 x14150 +2 x14151 +2 x14152 -1 x13769 -1 x13770 -1 x13771 -1 x13772 -1 x13773 -1 x13774 -1 x13775 -1 x13776 >= 0 ;
+2 x14153 +2 x14154 +2 x14155 +2 x14156 -1 x13773 -1 x13774 -1 x13775 -1 x13776 -1 x13777 -1 x13778 -1 x13779 -1 x13780 >= 0 ;
+2 x14157 +2 x14158 +2 x14159 +2 x14160 -1 x13777 -1 x13778 -1 x13779 -1 x13780 -1 x13781 -1 x13782 -1 x13783 -1 x13784 >= 0 ;
+2 x14161 +2 x14162 +2 x14163 +2 x14164 -1 x13781 -1 x13782 -1 x13783 -1 x13784 -1 x13785 -1 x13786 -1 x13787 -1 x13788 >= 0 ;
+2 x14165 +2 x14166 +2 x14167 +2 x14168 -1 x13785 -1 x13786 -1 x13787 -1 x13788 -1 x13789 -1 x13790 -1 x13791 -1 x13792 >= 0 ;
+2 x14169 +2 x14170 +2 x14171 +2 x14172 -1 x13789 -1 x13790 -1 x13791 -1 x13792 -1 x13793 -1 x13794 -1 x13795 -1 x13796 >= 0 ;
+2 x14173 +2 x14174 +2 x14175 +2 x14176 -1 x13793 -1 x13794 -1 x13795 -1 x13796 -1 x13797 -1 x13798 -1 x13799 -1 x13800 >= 0 ;
+2 x14177 +2 x14178 +2 x14179 +2 x14180 -1 x13797 -1 x13798 -1 x13799 -1 x13800 -1 x13801 -1 x13802 -1 x13803 -1 x13804 >= 0 ;
+2 x14181 +2 x14182 +2 x14183 +2 x14184 -1 x13801 -1 x13802 -1 x13803 -1 x13804 -1 x13805 -1 x13806 -1 x13807 -1 x13808 >= 0 ;
+2 x14185 +2 x14186 +2 x14187 +2 x14188 -1 x13805 -1 x13806 -1 x13807 -1 x13808 -1 x13809 -1 x13810 -1 x13811 -1 x13812 >= 0 ;
+2 x14189 +2 x14190 +2 x14191 +2 x14192 -1 x13809 -1 x13810 -1 x13811 -1 x13812 -1 x13813 -1 x13814 -1 x13815 -1 x13816 >= 0 ;
+2 x14193 +2 x14194 +2 x14195 +2 x14196 -1 x13813 -1 x13814 -1 x13815 -1 x13816 -1 x13817 -1 x13818 -1 x13819 -1 x13820 >= 0 ;
+2 x14197 +2 x14198 +2 x14199 +2 x14200 -1 x13817 -1 x13818 -1 x13819 -1 x13820 -1 x13821 -1 x13822 -1 x13823 -1 x13824 >= 0 ;
+2 x14201 +2 x14202 +2 x14203 +2 x14204 -1 x13821 -1 x13822 -1 x13823 -1 x13824 -1 x13825 -1 x13826 -1 x13827 -1 x13828 >= 0 ;
+2 x14205 +2 x14206 +2 x14207 +2 x14208 -1 x13825 -1 x13826 -1 x13827 -1 x13828 -1 x13829 -1 x13830 -1 x13831 -1 x13832 >= 0 ;
+2 x14209 +2 x14210 +2 x14211 +2 x14212 -1 x13829 -1 x13830 -1 x13831 -1 x13832 -1 x13833 -1 x13834 -1 x13835 -1 x13836 >= 0 ;
+2 x14213 +2 x14214 +2 x14215 +2 x14216 -1 x13833 -1 x13834 -1 x13835 -1 x13836 -1 x13837 -1 x13838 -1 x13839 -1 x13840 >= 0 ;
+2 x14217 +2 x14218 +2 x14219 +2 x14220 -1 x13837 -1 x13838 -1 x13839 -1 x13840 -1 x13841 -1 x13842 -1 x13843 -1 x13844 >= 0 ;
+2 x14221 +2 x14222 +2 x14223 +2 x14224 -1 x13841 -1 x13842 -1 x13843 -1 x13844 -1 x13845 -1 x13846 -1 x13847 -1 x13848 >= 0 ;
+2 x14225 +2 x14226 +2 x14227 +2 x14228 -1 x13845 -1 x13846 -1 x13847 -1 x13848 -1 x13849 -1 x13850 -1 x13851 -1 x13852 >= 0 ;
+2 x14229 +2 x14230 +2 x14231 +2 x14232 -1 x13849 -1 x13850 -1 x13851 -1 x13852 -1 x13853 -1 x13854 -1 x13855 -1 x13856 >= 0 ;
+2 x14233 +2 x14234 +2 x14235 +2 x14236 -1 x13853 -1 x13854 -1 x13855 -1 x13856 -1 x13857 -1 x13858 -1 x13859 -1 x13860 >= 0 ;
+2 x14237 +2 x14238 +2 x14239 +2 x14240 -1 x13857 -1 x13858 -1 x13859 -1 x13860 -1 x13861 -1 x13862 -1 x13863 -1 x13864 >= 0 ;
+2 x14241 +2 x14242 +2 x14243 +2 x14244 -1 x13861 -1 x13862 -1 x13863 -1 x13864 -1 x13865 -1 x13866 -1 x13867 -1 x13868 >= 0 ;
+2 x14245 +2 x14246 +2 x14247 +2 x14248 -1 x13865 -1 x13866 -1 x13867 -1 x13868 -1 x13869 -1 x13870 -1 x13871 -1 x13872 >= 0 ;
+2 x14249 +2 x14250 +2 x14251 +2 x14252 -1 x13869 -1 x13870 -1 x13871 -1 x13872 -1 x13873 -1 x13874 -1 x13875 -1 x13876 >= 0 ;
+2 x14253 +2 x14254 +2 x14255 +2 x14256 -1 x13873 -1 x13874 -1 x13875 -1 x13876 -1 x13877 -1 x13878 -1 x13879 -1 x13880 >= 0 ;
+2 x14257 +2 x14258 +2 x14259 +2 x14260 -1 x13877 -1 x13878 -1 x13879 -1 x13880 -1 x13881 -1 x13882 -1 x13883 -1 x13884 >= 0 ;
+2 x14261 +2 x14262 +2 x14263 +2 x14264 -1 x13881 -1 x13882 -1 x13883 -1 x13884 -1 x13885 -1 x13886 -1 x13887 -1 x13888 >= 0 ;
+2 x14265 +2 x14266 +2 x14267 +2 x14268 -1 x13885 -1 x13886 -1 x13887 -1 x13888 -1 x13889 -1 x13890 -1 x13891 -1 x13892 >= 0 ;
+2 x14269 +2 x14270 +2 x14271 +2 x14272 -1 x13889 -1 x13890 -1 x13891 -1 x13892 -1 x13893 -1 x13894 -1 x13895 -1 x13896 >= 0 ;
+2 x14273 +2 x14274 +2 x14275 +2 x14276 -1 x13893 -1 x13894 -1 x13895 -1 x13896 -1 x13897 -1 x13898 -1 x13899 -1 x13900 >= 0 ;
+2 x14277 +2 x14278 +2 x14279 +2 x14280 -1 x13897 -1 x13898 -1 x13899 -1 x13900 -1 x13901 -1 x13902 -1 x13903 -1 x13904 >= 0 ;
+2 x14281 +2 x14282 +2 x14283 +2 x14284 -1 x13901 -1 x13902 -1 x13903 -1 x13904 -1 x13905 -1 x13906 -1 x13907 -1 x13908 >= 0 ;
+2 x14285 +2 x14286 +2 x14287 +2 x14288 -1 x13905 -1 x13906 -1 x13907 -1 x13908 -1 x13909 -1 x13910 -1 x13911 -1 x13912 >= 0 ;
+2 x14289 +2 x14290 +2 x14291 +2 x14292 -1 x13909 -1 x13910 -1 x13911 -1 x13912 -1 x13913 -1 x13914 -1 x13915 -1 x13916 >= 0 ;
+2 x14293 +2 x14294 +2 x14295 +2 x14296 -1 x13913 -1 x13914 -1 x13915 -1 x13916 -1 x13917 -1 x13918 -1 x13919 -1 x13920 >= 0 ;
+2 x14297 +2 x14298 +2 x14299 +2 x14300 -1 x13917 -1 x13918 -1 x13919 -1 x13920 -1 x13921 -1 x13922 -1 x13923 -1 x13924 >= 0 ;
+2 x14301 +2 x14302 +2 x14303 +2 x14304 -1 x13921 -1 x13922 -1 x13923 -1 x13924 -1 x13925 -1 x13926 -1 x13927 -1 x13928 >= 0 ;
+2 x14305 +2 x14306 +2 x14307 +2 x14308 -1 x13925 -1 x13926 -1 x13927 -1 x13928 -1 x13929 -1 x13930 -1 x13931 -1 x13932 >= 0 ;
+2 x14309 +2 x14310 +2 x14311 +2 x14312 -1 x13929 -1 x13930 -1 x13931 -1 x13932 -1 x13933 -1 x13934 -1 x13935 -1 x13936 >= 0 ;
+2 x14313 +2 x14314 +2 x14315 +2 x14316 -1 x13933 -1 x13934 -1 x13935 -1 x13936 -1 x13937 -1 x13938 -1 x13939 -1 x13940 >= 0 ;
+2 x14317 +2 x14318 +2 x14319 +2 x14320 -1 x13937 -1 x13938 -1 x13939 -1 x13940 -1 x13941 -1 x13942 -1 x13943 -1 x13944 >= 0 ;
+2 x14321 +2 x14322 +2 x14323 +2 x14324 -1 x13941 -1 x13942 -1 x13943 -1 x13944 -1 x13945 -1 x13946 -1 x13947 -1 x13948 >= 0 ;
+2 x14325 +2 x14326 +2 x14327 +2 x14328 -1 x13945 -1 x13946 -1 x13947 -1 x13948 -1 x13949 -1 x13950 -1 x13951 -1 x13952 >= 0 ;
+2 x14329 +2 x14330 +2 x14331 +2 x14332 -1 x13949 -1 x13950 -1 x13951 -1 x13952 -1 x13953 -1 x13954 -1 x13955 -1 x13956 >= 0 ;
+2 x14333 +2 x14334 +2 x14335 +2 x14336 -1 x13953 -1 x13954 -1 x13955 -1 x13956 -1 x13957 -1 x13958 -1 x13959 -1 x13960 >= 0 ;
+2 x14337 +2 x14338 +2 x14339 +2 x14340 -1 x13957 -1 x13958 -1 x13959 -1 x13960 -1 x13961 -1 x13962 -1 x13963 -1 x13964 >= 0 ;
+2 x14341 +2 x14342 +2 x14343 +2 x14344 -1 x13961 -1 x13962 -1 x13963 -1 x13964 -1 x13965 -1 x13966 -1 x13967 -1 x13968 >= 0 ;
+2 x14345 +2 x14346 +2 x14347 +2 x14348 -1 x13965 -1 x13966 -1 x13967 -1 x13968 -1 x13969 -1 x13970 -1 x13971 -1 x13972 >= 0 ;
+2 x14349 +2 x14350 +2 x14351 +2 x14352 -1 x13969 -1 x13970 -1 x13971 -1 x13972 -1 x13973 -1 x13974 -1 x13975 -1 x13976 >= 0 ;
+2 x14353 +2 x14354 +2 x14355 +2 x14356 -1 x13973 -1 x13974 -1 x13975 -1 x13976 -1 x13977 -1 x13978 -1 x13979 -1 x13980 >= 0 ;
+2 x14357 +2 x14358 +2 x14359 +2 x14360 -1 x13977 -1 x13978 -1 x13979 -1 x13980 -1 x13981 -1 x13982 -1 x13983 -1 x13984 >= 0 ;
+2 x14361 +2 x14362 +2 x14363 +2 x14364 -1 x13981 -1 x13982 -1 x13983 -1 x13984 -1 x13985 -1 x13986 -1 x13987 -1 x13988 >= 0 ;
+2 x14365 +2 x14366 +2 x14367 +2 x14368 -1 x13985 -1 x13986 -1 x13987 -1 x13988 -1 x13989 -1 x13990 -1 x13991 -1 x13992 >= 0 ;
+2 x14369 +2 x14370 +2 x14371 +2 x14372 -1 x13989 -1 x13990 -1 x13991 -1 x13992 -1 x13993 -1 x13994 -1 x13995 -1 x13996 >= 0 ;
+2 x14373 +2 x14374 +2 x14375 +2 x14376 -1 x13993 -1 x13994 -1 x13995 -1 x13996 -1 x13997 -1 x13998 -1 x13999 -1 x14000 >= 0 ;
+2 x14377 +2 x14378 +2 x14379 +2 x14380 -1 x13997 -1 x13998 -1 x13999 -1 x14000 -1 x14001 -1 x14002 -1 x14003 -1 x14004 >= 0 ;
+2 x14381 +2 x14382 +2 x14383 +2 x14384 -1 x14001 -1 x14002 -1 x14003 -1 x14004 -1 x14005 -1 x14006 -1 x14007 -1 x14008 >= 0 ;
+2 x14385 +2 x14386 +2 x14387 +2 x14388 -1 x14005 -1 x14006 -1 x14007 -1 x14008 -1 x14009 -1 x14010 -1 x14011 -1 x14012 >= 0 ;
+2 x14389 +2 x14390 +2 x14391 +2 x14392 -1 x14009 -1 x14010 -1 x14011 -1 x14012 -1 x14013 -1 x14014 -1 x14015 -1 x14016 >= 0 ;
+2 x14393 +2 x14394 +2 x14395 +2 x14396 -1 x14013 -1 x14014 -1 x14015 -1 x14016 -1 x14017 -1 x14018 -1 x14019 -1 x14020 >= 0 ;
+2 x14397 +2 x14398 +2 x14399 +2 x14400 -1 x14017 -1 x14018 -1 x14019 -1 x14020 -1 x14021 -1 x14022 -1 x14023 -1 x14024 >= 0 ;
+2 x14401 +2 x14402 +2 x14403 +2 x14404 -1 x14021 -1 x14022 -1 x14023 -1 x14024 -1 x14025 -1 x14026 -1 x14027 -1 x14028 >= 0 ;
+2 x14405 +2 x14406 +2 x14407 +2 x14408 -1 x14025 -1 x14026 -1 x14027 -1 x14028 -1 x14029 -1 x14030 -1 x14031 -1 x14032 >= 0 ;
+2 x14409 +2 x14410 +2 x14411 +2 x14412 -1 x14029 -1 x14030 -1 x14031 -1 x14032 -1 x14033 -1 x14034 -1 x14035 -1 x14036 >= 0 ;
+2 x14413 +2 x14414 +2 x14415 +2 x14416 -1 x14033 -1 x14034 -1 x14035 -1 x14036 -1 x14037 -1 x14038 -1 x14039 -1 x14040 >= 0 ;
+2 x14417 +2 x14418 +2 x14419 +2 x14420 -1 x14037 -1 x14038 -1 x14039 -1 x14040 -1 x14041 -1 x14042 -1 x14043 -1 x14044 >= 0 ;
+2 x14421 +2 x14422 +2 x14423 +2 x14424 -1 x14041 -1 x14042 -1 x14043 -1 x14044 -1 x14045 -1 x14046 -1 x14047 -1 x14048 >= 0 ;
+2 x14425 +2 x14426 +2 x14427 +2 x14428 -1 x14045 -1 x14046 -1 x14047 -1 x14048 -1 x14049 -1 x14050 -1 x14051 -1 x14052 >= 0 ;
+2 x14429 +2 x14430 +2 x14431 +2 x14432 -1 x14049 -1 x14050 -1 x14051 -1 x14052 -1 x14053 -1 x14054 -1 x14055 -1 x14056 >= 0 ;
+2 x14433 +2 x14434 +2 x14435 +2 x14436 -1 x14053 -1 x14054 -1 x14055 -1 x14056 -1 x14057 -1 x14058 -1 x14059 -1 x14060 >= 0 ;
+2 x14437 +2 x14438 +2 x14439 +2 x14440 -1 x14057 -1 x14058 -1 x14059 -1 x14060 -1 x14061 -1 x14062 -1 x14063 -1 x14064 >= 0 ;
+2 x14441 +2 x14442 +2 x14443 +2 x14444 -1 x14061 -1 x14062 -1 x14063 -1 x14064 -1 x14065 -1 x14066 -1 x14067 -1 x14068 >= 0 ;
+2 x14445 +2 x14446 +2 x14447 +2 x14448 -1 x14065 -1 x14066 -1 x14067 -1 x14068 -1 x14069 -1 x14070 -1 x14071 -1 x14072 >= 0 ;
+2 x14449 +2 x14450 +2 x14451 +2 x14452 -1 x14069 -1 x14070 -1 x14071 -1 x14072 -1 x14073 -1 x14074 -1 x14075 -1 x14076 >= 0 ;
+2 x14453 +2 x14454 +2 x14455 +2 x14456 -1 x14073 -1 x14074 -1 x14075 -1 x14076 -1 x14077 -1 x14078 -1 x14079 -1 x14080 >= 0 ;
+2 x14457 +2 x14458 +2 x14459 +2 x14460 -1 x14077 -1 x14078 -1 x14079 -1 x14080 -1 x14081 -1 x14082 -1 x14083 -1 x14084 >= 0 ;
+2 x14461 +2 x14462 +2 x14463 +2 x14464 -1 x14081 -1 x14082 -1 x14083 -1 x14084 -1 x14085 -1 x14086 -1 x14087 -1 x14088 >= 0 ;
+2 x14465 +2 x14466 +2 x14467 +2 x14468 -1 x14085 -1 x14086 -1 x14087 -1 x14088 -1 x14089 -1 x14090 -1 x14091 -1 x14092 >= 0 ;
+2 x14469 +2 x14470 +2 x14471 +2 x14472 -1 x14089 -1 x14090 -1 x14091 -1 x14092 -1 x14093 -1 x14094 -1 x14095 -1 x14096 >= 0 ;
+2 x14473 +2 x14474 +2 x14475 +2 x14476 -1 x14093 -1 x14094 -1 x14095 -1 x14096 -1 x14097 -1 x14098 -1 x14099 -1 x14100 >= 0 ;
+2 x14477 +2 x14478 +2 x14479 +2 x14480 -1 x14097 -1 x14098 -1 x14099 -1 x14100 -1 x14101 -1 x14102 -1 x14103 -1 x14104 >= 0 ;
+2 x14481 +2 x14482 +2 x14483 +2 x14484 -1 x14101 -1 x14102 -1 x14103 -1 x14104 -1 x14105 -1 x14106 -1 x14107 -1 x14108 >= 0 ;
+2 x14485 +2 x14486 +2 x14487 +2 x14488 -1 x14105 -1 x14106 -1 x14107 -1 x14108 -1 x14109 -1 x14110 -1 x14111 -1 x14112 >= 0 ;
+2 x14489 +2 x14490 +2 x14491 +2 x14492 -1 x14109 -1 x14110 -1 x14111 -1 x14112 -1 x14113 -1 x14114 -1 x14115 -1 x14116 >= 0 ;
+2 x14493 +2 x14494 +2 x14495 +2 x14496 -1 x14113 -1 x14114 -1 x14115 -1 x14116 -1 x14117 -1 x14118 -1 x14119 -1 x14120 >= 0 ;
+2 x14497 +2 x14498 +2 x14499 +2 x14500 -1 x14117 -1 x14118 -1 x14119 -1 x14120 -1 x14121 -1 x14122 -1 x14123 -1 x14124 >= 0 ;
+2 x14501 +2 x14502 +2 x14503 +2 x14504 -1 x14121 -1 x14122 -1 x14123 -1 x14124 -1 x14125 -1 x14126 -1 x14127 -1 x14128 >= 0 ;
+2 x14505 +2 x14506 +2 x14507 +2 x14508 -1 x14125 -1 x14126 -1 x14127 -1 x14128 -1 x14129 -1 x14130 -1 x14131 -1 x14132 >= 0 ;
+2 x14509 +2 x14510 +2 x14511 +2 x14512 -1 x14129 -1 x14130 -1 x14131 -1 x14132 -1 x14133 -1 x14134 -1 x14135 -1 x14136 >= 0 ;
+2 x14513 +2 x14514 +2 x14515 +2 x14516 -1 x14133 -1 x14134 -1 x14135 -1 x14136 -1 x14137 -1 x14138 -1 x14139 -1 x14140 >= 0 ;
+2 x14517 +2 x14518 +2 x14519 +2 x14520 -1 x14137 -1 x14138 -1 x14139 -1 x14140 -1 x14141 -1 x14142 -1 x14143 -1 x14144 >= 0 ;
+2 x14521 +2 x14522 +2 x14523 +2 x14524 -1 x14145 -1 x14146 -1 x14147 -1 x14148 -1 x14149 -1 x14150 -1 x14151 -1 x14152 >= 0 ;
+2 x14525 +2 x14526 +2 x14527 +2 x14528 -1 x14149 -1 x14150 -1 x14151 -1 x14152 -1 x14153 -1 x14154 -1 x14155 -1 x14156 >= 0 ;
+2 x14529 +2 x14530 +2 x14531 +2 x14532 -1 x14153 -1 x14154 -1 x14155 -1 x14156 -1 x14157 -1 x14158 -1 x14159 -1 x14160 >= 0 ;
+2 x14533 +2 x14534 +2 x14535 +2 x14536 -1 x14157 -1 x14158 -1 x14159 -1 x14160 -1 x14161 -1 x14162 -1 x14163 -1 x14164 >= 0 ;
+2 x14537 +2 x14538 +2 x14539 +2 x14540 -1 x14161 -1 x14162 -1 x14163 -1 x14164 -1 x14165 -1 x14166 -1 x14167 -1 x14168 >= 0 ;
+2 x14541 +2 x14542 +2 x14543 +2 x14544 -1 x14165 -1 x14166 -1 x14167 -1 x14168 -1 x14169 -1 x14170 -1 x14171 -1 x14172 >= 0 ;
+2 x14545 +2 x14546 +2 x14547 +2 x14548 -1 x14169 -1 x14170 -1 x14171 -1 x14172 -1 x14173 -1 x14174 -1 x14175 -1 x14176 >= 0 ;
+2 x14549 +2 x14550 +2 x14551 +2 x14552 -1 x14173 -1 x14174 -1 x14175 -1 x14176 -1 x14177 -1 x14178 -1 x14179 -1 x14180 >= 0 ;
+2 x14553 +2 x14554 +2 x14555 +2 x14556 -1 x14177 -1 x14178 -1 x14179 -1 x14180 -1 x14181 -1 x14182 -1 x14183 -1 x14184 >= 0 ;
+2 x14557 +2 x14558 +2 x14559 +2 x14560 -1 x14181 -1 x14182 -1 x14183 -1 x14184 -1 x14185 -1 x14186 -1 x14187 -1 x14188 >= 0 ;
+2 x14561 +2 x14562 +2 x14563 +2 x14564 -1 x14185 -1 x14186 -1 x14187 -1 x14188 -1 x14189 -1 x14190 -1 x14191 -1 x14192 >= 0 ;
+2 x14565 +2 x14566 +2 x14567 +2 x14568 -1 x14189 -1 x14190 -1 x14191 -1 x14192 -1 x14193 -1 x14194 -1 x14195 -1 x14196 >= 0 ;
+2 x14569 +2 x14570 +2 x14571 +2 x14572 -1 x14193 -1 x14194 -1 x14195 -1 x14196 -1 x14197 -1 x14198 -1 x14199 -1 x14200 >= 0 ;
+2 x14573 +2 x14574 +2 x14575 +2 x14576 -1 x14197 -1 x14198 -1 x14199 -1 x14200 -1 x14201 -1 x14202 -1 x14203 -1 x14204 >= 0 ;
+2 x14577 +2 x14578 +2 x14579 +2 x14580 -1 x14201 -1 x14202 -1 x14203 -1 x14204 -1 x14205 -1 x14206 -1 x14207 -1 x14208 >= 0 ;
+2 x14581 +2 x14582 +2 x14583 +2 x14584 -1 x14205 -1 x14206 -1 x14207 -1 x14208 -1 x14209 -1 x14210 -1 x14211 -1 x14212 >= 0 ;
+2 x14585 +2 x14586 +2 x14587 +2 x14588 -1 x14209 -1 x14210 -1 x14211 -1 x14212 -1 x14213 -1 x14214 -1 x14215 -1 x14216 >= 0 ;
+2 x14589 +2 x14590 +2 x14591 +2 x14592 -1 x14213 -1 x14214 -1 x14215 -1 x14216 -1 x14217 -1 x14218 -1 x14219 -1 x14220 >= 0 ;
+2 x14593 +2 x14594 +2 x14595 +2 x14596 -1 x14217 -1 x14218 -1 x14219 -1 x14220 -1 x14221 -1 x14222 -1 x14223 -1 x14224 >= 0 ;
+2 x14597 +2 x14598 +2 x14599 +2 x14600 -1 x14221 -1 x14222 -1 x14223 -1 x14224 -1 x14225 -1 x14226 -1 x14227 -1 x14228 >= 0 ;
+2 x14601 +2 x14602 +2 x14603 +2 x14604 -1 x14225 -1 x14226 -1 x14227 -1 x14228 -1 x14229 -1 x14230 -1 x14231 -1 x14232 >= 0 ;
+2 x14605 +2 x14606 +2 x14607 +2 x14608 -1 x14229 -1 x14230 -1 x14231 -1 x14232 -1 x14233 -1 x14234 -1 x14235 -1 x14236 >= 0 ;
+2 x14609 +2 x14610 +2 x14611 +2 x14612 -1 x14233 -1 x14234 -1 x14235 -1 x14236 -1 x14237 -1 x14238 -1 x14239 -1 x14240 >= 0 ;
+2 x14613 +2 x14614 +2 x14615 +2 x14616 -1 x14237 -1 x14238 -1 x14239 -1 x14240 -1 x14241 -1 x14242 -1 x14243 -1 x14244 >= 0 ;
+2 x14617 +2 x14618 +2 x14619 +2 x14620 -1 x14241 -1 x14242 -1 x14243 -1 x14244 -1 x14245 -1 x14246 -1 x14247 -1 x14248 >= 0 ;
+2 x14621 +2 x14622 +2 x14623 +2 x14624 -1 x14245 -1 x14246 -1 x14247 -1 x14248 -1 x14249 -1 x14250 -1 x14251 -1 x14252 >= 0 ;
+2 x14625 +2 x14626 +2 x14627 +2 x14628 -1 x14249 -1 x14250 -1 x14251 -1 x14252 -1 x14253 -1 x14254 -1 x14255 -1 x14256 >= 0 ;
+2 x14629 +2 x14630 +2 x14631 +2 x14632 -1 x14253 -1 x14254 -1 x14255 -1 x14256 -1 x14257 -1 x14258 -1 x14259 -1 x14260 >= 0 ;
+2 x14633 +2 x14634 +2 x14635 +2 x14636 -1 x14257 -1 x14258 -1 x14259 -1 x14260 -1 x14261 -1 x14262 -1 x14263 -1 x14264 >= 0 ;
+2 x14637 +2 x14638 +2 x14639 +2 x14640 -1 x14261 -1 x14262 -1 x14263 -1 x14264 -1 x14265 -1 x14266 -1 x14267 -1 x14268 >= 0 ;
+2 x14641 +2 x14642 +2 x14643 +2 x14644 -1 x14265 -1 x14266 -1 x14267 -1 x14268 -1 x14269 -1 x14270 -1 x14271 -1 x14272 >= 0 ;
+2 x14645 +2 x14646 +2 x14647 +2 x14648 -1 x14269 -1 x14270 -1 x14271 -1 x14272 -1 x14273 -1 x14274 -1 x14275 -1 x14276 >= 0 ;
+2 x14649 +2 x14650 +2 x14651 +2 x14652 -1 x14273 -1 x14274 -1 x14275 -1 x14276 -1 x14277 -1 x14278 -1 x14279 -1 x14280 >= 0 ;
+2 x14653 +2 x14654 +2 x14655 +2 x14656 -1 x14277 -1 x14278 -1 x14279 -1 x14280 -1 x14281 -1 x14282 -1 x14283 -1 x14284 >= 0 ;
+2 x14657 +2 x14658 +2 x14659 +2 x14660 -1 x14281 -1 x14282 -1 x14283 -1 x14284 -1 x14285 -1 x14286 -1 x14287 -1 x14288 >= 0 ;
+2 x14661 +2 x14662 +2 x14663 +2 x14664 -1 x14285 -1 x14286 -1 x14287 -1 x14288 -1 x14289 -1 x14290 -1 x14291 -1 x14292 >= 0 ;
+2 x14665 +2 x14666 +2 x14667 +2 x14668 -1 x14289 -1 x14290 -1 x14291 -1 x14292 -1 x14293 -1 x14294 -1 x14295 -1 x14296 >= 0 ;
+2 x14669 +2 x14670 +2 x14671 +2 x14672 -1 x14293 -1 x14294 -1 x14295 -1 x14296 -1 x14297 -1 x14298 -1 x14299 -1 x14300 >= 0 ;
+2 x14673 +2 x14674 +2 x14675 +2 x14676 -1 x14297 -1 x14298 -1 x14299 -1 x14300 -1 x14301 -1 x14302 -1 x14303 -1 x14304 >= 0 ;
+2 x14677 +2 x14678 +2 x14679 +2 x14680 -1 x14301 -1 x14302 -1 x14303 -1 x14304 -1 x14305 -1 x14306 -1 x14307 -1 x14308 >= 0 ;
+2 x14681 +2 x14682 +2 x14683 +2 x14684 -1 x14305 -1 x14306 -1 x14307 -1 x14308 -1 x14309 -1 x14310 -1 x14311 -1 x14312 >= 0 ;
+2 x14685 +2 x14686 +2 x14687 +2 x14688 -1 x14309 -1 x14310 -1 x14311 -1 x14312 -1 x14313 -1 x14314 -1 x14315 -1 x14316 >= 0 ;
+2 x14689 +2 x14690 +2 x14691 +2 x14692 -1 x14313 -1 x14314 -1 x14315 -1 x14316 -1 x14317 -1 x14318 -1 x14319 -1 x14320 >= 0 ;
+2 x14693 +2 x14694 +2 x14695 +2 x14696 -1 x14317 -1 x14318 -1 x14319 -1 x14320 -1 x14321 -1 x14322 -1 x14323 -1 x14324 >= 0 ;
+2 x14697 +2 x14698 +2 x14699 +2 x14700 -1 x14321 -1 x14322 -1 x14323 -1 x14324 -1 x14325 -1 x14326 -1 x14327 -1 x14328 >= 0 ;
+2 x14701 +2 x14702 +2 x14703 +2 x14704 -1 x14325 -1 x14326 -1 x14327 -1 x14328 -1 x14329 -1 x14330 -1 x14331 -1 x14332 >= 0 ;
+2 x14705 +2 x14706 +2 x14707 +2 x14708 -1 x14329 -1 x14330 -1 x14331 -1 x14332 -1 x14333 -1 x14334 -1 x14335 -1 x14336 >= 0 ;
+2 x14709 +2 x14710 +2 x14711 +2 x14712 -1 x14333 -1 x14334 -1 x14335 -1 x14336 -1 x14337 -1 x14338 -1 x14339 -1 x14340 >= 0 ;
+2 x14713 +2 x14714 +2 x14715 +2 x14716 -1 x14337 -1 x14338 -1 x14339 -1 x14340 -1 x14341 -1 x14342 -1 x14343 -1 x14344 >= 0 ;
+2 x14717 +2 x14718 +2 x14719 +2 x14720 -1 x14341 -1 x14342 -1 x14343 -1 x14344 -1 x14345 -1 x14346 -1 x14347 -1 x14348 >= 0 ;
+2 x14721 +2 x14722 +2 x14723 +2 x14724 -1 x14345 -1 x14346 -1 x14347 -1 x14348 -1 x14349 -1 x14350 -1 x14351 -1 x14352 >= 0 ;
+2 x14725 +2 x14726 +2 x14727 +2 x14728 -1 x14349 -1 x14350 -1 x14351 -1 x14352 -1 x14353 -1 x14354 -1 x14355 -1 x14356 >= 0 ;
+2 x14729 +2 x14730 +2 x14731 +2 x14732 -1 x14353 -1 x14354 -1 x14355 -1 x14356 -1 x14357 -1 x14358 -1 x14359 -1 x14360 >= 0 ;
+2 x14733 +2 x14734 +2 x14735 +2 x14736 -1 x14357 -1 x14358 -1 x14359 -1 x14360 -1 x14361 -1 x14362 -1 x14363 -1 x14364 >= 0 ;
+2 x14737 +2 x14738 +2 x14739 +2 x14740 -1 x14361 -1 x14362 -1 x14363 -1 x14364 -1 x14365 -1 x14366 -1 x14367 -1 x14368 >= 0 ;
+2 x14741 +2 x14742 +2 x14743 +2 x14744 -1 x14365 -1 x14366 -1 x14367 -1 x14368 -1 x14369 -1 x14370 -1 x14371 -1 x14372 >= 0 ;
+2 x14745 +2 x14746 +2 x14747 +2 x14748 -1 x14369 -1 x14370 -1 x14371 -1 x14372 -1 x14373 -1 x14374 -1 x14375 -1 x14376 >= 0 ;
+2 x14749 +2 x14750 +2 x14751 +2 x14752 -1 x14373 -1 x14374 -1 x14375 -1 x14376 -1 x14377 -1 x14378 -1 x14379 -1 x14380 >= 0 ;
+2 x14753 +2 x14754 +2 x14755 +2 x14756 -1 x14377 -1 x14378 -1 x14379 -1 x14380 -1 x14381 -1 x14382 -1 x14383 -1 x14384 >= 0 ;
+2 x14757 +2 x14758 +2 x14759 +2 x14760 -1 x14381 -1 x14382 -1 x14383 -1 x14384 -1 x14385 -1 x14386 -1 x14387 -1 x14388 >= 0 ;
+2 x14761 +2 x14762 +2 x14763 +2 x14764 -1 x14385 -1 x14386 -1 x14387 -1 x14388 -1 x14389 -1 x14390 -1 x14391 -1 x14392 >= 0 ;
+2 x14765 +2 x14766 +2 x14767 +2 x14768 -1 x14389 -1 x14390 -1 x14391 -1 x14392 -1 x14393 -1 x14394 -1 x14395 -1 x14396 >= 0 ;
+2 x14769 +2 x14770 +2 x14771 +2 x14772 -1 x14393 -1 x14394 -1 x14395 -1 x14396 -1 x14397 -1 x14398 -1 x14399 -1 x14400 >= 0 ;
+2 x14773 +2 x14774 +2 x14775 +2 x14776 -1 x14397 -1 x14398 -1 x14399 -1 x14400 -1 x14401 -1 x14402 -1 x14403 -1 x14404 >= 0 ;
+2 x14777 +2 x14778 +2 x14779 +2 x14780 -1 x14401 -1 x14402 -1 x14403 -1 x14404 -1 x14405 -1 x14406 -1 x14407 -1 x14408 >= 0 ;
+2 x14781 +2 x14782 +2 x14783 +2 x14784 -1 x14405 -1 x14406 -1 x14407 -1 x14408 -1 x14409 -1 x14410 -1 x14411 -1 x14412 >= 0 ;
+2 x14785 +2 x14786 +2 x14787 +2 x14788 -1 x14409 -1 x14410 -1 x14411 -1 x14412 -1 x14413 -1 x14414 -1 x14415 -1 x14416 >= 0 ;
+2 x14789 +2 x14790 +2 x14791 +2 x14792 -1 x14413 -1 x14414 -1 x14415 -1 x14416 -1 x14417 -1 x14418 -1 x14419 -1 x14420 >= 0 ;
+2 x14793 +2 x14794 +2 x14795 +2 x14796 -1 x14417 -1 x14418 -1 x14419 -1 x14420 -1 x14421 -1 x14422 -1 x14423 -1 x14424 >= 0 ;
+2 x14797 +2 x14798 +2 x14799 +2 x14800 -1 x14421 -1 x14422 -1 x14423 -1 x14424 -1 x14425 -1 x14426 -1 x14427 -1 x14428 >= 0 ;
+2 x14801 +2 x14802 +2 x14803 +2 x14804 -1 x14425 -1 x14426 -1 x14427 -1 x14428 -1 x14429 -1 x14430 -1 x14431 -1 x14432 >= 0 ;
+2 x14805 +2 x14806 +2 x14807 +2 x14808 -1 x14429 -1 x14430 -1 x14431 -1 x14432 -1 x14433 -1 x14434 -1 x14435 -1 x14436 >= 0 ;
+2 x14809 +2 x14810 +2 x14811 +2 x14812 -1 x14433 -1 x14434 -1 x14435 -1 x14436 -1 x14437 -1 x14438 -1 x14439 -1 x14440 >= 0 ;
+2 x14813 +2 x14814 +2 x14815 +2 x14816 -1 x14437 -1 x14438 -1 x14439 -1 x14440 -1 x14441 -1 x14442 -1 x14443 -1 x14444 >= 0 ;
+2 x14817 +2 x14818 +2 x14819 +2 x14820 -1 x14441 -1 x14442 -1 x14443 -1 x14444 -1 x14445 -1 x14446 -1 x14447 -1 x14448 >= 0 ;
+2 x14821 +2 x14822 +2 x14823 +2 x14824 -1 x14445 -1 x14446 -1 x14447 -1 x14448 -1 x14449 -1 x14450 -1 x14451 -1 x14452 >= 0 ;
+2 x14825 +2 x14826 +2 x14827 +2 x14828 -1 x14449 -1 x14450 -1 x14451 -1 x14452 -1 x14453 -1 x14454 -1 x14455 -1 x14456 >= 0 ;
+2 x14829 +2 x14830 +2 x14831 +2 x14832 -1 x14453 -1 x14454 -1 x14455 -1 x14456 -1 x14457 -1 x14458 -1 x14459 -1 x14460 >= 0 ;
+2 x14833 +2 x14834 +2 x14835 +2 x14836 -1 x14457 -1 x14458 -1 x14459 -1 x14460 -1 x14461 -1 x14462 -1 x14463 -1 x14464 >= 0 ;
+2 x14837 +2 x14838 +2 x14839 +2 x14840 -1 x14461 -1 x14462 -1 x14463 -1 x14464 -1 x14465 -1 x14466 -1 x14467 -1 x14468 >= 0 ;
+2 x14841 +2 x14842 +2 x14843 +2 x14844 -1 x14465 -1 x14466 -1 x14467 -1 x14468 -1 x14469 -1 x14470 -1 x14471 -1 x14472 >= 0 ;
+2 x14845 +2 x14846 +2 x14847 +2 x14848 -1 x14469 -1 x14470 -1 x14471 -1 x14472 -1 x14473 -1 x14474 -1 x14475 -1 x14476 >= 0 ;
+2 x14849 +2 x14850 +2 x14851 +2 x14852 -1 x14473 -1 x14474 -1 x14475 -1 x14476 -1 x14477 -1 x14478 -1 x14479 -1 x14480 >= 0 ;
+2 x14853 +2 x14854 +2 x14855 +2 x14856 -1 x14477 -1 x14478 -1 x14479 -1 x14480 -1 x14481 -1 x14482 -1 x14483 -1 x14484 >= 0 ;
+2 x14857 +2 x14858 +2 x14859 +2 x14860 -1 x14481 -1 x14482 -1 x14483 -1 x14484 -1 x14485 -1 x14486 -1 x14487 -1 x14488 >= 0 ;
+2 x14861 +2 x14862 +2 x14863 +2 x14864 -1 x14485 -1 x14486 -1 x14487 -1 x14488 -1 x14489 -1 x14490 -1 x14491 -1 x14492 >= 0 ;
+2 x14865 +2 x14866 +2 x14867 +2 x14868 -1 x14489 -1 x14490 -1 x14491 -1 x14492 -1 x14493 -1 x14494 -1 x14495 -1 x14496 >= 0 ;
+2 x14869 +2 x14870 +2 x14871 +2 x14872 -1 x14493 -1 x14494 -1 x14495 -1 x14496 -1 x14497 -1 x14498 -1 x14499 -1 x14500 >= 0 ;
+2 x14873 +2 x14874 +2 x14875 +2 x14876 -1 x14497 -1 x14498 -1 x14499 -1 x14500 -1 x14501 -1 x14502 -1 x14503 -1 x14504 >= 0 ;
+2 x14877 +2 x14878 +2 x14879 +2 x14880 -1 x14501 -1 x14502 -1 x14503 -1 x14504 -1 x14505 -1 x14506 -1 x14507 -1 x14508 >= 0 ;
+2 x14881 +2 x14882 +2 x14883 +2 x14884 -1 x14505 -1 x14506 -1 x14507 -1 x14508 -1 x14509 -1 x14510 -1 x14511 -1 x14512 >= 0 ;
+2 x14885 +2 x14886 +2 x14887 +2 x14888 -1 x14509 -1 x14510 -1 x14511 -1 x14512 -1 x14513 -1 x14514 -1 x14515 -1 x14516 >= 0 ;
+2 x14889 +2 x14890 +2 x14891 +2 x14892 -1 x14513 -1 x14514 -1 x14515 -1 x14516 -1 x14517 -1 x14518 -1 x14519 -1 x14520 >= 0 ;
+2 x14893 +2 x14894 +2 x14895 +2 x14896 -1 x14521 -1 x14522 -1 x14523 -1 x14524 -1 x14525 -1 x14526 -1 x14527 -1 x14528 >= 0 ;
+2 x14897 +2 x14898 +2 x14899 +2 x14900 -1 x14525 -1 x14526 -1 x14527 -1 x14528 -1 x14529 -1 x14530 -1 x14531 -1 x14532 >= 0 ;
+2 x14901 +2 x14902 +2 x14903 +2 x14904 -1 x14529 -1 x14530 -1 x14531 -1 x14532 -1 x14533 -1 x14534 -1 x14535 -1 x14536 >= 0 ;
+2 x14905 +2 x14906 +2 x14907 +2 x14908 -1 x14533 -1 x14534 -1 x14535 -1 x14536 -1 x14537 -1 x14538 -1 x14539 -1 x14540 >= 0 ;
+2 x14909 +2 x14910 +2 x14911 +2 x14912 -1 x14537 -1 x14538 -1 x14539 -1 x14540 -1 x14541 -1 x14542 -1 x14543 -1 x14544 >= 0 ;
+2 x14913 +2 x14914 +2 x14915 +2 x14916 -1 x14541 -1 x14542 -1 x14543 -1 x14544 -1 x14545 -1 x14546 -1 x14547 -1 x14548 >= 0 ;
+2 x14917 +2 x14918 +2 x14919 +2 x14920 -1 x14545 -1 x14546 -1 x14547 -1 x14548 -1 x14549 -1 x14550 -1 x14551 -1 x14552 >= 0 ;
+2 x14921 +2 x14922 +2 x14923 +2 x14924 -1 x14549 -1 x14550 -1 x14551 -1 x14552 -1 x14553 -1 x14554 -1 x14555 -1 x14556 >= 0 ;
+2 x14925 +2 x14926 +2 x14927 +2 x14928 -1 x14553 -1 x14554 -1 x14555 -1 x14556 -1 x14557 -1 x14558 -1 x14559 -1 x14560 >= 0 ;
+2 x14929 +2 x14930 +2 x14931 +2 x14932 -1 x14557 -1 x14558 -1 x14559 -1 x14560 -1 x14561 -1 x14562 -1 x14563 -1 x14564 >= 0 ;
+2 x14933 +2 x14934 +2 x14935 +2 x14936 -1 x14561 -1 x14562 -1 x14563 -1 x14564 -1 x14565 -1 x14566 -1 x14567 -1 x14568 >= 0 ;
+2 x14937 +2 x14938 +2 x14939 +2 x14940 -1 x14565 -1 x14566 -1 x14567 -1 x14568 -1 x14569 -1 x14570 -1 x14571 -1 x14572 >= 0 ;
+2 x14941 +2 x14942 +2 x14943 +2 x14944 -1 x14569 -1 x14570 -1 x14571 -1 x14572 -1 x14573 -1 x14574 -1 x14575 -1 x14576 >= 0 ;
+2 x14945 +2 x14946 +2 x14947 +2 x14948 -1 x14573 -1 x14574 -1 x14575 -1 x14576 -1 x14577 -1 x14578 -1 x14579 -1 x14580 >= 0 ;
+2 x14949 +2 x14950 +2 x14951 +2 x14952 -1 x14577 -1 x14578 -1 x14579 -1 x14580 -1 x14581 -1 x14582 -1 x14583 -1 x14584 >= 0 ;
+2 x14953 +2 x14954 +2 x14955 +2 x14956 -1 x14581 -1 x14582 -1 x14583 -1 x14584 -1 x14585 -1 x14586 -1 x14587 -1 x14588 >= 0 ;
+2 x14957 +2 x14958 +2 x14959 +2 x14960 -1 x14585 -1 x14586 -1 x14587 -1 x14588 -1 x14589 -1 x14590 -1 x14591 -1 x14592 >= 0 ;
+2 x14961 +2 x14962 +2 x14963 +2 x14964 -1 x14589 -1 x14590 -1 x14591 -1 x14592 -1 x14593 -1 x14594 -1 x14595 -1 x14596 >= 0 ;
+2 x14965 +2 x14966 +2 x14967 +2 x14968 -1 x14593 -1 x14594 -1 x14595 -1 x14596 -1 x14597 -1 x14598 -1 x14599 -1 x14600 >= 0 ;
+2 x14969 +2 x14970 +2 x14971 +2 x14972 -1 x14597 -1 x14598 -1 x14599 -1 x14600 -1 x14601 -1 x14602 -1 x14603 -1 x14604 >= 0 ;
+2 x14973 +2 x14974 +2 x14975 +2 x14976 -1 x14601 -1 x14602 -1 x14603 -1 x14604 -1 x14605 -1 x14606 -1 x14607 -1 x14608 >= 0 ;
+2 x14977 +2 x14978 +2 x14979 +2 x14980 -1 x14605 -1 x14606 -1 x14607 -1 x14608 -1 x14609 -1 x14610 -1 x14611 -1 x14612 >= 0 ;
+2 x14981 +2 x14982 +2 x14983 +2 x14984 -1 x14609 -1 x14610 -1 x14611 -1 x14612 -1 x14613 -1 x14614 -1 x14615 -1 x14616 >= 0 ;
+2 x14985 +2 x14986 +2 x14987 +2 x14988 -1 x14613 -1 x14614 -1 x14615 -1 x14616 -1 x14617 -1 x14618 -1 x14619 -1 x14620 >= 0 ;
+2 x14989 +2 x14990 +2 x14991 +2 x14992 -1 x14617 -1 x14618 -1 x14619 -1 x14620 -1 x14621 -1 x14622 -1 x14623 -1 x14624 >= 0 ;
+2 x14993 +2 x14994 +2 x14995 +2 x14996 -1 x14621 -1 x14622 -1 x14623 -1 x14624 -1 x14625 -1 x14626 -1 x14627 -1 x14628 >= 0 ;
+2 x14997 +2 x14998 +2 x14999 +2 x15000 -1 x14625 -1 x14626 -1 x14627 -1 x14628 -1 x14629 -1 x14630 -1 x14631 -1 x14632 >= 0 ;
+2 x15001 +2 x15002 +2 x15003 +2 x15004 -1 x14629 -1 x14630 -1 x14631 -1 x14632 -1 x14633 -1 x14634 -1 x14635 -1 x14636 >= 0 ;
+2 x15005 +2 x15006 +2 x15007 +2 x15008 -1 x14633 -1 x14634 -1 x14635 -1 x14636 -1 x14637 -1 x14638 -1 x14639 -1 x14640 >= 0 ;
+2 x15009 +2 x15010 +2 x15011 +2 x15012 -1 x14637 -1 x14638 -1 x14639 -1 x14640 -1 x14641 -1 x14642 -1 x14643 -1 x14644 >= 0 ;
+2 x15013 +2 x15014 +2 x15015 +2 x15016 -1 x14641 -1 x14642 -1 x14643 -1 x14644 -1 x14645 -1 x14646 -1 x14647 -1 x14648 >= 0 ;
+2 x15017 +2 x15018 +2 x15019 +2 x15020 -1 x14645 -1 x14646 -1 x14647 -1 x14648 -1 x14649 -1 x14650 -1 x14651 -1 x14652 >= 0 ;
+2 x15021 +2 x15022 +2 x15023 +2 x15024 -1 x14649 -1 x14650 -1 x14651 -1 x14652 -1 x14653 -1 x14654 -1 x14655 -1 x14656 >= 0 ;
+2 x15025 +2 x15026 +2 x15027 +2 x15028 -1 x14653 -1 x14654 -1 x14655 -1 x14656 -1 x14657 -1 x14658 -1 x14659 -1 x14660 >= 0 ;
+2 x15029 +2 x15030 +2 x15031 +2 x15032 -1 x14657 -1 x14658 -1 x14659 -1 x14660 -1 x14661 -1 x14662 -1 x14663 -1 x14664 >= 0 ;
+2 x15033 +2 x15034 +2 x15035 +2 x15036 -1 x14661 -1 x14662 -1 x14663 -1 x14664 -1 x14665 -1 x14666 -1 x14667 -1 x14668 >= 0 ;
+2 x15037 +2 x15038 +2 x15039 +2 x15040 -1 x14665 -1 x14666 -1 x14667 -1 x14668 -1 x14669 -1 x14670 -1 x14671 -1 x14672 >= 0 ;
+2 x15041 +2 x15042 +2 x15043 +2 x15044 -1 x14669 -1 x14670 -1 x14671 -1 x14672 -1 x14673 -1 x14674 -1 x14675 -1 x14676 >= 0 ;
+2 x15045 +2 x15046 +2 x15047 +2 x15048 -1 x14673 -1 x14674 -1 x14675 -1 x14676 -1 x14677 -1 x14678 -1 x14679 -1 x14680 >= 0 ;
+2 x15049 +2 x15050 +2 x15051 +2 x15052 -1 x14677 -1 x14678 -1 x14679 -1 x14680 -1 x14681 -1 x14682 -1 x14683 -1 x14684 >= 0 ;
+2 x15053 +2 x15054 +2 x15055 +2 x15056 -1 x14681 -1 x14682 -1 x14683 -1 x14684 -1 x14685 -1 x14686 -1 x14687 -1 x14688 >= 0 ;
+2 x15057 +2 x15058 +2 x15059 +2 x15060 -1 x14685 -1 x14686 -1 x14687 -1 x14688 -1 x14689 -1 x14690 -1 x14691 -1 x14692 >= 0 ;
+2 x15061 +2 x15062 +2 x15063 +2 x15064 -1 x14689 -1 x14690 -1 x14691 -1 x14692 -1 x14693 -1 x14694 -1 x14695 -1 x14696 >= 0 ;
+2 x15065 +2 x15066 +2 x15067 +2 x15068 -1 x14693 -1 x14694 -1 x14695 -1 x14696 -1 x14697 -1 x14698 -1 x14699 -1 x14700 >= 0 ;
+2 x15069 +2 x15070 +2 x15071 +2 x15072 -1 x14697 -1 x14698 -1 x14699 -1 x14700 -1 x14701 -1 x14702 -1 x14703 -1 x14704 >= 0 ;
+2 x15073 +2 x15074 +2 x15075 +2 x15076 -1 x14701 -1 x14702 -1 x14703 -1 x14704 -1 x14705 -1 x14706 -1 x14707 -1 x14708 >= 0 ;
+2 x15077 +2 x15078 +2 x15079 +2 x15080 -1 x14705 -1 x14706 -1 x14707 -1 x14708 -1 x14709 -1 x14710 -1 x14711 -1 x14712 >= 0 ;
+2 x15081 +2 x15082 +2 x15083 +2 x15084 -1 x14709 -1 x14710 -1 x14711 -1 x14712 -1 x14713 -1 x14714 -1 x14715 -1 x14716 >= 0 ;
+2 x15085 +2 x15086 +2 x15087 +2 x15088 -1 x14713 -1 x14714 -1 x14715 -1 x14716 -1 x14717 -1 x14718 -1 x14719 -1 x14720 >= 0 ;
+2 x15089 +2 x15090 +2 x15091 +2 x15092 -1 x14717 -1 x14718 -1 x14719 -1 x14720 -1 x14721 -1 x14722 -1 x14723 -1 x14724 >= 0 ;
+2 x15093 +2 x15094 +2 x15095 +2 x15096 -1 x14721 -1 x14722 -1 x14723 -1 x14724 -1 x14725 -1 x14726 -1 x14727 -1 x14728 >= 0 ;
+2 x15097 +2 x15098 +2 x15099 +2 x15100 -1 x14725 -1 x14726 -1 x14727 -1 x14728 -1 x14729 -1 x14730 -1 x14731 -1 x14732 >= 0 ;
+2 x15101 +2 x15102 +2 x15103 +2 x15104 -1 x14729 -1 x14730 -1 x14731 -1 x14732 -1 x14733 -1 x14734 -1 x14735 -1 x14736 >= 0 ;
+2 x15105 +2 x15106 +2 x15107 +2 x15108 -1 x14733 -1 x14734 -1 x14735 -1 x14736 -1 x14737 -1 x14738 -1 x14739 -1 x14740 >= 0 ;
+2 x15109 +2 x15110 +2 x15111 +2 x15112 -1 x14737 -1 x14738 -1 x14739 -1 x14740 -1 x14741 -1 x14742 -1 x14743 -1 x14744 >= 0 ;
+2 x15113 +2 x15114 +2 x15115 +2 x15116 -1 x14741 -1 x14742 -1 x14743 -1 x14744 -1 x14745 -1 x14746 -1 x14747 -1 x14748 >= 0 ;
+2 x15117 +2 x15118 +2 x15119 +2 x15120 -1 x14745 -1 x14746 -1 x14747 -1 x14748 -1 x14749 -1 x14750 -1 x14751 -1 x14752 >= 0 ;
+2 x15121 +2 x15122 +2 x15123 +2 x15124 -1 x14749 -1 x14750 -1 x14751 -1 x14752 -1 x14753 -1 x14754 -1 x14755 -1 x14756 >= 0 ;
+2 x15125 +2 x15126 +2 x15127 +2 x15128 -1 x14753 -1 x14754 -1 x14755 -1 x14756 -1 x14757 -1 x14758 -1 x14759 -1 x14760 >= 0 ;
+2 x15129 +2 x15130 +2 x15131 +2 x15132 -1 x14757 -1 x14758 -1 x14759 -1 x14760 -1 x14761 -1 x14762 -1 x14763 -1 x14764 >= 0 ;
+2 x15133 +2 x15134 +2 x15135 +2 x15136 -1 x14761 -1 x14762 -1 x14763 -1 x14764 -1 x14765 -1 x14766 -1 x14767 -1 x14768 >= 0 ;
+2 x15137 +2 x15138 +2 x15139 +2 x15140 -1 x14765 -1 x14766 -1 x14767 -1 x14768 -1 x14769 -1 x14770 -1 x14771 -1 x14772 >= 0 ;
+2 x15141 +2 x15142 +2 x15143 +2 x15144 -1 x14769 -1 x14770 -1 x14771 -1 x14772 -1 x14773 -1 x14774 -1 x14775 -1 x14776 >= 0 ;
+2 x15145 +2 x15146 +2 x15147 +2 x15148 -1 x14773 -1 x14774 -1 x14775 -1 x14776 -1 x14777 -1 x14778 -1 x14779 -1 x14780 >= 0 ;
+2 x15149 +2 x15150 +2 x15151 +2 x15152 -1 x14777 -1 x14778 -1 x14779 -1 x14780 -1 x14781 -1 x14782 -1 x14783 -1 x14784 >= 0 ;
+2 x15153 +2 x15154 +2 x15155 +2 x15156 -1 x14781 -1 x14782 -1 x14783 -1 x14784 -1 x14785 -1 x14786 -1 x14787 -1 x14788 >= 0 ;
+2 x15157 +2 x15158 +2 x15159 +2 x15160 -1 x14785 -1 x14786 -1 x14787 -1 x14788 -1 x14789 -1 x14790 -1 x14791 -1 x14792 >= 0 ;
+2 x15161 +2 x15162 +2 x15163 +2 x15164 -1 x14789 -1 x14790 -1 x14791 -1 x14792 -1 x14793 -1 x14794 -1 x14795 -1 x14796 >= 0 ;
+2 x15165 +2 x15166 +2 x15167 +2 x15168 -1 x14793 -1 x14794 -1 x14795 -1 x14796 -1 x14797 -1 x14798 -1 x14799 -1 x14800 >= 0 ;
+2 x15169 +2 x15170 +2 x15171 +2 x15172 -1 x14797 -1 x14798 -1 x14799 -1 x14800 -1 x14801 -1 x14802 -1 x14803 -1 x14804 >= 0 ;
+2 x15173 +2 x15174 +2 x15175 +2 x15176 -1 x14801 -1 x14802 -1 x14803 -1 x14804 -1 x14805 -1 x14806 -1 x14807 -1 x14808 >= 0 ;
+2 x15177 +2 x15178 +2 x15179 +2 x15180 -1 x14805 -1 x14806 -1 x14807 -1 x14808 -1 x14809 -1 x14810 -1 x14811 -1 x14812 >= 0 ;
+2 x15181 +2 x15182 +2 x15183 +2 x15184 -1 x14809 -1 x14810 -1 x14811 -1 x14812 -1 x14813 -1 x14814 -1 x14815 -1 x14816 >= 0 ;
+2 x15185 +2 x15186 +2 x15187 +2 x15188 -1 x14813 -1 x14814 -1 x14815 -1 x14816 -1 x14817 -1 x14818 -1 x14819 -1 x14820 >= 0 ;
+2 x15189 +2 x15190 +2 x15191 +2 x15192 -1 x14817 -1 x14818 -1 x14819 -1 x14820 -1 x14821 -1 x14822 -1 x14823 -1 x14824 >= 0 ;
+2 x15193 +2 x15194 +2 x15195 +2 x15196 -1 x14821 -1 x14822 -1 x14823 -1 x14824 -1 x14825 -1 x14826 -1 x14827 -1 x14828 >= 0 ;
+2 x15197 +2 x15198 +2 x15199 +2 x15200 -1 x14825 -1 x14826 -1 x14827 -1 x14828 -1 x14829 -1 x14830 -1 x14831 -1 x14832 >= 0 ;
+2 x15201 +2 x15202 +2 x15203 +2 x15204 -1 x14829 -1 x14830 -1 x14831 -1 x14832 -1 x14833 -1 x14834 -1 x14835 -1 x14836 >= 0 ;
+2 x15205 +2 x15206 +2 x15207 +2 x15208 -1 x14833 -1 x14834 -1 x14835 -1 x14836 -1 x14837 -1 x14838 -1 x14839 -1 x14840 >= 0 ;
+2 x15209 +2 x15210 +2 x15211 +2 x15212 -1 x14837 -1 x14838 -1 x14839 -1 x14840 -1 x14841 -1 x14842 -1 x14843 -1 x14844 >= 0 ;
+2 x15213 +2 x15214 +2 x15215 +2 x15216 -1 x14841 -1 x14842 -1 x14843 -1 x14844 -1 x14845 -1 x14846 -1 x14847 -1 x14848 >= 0 ;
+2 x15217 +2 x15218 +2 x15219 +2 x15220 -1 x14845 -1 x14846 -1 x14847 -1 x14848 -1 x14849 -1 x14850 -1 x14851 -1 x14852 >= 0 ;
+2 x15221 +2 x15222 +2 x15223 +2 x15224 -1 x14849 -1 x14850 -1 x14851 -1 x14852 -1 x14853 -1 x14854 -1 x14855 -1 x14856 >= 0 ;
+2 x15225 +2 x15226 +2 x15227 +2 x15228 -1 x14853 -1 x14854 -1 x14855 -1 x14856 -1 x14857 -1 x14858 -1 x14859 -1 x14860 >= 0 ;
+2 x15229 +2 x15230 +2 x15231 +2 x15232 -1 x14857 -1 x14858 -1 x14859 -1 x14860 -1 x14861 -1 x14862 -1 x14863 -1 x14864 >= 0 ;
+2 x15233 +2 x15234 +2 x15235 +2 x15236 -1 x14861 -1 x14862 -1 x14863 -1 x14864 -1 x14865 -1 x14866 -1 x14867 -1 x14868 >= 0 ;
+2 x15237 +2 x15238 +2 x15239 +2 x15240 -1 x14865 -1 x14866 -1 x14867 -1 x14868 -1 x14869 -1 x14870 -1 x14871 -1 x14872 >= 0 ;
+2 x15241 +2 x15242 +2 x15243 +2 x15244 -1 x14869 -1 x14870 -1 x14871 -1 x14872 -1 x14873 -1 x14874 -1 x14875 -1 x14876 >= 0 ;
+2 x15245 +2 x15246 +2 x15247 +2 x15248 -1 x14873 -1 x14874 -1 x14875 -1 x14876 -1 x14877 -1 x14878 -1 x14879 -1 x14880 >= 0 ;
+2 x15249 +2 x15250 +2 x15251 +2 x15252 -1 x14877 -1 x14878 -1 x14879 -1 x14880 -1 x14881 -1 x14882 -1 x14883 -1 x14884 >= 0 ;
+2 x15253 +2 x15254 +2 x15255 +2 x15256 -1 x14881 -1 x14882 -1 x14883 -1 x14884 -1 x14885 -1 x14886 -1 x14887 -1 x14888 >= 0 ;
+2 x15257 +2 x15258 +2 x15259 +2 x15260 -1 x14885 -1 x14886 -1 x14887 -1 x14888 -1 x14889 -1 x14890 -1 x14891 -1 x14892 >= 0 ;
+2 x15261 +2 x15262 +2 x15263 +2 x15264 -1 x14893 -1 x14894 -1 x14895 -1 x14896 -1 x14897 -1 x14898 -1 x14899 -1 x14900 >= 0 ;
+2 x15265 +2 x15266 +2 x15267 +2 x15268 -1 x14897 -1 x14898 -1 x14899 -1 x14900 -1 x14901 -1 x14902 -1 x14903 -1 x14904 >= 0 ;
+2 x15269 +2 x15270 +2 x15271 +2 x15272 -1 x14901 -1 x14902 -1 x14903 -1 x14904 -1 x14905 -1 x14906 -1 x14907 -1 x14908 >= 0 ;
+2 x15273 +2 x15274 +2 x15275 +2 x15276 -1 x14905 -1 x14906 -1 x14907 -1 x14908 -1 x14909 -1 x14910 -1 x14911 -1 x14912 >= 0 ;
+2 x15277 +2 x15278 +2 x15279 +2 x15280 -1 x14909 -1 x14910 -1 x14911 -1 x14912 -1 x14913 -1 x14914 -1 x14915 -1 x14916 >= 0 ;
+2 x15281 +2 x15282 +2 x15283 +2 x15284 -1 x14913 -1 x14914 -1 x14915 -1 x14916 -1 x14917 -1 x14918 -1 x14919 -1 x14920 >= 0 ;
+2 x15285 +2 x15286 +2 x15287 +2 x15288 -1 x14917 -1 x14918 -1 x14919 -1 x14920 -1 x14921 -1 x14922 -1 x14923 -1 x14924 >= 0 ;
+2 x15289 +2 x15290 +2 x15291 +2 x15292 -1 x14921 -1 x14922 -1 x14923 -1 x14924 -1 x14925 -1 x14926 -1 x14927 -1 x14928 >= 0 ;
+2 x15293 +2 x15294 +2 x15295 +2 x15296 -1 x14925 -1 x14926 -1 x14927 -1 x14928 -1 x14929 -1 x14930 -1 x14931 -1 x14932 >= 0 ;
+2 x15297 +2 x15298 +2 x15299 +2 x15300 -1 x14929 -1 x14930 -1 x14931 -1 x14932 -1 x14933 -1 x14934 -1 x14935 -1 x14936 >= 0 ;
+2 x15301 +2 x15302 +2 x15303 +2 x15304 -1 x14933 -1 x14934 -1 x14935 -1 x14936 -1 x14937 -1 x14938 -1 x14939 -1 x14940 >= 0 ;
+2 x15305 +2 x15306 +2 x15307 +2 x15308 -1 x14937 -1 x14938 -1 x14939 -1 x14940 -1 x14941 -1 x14942 -1 x14943 -1 x14944 >= 0 ;
+2 x15309 +2 x15310 +2 x15311 +2 x15312 -1 x14941 -1 x14942 -1 x14943 -1 x14944 -1 x14945 -1 x14946 -1 x14947 -1 x14948 >= 0 ;
+2 x15313 +2 x15314 +2 x15315 +2 x15316 -1 x14945 -1 x14946 -1 x14947 -1 x14948 -1 x14949 -1 x14950 -1 x14951 -1 x14952 >= 0 ;
+2 x15317 +2 x15318 +2 x15319 +2 x15320 -1 x14949 -1 x14950 -1 x14951 -1 x14952 -1 x14953 -1 x14954 -1 x14955 -1 x14956 >= 0 ;
+2 x15321 +2 x15322 +2 x15323 +2 x15324 -1 x14953 -1 x14954 -1 x14955 -1 x14956 -1 x14957 -1 x14958 -1 x14959 -1 x14960 >= 0 ;
+2 x15325 +2 x15326 +2 x15327 +2 x15328 -1 x14957 -1 x14958 -1 x14959 -1 x14960 -1 x14961 -1 x14962 -1 x14963 -1 x14964 >= 0 ;
+2 x15329 +2 x15330 +2 x15331 +2 x15332 -1 x14961 -1 x14962 -1 x14963 -1 x14964 -1 x14965 -1 x14966 -1 x14967 -1 x14968 >= 0 ;
+2 x15333 +2 x15334 +2 x15335 +2 x15336 -1 x14965 -1 x14966 -1 x14967 -1 x14968 -1 x14969 -1 x14970 -1 x14971 -1 x14972 >= 0 ;
+2 x15337 +2 x15338 +2 x15339 +2 x15340 -1 x14969 -1 x14970 -1 x14971 -1 x14972 -1 x14973 -1 x14974 -1 x14975 -1 x14976 >= 0 ;
+2 x15341 +2 x15342 +2 x15343 +2 x15344 -1 x14973 -1 x14974 -1 x14975 -1 x14976 -1 x14977 -1 x14978 -1 x14979 -1 x14980 >= 0 ;
+2 x15345 +2 x15346 +2 x15347 +2 x15348 -1 x14977 -1 x14978 -1 x14979 -1 x14980 -1 x14981 -1 x14982 -1 x14983 -1 x14984 >= 0 ;
+2 x15349 +2 x15350 +2 x15351 +2 x15352 -1 x14981 -1 x14982 -1 x14983 -1 x14984 -1 x14985 -1 x14986 -1 x14987 -1 x14988 >= 0 ;
+2 x15353 +2 x15354 +2 x15355 +2 x15356 -1 x14985 -1 x14986 -1 x14987 -1 x14988 -1 x14989 -1 x14990 -1 x14991 -1 x14992 >= 0 ;
+2 x15357 +2 x15358 +2 x15359 +2 x15360 -1 x14989 -1 x14990 -1 x14991 -1 x14992 -1 x14993 -1 x14994 -1 x14995 -1 x14996 >= 0 ;
+2 x15361 +2 x15362 +2 x15363 +2 x15364 -1 x14993 -1 x14994 -1 x14995 -1 x14996 -1 x14997 -1 x14998 -1 x14999 -1 x15000 >= 0 ;
+2 x15365 +2 x15366 +2 x15367 +2 x15368 -1 x14997 -1 x14998 -1 x14999 -1 x15000 -1 x15001 -1 x15002 -1 x15003 -1 x15004 >= 0 ;
+2 x15369 +2 x15370 +2 x15371 +2 x15372 -1 x15001 -1 x15002 -1 x15003 -1 x15004 -1 x15005 -1 x15006 -1 x15007 -1 x15008 >= 0 ;
+2 x15373 +2 x15374 +2 x15375 +2 x15376 -1 x15005 -1 x15006 -1 x15007 -1 x15008 -1 x15009 -1 x15010 -1 x15011 -1 x15012 >= 0 ;
+2 x15377 +2 x15378 +2 x15379 +2 x15380 -1 x15009 -1 x15010 -1 x15011 -1 x15012 -1 x15013 -1 x15014 -1 x15015 -1 x15016 >= 0 ;
+2 x15381 +2 x15382 +2 x15383 +2 x15384 -1 x15013 -1 x15014 -1 x15015 -1 x15016 -1 x15017 -1 x15018 -1 x15019 -1 x15020 >= 0 ;
+2 x15385 +2 x15386 +2 x15387 +2 x15388 -1 x15017 -1 x15018 -1 x15019 -1 x15020 -1 x15021 -1 x15022 -1 x15023 -1 x15024 >= 0 ;
+2 x15389 +2 x15390 +2 x15391 +2 x15392 -1 x15021 -1 x15022 -1 x15023 -1 x15024 -1 x15025 -1 x15026 -1 x15027 -1 x15028 >= 0 ;
+2 x15393 +2 x15394 +2 x15395 +2 x15396 -1 x15025 -1 x15026 -1 x15027 -1 x15028 -1 x15029 -1 x15030 -1 x15031 -1 x15032 >= 0 ;
+2 x15397 +2 x15398 +2 x15399 +2 x15400 -1 x15029 -1 x15030 -1 x15031 -1 x15032 -1 x15033 -1 x15034 -1 x15035 -1 x15036 >= 0 ;
+2 x15401 +2 x15402 +2 x15403 +2 x15404 -1 x15033 -1 x15034 -1 x15035 -1 x15036 -1 x15037 -1 x15038 -1 x15039 -1 x15040 >= 0 ;
+2 x15405 +2 x15406 +2 x15407 +2 x15408 -1 x15037 -1 x15038 -1 x15039 -1 x15040 -1 x15041 -1 x15042 -1 x15043 -1 x15044 >= 0 ;
+2 x15409 +2 x15410 +2 x15411 +2 x15412 -1 x15041 -1 x15042 -1 x15043 -1 x15044 -1 x15045 -1 x15046 -1 x15047 -1 x15048 >= 0 ;
+2 x15413 +2 x15414 +2 x15415 +2 x15416 -1 x15045 -1 x15046 -1 x15047 -1 x15048 -1 x15049 -1 x15050 -1 x15051 -1 x15052 >= 0 ;
+2 x15417 +2 x15418 +2 x15419 +2 x15420 -1 x15049 -1 x15050 -1 x15051 -1 x15052 -1 x15053 -1 x15054 -1 x15055 -1 x15056 >= 0 ;
+2 x15421 +2 x15422 +2 x15423 +2 x15424 -1 x15053 -1 x15054 -1 x15055 -1 x15056 -1 x15057 -1 x15058 -1 x15059 -1 x15060 >= 0 ;
+2 x15425 +2 x15426 +2 x15427 +2 x15428 -1 x15057 -1 x15058 -1 x15059 -1 x15060 -1 x15061 -1 x15062 -1 x15063 -1 x15064 >= 0 ;
+2 x15429 +2 x15430 +2 x15431 +2 x15432 -1 x15061 -1 x15062 -1 x15063 -1 x15064 -1 x15065 -1 x15066 -1 x15067 -1 x15068 >= 0 ;
+2 x15433 +2 x15434 +2 x15435 +2 x15436 -1 x15065 -1 x15066 -1 x15067 -1 x15068 -1 x15069 -1 x15070 -1 x15071 -1 x15072 >= 0 ;
+2 x15437 +2 x15438 +2 x15439 +2 x15440 -1 x15069 -1 x15070 -1 x15071 -1 x15072 -1 x15073 -1 x15074 -1 x15075 -1 x15076 >= 0 ;
+2 x15441 +2 x15442 +2 x15443 +2 x15444 -1 x15073 -1 x15074 -1 x15075 -1 x15076 -1 x15077 -1 x15078 -1 x15079 -1 x15080 >= 0 ;
+2 x15445 +2 x15446 +2 x15447 +2 x15448 -1 x15077 -1 x15078 -1 x15079 -1 x15080 -1 x15081 -1 x15082 -1 x15083 -1 x15084 >= 0 ;
+2 x15449 +2 x15450 +2 x15451 +2 x15452 -1 x15081 -1 x15082 -1 x15083 -1 x15084 -1 x15085 -1 x15086 -1 x15087 -1 x15088 >= 0 ;
+2 x15453 +2 x15454 +2 x15455 +2 x15456 -1 x15085 -1 x15086 -1 x15087 -1 x15088 -1 x15089 -1 x15090 -1 x15091 -1 x15092 >= 0 ;
+2 x15457 +2 x15458 +2 x15459 +2 x15460 -1 x15089 -1 x15090 -1 x15091 -1 x15092 -1 x15093 -1 x15094 -1 x15095 -1 x15096 >= 0 ;
+2 x15461 +2 x15462 +2 x15463 +2 x15464 -1 x15093 -1 x15094 -1 x15095 -1 x15096 -1 x15097 -1 x15098 -1 x15099 -1 x15100 >= 0 ;
+2 x15465 +2 x15466 +2 x15467 +2 x15468 -1 x15097 -1 x15098 -1 x15099 -1 x15100 -1 x15101 -1 x15102 -1 x15103 -1 x15104 >= 0 ;
+2 x15469 +2 x15470 +2 x15471 +2 x15472 -1 x15101 -1 x15102 -1 x15103 -1 x15104 -1 x15105 -1 x15106 -1 x15107 -1 x15108 >= 0 ;
+2 x15473 +2 x15474 +2 x15475 +2 x15476 -1 x15105 -1 x15106 -1 x15107 -1 x15108 -1 x15109 -1 x15110 -1 x15111 -1 x15112 >= 0 ;
+2 x15477 +2 x15478 +2 x15479 +2 x15480 -1 x15109 -1 x15110 -1 x15111 -1 x15112 -1 x15113 -1 x15114 -1 x15115 -1 x15116 >= 0 ;
+2 x15481 +2 x15482 +2 x15483 +2 x15484 -1 x15113 -1 x15114 -1 x15115 -1 x15116 -1 x15117 -1 x15118 -1 x15119 -1 x15120 >= 0 ;
+2 x15485 +2 x15486 +2 x15487 +2 x15488 -1 x15117 -1 x15118 -1 x15119 -1 x15120 -1 x15121 -1 x15122 -1 x15123 -1 x15124 >= 0 ;
+2 x15489 +2 x15490 +2 x15491 +2 x15492 -1 x15121 -1 x15122 -1 x15123 -1 x15124 -1 x15125 -1 x15126 -1 x15127 -1 x15128 >= 0 ;
+2 x15493 +2 x15494 +2 x15495 +2 x15496 -1 x15125 -1 x15126 -1 x15127 -1 x15128 -1 x15129 -1 x15130 -1 x15131 -1 x15132 >= 0 ;
+2 x15497 +2 x15498 +2 x15499 +2 x15500 -1 x15129 -1 x15130 -1 x15131 -1 x15132 -1 x15133 -1 x15134 -1 x15135 -1 x15136 >= 0 ;
+2 x15501 +2 x15502 +2 x15503 +2 x15504 -1 x15133 -1 x15134 -1 x15135 -1 x15136 -1 x15137 -1 x15138 -1 x15139 -1 x15140 >= 0 ;
+2 x15505 +2 x15506 +2 x15507 +2 x15508 -1 x15137 -1 x15138 -1 x15139 -1 x15140 -1 x15141 -1 x15142 -1 x15143 -1 x15144 >= 0 ;
+2 x15509 +2 x15510 +2 x15511 +2 x15512 -1 x15141 -1 x15142 -1 x15143 -1 x15144 -1 x15145 -1 x15146 -1 x15147 -1 x15148 >= 0 ;
+2 x15513 +2 x15514 +2 x15515 +2 x15516 -1 x15145 -1 x15146 -1 x15147 -1 x15148 -1 x15149 -1 x15150 -1 x15151 -1 x15152 >= 0 ;
+2 x15517 +2 x15518 +2 x15519 +2 x15520 -1 x15149 -1 x15150 -1 x15151 -1 x15152 -1 x15153 -1 x15154 -1 x15155 -1 x15156 >= 0 ;
+2 x15521 +2 x15522 +2 x15523 +2 x15524 -1 x15153 -1 x15154 -1 x15155 -1 x15156 -1 x15157 -1 x15158 -1 x15159 -1 x15160 >= 0 ;
+2 x15525 +2 x15526 +2 x15527 +2 x15528 -1 x15157 -1 x15158 -1 x15159 -1 x15160 -1 x15161 -1 x15162 -1 x15163 -1 x15164 >= 0 ;
+2 x15529 +2 x15530 +2 x15531 +2 x15532 -1 x15161 -1 x15162 -1 x15163 -1 x15164 -1 x15165 -1 x15166 -1 x15167 -1 x15168 >= 0 ;
+2 x15533 +2 x15534 +2 x15535 +2 x15536 -1 x15165 -1 x15166 -1 x15167 -1 x15168 -1 x15169 -1 x15170 -1 x15171 -1 x15172 >= 0 ;
+2 x15537 +2 x15538 +2 x15539 +2 x15540 -1 x15169 -1 x15170 -1 x15171 -1 x15172 -1 x15173 -1 x15174 -1 x15175 -1 x15176 >= 0 ;
+2 x15541 +2 x15542 +2 x15543 +2 x15544 -1 x15173 -1 x15174 -1 x15175 -1 x15176 -1 x15177 -1 x15178 -1 x15179 -1 x15180 >= 0 ;
+2 x15545 +2 x15546 +2 x15547 +2 x15548 -1 x15177 -1 x15178 -1 x15179 -1 x15180 -1 x15181 -1 x15182 -1 x15183 -1 x15184 >= 0 ;
+2 x15549 +2 x15550 +2 x15551 +2 x15552 -1 x15181 -1 x15182 -1 x15183 -1 x15184 -1 x15185 -1 x15186 -1 x15187 -1 x15188 >= 0 ;
+2 x15553 +2 x15554 +2 x15555 +2 x15556 -1 x15185 -1 x15186 -1 x15187 -1 x15188 -1 x15189 -1 x15190 -1 x15191 -1 x15192 >= 0 ;
+2 x15557 +2 x15558 +2 x15559 +2 x15560 -1 x15189 -1 x15190 -1 x15191 -1 x15192 -1 x15193 -1 x15194 -1 x15195 -1 x15196 >= 0 ;
+2 x15561 +2 x15562 +2 x15563 +2 x15564 -1 x15193 -1 x15194 -1 x15195 -1 x15196 -1 x15197 -1 x15198 -1 x15199 -1 x15200 >= 0 ;
+2 x15565 +2 x15566 +2 x15567 +2 x15568 -1 x15197 -1 x15198 -1 x15199 -1 x15200 -1 x15201 -1 x15202 -1 x15203 -1 x15204 >= 0 ;
+2 x15569 +2 x15570 +2 x15571 +2 x15572 -1 x15201 -1 x15202 -1 x15203 -1 x15204 -1 x15205 -1 x15206 -1 x15207 -1 x15208 >= 0 ;
+2 x15573 +2 x15574 +2 x15575 +2 x15576 -1 x15205 -1 x15206 -1 x15207 -1 x15208 -1 x15209 -1 x15210 -1 x15211 -1 x15212 >= 0 ;
+2 x15577 +2 x15578 +2 x15579 +2 x15580 -1 x15209 -1 x15210 -1 x15211 -1 x15212 -1 x15213 -1 x15214 -1 x15215 -1 x15216 >= 0 ;
+2 x15581 +2 x15582 +2 x15583 +2 x15584 -1 x15213 -1 x15214 -1 x15215 -1 x15216 -1 x15217 -1 x15218 -1 x15219 -1 x15220 >= 0 ;
+2 x15585 +2 x15586 +2 x15587 +2 x15588 -1 x15217 -1 x15218 -1 x15219 -1 x15220 -1 x15221 -1 x15222 -1 x15223 -1 x15224 >= 0 ;
+2 x15589 +2 x15590 +2 x15591 +2 x15592 -1 x15221 -1 x15222 -1 x15223 -1 x15224 -1 x15225 -1 x15226 -1 x15227 -1 x15228 >= 0 ;
+2 x15593 +2 x15594 +2 x15595 +2 x15596 -1 x15225 -1 x15226 -1 x15227 -1 x15228 -1 x15229 -1 x15230 -1 x15231 -1 x15232 >= 0 ;
+2 x15597 +2 x15598 +2 x15599 +2 x15600 -1 x15229 -1 x15230 -1 x15231 -1 x15232 -1 x15233 -1 x15234 -1 x15235 -1 x15236 >= 0 ;
+2 x15601 +2 x15602 +2 x15603 +2 x15604 -1 x15233 -1 x15234 -1 x15235 -1 x15236 -1 x15237 -1 x15238 -1 x15239 -1 x15240 >= 0 ;
+2 x15605 +2 x15606 +2 x15607 +2 x15608 -1 x15237 -1 x15238 -1 x15239 -1 x15240 -1 x15241 -1 x15242 -1 x15243 -1 x15244 >= 0 ;
+2 x15609 +2 x15610 +2 x15611 +2 x15612 -1 x15241 -1 x15242 -1 x15243 -1 x15244 -1 x15245 -1 x15246 -1 x15247 -1 x15248 >= 0 ;
+2 x15613 +2 x15614 +2 x15615 +2 x15616 -1 x15245 -1 x15246 -1 x15247 -1 x15248 -1 x15249 -1 x15250 -1 x15251 -1 x15252 >= 0 ;
+2 x15617 +2 x15618 +2 x15619 +2 x15620 -1 x15249 -1 x15250 -1 x15251 -1 x15252 -1 x15253 -1 x15254 -1 x15255 -1 x15256 >= 0 ;
+2 x15621 +2 x15622 +2 x15623 +2 x15624 -1 x15253 -1 x15254 -1 x15255 -1 x15256 -1 x15257 -1 x15258 -1 x15259 -1 x15260 >= 0 ;
+2 x15625 +2 x15626 +2 x15627 +2 x15628 -1 x15261 -1 x15262 -1 x15263 -1 x15264 -1 x15265 -1 x15266 -1 x15267 -1 x15268 >= 0 ;
+2 x15629 +2 x15630 +2 x15631 +2 x15632 -1 x15265 -1 x15266 -1 x15267 -1 x15268 -1 x15269 -1 x15270 -1 x15271 -1 x15272 >= 0 ;
+2 x15633 +2 x15634 +2 x15635 +2 x15636 -1 x15269 -1 x15270 -1 x15271 -1 x15272 -1 x15273 -1 x15274 -1 x15275 -1 x15276 >= 0 ;
+2 x15637 +2 x15638 +2 x15639 +2 x15640 -1 x15273 -1 x15274 -1 x15275 -1 x15276 -1 x15277 -1 x15278 -1 x15279 -1 x15280 >= 0 ;
+2 x15641 +2 x15642 +2 x15643 +2 x15644 -1 x15277 -1 x15278 -1 x15279 -1 x15280 -1 x15281 -1 x15282 -1 x15283 -1 x15284 >= 0 ;
+2 x15645 +2 x15646 +2 x15647 +2 x15648 -1 x15281 -1 x15282 -1 x15283 -1 x15284 -1 x15285 -1 x15286 -1 x15287 -1 x15288 >= 0 ;
+2 x15649 +2 x15650 +2 x15651 +2 x15652 -1 x15285 -1 x15286 -1 x15287 -1 x15288 -1 x15289 -1 x15290 -1 x15291 -1 x15292 >= 0 ;
+2 x15653 +2 x15654 +2 x15655 +2 x15656 -1 x15289 -1 x15290 -1 x15291 -1 x15292 -1 x15293 -1 x15294 -1 x15295 -1 x15296 >= 0 ;
+2 x15657 +2 x15658 +2 x15659 +2 x15660 -1 x15293 -1 x15294 -1 x15295 -1 x15296 -1 x15297 -1 x15298 -1 x15299 -1 x15300 >= 0 ;
+2 x15661 +2 x15662 +2 x15663 +2 x15664 -1 x15297 -1 x15298 -1 x15299 -1 x15300 -1 x15301 -1 x15302 -1 x15303 -1 x15304 >= 0 ;
+2 x15665 +2 x15666 +2 x15667 +2 x15668 -1 x15301 -1 x15302 -1 x15303 -1 x15304 -1 x15305 -1 x15306 -1 x15307 -1 x15308 >= 0 ;
+2 x15669 +2 x15670 +2 x15671 +2 x15672 -1 x15305 -1 x15306 -1 x15307 -1 x15308 -1 x15309 -1 x15310 -1 x15311 -1 x15312 >= 0 ;
+2 x15673 +2 x15674 +2 x15675 +2 x15676 -1 x15309 -1 x15310 -1 x15311 -1 x15312 -1 x15313 -1 x15314 -1 x15315 -1 x15316 >= 0 ;
+2 x15677 +2 x15678 +2 x15679 +2 x15680 -1 x15313 -1 x15314 -1 x15315 -1 x15316 -1 x15317 -1 x15318 -1 x15319 -1 x15320 >= 0 ;
+2 x15681 +2 x15682 +2 x15683 +2 x15684 -1 x15317 -1 x15318 -1 x15319 -1 x15320 -1 x15321 -1 x15322 -1 x15323 -1 x15324 >= 0 ;
+2 x15685 +2 x15686 +2 x15687 +2 x15688 -1 x15321 -1 x15322 -1 x15323 -1 x15324 -1 x15325 -1 x15326 -1 x15327 -1 x15328 >= 0 ;
+2 x15689 +2 x15690 +2 x15691 +2 x15692 -1 x15325 -1 x15326 -1 x15327 -1 x15328 -1 x15329 -1 x15330 -1 x15331 -1 x15332 >= 0 ;
+2 x15693 +2 x15694 +2 x15695 +2 x15696 -1 x15329 -1 x15330 -1 x15331 -1 x15332 -1 x15333 -1 x15334 -1 x15335 -1 x15336 >= 0 ;
+2 x15697 +2 x15698 +2 x15699 +2 x15700 -1 x15333 -1 x15334 -1 x15335 -1 x15336 -1 x15337 -1 x15338 -1 x15339 -1 x15340 >= 0 ;
+2 x15701 +2 x15702 +2 x15703 +2 x15704 -1 x15337 -1 x15338 -1 x15339 -1 x15340 -1 x15341 -1 x15342 -1 x15343 -1 x15344 >= 0 ;
+2 x15705 +2 x15706 +2 x15707 +2 x15708 -1 x15341 -1 x15342 -1 x15343 -1 x15344 -1 x15345 -1 x15346 -1 x15347 -1 x15348 >= 0 ;
+2 x15709 +2 x15710 +2 x15711 +2 x15712 -1 x15345 -1 x15346 -1 x15347 -1 x15348 -1 x15349 -1 x15350 -1 x15351 -1 x15352 >= 0 ;
+2 x15713 +2 x15714 +2 x15715 +2 x15716 -1 x15349 -1 x15350 -1 x15351 -1 x15352 -1 x15353 -1 x15354 -1 x15355 -1 x15356 >= 0 ;
+2 x15717 +2 x15718 +2 x15719 +2 x15720 -1 x15353 -1 x15354 -1 x15355 -1 x15356 -1 x15357 -1 x15358 -1 x15359 -1 x15360 >= 0 ;
+2 x15721 +2 x15722 +2 x15723 +2 x15724 -1 x15357 -1 x15358 -1 x15359 -1 x15360 -1 x15361 -1 x15362 -1 x15363 -1 x15364 >= 0 ;
+2 x15725 +2 x15726 +2 x15727 +2 x15728 -1 x15361 -1 x15362 -1 x15363 -1 x15364 -1 x15365 -1 x15366 -1 x15367 -1 x15368 >= 0 ;
+2 x15729 +2 x15730 +2 x15731 +2 x15732 -1 x15365 -1 x15366 -1 x15367 -1 x15368 -1 x15369 -1 x15370 -1 x15371 -1 x15372 >= 0 ;
+2 x15733 +2 x15734 +2 x15735 +2 x15736 -1 x15369 -1 x15370 -1 x15371 -1 x15372 -1 x15373 -1 x15374 -1 x15375 -1 x15376 >= 0 ;
+2 x15737 +2 x15738 +2 x15739 +2 x15740 -1 x15373 -1 x15374 -1 x15375 -1 x15376 -1 x15377 -1 x15378 -1 x15379 -1 x15380 >= 0 ;
+2 x15741 +2 x15742 +2 x15743 +2 x15744 -1 x15377 -1 x15378 -1 x15379 -1 x15380 -1 x15381 -1 x15382 -1 x15383 -1 x15384 >= 0 ;
+2 x15745 +2 x15746 +2 x15747 +2 x15748 -1 x15381 -1 x15382 -1 x15383 -1 x15384 -1 x15385 -1 x15386 -1 x15387 -1 x15388 >= 0 ;
+2 x15749 +2 x15750 +2 x15751 +2 x15752 -1 x15385 -1 x15386 -1 x15387 -1 x15388 -1 x15389 -1 x15390 -1 x15391 -1 x15392 >= 0 ;
+2 x15753 +2 x15754 +2 x15755 +2 x15756 -1 x15389 -1 x15390 -1 x15391 -1 x15392 -1 x15393 -1 x15394 -1 x15395 -1 x15396 >= 0 ;
+2 x15757 +2 x15758 +2 x15759 +2 x15760 -1 x15393 -1 x15394 -1 x15395 -1 x15396 -1 x15397 -1 x15398 -1 x15399 -1 x15400 >= 0 ;
+2 x15761 +2 x15762 +2 x15763 +2 x15764 -1 x15397 -1 x15398 -1 x15399 -1 x15400 -1 x15401 -1 x15402 -1 x15403 -1 x15404 >= 0 ;
+2 x15765 +2 x15766 +2 x15767 +2 x15768 -1 x15401 -1 x15402 -1 x15403 -1 x15404 -1 x15405 -1 x15406 -1 x15407 -1 x15408 >= 0 ;
+2 x15769 +2 x15770 +2 x15771 +2 x15772 -1 x15405 -1 x15406 -1 x15407 -1 x15408 -1 x15409 -1 x15410 -1 x15411 -1 x15412 >= 0 ;
+2 x15773 +2 x15774 +2 x15775 +2 x15776 -1 x15409 -1 x15410 -1 x15411 -1 x15412 -1 x15413 -1 x15414 -1 x15415 -1 x15416 >= 0 ;
+2 x15777 +2 x15778 +2 x15779 +2 x15780 -1 x15413 -1 x15414 -1 x15415 -1 x15416 -1 x15417 -1 x15418 -1 x15419 -1 x15420 >= 0 ;
+2 x15781 +2 x15782 +2 x15783 +2 x15784 -1 x15417 -1 x15418 -1 x15419 -1 x15420 -1 x15421 -1 x15422 -1 x15423 -1 x15424 >= 0 ;
+2 x15785 +2 x15786 +2 x15787 +2 x15788 -1 x15421 -1 x15422 -1 x15423 -1 x15424 -1 x15425 -1 x15426 -1 x15427 -1 x15428 >= 0 ;
+2 x15789 +2 x15790 +2 x15791 +2 x15792 -1 x15425 -1 x15426 -1 x15427 -1 x15428 -1 x15429 -1 x15430 -1 x15431 -1 x15432 >= 0 ;
+2 x15793 +2 x15794 +2 x15795 +2 x15796 -1 x15429 -1 x15430 -1 x15431 -1 x15432 -1 x15433 -1 x15434 -1 x15435 -1 x15436 >= 0 ;
+2 x15797 +2 x15798 +2 x15799 +2 x15800 -1 x15433 -1 x15434 -1 x15435 -1 x15436 -1 x15437 -1 x15438 -1 x15439 -1 x15440 >= 0 ;
+2 x15801 +2 x15802 +2 x15803 +2 x15804 -1 x15437 -1 x15438 -1 x15439 -1 x15440 -1 x15441 -1 x15442 -1 x15443 -1 x15444 >= 0 ;
+2 x15805 +2 x15806 +2 x15807 +2 x15808 -1 x15441 -1 x15442 -1 x15443 -1 x15444 -1 x15445 -1 x15446 -1 x15447 -1 x15448 >= 0 ;
+2 x15809 +2 x15810 +2 x15811 +2 x15812 -1 x15445 -1 x15446 -1 x15447 -1 x15448 -1 x15449 -1 x15450 -1 x15451 -1 x15452 >= 0 ;
+2 x15813 +2 x15814 +2 x15815 +2 x15816 -1 x15449 -1 x15450 -1 x15451 -1 x15452 -1 x15453 -1 x15454 -1 x15455 -1 x15456 >= 0 ;
+2 x15817 +2 x15818 +2 x15819 +2 x15820 -1 x15453 -1 x15454 -1 x15455 -1 x15456 -1 x15457 -1 x15458 -1 x15459 -1 x15460 >= 0 ;
+2 x15821 +2 x15822 +2 x15823 +2 x15824 -1 x15457 -1 x15458 -1 x15459 -1 x15460 -1 x15461 -1 x15462 -1 x15463 -1 x15464 >= 0 ;
+2 x15825 +2 x15826 +2 x15827 +2 x15828 -1 x15461 -1 x15462 -1 x15463 -1 x15464 -1 x15465 -1 x15466 -1 x15467 -1 x15468 >= 0 ;
+2 x15829 +2 x15830 +2 x15831 +2 x15832 -1 x15465 -1 x15466 -1 x15467 -1 x15468 -1 x15469 -1 x15470 -1 x15471 -1 x15472 >= 0 ;
+2 x15833 +2 x15834 +2 x15835 +2 x15836 -1 x15469 -1 x15470 -1 x15471 -1 x15472 -1 x15473 -1 x15474 -1 x15475 -1 x15476 >= 0 ;
+2 x15837 +2 x15838 +2 x15839 +2 x15840 -1 x15473 -1 x15474 -1 x15475 -1 x15476 -1 x15477 -1 x15478 -1 x15479 -1 x15480 >= 0 ;
+2 x15841 +2 x15842 +2 x15843 +2 x15844 -1 x15477 -1 x15478 -1 x15479 -1 x15480 -1 x15481 -1 x15482 -1 x15483 -1 x15484 >= 0 ;
+2 x15845 +2 x15846 +2 x15847 +2 x15848 -1 x15481 -1 x15482 -1 x15483 -1 x15484 -1 x15485 -1 x15486 -1 x15487 -1 x15488 >= 0 ;
+2 x15849 +2 x15850 +2 x15851 +2 x15852 -1 x15485 -1 x15486 -1 x15487 -1 x15488 -1 x15489 -1 x15490 -1 x15491 -1 x15492 >= 0 ;
+2 x15853 +2 x15854 +2 x15855 +2 x15856 -1 x15489 -1 x15490 -1 x15491 -1 x15492 -1 x15493 -1 x15494 -1 x15495 -1 x15496 >= 0 ;
+2 x15857 +2 x15858 +2 x15859 +2 x15860 -1 x15493 -1 x15494 -1 x15495 -1 x15496 -1 x15497 -1 x15498 -1 x15499 -1 x15500 >= 0 ;
+2 x15861 +2 x15862 +2 x15863 +2 x15864 -1 x15497 -1 x15498 -1 x15499 -1 x15500 -1 x15501 -1 x15502 -1 x15503 -1 x15504 >= 0 ;
+2 x15865 +2 x15866 +2 x15867 +2 x15868 -1 x15501 -1 x15502 -1 x15503 -1 x15504 -1 x15505 -1 x15506 -1 x15507 -1 x15508 >= 0 ;
+2 x15869 +2 x15870 +2 x15871 +2 x15872 -1 x15505 -1 x15506 -1 x15507 -1 x15508 -1 x15509 -1 x15510 -1 x15511 -1 x15512 >= 0 ;
+2 x15873 +2 x15874 +2 x15875 +2 x15876 -1 x15509 -1 x15510 -1 x15511 -1 x15512 -1 x15513 -1 x15514 -1 x15515 -1 x15516 >= 0 ;
+2 x15877 +2 x15878 +2 x15879 +2 x15880 -1 x15513 -1 x15514 -1 x15515 -1 x15516 -1 x15517 -1 x15518 -1 x15519 -1 x15520 >= 0 ;
+2 x15881 +2 x15882 +2 x15883 +2 x15884 -1 x15517 -1 x15518 -1 x15519 -1 x15520 -1 x15521 -1 x15522 -1 x15523 -1 x15524 >= 0 ;
+2 x15885 +2 x15886 +2 x15887 +2 x15888 -1 x15521 -1 x15522 -1 x15523 -1 x15524 -1 x15525 -1 x15526 -1 x15527 -1 x15528 >= 0 ;
+2 x15889 +2 x15890 +2 x15891 +2 x15892 -1 x15525 -1 x15526 -1 x15527 -1 x15528 -1 x15529 -1 x15530 -1 x15531 -1 x15532 >= 0 ;
+2 x15893 +2 x15894 +2 x15895 +2 x15896 -1 x15529 -1 x15530 -1 x15531 -1 x15532 -1 x15533 -1 x15534 -1 x15535 -1 x15536 >= 0 ;
+2 x15897 +2 x15898 +2 x15899 +2 x15900 -1 x15533 -1 x15534 -1 x15535 -1 x15536 -1 x15537 -1 x15538 -1 x15539 -1 x15540 >= 0 ;
+2 x15901 +2 x15902 +2 x15903 +2 x15904 -1 x15537 -1 x15538 -1 x15539 -1 x15540 -1 x15541 -1 x15542 -1 x15543 -1 x15544 >= 0 ;
+2 x15905 +2 x15906 +2 x15907 +2 x15908 -1 x15541 -1 x15542 -1 x15543 -1 x15544 -1 x15545 -1 x15546 -1 x15547 -1 x15548 >= 0 ;
+2 x15909 +2 x15910 +2 x15911 +2 x15912 -1 x15545 -1 x15546 -1 x15547 -1 x15548 -1 x15549 -1 x15550 -1 x15551 -1 x15552 >= 0 ;
+2 x15913 +2 x15914 +2 x15915 +2 x15916 -1 x15549 -1 x15550 -1 x15551 -1 x15552 -1 x15553 -1 x15554 -1 x15555 -1 x15556 >= 0 ;
+2 x15917 +2 x15918 +2 x15919 +2 x15920 -1 x15553 -1 x15554 -1 x15555 -1 x15556 -1 x15557 -1 x15558 -1 x15559 -1 x15560 >= 0 ;
+2 x15921 +2 x15922 +2 x15923 +2 x15924 -1 x15557 -1 x15558 -1 x15559 -1 x15560 -1 x15561 -1 x15562 -1 x15563 -1 x15564 >= 0 ;
+2 x15925 +2 x15926 +2 x15927 +2 x15928 -1 x15561 -1 x15562 -1 x15563 -1 x15564 -1 x15565 -1 x15566 -1 x15567 -1 x15568 >= 0 ;
+2 x15929 +2 x15930 +2 x15931 +2 x15932 -1 x15565 -1 x15566 -1 x15567 -1 x15568 -1 x15569 -1 x15570 -1 x15571 -1 x15572 >= 0 ;
+2 x15933 +2 x15934 +2 x15935 +2 x15936 -1 x15569 -1 x15570 -1 x15571 -1 x15572 -1 x15573 -1 x15574 -1 x15575 -1 x15576 >= 0 ;
+2 x15937 +2 x15938 +2 x15939 +2 x15940 -1 x15573 -1 x15574 -1 x15575 -1 x15576 -1 x15577 -1 x15578 -1 x15579 -1 x15580 >= 0 ;
+2 x15941 +2 x15942 +2 x15943 +2 x15944 -1 x15577 -1 x15578 -1 x15579 -1 x15580 -1 x15581 -1 x15582 -1 x15583 -1 x15584 >= 0 ;
+2 x15945 +2 x15946 +2 x15947 +2 x15948 -1 x15581 -1 x15582 -1 x15583 -1 x15584 -1 x15585 -1 x15586 -1 x15587 -1 x15588 >= 0 ;
+2 x15949 +2 x15950 +2 x15951 +2 x15952 -1 x15585 -1 x15586 -1 x15587 -1 x15588 -1 x15589 -1 x15590 -1 x15591 -1 x15592 >= 0 ;
+2 x15953 +2 x15954 +2 x15955 +2 x15956 -1 x15589 -1 x15590 -1 x15591 -1 x15592 -1 x15593 -1 x15594 -1 x15595 -1 x15596 >= 0 ;
+2 x15957 +2 x15958 +2 x15959 +2 x15960 -1 x15593 -1 x15594 -1 x15595 -1 x15596 -1 x15597 -1 x15598 -1 x15599 -1 x15600 >= 0 ;
+2 x15961 +2 x15962 +2 x15963 +2 x15964 -1 x15597 -1 x15598 -1 x15599 -1 x15600 -1 x15601 -1 x15602 -1 x15603 -1 x15604 >= 0 ;
+2 x15965 +2 x15966 +2 x15967 +2 x15968 -1 x15601 -1 x15602 -1 x15603 -1 x15604 -1 x15605 -1 x15606 -1 x15607 -1 x15608 >= 0 ;
+2 x15969 +2 x15970 +2 x15971 +2 x15972 -1 x15605 -1 x15606 -1 x15607 -1 x15608 -1 x15609 -1 x15610 -1 x15611 -1 x15612 >= 0 ;
+2 x15973 +2 x15974 +2 x15975 +2 x15976 -1 x15609 -1 x15610 -1 x15611 -1 x15612 -1 x15613 -1 x15614 -1 x15615 -1 x15616 >= 0 ;
+2 x15977 +2 x15978 +2 x15979 +2 x15980 -1 x15613 -1 x15614 -1 x15615 -1 x15616 -1 x15617 -1 x15618 -1 x15619 -1 x15620 >= 0 ;
+2 x15981 +2 x15982 +2 x15983 +2 x15984 -1 x15617 -1 x15618 -1 x15619 -1 x15620 -1 x15621 -1 x15622 -1 x15623 -1 x15624 >= 0 ;
+2 x15985 +2 x15986 +2 x15987 +2 x15988 -1 x15625 -1 x15626 -1 x15627 -1 x15628 -1 x15629 -1 x15630 -1 x15631 -1 x15632 >= 0 ;
+2 x15989 +2 x15990 +2 x15991 +2 x15992 -1 x15629 -1 x15630 -1 x15631 -1 x15632 -1 x15633 -1 x15634 -1 x15635 -1 x15636 >= 0 ;
+2 x15993 +2 x15994 +2 x15995 +2 x15996 -1 x15633 -1 x15634 -1 x15635 -1 x15636 -1 x15637 -1 x15638 -1 x15639 -1 x15640 >= 0 ;
+2 x15997 +2 x15998 +2 x15999 +2 x16000 -1 x15637 -1 x15638 -1 x15639 -1 x15640 -1 x15641 -1 x15642 -1 x15643 -1 x15644 >= 0 ;
+2 x16001 +2 x16002 +2 x16003 +2 x16004 -1 x15641 -1 x15642 -1 x15643 -1 x15644 -1 x15645 -1 x15646 -1 x15647 -1 x15648 >= 0 ;
+2 x16005 +2 x16006 +2 x16007 +2 x16008 -1 x15645 -1 x15646 -1 x15647 -1 x15648 -1 x15649 -1 x15650 -1 x15651 -1 x15652 >= 0 ;
+2 x16009 +2 x16010 +2 x16011 +2 x16012 -1 x15649 -1 x15650 -1 x15651 -1 x15652 -1 x15653 -1 x15654 -1 x15655 -1 x15656 >= 0 ;
+2 x16013 +2 x16014 +2 x16015 +2 x16016 -1 x15653 -1 x15654 -1 x15655 -1 x15656 -1 x15657 -1 x15658 -1 x15659 -1 x15660 >= 0 ;
+2 x16017 +2 x16018 +2 x16019 +2 x16020 -1 x15657 -1 x15658 -1 x15659 -1 x15660 -1 x15661 -1 x15662 -1 x15663 -1 x15664 >= 0 ;
+2 x16021 +2 x16022 +2 x16023 +2 x16024 -1 x15661 -1 x15662 -1 x15663 -1 x15664 -1 x15665 -1 x15666 -1 x15667 -1 x15668 >= 0 ;
+2 x16025 +2 x16026 +2 x16027 +2 x16028 -1 x15665 -1 x15666 -1 x15667 -1 x15668 -1 x15669 -1 x15670 -1 x15671 -1 x15672 >= 0 ;
+2 x16029 +2 x16030 +2 x16031 +2 x16032 -1 x15669 -1 x15670 -1 x15671 -1 x15672 -1 x15673 -1 x15674 -1 x15675 -1 x15676 >= 0 ;
+2 x16033 +2 x16034 +2 x16035 +2 x16036 -1 x15673 -1 x15674 -1 x15675 -1 x15676 -1 x15677 -1 x15678 -1 x15679 -1 x15680 >= 0 ;
+2 x16037 +2 x16038 +2 x16039 +2 x16040 -1 x15677 -1 x15678 -1 x15679 -1 x15680 -1 x15681 -1 x15682 -1 x15683 -1 x15684 >= 0 ;
+2 x16041 +2 x16042 +2 x16043 +2 x16044 -1 x15681 -1 x15682 -1 x15683 -1 x15684 -1 x15685 -1 x15686 -1 x15687 -1 x15688 >= 0 ;
+2 x16045 +2 x16046 +2 x16047 +2 x16048 -1 x15685 -1 x15686 -1 x15687 -1 x15688 -1 x15689 -1 x15690 -1 x15691 -1 x15692 >= 0 ;
+2 x16049 +2 x16050 +2 x16051 +2 x16052 -1 x15689 -1 x15690 -1 x15691 -1 x15692 -1 x15693 -1 x15694 -1 x15695 -1 x15696 >= 0 ;
+2 x16053 +2 x16054 +2 x16055 +2 x16056 -1 x15693 -1 x15694 -1 x15695 -1 x15696 -1 x15697 -1 x15698 -1 x15699 -1 x15700 >= 0 ;
+2 x16057 +2 x16058 +2 x16059 +2 x16060 -1 x15697 -1 x15698 -1 x15699 -1 x15700 -1 x15701 -1 x15702 -1 x15703 -1 x15704 >= 0 ;
+2 x16061 +2 x16062 +2 x16063 +2 x16064 -1 x15701 -1 x15702 -1 x15703 -1 x15704 -1 x15705 -1 x15706 -1 x15707 -1 x15708 >= 0 ;
+2 x16065 +2 x16066 +2 x16067 +2 x16068 -1 x15705 -1 x15706 -1 x15707 -1 x15708 -1 x15709 -1 x15710 -1 x15711 -1 x15712 >= 0 ;
+2 x16069 +2 x16070 +2 x16071 +2 x16072 -1 x15709 -1 x15710 -1 x15711 -1 x15712 -1 x15713 -1 x15714 -1 x15715 -1 x15716 >= 0 ;
+2 x16073 +2 x16074 +2 x16075 +2 x16076 -1 x15713 -1 x15714 -1 x15715 -1 x15716 -1 x15717 -1 x15718 -1 x15719 -1 x15720 >= 0 ;
+2 x16077 +2 x16078 +2 x16079 +2 x16080 -1 x15717 -1 x15718 -1 x15719 -1 x15720 -1 x15721 -1 x15722 -1 x15723 -1 x15724 >= 0 ;
+2 x16081 +2 x16082 +2 x16083 +2 x16084 -1 x15721 -1 x15722 -1 x15723 -1 x15724 -1 x15725 -1 x15726 -1 x15727 -1 x15728 >= 0 ;
+2 x16085 +2 x16086 +2 x16087 +2 x16088 -1 x15725 -1 x15726 -1 x15727 -1 x15728 -1 x15729 -1 x15730 -1 x15731 -1 x15732 >= 0 ;
+2 x16089 +2 x16090 +2 x16091 +2 x16092 -1 x15729 -1 x15730 -1 x15731 -1 x15732 -1 x15733 -1 x15734 -1 x15735 -1 x15736 >= 0 ;
+2 x16093 +2 x16094 +2 x16095 +2 x16096 -1 x15733 -1 x15734 -1 x15735 -1 x15736 -1 x15737 -1 x15738 -1 x15739 -1 x15740 >= 0 ;
+2 x16097 +2 x16098 +2 x16099 +2 x16100 -1 x15737 -1 x15738 -1 x15739 -1 x15740 -1 x15741 -1 x15742 -1 x15743 -1 x15744 >= 0 ;
+2 x16101 +2 x16102 +2 x16103 +2 x16104 -1 x15741 -1 x15742 -1 x15743 -1 x15744 -1 x15745 -1 x15746 -1 x15747 -1 x15748 >= 0 ;
+2 x16105 +2 x16106 +2 x16107 +2 x16108 -1 x15745 -1 x15746 -1 x15747 -1 x15748 -1 x15749 -1 x15750 -1 x15751 -1 x15752 >= 0 ;
+2 x16109 +2 x16110 +2 x16111 +2 x16112 -1 x15749 -1 x15750 -1 x15751 -1 x15752 -1 x15753 -1 x15754 -1 x15755 -1 x15756 >= 0 ;
+2 x16113 +2 x16114 +2 x16115 +2 x16116 -1 x15753 -1 x15754 -1 x15755 -1 x15756 -1 x15757 -1 x15758 -1 x15759 -1 x15760 >= 0 ;
+2 x16117 +2 x16118 +2 x16119 +2 x16120 -1 x15757 -1 x15758 -1 x15759 -1 x15760 -1 x15761 -1 x15762 -1 x15763 -1 x15764 >= 0 ;
+2 x16121 +2 x16122 +2 x16123 +2 x16124 -1 x15761 -1 x15762 -1 x15763 -1 x15764 -1 x15765 -1 x15766 -1 x15767 -1 x15768 >= 0 ;
+2 x16125 +2 x16126 +2 x16127 +2 x16128 -1 x15765 -1 x15766 -1 x15767 -1 x15768 -1 x15769 -1 x15770 -1 x15771 -1 x15772 >= 0 ;
+2 x16129 +2 x16130 +2 x16131 +2 x16132 -1 x15769 -1 x15770 -1 x15771 -1 x15772 -1 x15773 -1 x15774 -1 x15775 -1 x15776 >= 0 ;
+2 x16133 +2 x16134 +2 x16135 +2 x16136 -1 x15773 -1 x15774 -1 x15775 -1 x15776 -1 x15777 -1 x15778 -1 x15779 -1 x15780 >= 0 ;
+2 x16137 +2 x16138 +2 x16139 +2 x16140 -1 x15777 -1 x15778 -1 x15779 -1 x15780 -1 x15781 -1 x15782 -1 x15783 -1 x15784 >= 0 ;
+2 x16141 +2 x16142 +2 x16143 +2 x16144 -1 x15781 -1 x15782 -1 x15783 -1 x15784 -1 x15785 -1 x15786 -1 x15787 -1 x15788 >= 0 ;
+2 x16145 +2 x16146 +2 x16147 +2 x16148 -1 x15785 -1 x15786 -1 x15787 -1 x15788 -1 x15789 -1 x15790 -1 x15791 -1 x15792 >= 0 ;
+2 x16149 +2 x16150 +2 x16151 +2 x16152 -1 x15789 -1 x15790 -1 x15791 -1 x15792 -1 x15793 -1 x15794 -1 x15795 -1 x15796 >= 0 ;
+2 x16153 +2 x16154 +2 x16155 +2 x16156 -1 x15793 -1 x15794 -1 x15795 -1 x15796 -1 x15797 -1 x15798 -1 x15799 -1 x15800 >= 0 ;
+2 x16157 +2 x16158 +2 x16159 +2 x16160 -1 x15797 -1 x15798 -1 x15799 -1 x15800 -1 x15801 -1 x15802 -1 x15803 -1 x15804 >= 0 ;
+2 x16161 +2 x16162 +2 x16163 +2 x16164 -1 x15801 -1 x15802 -1 x15803 -1 x15804 -1 x15805 -1 x15806 -1 x15807 -1 x15808 >= 0 ;
+2 x16165 +2 x16166 +2 x16167 +2 x16168 -1 x15805 -1 x15806 -1 x15807 -1 x15808 -1 x15809 -1 x15810 -1 x15811 -1 x15812 >= 0 ;
+2 x16169 +2 x16170 +2 x16171 +2 x16172 -1 x15809 -1 x15810 -1 x15811 -1 x15812 -1 x15813 -1 x15814 -1 x15815 -1 x15816 >= 0 ;
+2 x16173 +2 x16174 +2 x16175 +2 x16176 -1 x15813 -1 x15814 -1 x15815 -1 x15816 -1 x15817 -1 x15818 -1 x15819 -1 x15820 >= 0 ;
+2 x16177 +2 x16178 +2 x16179 +2 x16180 -1 x15817 -1 x15818 -1 x15819 -1 x15820 -1 x15821 -1 x15822 -1 x15823 -1 x15824 >= 0 ;
+2 x16181 +2 x16182 +2 x16183 +2 x16184 -1 x15821 -1 x15822 -1 x15823 -1 x15824 -1 x15825 -1 x15826 -1 x15827 -1 x15828 >= 0 ;
+2 x16185 +2 x16186 +2 x16187 +2 x16188 -1 x15825 -1 x15826 -1 x15827 -1 x15828 -1 x15829 -1 x15830 -1 x15831 -1 x15832 >= 0 ;
+2 x16189 +2 x16190 +2 x16191 +2 x16192 -1 x15829 -1 x15830 -1 x15831 -1 x15832 -1 x15833 -1 x15834 -1 x15835 -1 x15836 >= 0 ;
+2 x16193 +2 x16194 +2 x16195 +2 x16196 -1 x15833 -1 x15834 -1 x15835 -1 x15836 -1 x15837 -1 x15838 -1 x15839 -1 x15840 >= 0 ;
+2 x16197 +2 x16198 +2 x16199 +2 x16200 -1 x15837 -1 x15838 -1 x15839 -1 x15840 -1 x15841 -1 x15842 -1 x15843 -1 x15844 >= 0 ;
+2 x16201 +2 x16202 +2 x16203 +2 x16204 -1 x15841 -1 x15842 -1 x15843 -1 x15844 -1 x15845 -1 x15846 -1 x15847 -1 x15848 >= 0 ;
+2 x16205 +2 x16206 +2 x16207 +2 x16208 -1 x15845 -1 x15846 -1 x15847 -1 x15848 -1 x15849 -1 x15850 -1 x15851 -1 x15852 >= 0 ;
+2 x16209 +2 x16210 +2 x16211 +2 x16212 -1 x15849 -1 x15850 -1 x15851 -1 x15852 -1 x15853 -1 x15854 -1 x15855 -1 x15856 >= 0 ;
+2 x16213 +2 x16214 +2 x16215 +2 x16216 -1 x15853 -1 x15854 -1 x15855 -1 x15856 -1 x15857 -1 x15858 -1 x15859 -1 x15860 >= 0 ;
+2 x16217 +2 x16218 +2 x16219 +2 x16220 -1 x15857 -1 x15858 -1 x15859 -1 x15860 -1 x15861 -1 x15862 -1 x15863 -1 x15864 >= 0 ;
+2 x16221 +2 x16222 +2 x16223 +2 x16224 -1 x15861 -1 x15862 -1 x15863 -1 x15864 -1 x15865 -1 x15866 -1 x15867 -1 x15868 >= 0 ;
+2 x16225 +2 x16226 +2 x16227 +2 x16228 -1 x15865 -1 x15866 -1 x15867 -1 x15868 -1 x15869 -1 x15870 -1 x15871 -1 x15872 >= 0 ;
+2 x16229 +2 x16230 +2 x16231 +2 x16232 -1 x15869 -1 x15870 -1 x15871 -1 x15872 -1 x15873 -1 x15874 -1 x15875 -1 x15876 >= 0 ;
+2 x16233 +2 x16234 +2 x16235 +2 x16236 -1 x15873 -1 x15874 -1 x15875 -1 x15876 -1 x15877 -1 x15878 -1 x15879 -1 x15880 >= 0 ;
+2 x16237 +2 x16238 +2 x16239 +2 x16240 -1 x15877 -1 x15878 -1 x15879 -1 x15880 -1 x15881 -1 x15882 -1 x15883 -1 x15884 >= 0 ;
+2 x16241 +2 x16242 +2 x16243 +2 x16244 -1 x15881 -1 x15882 -1 x15883 -1 x15884 -1 x15885 -1 x15886 -1 x15887 -1 x15888 >= 0 ;
+2 x16245 +2 x16246 +2 x16247 +2 x16248 -1 x15885 -1 x15886 -1 x15887 -1 x15888 -1 x15889 -1 x15890 -1 x15891 -1 x15892 >= 0 ;
+2 x16249 +2 x16250 +2 x16251 +2 x16252 -1 x15889 -1 x15890 -1 x15891 -1 x15892 -1 x15893 -1 x15894 -1 x15895 -1 x15896 >= 0 ;
+2 x16253 +2 x16254 +2 x16255 +2 x16256 -1 x15893 -1 x15894 -1 x15895 -1 x15896 -1 x15897 -1 x15898 -1 x15899 -1 x15900 >= 0 ;
+2 x16257 +2 x16258 +2 x16259 +2 x16260 -1 x15897 -1 x15898 -1 x15899 -1 x15900 -1 x15901 -1 x15902 -1 x15903 -1 x15904 >= 0 ;
+2 x16261 +2 x16262 +2 x16263 +2 x16264 -1 x15901 -1 x15902 -1 x15903 -1 x15904 -1 x15905 -1 x15906 -1 x15907 -1 x15908 >= 0 ;
+2 x16265 +2 x16266 +2 x16267 +2 x16268 -1 x15905 -1 x15906 -1 x15907 -1 x15908 -1 x15909 -1 x15910 -1 x15911 -1 x15912 >= 0 ;
+2 x16269 +2 x16270 +2 x16271 +2 x16272 -1 x15909 -1 x15910 -1 x15911 -1 x15912 -1 x15913 -1 x15914 -1 x15915 -1 x15916 >= 0 ;
+2 x16273 +2 x16274 +2 x16275 +2 x16276 -1 x15913 -1 x15914 -1 x15915 -1 x15916 -1 x15917 -1 x15918 -1 x15919 -1 x15920 >= 0 ;
+2 x16277 +2 x16278 +2 x16279 +2 x16280 -1 x15917 -1 x15918 -1 x15919 -1 x15920 -1 x15921 -1 x15922 -1 x15923 -1 x15924 >= 0 ;
+2 x16281 +2 x16282 +2 x16283 +2 x16284 -1 x15921 -1 x15922 -1 x15923 -1 x15924 -1 x15925 -1 x15926 -1 x15927 -1 x15928 >= 0 ;
+2 x16285 +2 x16286 +2 x16287 +2 x16288 -1 x15925 -1 x15926 -1 x15927 -1 x15928 -1 x15929 -1 x15930 -1 x15931 -1 x15932 >= 0 ;
+2 x16289 +2 x16290 +2 x16291 +2 x16292 -1 x15929 -1 x15930 -1 x15931 -1 x15932 -1 x15933 -1 x15934 -1 x15935 -1 x15936 >= 0 ;
+2 x16293 +2 x16294 +2 x16295 +2 x16296 -1 x15933 -1 x15934 -1 x15935 -1 x15936 -1 x15937 -1 x15938 -1 x15939 -1 x15940 >= 0 ;
+2 x16297 +2 x16298 +2 x16299 +2 x16300 -1 x15937 -1 x15938 -1 x15939 -1 x15940 -1 x15941 -1 x15942 -1 x15943 -1 x15944 >= 0 ;
+2 x16301 +2 x16302 +2 x16303 +2 x16304 -1 x15941 -1 x15942 -1 x15943 -1 x15944 -1 x15945 -1 x15946 -1 x15947 -1 x15948 >= 0 ;
+2 x16305 +2 x16306 +2 x16307 +2 x16308 -1 x15945 -1 x15946 -1 x15947 -1 x15948 -1 x15949 -1 x15950 -1 x15951 -1 x15952 >= 0 ;
+2 x16309 +2 x16310 +2 x16311 +2 x16312 -1 x15949 -1 x15950 -1 x15951 -1 x15952 -1 x15953 -1 x15954 -1 x15955 -1 x15956 >= 0 ;
+2 x16313 +2 x16314 +2 x16315 +2 x16316 -1 x15953 -1 x15954 -1 x15955 -1 x15956 -1 x15957 -1 x15958 -1 x15959 -1 x15960 >= 0 ;
+2 x16317 +2 x16318 +2 x16319 +2 x16320 -1 x15957 -1 x15958 -1 x15959 -1 x15960 -1 x15961 -1 x15962 -1 x15963 -1 x15964 >= 0 ;
+2 x16321 +2 x16322 +2 x16323 +2 x16324 -1 x15961 -1 x15962 -1 x15963 -1 x15964 -1 x15965 -1 x15966 -1 x15967 -1 x15968 >= 0 ;
+2 x16325 +2 x16326 +2 x16327 +2 x16328 -1 x15965 -1 x15966 -1 x15967 -1 x15968 -1 x15969 -1 x15970 -1 x15971 -1 x15972 >= 0 ;
+2 x16329 +2 x16330 +2 x16331 +2 x16332 -1 x15969 -1 x15970 -1 x15971 -1 x15972 -1 x15973 -1 x15974 -1 x15975 -1 x15976 >= 0 ;
+2 x16333 +2 x16334 +2 x16335 +2 x16336 -1 x15973 -1 x15974 -1 x15975 -1 x15976 -1 x15977 -1 x15978 -1 x15979 -1 x15980 >= 0 ;
+2 x16337 +2 x16338 +2 x16339 +2 x16340 -1 x15977 -1 x15978 -1 x15979 -1 x15980 -1 x15981 -1 x15982 -1 x15983 -1 x15984 >= 0 ;
+2 x16341 +2 x16342 +2 x16343 +2 x16344 -1 x15985 -1 x15986 -1 x15987 -1 x15988 -1 x15989 -1 x15990 -1 x15991 -1 x15992 >= 0 ;
+2 x16345 +2 x16346 +2 x16347 +2 x16348 -1 x15989 -1 x15990 -1 x15991 -1 x15992 -1 x15993 -1 x15994 -1 x15995 -1 x15996 >= 0 ;
+2 x16349 +2 x16350 +2 x16351 +2 x16352 -1 x15993 -1 x15994 -1 x15995 -1 x15996 -1 x15997 -1 x15998 -1 x15999 -1 x16000 >= 0 ;
+2 x16353 +2 x16354 +2 x16355 +2 x16356 -1 x15997 -1 x15998 -1 x15999 -1 x16000 -1 x16001 -1 x16002 -1 x16003 -1 x16004 >= 0 ;
+2 x16357 +2 x16358 +2 x16359 +2 x16360 -1 x16001 -1 x16002 -1 x16003 -1 x16004 -1 x16005 -1 x16006 -1 x16007 -1 x16008 >= 0 ;
+2 x16361 +2 x16362 +2 x16363 +2 x16364 -1 x16005 -1 x16006 -1 x16007 -1 x16008 -1 x16009 -1 x16010 -1 x16011 -1 x16012 >= 0 ;
+2 x16365 +2 x16366 +2 x16367 +2 x16368 -1 x16009 -1 x16010 -1 x16011 -1 x16012 -1 x16013 -1 x16014 -1 x16015 -1 x16016 >= 0 ;
+2 x16369 +2 x16370 +2 x16371 +2 x16372 -1 x16013 -1 x16014 -1 x16015 -1 x16016 -1 x16017 -1 x16018 -1 x16019 -1 x16020 >= 0 ;
+2 x16373 +2 x16374 +2 x16375 +2 x16376 -1 x16017 -1 x16018 -1 x16019 -1 x16020 -1 x16021 -1 x16022 -1 x16023 -1 x16024 >= 0 ;
+2 x16377 +2 x16378 +2 x16379 +2 x16380 -1 x16021 -1 x16022 -1 x16023 -1 x16024 -1 x16025 -1 x16026 -1 x16027 -1 x16028 >= 0 ;
+2 x16381 +2 x16382 +2 x16383 +2 x16384 -1 x16025 -1 x16026 -1 x16027 -1 x16028 -1 x16029 -1 x16030 -1 x16031 -1 x16032 >= 0 ;
+2 x16385 +2 x16386 +2 x16387 +2 x16388 -1 x16029 -1 x16030 -1 x16031 -1 x16032 -1 x16033 -1 x16034 -1 x16035 -1 x16036 >= 0 ;
+2 x16389 +2 x16390 +2 x16391 +2 x16392 -1 x16033 -1 x16034 -1 x16035 -1 x16036 -1 x16037 -1 x16038 -1 x16039 -1 x16040 >= 0 ;
+2 x16393 +2 x16394 +2 x16395 +2 x16396 -1 x16037 -1 x16038 -1 x16039 -1 x16040 -1 x16041 -1 x16042 -1 x16043 -1 x16044 >= 0 ;
+2 x16397 +2 x16398 +2 x16399 +2 x16400 -1 x16041 -1 x16042 -1 x16043 -1 x16044 -1 x16045 -1 x16046 -1 x16047 -1 x16048 >= 0 ;
+2 x16401 +2 x16402 +2 x16403 +2 x16404 -1 x16045 -1 x16046 -1 x16047 -1 x16048 -1 x16049 -1 x16050 -1 x16051 -1 x16052 >= 0 ;
+2 x16405 +2 x16406 +2 x16407 +2 x16408 -1 x16049 -1 x16050 -1 x16051 -1 x16052 -1 x16053 -1 x16054 -1 x16055 -1 x16056 >= 0 ;
+2 x16409 +2 x16410 +2 x16411 +2 x16412 -1 x16053 -1 x16054 -1 x16055 -1 x16056 -1 x16057 -1 x16058 -1 x16059 -1 x16060 >= 0 ;
+2 x16413 +2 x16414 +2 x16415 +2 x16416 -1 x16057 -1 x16058 -1 x16059 -1 x16060 -1 x16061 -1 x16062 -1 x16063 -1 x16064 >= 0 ;
+2 x16417 +2 x16418 +2 x16419 +2 x16420 -1 x16061 -1 x16062 -1 x16063 -1 x16064 -1 x16065 -1 x16066 -1 x16067 -1 x16068 >= 0 ;
+2 x16421 +2 x16422 +2 x16423 +2 x16424 -1 x16065 -1 x16066 -1 x16067 -1 x16068 -1 x16069 -1 x16070 -1 x16071 -1 x16072 >= 0 ;
+2 x16425 +2 x16426 +2 x16427 +2 x16428 -1 x16069 -1 x16070 -1 x16071 -1 x16072 -1 x16073 -1 x16074 -1 x16075 -1 x16076 >= 0 ;
+2 x16429 +2 x16430 +2 x16431 +2 x16432 -1 x16073 -1 x16074 -1 x16075 -1 x16076 -1 x16077 -1 x16078 -1 x16079 -1 x16080 >= 0 ;
+2 x16433 +2 x16434 +2 x16435 +2 x16436 -1 x16077 -1 x16078 -1 x16079 -1 x16080 -1 x16081 -1 x16082 -1 x16083 -1 x16084 >= 0 ;
+2 x16437 +2 x16438 +2 x16439 +2 x16440 -1 x16081 -1 x16082 -1 x16083 -1 x16084 -1 x16085 -1 x16086 -1 x16087 -1 x16088 >= 0 ;
+2 x16441 +2 x16442 +2 x16443 +2 x16444 -1 x16085 -1 x16086 -1 x16087 -1 x16088 -1 x16089 -1 x16090 -1 x16091 -1 x16092 >= 0 ;
+2 x16445 +2 x16446 +2 x16447 +2 x16448 -1 x16089 -1 x16090 -1 x16091 -1 x16092 -1 x16093 -1 x16094 -1 x16095 -1 x16096 >= 0 ;
+2 x16449 +2 x16450 +2 x16451 +2 x16452 -1 x16093 -1 x16094 -1 x16095 -1 x16096 -1 x16097 -1 x16098 -1 x16099 -1 x16100 >= 0 ;
+2 x16453 +2 x16454 +2 x16455 +2 x16456 -1 x16097 -1 x16098 -1 x16099 -1 x16100 -1 x16101 -1 x16102 -1 x16103 -1 x16104 >= 0 ;
+2 x16457 +2 x16458 +2 x16459 +2 x16460 -1 x16101 -1 x16102 -1 x16103 -1 x16104 -1 x16105 -1 x16106 -1 x16107 -1 x16108 >= 0 ;
+2 x16461 +2 x16462 +2 x16463 +2 x16464 -1 x16105 -1 x16106 -1 x16107 -1 x16108 -1 x16109 -1 x16110 -1 x16111 -1 x16112 >= 0 ;
+2 x16465 +2 x16466 +2 x16467 +2 x16468 -1 x16109 -1 x16110 -1 x16111 -1 x16112 -1 x16113 -1 x16114 -1 x16115 -1 x16116 >= 0 ;
+2 x16469 +2 x16470 +2 x16471 +2 x16472 -1 x16113 -1 x16114 -1 x16115 -1 x16116 -1 x16117 -1 x16118 -1 x16119 -1 x16120 >= 0 ;
+2 x16473 +2 x16474 +2 x16475 +2 x16476 -1 x16117 -1 x16118 -1 x16119 -1 x16120 -1 x16121 -1 x16122 -1 x16123 -1 x16124 >= 0 ;
+2 x16477 +2 x16478 +2 x16479 +2 x16480 -1 x16121 -1 x16122 -1 x16123 -1 x16124 -1 x16125 -1 x16126 -1 x16127 -1 x16128 >= 0 ;
+2 x16481 +2 x16482 +2 x16483 +2 x16484 -1 x16125 -1 x16126 -1 x16127 -1 x16128 -1 x16129 -1 x16130 -1 x16131 -1 x16132 >= 0 ;
+2 x16485 +2 x16486 +2 x16487 +2 x16488 -1 x16129 -1 x16130 -1 x16131 -1 x16132 -1 x16133 -1 x16134 -1 x16135 -1 x16136 >= 0 ;
+2 x16489 +2 x16490 +2 x16491 +2 x16492 -1 x16133 -1 x16134 -1 x16135 -1 x16136 -1 x16137 -1 x16138 -1 x16139 -1 x16140 >= 0 ;
+2 x16493 +2 x16494 +2 x16495 +2 x16496 -1 x16137 -1 x16138 -1 x16139 -1 x16140 -1 x16141 -1 x16142 -1 x16143 -1 x16144 >= 0 ;
+2 x16497 +2 x16498 +2 x16499 +2 x16500 -1 x16141 -1 x16142 -1 x16143 -1 x16144 -1 x16145 -1 x16146 -1 x16147 -1 x16148 >= 0 ;
+2 x16501 +2 x16502 +2 x16503 +2 x16504 -1 x16145 -1 x16146 -1 x16147 -1 x16148 -1 x16149 -1 x16150 -1 x16151 -1 x16152 >= 0 ;
+2 x16505 +2 x16506 +2 x16507 +2 x16508 -1 x16149 -1 x16150 -1 x16151 -1 x16152 -1 x16153 -1 x16154 -1 x16155 -1 x16156 >= 0 ;
+2 x16509 +2 x16510 +2 x16511 +2 x16512 -1 x16153 -1 x16154 -1 x16155 -1 x16156 -1 x16157 -1 x16158 -1 x16159 -1 x16160 >= 0 ;
+2 x16513 +2 x16514 +2 x16515 +2 x16516 -1 x16157 -1 x16158 -1 x16159 -1 x16160 -1 x16161 -1 x16162 -1 x16163 -1 x16164 >= 0 ;
+2 x16517 +2 x16518 +2 x16519 +2 x16520 -1 x16161 -1 x16162 -1 x16163 -1 x16164 -1 x16165 -1 x16166 -1 x16167 -1 x16168 >= 0 ;
+2 x16521 +2 x16522 +2 x16523 +2 x16524 -1 x16165 -1 x16166 -1 x16167 -1 x16168 -1 x16169 -1 x16170 -1 x16171 -1 x16172 >= 0 ;
+2 x16525 +2 x16526 +2 x16527 +2 x16528 -1 x16169 -1 x16170 -1 x16171 -1 x16172 -1 x16173 -1 x16174 -1 x16175 -1 x16176 >= 0 ;
+2 x16529 +2 x16530 +2 x16531 +2 x16532 -1 x16173 -1 x16174 -1 x16175 -1 x16176 -1 x16177 -1 x16178 -1 x16179 -1 x16180 >= 0 ;
+2 x16533 +2 x16534 +2 x16535 +2 x16536 -1 x16177 -1 x16178 -1 x16179 -1 x16180 -1 x16181 -1 x16182 -1 x16183 -1 x16184 >= 0 ;
+2 x16537 +2 x16538 +2 x16539 +2 x16540 -1 x16181 -1 x16182 -1 x16183 -1 x16184 -1 x16185 -1 x16186 -1 x16187 -1 x16188 >= 0 ;
+2 x16541 +2 x16542 +2 x16543 +2 x16544 -1 x16185 -1 x16186 -1 x16187 -1 x16188 -1 x16189 -1 x16190 -1 x16191 -1 x16192 >= 0 ;
+2 x16545 +2 x16546 +2 x16547 +2 x16548 -1 x16189 -1 x16190 -1 x16191 -1 x16192 -1 x16193 -1 x16194 -1 x16195 -1 x16196 >= 0 ;
+2 x16549 +2 x16550 +2 x16551 +2 x16552 -1 x16193 -1 x16194 -1 x16195 -1 x16196 -1 x16197 -1 x16198 -1 x16199 -1 x16200 >= 0 ;
+2 x16553 +2 x16554 +2 x16555 +2 x16556 -1 x16197 -1 x16198 -1 x16199 -1 x16200 -1 x16201 -1 x16202 -1 x16203 -1 x16204 >= 0 ;
+2 x16557 +2 x16558 +2 x16559 +2 x16560 -1 x16201 -1 x16202 -1 x16203 -1 x16204 -1 x16205 -1 x16206 -1 x16207 -1 x16208 >= 0 ;
+2 x16561 +2 x16562 +2 x16563 +2 x16564 -1 x16205 -1 x16206 -1 x16207 -1 x16208 -1 x16209 -1 x16210 -1 x16211 -1 x16212 >= 0 ;
+2 x16565 +2 x16566 +2 x16567 +2 x16568 -1 x16209 -1 x16210 -1 x16211 -1 x16212 -1 x16213 -1 x16214 -1 x16215 -1 x16216 >= 0 ;
+2 x16569 +2 x16570 +2 x16571 +2 x16572 -1 x16213 -1 x16214 -1 x16215 -1 x16216 -1 x16217 -1 x16218 -1 x16219 -1 x16220 >= 0 ;
+2 x16573 +2 x16574 +2 x16575 +2 x16576 -1 x16217 -1 x16218 -1 x16219 -1 x16220 -1 x16221 -1 x16222 -1 x16223 -1 x16224 >= 0 ;
+2 x16577 +2 x16578 +2 x16579 +2 x16580 -1 x16221 -1 x16222 -1 x16223 -1 x16224 -1 x16225 -1 x16226 -1 x16227 -1 x16228 >= 0 ;
+2 x16581 +2 x16582 +2 x16583 +2 x16584 -1 x16225 -1 x16226 -1 x16227 -1 x16228 -1 x16229 -1 x16230 -1 x16231 -1 x16232 >= 0 ;
+2 x16585 +2 x16586 +2 x16587 +2 x16588 -1 x16229 -1 x16230 -1 x16231 -1 x16232 -1 x16233 -1 x16234 -1 x16235 -1 x16236 >= 0 ;
+2 x16589 +2 x16590 +2 x16591 +2 x16592 -1 x16233 -1 x16234 -1 x16235 -1 x16236 -1 x16237 -1 x16238 -1 x16239 -1 x16240 >= 0 ;
+2 x16593 +2 x16594 +2 x16595 +2 x16596 -1 x16237 -1 x16238 -1 x16239 -1 x16240 -1 x16241 -1 x16242 -1 x16243 -1 x16244 >= 0 ;
+2 x16597 +2 x16598 +2 x16599 +2 x16600 -1 x16241 -1 x16242 -1 x16243 -1 x16244 -1 x16245 -1 x16246 -1 x16247 -1 x16248 >= 0 ;
+2 x16601 +2 x16602 +2 x16603 +2 x16604 -1 x16245 -1 x16246 -1 x16247 -1 x16248 -1 x16249 -1 x16250 -1 x16251 -1 x16252 >= 0 ;
+2 x16605 +2 x16606 +2 x16607 +2 x16608 -1 x16249 -1 x16250 -1 x16251 -1 x16252 -1 x16253 -1 x16254 -1 x16255 -1 x16256 >= 0 ;
+2 x16609 +2 x16610 +2 x16611 +2 x16612 -1 x16253 -1 x16254 -1 x16255 -1 x16256 -1 x16257 -1 x16258 -1 x16259 -1 x16260 >= 0 ;
+2 x16613 +2 x16614 +2 x16615 +2 x16616 -1 x16257 -1 x16258 -1 x16259 -1 x16260 -1 x16261 -1 x16262 -1 x16263 -1 x16264 >= 0 ;
+2 x16617 +2 x16618 +2 x16619 +2 x16620 -1 x16261 -1 x16262 -1 x16263 -1 x16264 -1 x16265 -1 x16266 -1 x16267 -1 x16268 >= 0 ;
+2 x16621 +2 x16622 +2 x16623 +2 x16624 -1 x16265 -1 x16266 -1 x16267 -1 x16268 -1 x16269 -1 x16270 -1 x16271 -1 x16272 >= 0 ;
+2 x16625 +2 x16626 +2 x16627 +2 x16628 -1 x16269 -1 x16270 -1 x16271 -1 x16272 -1 x16273 -1 x16274 -1 x16275 -1 x16276 >= 0 ;
+2 x16629 +2 x16630 +2 x16631 +2 x16632 -1 x16273 -1 x16274 -1 x16275 -1 x16276 -1 x16277 -1 x16278 -1 x16279 -1 x16280 >= 0 ;
+2 x16633 +2 x16634 +2 x16635 +2 x16636 -1 x16277 -1 x16278 -1 x16279 -1 x16280 -1 x16281 -1 x16282 -1 x16283 -1 x16284 >= 0 ;
+2 x16637 +2 x16638 +2 x16639 +2 x16640 -1 x16281 -1 x16282 -1 x16283 -1 x16284 -1 x16285 -1 x16286 -1 x16287 -1 x16288 >= 0 ;
+2 x16641 +2 x16642 +2 x16643 +2 x16644 -1 x16285 -1 x16286 -1 x16287 -1 x16288 -1 x16289 -1 x16290 -1 x16291 -1 x16292 >= 0 ;
+2 x16645 +2 x16646 +2 x16647 +2 x16648 -1 x16289 -1 x16290 -1 x16291 -1 x16292 -1 x16293 -1 x16294 -1 x16295 -1 x16296 >= 0 ;
+2 x16649 +2 x16650 +2 x16651 +2 x16652 -1 x16293 -1 x16294 -1 x16295 -1 x16296 -1 x16297 -1 x16298 -1 x16299 -1 x16300 >= 0 ;
+2 x16653 +2 x16654 +2 x16655 +2 x16656 -1 x16297 -1 x16298 -1 x16299 -1 x16300 -1 x16301 -1 x16302 -1 x16303 -1 x16304 >= 0 ;
+2 x16657 +2 x16658 +2 x16659 +2 x16660 -1 x16301 -1 x16302 -1 x16303 -1 x16304 -1 x16305 -1 x16306 -1 x16307 -1 x16308 >= 0 ;
+2 x16661 +2 x16662 +2 x16663 +2 x16664 -1 x16305 -1 x16306 -1 x16307 -1 x16308 -1 x16309 -1 x16310 -1 x16311 -1 x16312 >= 0 ;
+2 x16665 +2 x16666 +2 x16667 +2 x16668 -1 x16309 -1 x16310 -1 x16311 -1 x16312 -1 x16313 -1 x16314 -1 x16315 -1 x16316 >= 0 ;
+2 x16669 +2 x16670 +2 x16671 +2 x16672 -1 x16313 -1 x16314 -1 x16315 -1 x16316 -1 x16317 -1 x16318 -1 x16319 -1 x16320 >= 0 ;
+2 x16673 +2 x16674 +2 x16675 +2 x16676 -1 x16317 -1 x16318 -1 x16319 -1 x16320 -1 x16321 -1 x16322 -1 x16323 -1 x16324 >= 0 ;
+2 x16677 +2 x16678 +2 x16679 +2 x16680 -1 x16321 -1 x16322 -1 x16323 -1 x16324 -1 x16325 -1 x16326 -1 x16327 -1 x16328 >= 0 ;
+2 x16681 +2 x16682 +2 x16683 +2 x16684 -1 x16325 -1 x16326 -1 x16327 -1 x16328 -1 x16329 -1 x16330 -1 x16331 -1 x16332 >= 0 ;
+2 x16685 +2 x16686 +2 x16687 +2 x16688 -1 x16329 -1 x16330 -1 x16331 -1 x16332 -1 x16333 -1 x16334 -1 x16335 -1 x16336 >= 0 ;
+2 x16689 +2 x16690 +2 x16691 +2 x16692 -1 x16333 -1 x16334 -1 x16335 -1 x16336 -1 x16337 -1 x16338 -1 x16339 -1 x16340 >= 0 ;
+2 x16693 +2 x16694 +2 x16695 +2 x16696 -1 x16341 -1 x16342 -1 x16343 -1 x16344 -1 x16345 -1 x16346 -1 x16347 -1 x16348 >= 0 ;
+2 x16697 +2 x16698 +2 x16699 +2 x16700 -1 x16345 -1 x16346 -1 x16347 -1 x16348 -1 x16349 -1 x16350 -1 x16351 -1 x16352 >= 0 ;
+2 x16701 +2 x16702 +2 x16703 +2 x16704 -1 x16349 -1 x16350 -1 x16351 -1 x16352 -1 x16353 -1 x16354 -1 x16355 -1 x16356 >= 0 ;
+2 x16705 +2 x16706 +2 x16707 +2 x16708 -1 x16353 -1 x16354 -1 x16355 -1 x16356 -1 x16357 -1 x16358 -1 x16359 -1 x16360 >= 0 ;
+2 x16709 +2 x16710 +2 x16711 +2 x16712 -1 x16357 -1 x16358 -1 x16359 -1 x16360 -1 x16361 -1 x16362 -1 x16363 -1 x16364 >= 0 ;
+2 x16713 +2 x16714 +2 x16715 +2 x16716 -1 x16361 -1 x16362 -1 x16363 -1 x16364 -1 x16365 -1 x16366 -1 x16367 -1 x16368 >= 0 ;
+2 x16717 +2 x16718 +2 x16719 +2 x16720 -1 x16365 -1 x16366 -1 x16367 -1 x16368 -1 x16369 -1 x16370 -1 x16371 -1 x16372 >= 0 ;
+2 x16721 +2 x16722 +2 x16723 +2 x16724 -1 x16369 -1 x16370 -1 x16371 -1 x16372 -1 x16373 -1 x16374 -1 x16375 -1 x16376 >= 0 ;
+2 x16725 +2 x16726 +2 x16727 +2 x16728 -1 x16373 -1 x16374 -1 x16375 -1 x16376 -1 x16377 -1 x16378 -1 x16379 -1 x16380 >= 0 ;
+2 x16729 +2 x16730 +2 x16731 +2 x16732 -1 x16377 -1 x16378 -1 x16379 -1 x16380 -1 x16381 -1 x16382 -1 x16383 -1 x16384 >= 0 ;
+2 x16733 +2 x16734 +2 x16735 +2 x16736 -1 x16381 -1 x16382 -1 x16383 -1 x16384 -1 x16385 -1 x16386 -1 x16387 -1 x16388 >= 0 ;
+2 x16737 +2 x16738 +2 x16739 +2 x16740 -1 x16385 -1 x16386 -1 x16387 -1 x16388 -1 x16389 -1 x16390 -1 x16391 -1 x16392 >= 0 ;
+2 x16741 +2 x16742 +2 x16743 +2 x16744 -1 x16389 -1 x16390 -1 x16391 -1 x16392 -1 x16393 -1 x16394 -1 x16395 -1 x16396 >= 0 ;
+2 x16745 +2 x16746 +2 x16747 +2 x16748 -1 x16393 -1 x16394 -1 x16395 -1 x16396 -1 x16397 -1 x16398 -1 x16399 -1 x16400 >= 0 ;
+2 x16749 +2 x16750 +2 x16751 +2 x16752 -1 x16397 -1 x16398 -1 x16399 -1 x16400 -1 x16401 -1 x16402 -1 x16403 -1 x16404 >= 0 ;
+2 x16753 +2 x16754 +2 x16755 +2 x16756 -1 x16401 -1 x16402 -1 x16403 -1 x16404 -1 x16405 -1 x16406 -1 x16407 -1 x16408 >= 0 ;
+2 x16757 +2 x16758 +2 x16759 +2 x16760 -1 x16405 -1 x16406 -1 x16407 -1 x16408 -1 x16409 -1 x16410 -1 x16411 -1 x16412 >= 0 ;
+2 x16761 +2 x16762 +2 x16763 +2 x16764 -1 x16409 -1 x16410 -1 x16411 -1 x16412 -1 x16413 -1 x16414 -1 x16415 -1 x16416 >= 0 ;
+2 x16765 +2 x16766 +2 x16767 +2 x16768 -1 x16413 -1 x16414 -1 x16415 -1 x16416 -1 x16417 -1 x16418 -1 x16419 -1 x16420 >= 0 ;
+2 x16769 +2 x16770 +2 x16771 +2 x16772 -1 x16417 -1 x16418 -1 x16419 -1 x16420 -1 x16421 -1 x16422 -1 x16423 -1 x16424 >= 0 ;
+2 x16773 +2 x16774 +2 x16775 +2 x16776 -1 x16421 -1 x16422 -1 x16423 -1 x16424 -1 x16425 -1 x16426 -1 x16427 -1 x16428 >= 0 ;
+2 x16777 +2 x16778 +2 x16779 +2 x16780 -1 x16425 -1 x16426 -1 x16427 -1 x16428 -1 x16429 -1 x16430 -1 x16431 -1 x16432 >= 0 ;
+2 x16781 +2 x16782 +2 x16783 +2 x16784 -1 x16429 -1 x16430 -1 x16431 -1 x16432 -1 x16433 -1 x16434 -1 x16435 -1 x16436 >= 0 ;
+2 x16785 +2 x16786 +2 x16787 +2 x16788 -1 x16433 -1 x16434 -1 x16435 -1 x16436 -1 x16437 -1 x16438 -1 x16439 -1 x16440 >= 0 ;
+2 x16789 +2 x16790 +2 x16791 +2 x16792 -1 x16437 -1 x16438 -1 x16439 -1 x16440 -1 x16441 -1 x16442 -1 x16443 -1 x16444 >= 0 ;
+2 x16793 +2 x16794 +2 x16795 +2 x16796 -1 x16441 -1 x16442 -1 x16443 -1 x16444 -1 x16445 -1 x16446 -1 x16447 -1 x16448 >= 0 ;
+2 x16797 +2 x16798 +2 x16799 +2 x16800 -1 x16445 -1 x16446 -1 x16447 -1 x16448 -1 x16449 -1 x16450 -1 x16451 -1 x16452 >= 0 ;
+2 x16801 +2 x16802 +2 x16803 +2 x16804 -1 x16449 -1 x16450 -1 x16451 -1 x16452 -1 x16453 -1 x16454 -1 x16455 -1 x16456 >= 0 ;
+2 x16805 +2 x16806 +2 x16807 +2 x16808 -1 x16453 -1 x16454 -1 x16455 -1 x16456 -1 x16457 -1 x16458 -1 x16459 -1 x16460 >= 0 ;
+2 x16809 +2 x16810 +2 x16811 +2 x16812 -1 x16457 -1 x16458 -1 x16459 -1 x16460 -1 x16461 -1 x16462 -1 x16463 -1 x16464 >= 0 ;
+2 x16813 +2 x16814 +2 x16815 +2 x16816 -1 x16461 -1 x16462 -1 x16463 -1 x16464 -1 x16465 -1 x16466 -1 x16467 -1 x16468 >= 0 ;
+2 x16817 +2 x16818 +2 x16819 +2 x16820 -1 x16465 -1 x16466 -1 x16467 -1 x16468 -1 x16469 -1 x16470 -1 x16471 -1 x16472 >= 0 ;
+2 x16821 +2 x16822 +2 x16823 +2 x16824 -1 x16469 -1 x16470 -1 x16471 -1 x16472 -1 x16473 -1 x16474 -1 x16475 -1 x16476 >= 0 ;
+2 x16825 +2 x16826 +2 x16827 +2 x16828 -1 x16473 -1 x16474 -1 x16475 -1 x16476 -1 x16477 -1 x16478 -1 x16479 -1 x16480 >= 0 ;
+2 x16829 +2 x16830 +2 x16831 +2 x16832 -1 x16477 -1 x16478 -1 x16479 -1 x16480 -1 x16481 -1 x16482 -1 x16483 -1 x16484 >= 0 ;
+2 x16833 +2 x16834 +2 x16835 +2 x16836 -1 x16481 -1 x16482 -1 x16483 -1 x16484 -1 x16485 -1 x16486 -1 x16487 -1 x16488 >= 0 ;
+2 x16837 +2 x16838 +2 x16839 +2 x16840 -1 x16485 -1 x16486 -1 x16487 -1 x16488 -1 x16489 -1 x16490 -1 x16491 -1 x16492 >= 0 ;
+2 x16841 +2 x16842 +2 x16843 +2 x16844 -1 x16489 -1 x16490 -1 x16491 -1 x16492 -1 x16493 -1 x16494 -1 x16495 -1 x16496 >= 0 ;
+2 x16845 +2 x16846 +2 x16847 +2 x16848 -1 x16493 -1 x16494 -1 x16495 -1 x16496 -1 x16497 -1 x16498 -1 x16499 -1 x16500 >= 0 ;
+2 x16849 +2 x16850 +2 x16851 +2 x16852 -1 x16497 -1 x16498 -1 x16499 -1 x16500 -1 x16501 -1 x16502 -1 x16503 -1 x16504 >= 0 ;
+2 x16853 +2 x16854 +2 x16855 +2 x16856 -1 x16501 -1 x16502 -1 x16503 -1 x16504 -1 x16505 -1 x16506 -1 x16507 -1 x16508 >= 0 ;
+2 x16857 +2 x16858 +2 x16859 +2 x16860 -1 x16505 -1 x16506 -1 x16507 -1 x16508 -1 x16509 -1 x16510 -1 x16511 -1 x16512 >= 0 ;
+2 x16861 +2 x16862 +2 x16863 +2 x16864 -1 x16509 -1 x16510 -1 x16511 -1 x16512 -1 x16513 -1 x16514 -1 x16515 -1 x16516 >= 0 ;
+2 x16865 +2 x16866 +2 x16867 +2 x16868 -1 x16513 -1 x16514 -1 x16515 -1 x16516 -1 x16517 -1 x16518 -1 x16519 -1 x16520 >= 0 ;
+2 x16869 +2 x16870 +2 x16871 +2 x16872 -1 x16517 -1 x16518 -1 x16519 -1 x16520 -1 x16521 -1 x16522 -1 x16523 -1 x16524 >= 0 ;
+2 x16873 +2 x16874 +2 x16875 +2 x16876 -1 x16521 -1 x16522 -1 x16523 -1 x16524 -1 x16525 -1 x16526 -1 x16527 -1 x16528 >= 0 ;
+2 x16877 +2 x16878 +2 x16879 +2 x16880 -1 x16525 -1 x16526 -1 x16527 -1 x16528 -1 x16529 -1 x16530 -1 x16531 -1 x16532 >= 0 ;
+2 x16881 +2 x16882 +2 x16883 +2 x16884 -1 x16529 -1 x16530 -1 x16531 -1 x16532 -1 x16533 -1 x16534 -1 x16535 -1 x16536 >= 0 ;
+2 x16885 +2 x16886 +2 x16887 +2 x16888 -1 x16533 -1 x16534 -1 x16535 -1 x16536 -1 x16537 -1 x16538 -1 x16539 -1 x16540 >= 0 ;
+2 x16889 +2 x16890 +2 x16891 +2 x16892 -1 x16537 -1 x16538 -1 x16539 -1 x16540 -1 x16541 -1 x16542 -1 x16543 -1 x16544 >= 0 ;
+2 x16893 +2 x16894 +2 x16895 +2 x16896 -1 x16541 -1 x16542 -1 x16543 -1 x16544 -1 x16545 -1 x16546 -1 x16547 -1 x16548 >= 0 ;
+2 x16897 +2 x16898 +2 x16899 +2 x16900 -1 x16545 -1 x16546 -1 x16547 -1 x16548 -1 x16549 -1 x16550 -1 x16551 -1 x16552 >= 0 ;
+2 x16901 +2 x16902 +2 x16903 +2 x16904 -1 x16549 -1 x16550 -1 x16551 -1 x16552 -1 x16553 -1 x16554 -1 x16555 -1 x16556 >= 0 ;
+2 x16905 +2 x16906 +2 x16907 +2 x16908 -1 x16553 -1 x16554 -1 x16555 -1 x16556 -1 x16557 -1 x16558 -1 x16559 -1 x16560 >= 0 ;
+2 x16909 +2 x16910 +2 x16911 +2 x16912 -1 x16557 -1 x16558 -1 x16559 -1 x16560 -1 x16561 -1 x16562 -1 x16563 -1 x16564 >= 0 ;
+2 x16913 +2 x16914 +2 x16915 +2 x16916 -1 x16561 -1 x16562 -1 x16563 -1 x16564 -1 x16565 -1 x16566 -1 x16567 -1 x16568 >= 0 ;
+2 x16917 +2 x16918 +2 x16919 +2 x16920 -1 x16565 -1 x16566 -1 x16567 -1 x16568 -1 x16569 -1 x16570 -1 x16571 -1 x16572 >= 0 ;
+2 x16921 +2 x16922 +2 x16923 +2 x16924 -1 x16569 -1 x16570 -1 x16571 -1 x16572 -1 x16573 -1 x16574 -1 x16575 -1 x16576 >= 0 ;
+2 x16925 +2 x16926 +2 x16927 +2 x16928 -1 x16573 -1 x16574 -1 x16575 -1 x16576 -1 x16577 -1 x16578 -1 x16579 -1 x16580 >= 0 ;
+2 x16929 +2 x16930 +2 x16931 +2 x16932 -1 x16577 -1 x16578 -1 x16579 -1 x16580 -1 x16581 -1 x16582 -1 x16583 -1 x16584 >= 0 ;
+2 x16933 +2 x16934 +2 x16935 +2 x16936 -1 x16581 -1 x16582 -1 x16583 -1 x16584 -1 x16585 -1 x16586 -1 x16587 -1 x16588 >= 0 ;
+2 x16937 +2 x16938 +2 x16939 +2 x16940 -1 x16585 -1 x16586 -1 x16587 -1 x16588 -1 x16589 -1 x16590 -1 x16591 -1 x16592 >= 0 ;
+2 x16941 +2 x16942 +2 x16943 +2 x16944 -1 x16589 -1 x16590 -1 x16591 -1 x16592 -1 x16593 -1 x16594 -1 x16595 -1 x16596 >= 0 ;
+2 x16945 +2 x16946 +2 x16947 +2 x16948 -1 x16593 -1 x16594 -1 x16595 -1 x16596 -1 x16597 -1 x16598 -1 x16599 -1 x16600 >= 0 ;
+2 x16949 +2 x16950 +2 x16951 +2 x16952 -1 x16597 -1 x16598 -1 x16599 -1 x16600 -1 x16601 -1 x16602 -1 x16603 -1 x16604 >= 0 ;
+2 x16953 +2 x16954 +2 x16955 +2 x16956 -1 x16601 -1 x16602 -1 x16603 -1 x16604 -1 x16605 -1 x16606 -1 x16607 -1 x16608 >= 0 ;
+2 x16957 +2 x16958 +2 x16959 +2 x16960 -1 x16605 -1 x16606 -1 x16607 -1 x16608 -1 x16609 -1 x16610 -1 x16611 -1 x16612 >= 0 ;
+2 x16961 +2 x16962 +2 x16963 +2 x16964 -1 x16609 -1 x16610 -1 x16611 -1 x16612 -1 x16613 -1 x16614 -1 x16615 -1 x16616 >= 0 ;
+2 x16965 +2 x16966 +2 x16967 +2 x16968 -1 x16613 -1 x16614 -1 x16615 -1 x16616 -1 x16617 -1 x16618 -1 x16619 -1 x16620 >= 0 ;
+2 x16969 +2 x16970 +2 x16971 +2 x16972 -1 x16617 -1 x16618 -1 x16619 -1 x16620 -1 x16621 -1 x16622 -1 x16623 -1 x16624 >= 0 ;
+2 x16973 +2 x16974 +2 x16975 +2 x16976 -1 x16621 -1 x16622 -1 x16623 -1 x16624 -1 x16625 -1 x16626 -1 x16627 -1 x16628 >= 0 ;
+2 x16977 +2 x16978 +2 x16979 +2 x16980 -1 x16625 -1 x16626 -1 x16627 -1 x16628 -1 x16629 -1 x16630 -1 x16631 -1 x16632 >= 0 ;
+2 x16981 +2 x16982 +2 x16983 +2 x16984 -1 x16629 -1 x16630 -1 x16631 -1 x16632 -1 x16633 -1 x16634 -1 x16635 -1 x16636 >= 0 ;
+2 x16985 +2 x16986 +2 x16987 +2 x16988 -1 x16633 -1 x16634 -1 x16635 -1 x16636 -1 x16637 -1 x16638 -1 x16639 -1 x16640 >= 0 ;
+2 x16989 +2 x16990 +2 x16991 +2 x16992 -1 x16637 -1 x16638 -1 x16639 -1 x16640 -1 x16641 -1 x16642 -1 x16643 -1 x16644 >= 0 ;
+2 x16993 +2 x16994 +2 x16995 +2 x16996 -1 x16641 -1 x16642 -1 x16643 -1 x16644 -1 x16645 -1 x16646 -1 x16647 -1 x16648 >= 0 ;
+2 x16997 +2 x16998 +2 x16999 +2 x17000 -1 x16645 -1 x16646 -1 x16647 -1 x16648 -1 x16649 -1 x16650 -1 x16651 -1 x16652 >= 0 ;
+2 x17001 +2 x17002 +2 x17003 +2 x17004 -1 x16649 -1 x16650 -1 x16651 -1 x16652 -1 x16653 -1 x16654 -1 x16655 -1 x16656 >= 0 ;
+2 x17005 +2 x17006 +2 x17007 +2 x17008 -1 x16653 -1 x16654 -1 x16655 -1 x16656 -1 x16657 -1 x16658 -1 x16659 -1 x16660 >= 0 ;
+2 x17009 +2 x17010 +2 x17011 +2 x17012 -1 x16657 -1 x16658 -1 x16659 -1 x16660 -1 x16661 -1 x16662 -1 x16663 -1 x16664 >= 0 ;
+2 x17013 +2 x17014 +2 x17015 +2 x17016 -1 x16661 -1 x16662 -1 x16663 -1 x16664 -1 x16665 -1 x16666 -1 x16667 -1 x16668 >= 0 ;
+2 x17017 +2 x17018 +2 x17019 +2 x17020 -1 x16665 -1 x16666 -1 x16667 -1 x16668 -1 x16669 -1 x16670 -1 x16671 -1 x16672 >= 0 ;
+2 x17021 +2 x17022 +2 x17023 +2 x17024 -1 x16669 -1 x16670 -1 x16671 -1 x16672 -1 x16673 -1 x16674 -1 x16675 -1 x16676 >= 0 ;
+2 x17025 +2 x17026 +2 x17027 +2 x17028 -1 x16673 -1 x16674 -1 x16675 -1 x16676 -1 x16677 -1 x16678 -1 x16679 -1 x16680 >= 0 ;
+2 x17029 +2 x17030 +2 x17031 +2 x17032 -1 x16677 -1 x16678 -1 x16679 -1 x16680 -1 x16681 -1 x16682 -1 x16683 -1 x16684 >= 0 ;
+2 x17033 +2 x17034 +2 x17035 +2 x17036 -1 x16681 -1 x16682 -1 x16683 -1 x16684 -1 x16685 -1 x16686 -1 x16687 -1 x16688 >= 0 ;
+2 x17037 +2 x17038 +2 x17039 +2 x17040 -1 x16685 -1 x16686 -1 x16687 -1 x16688 -1 x16689 -1 x16690 -1 x16691 -1 x16692 >= 0 ;
+2 x17041 +2 x17042 +2 x17043 +2 x17044 -1 x16693 -1 x16694 -1 x16695 -1 x16696 -1 x16697 -1 x16698 -1 x16699 -1 x16700 >= 0 ;
+2 x17045 +2 x17046 +2 x17047 +2 x17048 -1 x16697 -1 x16698 -1 x16699 -1 x16700 -1 x16701 -1 x16702 -1 x16703 -1 x16704 >= 0 ;
+2 x17049 +2 x17050 +2 x17051 +2 x17052 -1 x16701 -1 x16702 -1 x16703 -1 x16704 -1 x16705 -1 x16706 -1 x16707 -1 x16708 >= 0 ;
+2 x17053 +2 x17054 +2 x17055 +2 x17056 -1 x16705 -1 x16706 -1 x16707 -1 x16708 -1 x16709 -1 x16710 -1 x16711 -1 x16712 >= 0 ;
+2 x17057 +2 x17058 +2 x17059 +2 x17060 -1 x16709 -1 x16710 -1 x16711 -1 x16712 -1 x16713 -1 x16714 -1 x16715 -1 x16716 >= 0 ;
+2 x17061 +2 x17062 +2 x17063 +2 x17064 -1 x16713 -1 x16714 -1 x16715 -1 x16716 -1 x16717 -1 x16718 -1 x16719 -1 x16720 >= 0 ;
+2 x17065 +2 x17066 +2 x17067 +2 x17068 -1 x16717 -1 x16718 -1 x16719 -1 x16720 -1 x16721 -1 x16722 -1 x16723 -1 x16724 >= 0 ;
+2 x17069 +2 x17070 +2 x17071 +2 x17072 -1 x16721 -1 x16722 -1 x16723 -1 x16724 -1 x16725 -1 x16726 -1 x16727 -1 x16728 >= 0 ;
+2 x17073 +2 x17074 +2 x17075 +2 x17076 -1 x16725 -1 x16726 -1 x16727 -1 x16728 -1 x16729 -1 x16730 -1 x16731 -1 x16732 >= 0 ;
+2 x17077 +2 x17078 +2 x17079 +2 x17080 -1 x16729 -1 x16730 -1 x16731 -1 x16732 -1 x16733 -1 x16734 -1 x16735 -1 x16736 >= 0 ;
+2 x17081 +2 x17082 +2 x17083 +2 x17084 -1 x16733 -1 x16734 -1 x16735 -1 x16736 -1 x16737 -1 x16738 -1 x16739 -1 x16740 >= 0 ;
+2 x17085 +2 x17086 +2 x17087 +2 x17088 -1 x16737 -1 x16738 -1 x16739 -1 x16740 -1 x16741 -1 x16742 -1 x16743 -1 x16744 >= 0 ;
+2 x17089 +2 x17090 +2 x17091 +2 x17092 -1 x16741 -1 x16742 -1 x16743 -1 x16744 -1 x16745 -1 x16746 -1 x16747 -1 x16748 >= 0 ;
+2 x17093 +2 x17094 +2 x17095 +2 x17096 -1 x16745 -1 x16746 -1 x16747 -1 x16748 -1 x16749 -1 x16750 -1 x16751 -1 x16752 >= 0 ;
+2 x17097 +2 x17098 +2 x17099 +2 x17100 -1 x16749 -1 x16750 -1 x16751 -1 x16752 -1 x16753 -1 x16754 -1 x16755 -1 x16756 >= 0 ;
+2 x17101 +2 x17102 +2 x17103 +2 x17104 -1 x16753 -1 x16754 -1 x16755 -1 x16756 -1 x16757 -1 x16758 -1 x16759 -1 x16760 >= 0 ;
+2 x17105 +2 x17106 +2 x17107 +2 x17108 -1 x16757 -1 x16758 -1 x16759 -1 x16760 -1 x16761 -1 x16762 -1 x16763 -1 x16764 >= 0 ;
+2 x17109 +2 x17110 +2 x17111 +2 x17112 -1 x16761 -1 x16762 -1 x16763 -1 x16764 -1 x16765 -1 x16766 -1 x16767 -1 x16768 >= 0 ;
+2 x17113 +2 x17114 +2 x17115 +2 x17116 -1 x16765 -1 x16766 -1 x16767 -1 x16768 -1 x16769 -1 x16770 -1 x16771 -1 x16772 >= 0 ;
+2 x17117 +2 x17118 +2 x17119 +2 x17120 -1 x16769 -1 x16770 -1 x16771 -1 x16772 -1 x16773 -1 x16774 -1 x16775 -1 x16776 >= 0 ;
+2 x17121 +2 x17122 +2 x17123 +2 x17124 -1 x16773 -1 x16774 -1 x16775 -1 x16776 -1 x16777 -1 x16778 -1 x16779 -1 x16780 >= 0 ;
+2 x17125 +2 x17126 +2 x17127 +2 x17128 -1 x16777 -1 x16778 -1 x16779 -1 x16780 -1 x16781 -1 x16782 -1 x16783 -1 x16784 >= 0 ;
+2 x17129 +2 x17130 +2 x17131 +2 x17132 -1 x16781 -1 x16782 -1 x16783 -1 x16784 -1 x16785 -1 x16786 -1 x16787 -1 x16788 >= 0 ;
+2 x17133 +2 x17134 +2 x17135 +2 x17136 -1 x16785 -1 x16786 -1 x16787 -1 x16788 -1 x16789 -1 x16790 -1 x16791 -1 x16792 >= 0 ;
+2 x17137 +2 x17138 +2 x17139 +2 x17140 -1 x16789 -1 x16790 -1 x16791 -1 x16792 -1 x16793 -1 x16794 -1 x16795 -1 x16796 >= 0 ;
+2 x17141 +2 x17142 +2 x17143 +2 x17144 -1 x16793 -1 x16794 -1 x16795 -1 x16796 -1 x16797 -1 x16798 -1 x16799 -1 x16800 >= 0 ;
+2 x17145 +2 x17146 +2 x17147 +2 x17148 -1 x16797 -1 x16798 -1 x16799 -1 x16800 -1 x16801 -1 x16802 -1 x16803 -1 x16804 >= 0 ;
+2 x17149 +2 x17150 +2 x17151 +2 x17152 -1 x16801 -1 x16802 -1 x16803 -1 x16804 -1 x16805 -1 x16806 -1 x16807 -1 x16808 >= 0 ;
+2 x17153 +2 x17154 +2 x17155 +2 x17156 -1 x16805 -1 x16806 -1 x16807 -1 x16808 -1 x16809 -1 x16810 -1 x16811 -1 x16812 >= 0 ;
+2 x17157 +2 x17158 +2 x17159 +2 x17160 -1 x16809 -1 x16810 -1 x16811 -1 x16812 -1 x16813 -1 x16814 -1 x16815 -1 x16816 >= 0 ;
+2 x17161 +2 x17162 +2 x17163 +2 x17164 -1 x16813 -1 x16814 -1 x16815 -1 x16816 -1 x16817 -1 x16818 -1 x16819 -1 x16820 >= 0 ;
+2 x17165 +2 x17166 +2 x17167 +2 x17168 -1 x16817 -1 x16818 -1 x16819 -1 x16820 -1 x16821 -1 x16822 -1 x16823 -1 x16824 >= 0 ;
+2 x17169 +2 x17170 +2 x17171 +2 x17172 -1 x16821 -1 x16822 -1 x16823 -1 x16824 -1 x16825 -1 x16826 -1 x16827 -1 x16828 >= 0 ;
+2 x17173 +2 x17174 +2 x17175 +2 x17176 -1 x16825 -1 x16826 -1 x16827 -1 x16828 -1 x16829 -1 x16830 -1 x16831 -1 x16832 >= 0 ;
+2 x17177 +2 x17178 +2 x17179 +2 x17180 -1 x16829 -1 x16830 -1 x16831 -1 x16832 -1 x16833 -1 x16834 -1 x16835 -1 x16836 >= 0 ;
+2 x17181 +2 x17182 +2 x17183 +2 x17184 -1 x16833 -1 x16834 -1 x16835 -1 x16836 -1 x16837 -1 x16838 -1 x16839 -1 x16840 >= 0 ;
+2 x17185 +2 x17186 +2 x17187 +2 x17188 -1 x16837 -1 x16838 -1 x16839 -1 x16840 -1 x16841 -1 x16842 -1 x16843 -1 x16844 >= 0 ;
+2 x17189 +2 x17190 +2 x17191 +2 x17192 -1 x16841 -1 x16842 -1 x16843 -1 x16844 -1 x16845 -1 x16846 -1 x16847 -1 x16848 >= 0 ;
+2 x17193 +2 x17194 +2 x17195 +2 x17196 -1 x16845 -1 x16846 -1 x16847 -1 x16848 -1 x16849 -1 x16850 -1 x16851 -1 x16852 >= 0 ;
+2 x17197 +2 x17198 +2 x17199 +2 x17200 -1 x16849 -1 x16850 -1 x16851 -1 x16852 -1 x16853 -1 x16854 -1 x16855 -1 x16856 >= 0 ;
+2 x17201 +2 x17202 +2 x17203 +2 x17204 -1 x16853 -1 x16854 -1 x16855 -1 x16856 -1 x16857 -1 x16858 -1 x16859 -1 x16860 >= 0 ;
+2 x17205 +2 x17206 +2 x17207 +2 x17208 -1 x16857 -1 x16858 -1 x16859 -1 x16860 -1 x16861 -1 x16862 -1 x16863 -1 x16864 >= 0 ;
+2 x17209 +2 x17210 +2 x17211 +2 x17212 -1 x16861 -1 x16862 -1 x16863 -1 x16864 -1 x16865 -1 x16866 -1 x16867 -1 x16868 >= 0 ;
+2 x17213 +2 x17214 +2 x17215 +2 x17216 -1 x16865 -1 x16866 -1 x16867 -1 x16868 -1 x16869 -1 x16870 -1 x16871 -1 x16872 >= 0 ;
+2 x17217 +2 x17218 +2 x17219 +2 x17220 -1 x16869 -1 x16870 -1 x16871 -1 x16872 -1 x16873 -1 x16874 -1 x16875 -1 x16876 >= 0 ;
+2 x17221 +2 x17222 +2 x17223 +2 x17224 -1 x16873 -1 x16874 -1 x16875 -1 x16876 -1 x16877 -1 x16878 -1 x16879 -1 x16880 >= 0 ;
+2 x17225 +2 x17226 +2 x17227 +2 x17228 -1 x16877 -1 x16878 -1 x16879 -1 x16880 -1 x16881 -1 x16882 -1 x16883 -1 x16884 >= 0 ;
+2 x17229 +2 x17230 +2 x17231 +2 x17232 -1 x16881 -1 x16882 -1 x16883 -1 x16884 -1 x16885 -1 x16886 -1 x16887 -1 x16888 >= 0 ;
+2 x17233 +2 x17234 +2 x17235 +2 x17236 -1 x16885 -1 x16886 -1 x16887 -1 x16888 -1 x16889 -1 x16890 -1 x16891 -1 x16892 >= 0 ;
+2 x17237 +2 x17238 +2 x17239 +2 x17240 -1 x16889 -1 x16890 -1 x16891 -1 x16892 -1 x16893 -1 x16894 -1 x16895 -1 x16896 >= 0 ;
+2 x17241 +2 x17242 +2 x17243 +2 x17244 -1 x16893 -1 x16894 -1 x16895 -1 x16896 -1 x16897 -1 x16898 -1 x16899 -1 x16900 >= 0 ;
+2 x17245 +2 x17246 +2 x17247 +2 x17248 -1 x16897 -1 x16898 -1 x16899 -1 x16900 -1 x16901 -1 x16902 -1 x16903 -1 x16904 >= 0 ;
+2 x17249 +2 x17250 +2 x17251 +2 x17252 -1 x16901 -1 x16902 -1 x16903 -1 x16904 -1 x16905 -1 x16906 -1 x16907 -1 x16908 >= 0 ;
+2 x17253 +2 x17254 +2 x17255 +2 x17256 -1 x16905 -1 x16906 -1 x16907 -1 x16908 -1 x16909 -1 x16910 -1 x16911 -1 x16912 >= 0 ;
+2 x17257 +2 x17258 +2 x17259 +2 x17260 -1 x16909 -1 x16910 -1 x16911 -1 x16912 -1 x16913 -1 x16914 -1 x16915 -1 x16916 >= 0 ;
+2 x17261 +2 x17262 +2 x17263 +2 x17264 -1 x16913 -1 x16914 -1 x16915 -1 x16916 -1 x16917 -1 x16918 -1 x16919 -1 x16920 >= 0 ;
+2 x17265 +2 x17266 +2 x17267 +2 x17268 -1 x16917 -1 x16918 -1 x16919 -1 x16920 -1 x16921 -1 x16922 -1 x16923 -1 x16924 >= 0 ;
+2 x17269 +2 x17270 +2 x17271 +2 x17272 -1 x16921 -1 x16922 -1 x16923 -1 x16924 -1 x16925 -1 x16926 -1 x16927 -1 x16928 >= 0 ;
+2 x17273 +2 x17274 +2 x17275 +2 x17276 -1 x16925 -1 x16926 -1 x16927 -1 x16928 -1 x16929 -1 x16930 -1 x16931 -1 x16932 >= 0 ;
+2 x17277 +2 x17278 +2 x17279 +2 x17280 -1 x16929 -1 x16930 -1 x16931 -1 x16932 -1 x16933 -1 x16934 -1 x16935 -1 x16936 >= 0 ;
+2 x17281 +2 x17282 +2 x17283 +2 x17284 -1 x16933 -1 x16934 -1 x16935 -1 x16936 -1 x16937 -1 x16938 -1 x16939 -1 x16940 >= 0 ;
+2 x17285 +2 x17286 +2 x17287 +2 x17288 -1 x16937 -1 x16938 -1 x16939 -1 x16940 -1 x16941 -1 x16942 -1 x16943 -1 x16944 >= 0 ;
+2 x17289 +2 x17290 +2 x17291 +2 x17292 -1 x16941 -1 x16942 -1 x16943 -1 x16944 -1 x16945 -1 x16946 -1 x16947 -1 x16948 >= 0 ;
+2 x17293 +2 x17294 +2 x17295 +2 x17296 -1 x16945 -1 x16946 -1 x16947 -1 x16948 -1 x16949 -1 x16950 -1 x16951 -1 x16952 >= 0 ;
+2 x17297 +2 x17298 +2 x17299 +2 x17300 -1 x16949 -1 x16950 -1 x16951 -1 x16952 -1 x16953 -1 x16954 -1 x16955 -1 x16956 >= 0 ;
+2 x17301 +2 x17302 +2 x17303 +2 x17304 -1 x16953 -1 x16954 -1 x16955 -1 x16956 -1 x16957 -1 x16958 -1 x16959 -1 x16960 >= 0 ;
+2 x17305 +2 x17306 +2 x17307 +2 x17308 -1 x16957 -1 x16958 -1 x16959 -1 x16960 -1 x16961 -1 x16962 -1 x16963 -1 x16964 >= 0 ;
+2 x17309 +2 x17310 +2 x17311 +2 x17312 -1 x16961 -1 x16962 -1 x16963 -1 x16964 -1 x16965 -1 x16966 -1 x16967 -1 x16968 >= 0 ;
+2 x17313 +2 x17314 +2 x17315 +2 x17316 -1 x16965 -1 x16966 -1 x16967 -1 x16968 -1 x16969 -1 x16970 -1 x16971 -1 x16972 >= 0 ;
+2 x17317 +2 x17318 +2 x17319 +2 x17320 -1 x16969 -1 x16970 -1 x16971 -1 x16972 -1 x16973 -1 x16974 -1 x16975 -1 x16976 >= 0 ;
+2 x17321 +2 x17322 +2 x17323 +2 x17324 -1 x16973 -1 x16974 -1 x16975 -1 x16976 -1 x16977 -1 x16978 -1 x16979 -1 x16980 >= 0 ;
+2 x17325 +2 x17326 +2 x17327 +2 x17328 -1 x16977 -1 x16978 -1 x16979 -1 x16980 -1 x16981 -1 x16982 -1 x16983 -1 x16984 >= 0 ;
+2 x17329 +2 x17330 +2 x17331 +2 x17332 -1 x16981 -1 x16982 -1 x16983 -1 x16984 -1 x16985 -1 x16986 -1 x16987 -1 x16988 >= 0 ;
+2 x17333 +2 x17334 +2 x17335 +2 x17336 -1 x16985 -1 x16986 -1 x16987 -1 x16988 -1 x16989 -1 x16990 -1 x16991 -1 x16992 >= 0 ;
+2 x17337 +2 x17338 +2 x17339 +2 x17340 -1 x16989 -1 x16990 -1 x16991 -1 x16992 -1 x16993 -1 x16994 -1 x16995 -1 x16996 >= 0 ;
+2 x17341 +2 x17342 +2 x17343 +2 x17344 -1 x16993 -1 x16994 -1 x16995 -1 x16996 -1 x16997 -1 x16998 -1 x16999 -1 x17000 >= 0 ;
+2 x17345 +2 x17346 +2 x17347 +2 x17348 -1 x16997 -1 x16998 -1 x16999 -1 x17000 -1 x17001 -1 x17002 -1 x17003 -1 x17004 >= 0 ;
+2 x17349 +2 x17350 +2 x17351 +2 x17352 -1 x17001 -1 x17002 -1 x17003 -1 x17004 -1 x17005 -1 x17006 -1 x17007 -1 x17008 >= 0 ;
+2 x17353 +2 x17354 +2 x17355 +2 x17356 -1 x17005 -1 x17006 -1 x17007 -1 x17008 -1 x17009 -1 x17010 -1 x17011 -1 x17012 >= 0 ;
+2 x17357 +2 x17358 +2 x17359 +2 x17360 -1 x17009 -1 x17010 -1 x17011 -1 x17012 -1 x17013 -1 x17014 -1 x17015 -1 x17016 >= 0 ;
+2 x17361 +2 x17362 +2 x17363 +2 x17364 -1 x17013 -1 x17014 -1 x17015 -1 x17016 -1 x17017 -1 x17018 -1 x17019 -1 x17020 >= 0 ;
+2 x17365 +2 x17366 +2 x17367 +2 x17368 -1 x17017 -1 x17018 -1 x17019 -1 x17020 -1 x17021 -1 x17022 -1 x17023 -1 x17024 >= 0 ;
+2 x17369 +2 x17370 +2 x17371 +2 x17372 -1 x17021 -1 x17022 -1 x17023 -1 x17024 -1 x17025 -1 x17026 -1 x17027 -1 x17028 >= 0 ;
+2 x17373 +2 x17374 +2 x17375 +2 x17376 -1 x17025 -1 x17026 -1 x17027 -1 x17028 -1 x17029 -1 x17030 -1 x17031 -1 x17032 >= 0 ;
+2 x17377 +2 x17378 +2 x17379 +2 x17380 -1 x17029 -1 x17030 -1 x17031 -1 x17032 -1 x17033 -1 x17034 -1 x17035 -1 x17036 >= 0 ;
+2 x17381 +2 x17382 +2 x17383 +2 x17384 -1 x17033 -1 x17034 -1 x17035 -1 x17036 -1 x17037 -1 x17038 -1 x17039 -1 x17040 >= 0 ;
+2 x17385 +2 x17386 +2 x17387 +2 x17388 -1 x17041 -1 x17042 -1 x17043 -1 x17044 -1 x17045 -1 x17046 -1 x17047 -1 x17048 >= 0 ;
+2 x17389 +2 x17390 +2 x17391 +2 x17392 -1 x17045 -1 x17046 -1 x17047 -1 x17048 -1 x17049 -1 x17050 -1 x17051 -1 x17052 >= 0 ;
+2 x17393 +2 x17394 +2 x17395 +2 x17396 -1 x17049 -1 x17050 -1 x17051 -1 x17052 -1 x17053 -1 x17054 -1 x17055 -1 x17056 >= 0 ;
+2 x17397 +2 x17398 +2 x17399 +2 x17400 -1 x17053 -1 x17054 -1 x17055 -1 x17056 -1 x17057 -1 x17058 -1 x17059 -1 x17060 >= 0 ;
+2 x17401 +2 x17402 +2 x17403 +2 x17404 -1 x17057 -1 x17058 -1 x17059 -1 x17060 -1 x17061 -1 x17062 -1 x17063 -1 x17064 >= 0 ;
+2 x17405 +2 x17406 +2 x17407 +2 x17408 -1 x17061 -1 x17062 -1 x17063 -1 x17064 -1 x17065 -1 x17066 -1 x17067 -1 x17068 >= 0 ;
+2 x17409 +2 x17410 +2 x17411 +2 x17412 -1 x17065 -1 x17066 -1 x17067 -1 x17068 -1 x17069 -1 x17070 -1 x17071 -1 x17072 >= 0 ;
+2 x17413 +2 x17414 +2 x17415 +2 x17416 -1 x17069 -1 x17070 -1 x17071 -1 x17072 -1 x17073 -1 x17074 -1 x17075 -1 x17076 >= 0 ;
+2 x17417 +2 x17418 +2 x17419 +2 x17420 -1 x17073 -1 x17074 -1 x17075 -1 x17076 -1 x17077 -1 x17078 -1 x17079 -1 x17080 >= 0 ;
+2 x17421 +2 x17422 +2 x17423 +2 x17424 -1 x17077 -1 x17078 -1 x17079 -1 x17080 -1 x17081 -1 x17082 -1 x17083 -1 x17084 >= 0 ;
+2 x17425 +2 x17426 +2 x17427 +2 x17428 -1 x17081 -1 x17082 -1 x17083 -1 x17084 -1 x17085 -1 x17086 -1 x17087 -1 x17088 >= 0 ;
+2 x17429 +2 x17430 +2 x17431 +2 x17432 -1 x17085 -1 x17086 -1 x17087 -1 x17088 -1 x17089 -1 x17090 -1 x17091 -1 x17092 >= 0 ;
+2 x17433 +2 x17434 +2 x17435 +2 x17436 -1 x17089 -1 x17090 -1 x17091 -1 x17092 -1 x17093 -1 x17094 -1 x17095 -1 x17096 >= 0 ;
+2 x17437 +2 x17438 +2 x17439 +2 x17440 -1 x17093 -1 x17094 -1 x17095 -1 x17096 -1 x17097 -1 x17098 -1 x17099 -1 x17100 >= 0 ;
+2 x17441 +2 x17442 +2 x17443 +2 x17444 -1 x17097 -1 x17098 -1 x17099 -1 x17100 -1 x17101 -1 x17102 -1 x17103 -1 x17104 >= 0 ;
+2 x17445 +2 x17446 +2 x17447 +2 x17448 -1 x17101 -1 x17102 -1 x17103 -1 x17104 -1 x17105 -1 x17106 -1 x17107 -1 x17108 >= 0 ;
+2 x17449 +2 x17450 +2 x17451 +2 x17452 -1 x17105 -1 x17106 -1 x17107 -1 x17108 -1 x17109 -1 x17110 -1 x17111 -1 x17112 >= 0 ;
+2 x17453 +2 x17454 +2 x17455 +2 x17456 -1 x17109 -1 x17110 -1 x17111 -1 x17112 -1 x17113 -1 x17114 -1 x17115 -1 x17116 >= 0 ;
+2 x17457 +2 x17458 +2 x17459 +2 x17460 -1 x17113 -1 x17114 -1 x17115 -1 x17116 -1 x17117 -1 x17118 -1 x17119 -1 x17120 >= 0 ;
+2 x17461 +2 x17462 +2 x17463 +2 x17464 -1 x17117 -1 x17118 -1 x17119 -1 x17120 -1 x17121 -1 x17122 -1 x17123 -1 x17124 >= 0 ;
+2 x17465 +2 x17466 +2 x17467 +2 x17468 -1 x17121 -1 x17122 -1 x17123 -1 x17124 -1 x17125 -1 x17126 -1 x17127 -1 x17128 >= 0 ;
+2 x17469 +2 x17470 +2 x17471 +2 x17472 -1 x17125 -1 x17126 -1 x17127 -1 x17128 -1 x17129 -1 x17130 -1 x17131 -1 x17132 >= 0 ;
+2 x17473 +2 x17474 +2 x17475 +2 x17476 -1 x17129 -1 x17130 -1 x17131 -1 x17132 -1 x17133 -1 x17134 -1 x17135 -1 x17136 >= 0 ;
+2 x17477 +2 x17478 +2 x17479 +2 x17480 -1 x17133 -1 x17134 -1 x17135 -1 x17136 -1 x17137 -1 x17138 -1 x17139 -1 x17140 >= 0 ;
+2 x17481 +2 x17482 +2 x17483 +2 x17484 -1 x17137 -1 x17138 -1 x17139 -1 x17140 -1 x17141 -1 x17142 -1 x17143 -1 x17144 >= 0 ;
+2 x17485 +2 x17486 +2 x17487 +2 x17488 -1 x17141 -1 x17142 -1 x17143 -1 x17144 -1 x17145 -1 x17146 -1 x17147 -1 x17148 >= 0 ;
+2 x17489 +2 x17490 +2 x17491 +2 x17492 -1 x17145 -1 x17146 -1 x17147 -1 x17148 -1 x17149 -1 x17150 -1 x17151 -1 x17152 >= 0 ;
+2 x17493 +2 x17494 +2 x17495 +2 x17496 -1 x17149 -1 x17150 -1 x17151 -1 x17152 -1 x17153 -1 x17154 -1 x17155 -1 x17156 >= 0 ;
+2 x17497 +2 x17498 +2 x17499 +2 x17500 -1 x17153 -1 x17154 -1 x17155 -1 x17156 -1 x17157 -1 x17158 -1 x17159 -1 x17160 >= 0 ;
+2 x17501 +2 x17502 +2 x17503 +2 x17504 -1 x17157 -1 x17158 -1 x17159 -1 x17160 -1 x17161 -1 x17162 -1 x17163 -1 x17164 >= 0 ;
+2 x17505 +2 x17506 +2 x17507 +2 x17508 -1 x17161 -1 x17162 -1 x17163 -1 x17164 -1 x17165 -1 x17166 -1 x17167 -1 x17168 >= 0 ;
+2 x17509 +2 x17510 +2 x17511 +2 x17512 -1 x17165 -1 x17166 -1 x17167 -1 x17168 -1 x17169 -1 x17170 -1 x17171 -1 x17172 >= 0 ;
+2 x17513 +2 x17514 +2 x17515 +2 x17516 -1 x17169 -1 x17170 -1 x17171 -1 x17172 -1 x17173 -1 x17174 -1 x17175 -1 x17176 >= 0 ;
+2 x17517 +2 x17518 +2 x17519 +2 x17520 -1 x17173 -1 x17174 -1 x17175 -1 x17176 -1 x17177 -1 x17178 -1 x17179 -1 x17180 >= 0 ;
+2 x17521 +2 x17522 +2 x17523 +2 x17524 -1 x17177 -1 x17178 -1 x17179 -1 x17180 -1 x17181 -1 x17182 -1 x17183 -1 x17184 >= 0 ;
+2 x17525 +2 x17526 +2 x17527 +2 x17528 -1 x17181 -1 x17182 -1 x17183 -1 x17184 -1 x17185 -1 x17186 -1 x17187 -1 x17188 >= 0 ;
+2 x17529 +2 x17530 +2 x17531 +2 x17532 -1 x17185 -1 x17186 -1 x17187 -1 x17188 -1 x17189 -1 x17190 -1 x17191 -1 x17192 >= 0 ;
+2 x17533 +2 x17534 +2 x17535 +2 x17536 -1 x17189 -1 x17190 -1 x17191 -1 x17192 -1 x17193 -1 x17194 -1 x17195 -1 x17196 >= 0 ;
+2 x17537 +2 x17538 +2 x17539 +2 x17540 -1 x17193 -1 x17194 -1 x17195 -1 x17196 -1 x17197 -1 x17198 -1 x17199 -1 x17200 >= 0 ;
+2 x17541 +2 x17542 +2 x17543 +2 x17544 -1 x17197 -1 x17198 -1 x17199 -1 x17200 -1 x17201 -1 x17202 -1 x17203 -1 x17204 >= 0 ;
+2 x17545 +2 x17546 +2 x17547 +2 x17548 -1 x17201 -1 x17202 -1 x17203 -1 x17204 -1 x17205 -1 x17206 -1 x17207 -1 x17208 >= 0 ;
+2 x17549 +2 x17550 +2 x17551 +2 x17552 -1 x17205 -1 x17206 -1 x17207 -1 x17208 -1 x17209 -1 x17210 -1 x17211 -1 x17212 >= 0 ;
+2 x17553 +2 x17554 +2 x17555 +2 x17556 -1 x17209 -1 x17210 -1 x17211 -1 x17212 -1 x17213 -1 x17214 -1 x17215 -1 x17216 >= 0 ;
+2 x17557 +2 x17558 +2 x17559 +2 x17560 -1 x17213 -1 x17214 -1 x17215 -1 x17216 -1 x17217 -1 x17218 -1 x17219 -1 x17220 >= 0 ;
+2 x17561 +2 x17562 +2 x17563 +2 x17564 -1 x17217 -1 x17218 -1 x17219 -1 x17220 -1 x17221 -1 x17222 -1 x17223 -1 x17224 >= 0 ;
+2 x17565 +2 x17566 +2 x17567 +2 x17568 -1 x17221 -1 x17222 -1 x17223 -1 x17224 -1 x17225 -1 x17226 -1 x17227 -1 x17228 >= 0 ;
+2 x17569 +2 x17570 +2 x17571 +2 x17572 -1 x17225 -1 x17226 -1 x17227 -1 x17228 -1 x17229 -1 x17230 -1 x17231 -1 x17232 >= 0 ;
+2 x17573 +2 x17574 +2 x17575 +2 x17576 -1 x17229 -1 x17230 -1 x17231 -1 x17232 -1 x17233 -1 x17234 -1 x17235 -1 x17236 >= 0 ;
+2 x17577 +2 x17578 +2 x17579 +2 x17580 -1 x17233 -1 x17234 -1 x17235 -1 x17236 -1 x17237 -1 x17238 -1 x17239 -1 x17240 >= 0 ;
+2 x17581 +2 x17582 +2 x17583 +2 x17584 -1 x17237 -1 x17238 -1 x17239 -1 x17240 -1 x17241 -1 x17242 -1 x17243 -1 x17244 >= 0 ;
+2 x17585 +2 x17586 +2 x17587 +2 x17588 -1 x17241 -1 x17242 -1 x17243 -1 x17244 -1 x17245 -1 x17246 -1 x17247 -1 x17248 >= 0 ;
+2 x17589 +2 x17590 +2 x17591 +2 x17592 -1 x17245 -1 x17246 -1 x17247 -1 x17248 -1 x17249 -1 x17250 -1 x17251 -1 x17252 >= 0 ;
+2 x17593 +2 x17594 +2 x17595 +2 x17596 -1 x17249 -1 x17250 -1 x17251 -1 x17252 -1 x17253 -1 x17254 -1 x17255 -1 x17256 >= 0 ;
+2 x17597 +2 x17598 +2 x17599 +2 x17600 -1 x17253 -1 x17254 -1 x17255 -1 x17256 -1 x17257 -1 x17258 -1 x17259 -1 x17260 >= 0 ;
+2 x17601 +2 x17602 +2 x17603 +2 x17604 -1 x17257 -1 x17258 -1 x17259 -1 x17260 -1 x17261 -1 x17262 -1 x17263 -1 x17264 >= 0 ;
+2 x17605 +2 x17606 +2 x17607 +2 x17608 -1 x17261 -1 x17262 -1 x17263 -1 x17264 -1 x17265 -1 x17266 -1 x17267 -1 x17268 >= 0 ;
+2 x17609 +2 x17610 +2 x17611 +2 x17612 -1 x17265 -1 x17266 -1 x17267 -1 x17268 -1 x17269 -1 x17270 -1 x17271 -1 x17272 >= 0 ;
+2 x17613 +2 x17614 +2 x17615 +2 x17616 -1 x17269 -1 x17270 -1 x17271 -1 x17272 -1 x17273 -1 x17274 -1 x17275 -1 x17276 >= 0 ;
+2 x17617 +2 x17618 +2 x17619 +2 x17620 -1 x17273 -1 x17274 -1 x17275 -1 x17276 -1 x17277 -1 x17278 -1 x17279 -1 x17280 >= 0 ;
+2 x17621 +2 x17622 +2 x17623 +2 x17624 -1 x17277 -1 x17278 -1 x17279 -1 x17280 -1 x17281 -1 x17282 -1 x17283 -1 x17284 >= 0 ;
+2 x17625 +2 x17626 +2 x17627 +2 x17628 -1 x17281 -1 x17282 -1 x17283 -1 x17284 -1 x17285 -1 x17286 -1 x17287 -1 x17288 >= 0 ;
+2 x17629 +2 x17630 +2 x17631 +2 x17632 -1 x17285 -1 x17286 -1 x17287 -1 x17288 -1 x17289 -1 x17290 -1 x17291 -1 x17292 >= 0 ;
+2 x17633 +2 x17634 +2 x17635 +2 x17636 -1 x17289 -1 x17290 -1 x17291 -1 x17292 -1 x17293 -1 x17294 -1 x17295 -1 x17296 >= 0 ;
+2 x17637 +2 x17638 +2 x17639 +2 x17640 -1 x17293 -1 x17294 -1 x17295 -1 x17296 -1 x17297 -1 x17298 -1 x17299 -1 x17300 >= 0 ;
+2 x17641 +2 x17642 +2 x17643 +2 x17644 -1 x17297 -1 x17298 -1 x17299 -1 x17300 -1 x17301 -1 x17302 -1 x17303 -1 x17304 >= 0 ;
+2 x17645 +2 x17646 +2 x17647 +2 x17648 -1 x17301 -1 x17302 -1 x17303 -1 x17304 -1 x17305 -1 x17306 -1 x17307 -1 x17308 >= 0 ;
+2 x17649 +2 x17650 +2 x17651 +2 x17652 -1 x17305 -1 x17306 -1 x17307 -1 x17308 -1 x17309 -1 x17310 -1 x17311 -1 x17312 >= 0 ;
+2 x17653 +2 x17654 +2 x17655 +2 x17656 -1 x17309 -1 x17310 -1 x17311 -1 x17312 -1 x17313 -1 x17314 -1 x17315 -1 x17316 >= 0 ;
+2 x17657 +2 x17658 +2 x17659 +2 x17660 -1 x17313 -1 x17314 -1 x17315 -1 x17316 -1 x17317 -1 x17318 -1 x17319 -1 x17320 >= 0 ;
+2 x17661 +2 x17662 +2 x17663 +2 x17664 -1 x17317 -1 x17318 -1 x17319 -1 x17320 -1 x17321 -1 x17322 -1 x17323 -1 x17324 >= 0 ;
+2 x17665 +2 x17666 +2 x17667 +2 x17668 -1 x17321 -1 x17322 -1 x17323 -1 x17324 -1 x17325 -1 x17326 -1 x17327 -1 x17328 >= 0 ;
+2 x17669 +2 x17670 +2 x17671 +2 x17672 -1 x17325 -1 x17326 -1 x17327 -1 x17328 -1 x17329 -1 x17330 -1 x17331 -1 x17332 >= 0 ;
+2 x17673 +2 x17674 +2 x17675 +2 x17676 -1 x17329 -1 x17330 -1 x17331 -1 x17332 -1 x17333 -1 x17334 -1 x17335 -1 x17336 >= 0 ;
+2 x17677 +2 x17678 +2 x17679 +2 x17680 -1 x17333 -1 x17334 -1 x17335 -1 x17336 -1 x17337 -1 x17338 -1 x17339 -1 x17340 >= 0 ;
+2 x17681 +2 x17682 +2 x17683 +2 x17684 -1 x17337 -1 x17338 -1 x17339 -1 x17340 -1 x17341 -1 x17342 -1 x17343 -1 x17344 >= 0 ;
+2 x17685 +2 x17686 +2 x17687 +2 x17688 -1 x17341 -1 x17342 -1 x17343 -1 x17344 -1 x17345 -1 x17346 -1 x17347 -1 x17348 >= 0 ;
+2 x17689 +2 x17690 +2 x17691 +2 x17692 -1 x17345 -1 x17346 -1 x17347 -1 x17348 -1 x17349 -1 x17350 -1 x17351 -1 x17352 >= 0 ;
+2 x17693 +2 x17694 +2 x17695 +2 x17696 -1 x17349 -1 x17350 -1 x17351 -1 x17352 -1 x17353 -1 x17354 -1 x17355 -1 x17356 >= 0 ;
+2 x17697 +2 x17698 +2 x17699 +2 x17700 -1 x17353 -1 x17354 -1 x17355 -1 x17356 -1 x17357 -1 x17358 -1 x17359 -1 x17360 >= 0 ;
+2 x17701 +2 x17702 +2 x17703 +2 x17704 -1 x17357 -1 x17358 -1 x17359 -1 x17360 -1 x17361 -1 x17362 -1 x17363 -1 x17364 >= 0 ;
+2 x17705 +2 x17706 +2 x17707 +2 x17708 -1 x17361 -1 x17362 -1 x17363 -1 x17364 -1 x17365 -1 x17366 -1 x17367 -1 x17368 >= 0 ;
+2 x17709 +2 x17710 +2 x17711 +2 x17712 -1 x17365 -1 x17366 -1 x17367 -1 x17368 -1 x17369 -1 x17370 -1 x17371 -1 x17372 >= 0 ;
+2 x17713 +2 x17714 +2 x17715 +2 x17716 -1 x17369 -1 x17370 -1 x17371 -1 x17372 -1 x17373 -1 x17374 -1 x17375 -1 x17376 >= 0 ;
+2 x17717 +2 x17718 +2 x17719 +2 x17720 -1 x17373 -1 x17374 -1 x17375 -1 x17376 -1 x17377 -1 x17378 -1 x17379 -1 x17380 >= 0 ;
+2 x17721 +2 x17722 +2 x17723 +2 x17724 -1 x17377 -1 x17378 -1 x17379 -1 x17380 -1 x17381 -1 x17382 -1 x17383 -1 x17384 >= 0 ;
+2 x17725 +2 x17726 +2 x17727 +2 x17728 -1 x17385 -1 x17386 -1 x17387 -1 x17388 -1 x17389 -1 x17390 -1 x17391 -1 x17392 >= 0 ;
+2 x17729 +2 x17730 +2 x17731 +2 x17732 -1 x17389 -1 x17390 -1 x17391 -1 x17392 -1 x17393 -1 x17394 -1 x17395 -1 x17396 >= 0 ;
+2 x17733 +2 x17734 +2 x17735 +2 x17736 -1 x17393 -1 x17394 -1 x17395 -1 x17396 -1 x17397 -1 x17398 -1 x17399 -1 x17400 >= 0 ;
+2 x17737 +2 x17738 +2 x17739 +2 x17740 -1 x17397 -1 x17398 -1 x17399 -1 x17400 -1 x17401 -1 x17402 -1 x17403 -1 x17404 >= 0 ;
+2 x17741 +2 x17742 +2 x17743 +2 x17744 -1 x17401 -1 x17402 -1 x17403 -1 x17404 -1 x17405 -1 x17406 -1 x17407 -1 x17408 >= 0 ;
+2 x17745 +2 x17746 +2 x17747 +2 x17748 -1 x17405 -1 x17406 -1 x17407 -1 x17408 -1 x17409 -1 x17410 -1 x17411 -1 x17412 >= 0 ;
+2 x17749 +2 x17750 +2 x17751 +2 x17752 -1 x17409 -1 x17410 -1 x17411 -1 x17412 -1 x17413 -1 x17414 -1 x17415 -1 x17416 >= 0 ;
+2 x17753 +2 x17754 +2 x17755 +2 x17756 -1 x17413 -1 x17414 -1 x17415 -1 x17416 -1 x17417 -1 x17418 -1 x17419 -1 x17420 >= 0 ;
+2 x17757 +2 x17758 +2 x17759 +2 x17760 -1 x17417 -1 x17418 -1 x17419 -1 x17420 -1 x17421 -1 x17422 -1 x17423 -1 x17424 >= 0 ;
+2 x17761 +2 x17762 +2 x17763 +2 x17764 -1 x17421 -1 x17422 -1 x17423 -1 x17424 -1 x17425 -1 x17426 -1 x17427 -1 x17428 >= 0 ;
+2 x17765 +2 x17766 +2 x17767 +2 x17768 -1 x17425 -1 x17426 -1 x17427 -1 x17428 -1 x17429 -1 x17430 -1 x17431 -1 x17432 >= 0 ;
+2 x17769 +2 x17770 +2 x17771 +2 x17772 -1 x17429 -1 x17430 -1 x17431 -1 x17432 -1 x17433 -1 x17434 -1 x17435 -1 x17436 >= 0 ;
+2 x17773 +2 x17774 +2 x17775 +2 x17776 -1 x17433 -1 x17434 -1 x17435 -1 x17436 -1 x17437 -1 x17438 -1 x17439 -1 x17440 >= 0 ;
+2 x17777 +2 x17778 +2 x17779 +2 x17780 -1 x17437 -1 x17438 -1 x17439 -1 x17440 -1 x17441 -1 x17442 -1 x17443 -1 x17444 >= 0 ;
+2 x17781 +2 x17782 +2 x17783 +2 x17784 -1 x17441 -1 x17442 -1 x17443 -1 x17444 -1 x17445 -1 x17446 -1 x17447 -1 x17448 >= 0 ;
+2 x17785 +2 x17786 +2 x17787 +2 x17788 -1 x17445 -1 x17446 -1 x17447 -1 x17448 -1 x17449 -1 x17450 -1 x17451 -1 x17452 >= 0 ;
+2 x17789 +2 x17790 +2 x17791 +2 x17792 -1 x17449 -1 x17450 -1 x17451 -1 x17452 -1 x17453 -1 x17454 -1 x17455 -1 x17456 >= 0 ;
+2 x17793 +2 x17794 +2 x17795 +2 x17796 -1 x17453 -1 x17454 -1 x17455 -1 x17456 -1 x17457 -1 x17458 -1 x17459 -1 x17460 >= 0 ;
+2 x17797 +2 x17798 +2 x17799 +2 x17800 -1 x17457 -1 x17458 -1 x17459 -1 x17460 -1 x17461 -1 x17462 -1 x17463 -1 x17464 >= 0 ;
+2 x17801 +2 x17802 +2 x17803 +2 x17804 -1 x17461 -1 x17462 -1 x17463 -1 x17464 -1 x17465 -1 x17466 -1 x17467 -1 x17468 >= 0 ;
+2 x17805 +2 x17806 +2 x17807 +2 x17808 -1 x17465 -1 x17466 -1 x17467 -1 x17468 -1 x17469 -1 x17470 -1 x17471 -1 x17472 >= 0 ;
+2 x17809 +2 x17810 +2 x17811 +2 x17812 -1 x17469 -1 x17470 -1 x17471 -1 x17472 -1 x17473 -1 x17474 -1 x17475 -1 x17476 >= 0 ;
+2 x17813 +2 x17814 +2 x17815 +2 x17816 -1 x17473 -1 x17474 -1 x17475 -1 x17476 -1 x17477 -1 x17478 -1 x17479 -1 x17480 >= 0 ;
+2 x17817 +2 x17818 +2 x17819 +2 x17820 -1 x17477 -1 x17478 -1 x17479 -1 x17480 -1 x17481 -1 x17482 -1 x17483 -1 x17484 >= 0 ;
+2 x17821 +2 x17822 +2 x17823 +2 x17824 -1 x17481 -1 x17482 -1 x17483 -1 x17484 -1 x17485 -1 x17486 -1 x17487 -1 x17488 >= 0 ;
+2 x17825 +2 x17826 +2 x17827 +2 x17828 -1 x17485 -1 x17486 -1 x17487 -1 x17488 -1 x17489 -1 x17490 -1 x17491 -1 x17492 >= 0 ;
+2 x17829 +2 x17830 +2 x17831 +2 x17832 -1 x17489 -1 x17490 -1 x17491 -1 x17492 -1 x17493 -1 x17494 -1 x17495 -1 x17496 >= 0 ;
+2 x17833 +2 x17834 +2 x17835 +2 x17836 -1 x17493 -1 x17494 -1 x17495 -1 x17496 -1 x17497 -1 x17498 -1 x17499 -1 x17500 >= 0 ;
+2 x17837 +2 x17838 +2 x17839 +2 x17840 -1 x17497 -1 x17498 -1 x17499 -1 x17500 -1 x17501 -1 x17502 -1 x17503 -1 x17504 >= 0 ;
+2 x17841 +2 x17842 +2 x17843 +2 x17844 -1 x17501 -1 x17502 -1 x17503 -1 x17504 -1 x17505 -1 x17506 -1 x17507 -1 x17508 >= 0 ;
+2 x17845 +2 x17846 +2 x17847 +2 x17848 -1 x17505 -1 x17506 -1 x17507 -1 x17508 -1 x17509 -1 x17510 -1 x17511 -1 x17512 >= 0 ;
+2 x17849 +2 x17850 +2 x17851 +2 x17852 -1 x17509 -1 x17510 -1 x17511 -1 x17512 -1 x17513 -1 x17514 -1 x17515 -1 x17516 >= 0 ;
+2 x17853 +2 x17854 +2 x17855 +2 x17856 -1 x17513 -1 x17514 -1 x17515 -1 x17516 -1 x17517 -1 x17518 -1 x17519 -1 x17520 >= 0 ;
+2 x17857 +2 x17858 +2 x17859 +2 x17860 -1 x17517 -1 x17518 -1 x17519 -1 x17520 -1 x17521 -1 x17522 -1 x17523 -1 x17524 >= 0 ;
+2 x17861 +2 x17862 +2 x17863 +2 x17864 -1 x17521 -1 x17522 -1 x17523 -1 x17524 -1 x17525 -1 x17526 -1 x17527 -1 x17528 >= 0 ;
+2 x17865 +2 x17866 +2 x17867 +2 x17868 -1 x17525 -1 x17526 -1 x17527 -1 x17528 -1 x17529 -1 x17530 -1 x17531 -1 x17532 >= 0 ;
+2 x17869 +2 x17870 +2 x17871 +2 x17872 -1 x17529 -1 x17530 -1 x17531 -1 x17532 -1 x17533 -1 x17534 -1 x17535 -1 x17536 >= 0 ;
+2 x17873 +2 x17874 +2 x17875 +2 x17876 -1 x17533 -1 x17534 -1 x17535 -1 x17536 -1 x17537 -1 x17538 -1 x17539 -1 x17540 >= 0 ;
+2 x17877 +2 x17878 +2 x17879 +2 x17880 -1 x17537 -1 x17538 -1 x17539 -1 x17540 -1 x17541 -1 x17542 -1 x17543 -1 x17544 >= 0 ;
+2 x17881 +2 x17882 +2 x17883 +2 x17884 -1 x17541 -1 x17542 -1 x17543 -1 x17544 -1 x17545 -1 x17546 -1 x17547 -1 x17548 >= 0 ;
+2 x17885 +2 x17886 +2 x17887 +2 x17888 -1 x17545 -1 x17546 -1 x17547 -1 x17548 -1 x17549 -1 x17550 -1 x17551 -1 x17552 >= 0 ;
+2 x17889 +2 x17890 +2 x17891 +2 x17892 -1 x17549 -1 x17550 -1 x17551 -1 x17552 -1 x17553 -1 x17554 -1 x17555 -1 x17556 >= 0 ;
+2 x17893 +2 x17894 +2 x17895 +2 x17896 -1 x17553 -1 x17554 -1 x17555 -1 x17556 -1 x17557 -1 x17558 -1 x17559 -1 x17560 >= 0 ;
+2 x17897 +2 x17898 +2 x17899 +2 x17900 -1 x17557 -1 x17558 -1 x17559 -1 x17560 -1 x17561 -1 x17562 -1 x17563 -1 x17564 >= 0 ;
+2 x17901 +2 x17902 +2 x17903 +2 x17904 -1 x17561 -1 x17562 -1 x17563 -1 x17564 -1 x17565 -1 x17566 -1 x17567 -1 x17568 >= 0 ;
+2 x17905 +2 x17906 +2 x17907 +2 x17908 -1 x17565 -1 x17566 -1 x17567 -1 x17568 -1 x17569 -1 x17570 -1 x17571 -1 x17572 >= 0 ;
+2 x17909 +2 x17910 +2 x17911 +2 x17912 -1 x17569 -1 x17570 -1 x17571 -1 x17572 -1 x17573 -1 x17574 -1 x17575 -1 x17576 >= 0 ;
+2 x17913 +2 x17914 +2 x17915 +2 x17916 -1 x17573 -1 x17574 -1 x17575 -1 x17576 -1 x17577 -1 x17578 -1 x17579 -1 x17580 >= 0 ;
+2 x17917 +2 x17918 +2 x17919 +2 x17920 -1 x17577 -1 x17578 -1 x17579 -1 x17580 -1 x17581 -1 x17582 -1 x17583 -1 x17584 >= 0 ;
+2 x17921 +2 x17922 +2 x17923 +2 x17924 -1 x17581 -1 x17582 -1 x17583 -1 x17584 -1 x17585 -1 x17586 -1 x17587 -1 x17588 >= 0 ;
+2 x17925 +2 x17926 +2 x17927 +2 x17928 -1 x17585 -1 x17586 -1 x17587 -1 x17588 -1 x17589 -1 x17590 -1 x17591 -1 x17592 >= 0 ;
+2 x17929 +2 x17930 +2 x17931 +2 x17932 -1 x17589 -1 x17590 -1 x17591 -1 x17592 -1 x17593 -1 x17594 -1 x17595 -1 x17596 >= 0 ;
+2 x17933 +2 x17934 +2 x17935 +2 x17936 -1 x17593 -1 x17594 -1 x17595 -1 x17596 -1 x17597 -1 x17598 -1 x17599 -1 x17600 >= 0 ;
+2 x17937 +2 x17938 +2 x17939 +2 x17940 -1 x17597 -1 x17598 -1 x17599 -1 x17600 -1 x17601 -1 x17602 -1 x17603 -1 x17604 >= 0 ;
+2 x17941 +2 x17942 +2 x17943 +2 x17944 -1 x17601 -1 x17602 -1 x17603 -1 x17604 -1 x17605 -1 x17606 -1 x17607 -1 x17608 >= 0 ;
+2 x17945 +2 x17946 +2 x17947 +2 x17948 -1 x17605 -1 x17606 -1 x17607 -1 x17608 -1 x17609 -1 x17610 -1 x17611 -1 x17612 >= 0 ;
+2 x17949 +2 x17950 +2 x17951 +2 x17952 -1 x17609 -1 x17610 -1 x17611 -1 x17612 -1 x17613 -1 x17614 -1 x17615 -1 x17616 >= 0 ;
+2 x17953 +2 x17954 +2 x17955 +2 x17956 -1 x17613 -1 x17614 -1 x17615 -1 x17616 -1 x17617 -1 x17618 -1 x17619 -1 x17620 >= 0 ;
+2 x17957 +2 x17958 +2 x17959 +2 x17960 -1 x17617 -1 x17618 -1 x17619 -1 x17620 -1 x17621 -1 x17622 -1 x17623 -1 x17624 >= 0 ;
+2 x17961 +2 x17962 +2 x17963 +2 x17964 -1 x17621 -1 x17622 -1 x17623 -1 x17624 -1 x17625 -1 x17626 -1 x17627 -1 x17628 >= 0 ;
+2 x17965 +2 x17966 +2 x17967 +2 x17968 -1 x17625 -1 x17626 -1 x17627 -1 x17628 -1 x17629 -1 x17630 -1 x17631 -1 x17632 >= 0 ;
+2 x17969 +2 x17970 +2 x17971 +2 x17972 -1 x17629 -1 x17630 -1 x17631 -1 x17632 -1 x17633 -1 x17634 -1 x17635 -1 x17636 >= 0 ;
+2 x17973 +2 x17974 +2 x17975 +2 x17976 -1 x17633 -1 x17634 -1 x17635 -1 x17636 -1 x17637 -1 x17638 -1 x17639 -1 x17640 >= 0 ;
+2 x17977 +2 x17978 +2 x17979 +2 x17980 -1 x17637 -1 x17638 -1 x17639 -1 x17640 -1 x17641 -1 x17642 -1 x17643 -1 x17644 >= 0 ;
+2 x17981 +2 x17982 +2 x17983 +2 x17984 -1 x17641 -1 x17642 -1 x17643 -1 x17644 -1 x17645 -1 x17646 -1 x17647 -1 x17648 >= 0 ;
+2 x17985 +2 x17986 +2 x17987 +2 x17988 -1 x17645 -1 x17646 -1 x17647 -1 x17648 -1 x17649 -1 x17650 -1 x17651 -1 x17652 >= 0 ;
+2 x17989 +2 x17990 +2 x17991 +2 x17992 -1 x17649 -1 x17650 -1 x17651 -1 x17652 -1 x17653 -1 x17654 -1 x17655 -1 x17656 >= 0 ;
+2 x17993 +2 x17994 +2 x17995 +2 x17996 -1 x17653 -1 x17654 -1 x17655 -1 x17656 -1 x17657 -1 x17658 -1 x17659 -1 x17660 >= 0 ;
+2 x17997 +2 x17998 +2 x17999 +2 x18000 -1 x17657 -1 x17658 -1 x17659 -1 x17660 -1 x17661 -1 x17662 -1 x17663 -1 x17664 >= 0 ;
+2 x18001 +2 x18002 +2 x18003 +2 x18004 -1 x17661 -1 x17662 -1 x17663 -1 x17664 -1 x17665 -1 x17666 -1 x17667 -1 x17668 >= 0 ;
+2 x18005 +2 x18006 +2 x18007 +2 x18008 -1 x17665 -1 x17666 -1 x17667 -1 x17668 -1 x17669 -1 x17670 -1 x17671 -1 x17672 >= 0 ;
+2 x18009 +2 x18010 +2 x18011 +2 x18012 -1 x17669 -1 x17670 -1 x17671 -1 x17672 -1 x17673 -1 x17674 -1 x17675 -1 x17676 >= 0 ;
+2 x18013 +2 x18014 +2 x18015 +2 x18016 -1 x17673 -1 x17674 -1 x17675 -1 x17676 -1 x17677 -1 x17678 -1 x17679 -1 x17680 >= 0 ;
+2 x18017 +2 x18018 +2 x18019 +2 x18020 -1 x17677 -1 x17678 -1 x17679 -1 x17680 -1 x17681 -1 x17682 -1 x17683 -1 x17684 >= 0 ;
+2 x18021 +2 x18022 +2 x18023 +2 x18024 -1 x17681 -1 x17682 -1 x17683 -1 x17684 -1 x17685 -1 x17686 -1 x17687 -1 x17688 >= 0 ;
+2 x18025 +2 x18026 +2 x18027 +2 x18028 -1 x17685 -1 x17686 -1 x17687 -1 x17688 -1 x17689 -1 x17690 -1 x17691 -1 x17692 >= 0 ;
+2 x18029 +2 x18030 +2 x18031 +2 x18032 -1 x17689 -1 x17690 -1 x17691 -1 x17692 -1 x17693 -1 x17694 -1 x17695 -1 x17696 >= 0 ;
+2 x18033 +2 x18034 +2 x18035 +2 x18036 -1 x17693 -1 x17694 -1 x17695 -1 x17696 -1 x17697 -1 x17698 -1 x17699 -1 x17700 >= 0 ;
+2 x18037 +2 x18038 +2 x18039 +2 x18040 -1 x17697 -1 x17698 -1 x17699 -1 x17700 -1 x17701 -1 x17702 -1 x17703 -1 x17704 >= 0 ;
+2 x18041 +2 x18042 +2 x18043 +2 x18044 -1 x17701 -1 x17702 -1 x17703 -1 x17704 -1 x17705 -1 x17706 -1 x17707 -1 x17708 >= 0 ;
+2 x18045 +2 x18046 +2 x18047 +2 x18048 -1 x17705 -1 x17706 -1 x17707 -1 x17708 -1 x17709 -1 x17710 -1 x17711 -1 x17712 >= 0 ;
+2 x18049 +2 x18050 +2 x18051 +2 x18052 -1 x17709 -1 x17710 -1 x17711 -1 x17712 -1 x17713 -1 x17714 -1 x17715 -1 x17716 >= 0 ;
+2 x18053 +2 x18054 +2 x18055 +2 x18056 -1 x17713 -1 x17714 -1 x17715 -1 x17716 -1 x17717 -1 x17718 -1 x17719 -1 x17720 >= 0 ;
+2 x18057 +2 x18058 +2 x18059 +2 x18060 -1 x17717 -1 x17718 -1 x17719 -1 x17720 -1 x17721 -1 x17722 -1 x17723 -1 x17724 >= 0 ;
+2 x18061 +2 x18062 +2 x18063 +2 x18064 -1 x17725 -1 x17726 -1 x17727 -1 x17728 -1 x17729 -1 x17730 -1 x17731 -1 x17732 >= 0 ;
+2 x18065 +2 x18066 +2 x18067 +2 x18068 -1 x17729 -1 x17730 -1 x17731 -1 x17732 -1 x17733 -1 x17734 -1 x17735 -1 x17736 >= 0 ;
+2 x18069 +2 x18070 +2 x18071 +2 x18072 -1 x17733 -1 x17734 -1 x17735 -1 x17736 -1 x17737 -1 x17738 -1 x17739 -1 x17740 >= 0 ;
+2 x18073 +2 x18074 +2 x18075 +2 x18076 -1 x17737 -1 x17738 -1 x17739 -1 x17740 -1 x17741 -1 x17742 -1 x17743 -1 x17744 >= 0 ;
+2 x18077 +2 x18078 +2 x18079 +2 x18080 -1 x17741 -1 x17742 -1 x17743 -1 x17744 -1 x17745 -1 x17746 -1 x17747 -1 x17748 >= 0 ;
+2 x18081 +2 x18082 +2 x18083 +2 x18084 -1 x17745 -1 x17746 -1 x17747 -1 x17748 -1 x17749 -1 x17750 -1 x17751 -1 x17752 >= 0 ;
+2 x18085 +2 x18086 +2 x18087 +2 x18088 -1 x17749 -1 x17750 -1 x17751 -1 x17752 -1 x17753 -1 x17754 -1 x17755 -1 x17756 >= 0 ;
+2 x18089 +2 x18090 +2 x18091 +2 x18092 -1 x17753 -1 x17754 -1 x17755 -1 x17756 -1 x17757 -1 x17758 -1 x17759 -1 x17760 >= 0 ;
+2 x18093 +2 x18094 +2 x18095 +2 x18096 -1 x17757 -1 x17758 -1 x17759 -1 x17760 -1 x17761 -1 x17762 -1 x17763 -1 x17764 >= 0 ;
+2 x18097 +2 x18098 +2 x18099 +2 x18100 -1 x17761 -1 x17762 -1 x17763 -1 x17764 -1 x17765 -1 x17766 -1 x17767 -1 x17768 >= 0 ;
+2 x18101 +2 x18102 +2 x18103 +2 x18104 -1 x17765 -1 x17766 -1 x17767 -1 x17768 -1 x17769 -1 x17770 -1 x17771 -1 x17772 >= 0 ;
+2 x18105 +2 x18106 +2 x18107 +2 x18108 -1 x17769 -1 x17770 -1 x17771 -1 x17772 -1 x17773 -1 x17774 -1 x17775 -1 x17776 >= 0 ;
+2 x18109 +2 x18110 +2 x18111 +2 x18112 -1 x17773 -1 x17774 -1 x17775 -1 x17776 -1 x17777 -1 x17778 -1 x17779 -1 x17780 >= 0 ;
+2 x18113 +2 x18114 +2 x18115 +2 x18116 -1 x17777 -1 x17778 -1 x17779 -1 x17780 -1 x17781 -1 x17782 -1 x17783 -1 x17784 >= 0 ;
+2 x18117 +2 x18118 +2 x18119 +2 x18120 -1 x17781 -1 x17782 -1 x17783 -1 x17784 -1 x17785 -1 x17786 -1 x17787 -1 x17788 >= 0 ;
+2 x18121 +2 x18122 +2 x18123 +2 x18124 -1 x17785 -1 x17786 -1 x17787 -1 x17788 -1 x17789 -1 x17790 -1 x17791 -1 x17792 >= 0 ;
+2 x18125 +2 x18126 +2 x18127 +2 x18128 -1 x17789 -1 x17790 -1 x17791 -1 x17792 -1 x17793 -1 x17794 -1 x17795 -1 x17796 >= 0 ;
+2 x18129 +2 x18130 +2 x18131 +2 x18132 -1 x17793 -1 x17794 -1 x17795 -1 x17796 -1 x17797 -1 x17798 -1 x17799 -1 x17800 >= 0 ;
+2 x18133 +2 x18134 +2 x18135 +2 x18136 -1 x17797 -1 x17798 -1 x17799 -1 x17800 -1 x17801 -1 x17802 -1 x17803 -1 x17804 >= 0 ;
+2 x18137 +2 x18138 +2 x18139 +2 x18140 -1 x17801 -1 x17802 -1 x17803 -1 x17804 -1 x17805 -1 x17806 -1 x17807 -1 x17808 >= 0 ;
+2 x18141 +2 x18142 +2 x18143 +2 x18144 -1 x17805 -1 x17806 -1 x17807 -1 x17808 -1 x17809 -1 x17810 -1 x17811 -1 x17812 >= 0 ;
+2 x18145 +2 x18146 +2 x18147 +2 x18148 -1 x17809 -1 x17810 -1 x17811 -1 x17812 -1 x17813 -1 x17814 -1 x17815 -1 x17816 >= 0 ;
+2 x18149 +2 x18150 +2 x18151 +2 x18152 -1 x17813 -1 x17814 -1 x17815 -1 x17816 -1 x17817 -1 x17818 -1 x17819 -1 x17820 >= 0 ;
+2 x18153 +2 x18154 +2 x18155 +2 x18156 -1 x17817 -1 x17818 -1 x17819 -1 x17820 -1 x17821 -1 x17822 -1 x17823 -1 x17824 >= 0 ;
+2 x18157 +2 x18158 +2 x18159 +2 x18160 -1 x17821 -1 x17822 -1 x17823 -1 x17824 -1 x17825 -1 x17826 -1 x17827 -1 x17828 >= 0 ;
+2 x18161 +2 x18162 +2 x18163 +2 x18164 -1 x17825 -1 x17826 -1 x17827 -1 x17828 -1 x17829 -1 x17830 -1 x17831 -1 x17832 >= 0 ;
+2 x18165 +2 x18166 +2 x18167 +2 x18168 -1 x17829 -1 x17830 -1 x17831 -1 x17832 -1 x17833 -1 x17834 -1 x17835 -1 x17836 >= 0 ;
+2 x18169 +2 x18170 +2 x18171 +2 x18172 -1 x17833 -1 x17834 -1 x17835 -1 x17836 -1 x17837 -1 x17838 -1 x17839 -1 x17840 >= 0 ;
+2 x18173 +2 x18174 +2 x18175 +2 x18176 -1 x17837 -1 x17838 -1 x17839 -1 x17840 -1 x17841 -1 x17842 -1 x17843 -1 x17844 >= 0 ;
+2 x18177 +2 x18178 +2 x18179 +2 x18180 -1 x17841 -1 x17842 -1 x17843 -1 x17844 -1 x17845 -1 x17846 -1 x17847 -1 x17848 >= 0 ;
+2 x18181 +2 x18182 +2 x18183 +2 x18184 -1 x17845 -1 x17846 -1 x17847 -1 x17848 -1 x17849 -1 x17850 -1 x17851 -1 x17852 >= 0 ;
+2 x18185 +2 x18186 +2 x18187 +2 x18188 -1 x17849 -1 x17850 -1 x17851 -1 x17852 -1 x17853 -1 x17854 -1 x17855 -1 x17856 >= 0 ;
+2 x18189 +2 x18190 +2 x18191 +2 x18192 -1 x17853 -1 x17854 -1 x17855 -1 x17856 -1 x17857 -1 x17858 -1 x17859 -1 x17860 >= 0 ;
+2 x18193 +2 x18194 +2 x18195 +2 x18196 -1 x17857 -1 x17858 -1 x17859 -1 x17860 -1 x17861 -1 x17862 -1 x17863 -1 x17864 >= 0 ;
+2 x18197 +2 x18198 +2 x18199 +2 x18200 -1 x17861 -1 x17862 -1 x17863 -1 x17864 -1 x17865 -1 x17866 -1 x17867 -1 x17868 >= 0 ;
+2 x18201 +2 x18202 +2 x18203 +2 x18204 -1 x17865 -1 x17866 -1 x17867 -1 x17868 -1 x17869 -1 x17870 -1 x17871 -1 x17872 >= 0 ;
+2 x18205 +2 x18206 +2 x18207 +2 x18208 -1 x17869 -1 x17870 -1 x17871 -1 x17872 -1 x17873 -1 x17874 -1 x17875 -1 x17876 >= 0 ;
+2 x18209 +2 x18210 +2 x18211 +2 x18212 -1 x17873 -1 x17874 -1 x17875 -1 x17876 -1 x17877 -1 x17878 -1 x17879 -1 x17880 >= 0 ;
+2 x18213 +2 x18214 +2 x18215 +2 x18216 -1 x17877 -1 x17878 -1 x17879 -1 x17880 -1 x17881 -1 x17882 -1 x17883 -1 x17884 >= 0 ;
+2 x18217 +2 x18218 +2 x18219 +2 x18220 -1 x17881 -1 x17882 -1 x17883 -1 x17884 -1 x17885 -1 x17886 -1 x17887 -1 x17888 >= 0 ;
+2 x18221 +2 x18222 +2 x18223 +2 x18224 -1 x17885 -1 x17886 -1 x17887 -1 x17888 -1 x17889 -1 x17890 -1 x17891 -1 x17892 >= 0 ;
+2 x18225 +2 x18226 +2 x18227 +2 x18228 -1 x17889 -1 x17890 -1 x17891 -1 x17892 -1 x17893 -1 x17894 -1 x17895 -1 x17896 >= 0 ;
+2 x18229 +2 x18230 +2 x18231 +2 x18232 -1 x17893 -1 x17894 -1 x17895 -1 x17896 -1 x17897 -1 x17898 -1 x17899 -1 x17900 >= 0 ;
+2 x18233 +2 x18234 +2 x18235 +2 x18236 -1 x17897 -1 x17898 -1 x17899 -1 x17900 -1 x17901 -1 x17902 -1 x17903 -1 x17904 >= 0 ;
+2 x18237 +2 x18238 +2 x18239 +2 x18240 -1 x17901 -1 x17902 -1 x17903 -1 x17904 -1 x17905 -1 x17906 -1 x17907 -1 x17908 >= 0 ;
+2 x18241 +2 x18242 +2 x18243 +2 x18244 -1 x17905 -1 x17906 -1 x17907 -1 x17908 -1 x17909 -1 x17910 -1 x17911 -1 x17912 >= 0 ;
+2 x18245 +2 x18246 +2 x18247 +2 x18248 -1 x17909 -1 x17910 -1 x17911 -1 x17912 -1 x17913 -1 x17914 -1 x17915 -1 x17916 >= 0 ;
+2 x18249 +2 x18250 +2 x18251 +2 x18252 -1 x17913 -1 x17914 -1 x17915 -1 x17916 -1 x17917 -1 x17918 -1 x17919 -1 x17920 >= 0 ;
+2 x18253 +2 x18254 +2 x18255 +2 x18256 -1 x17917 -1 x17918 -1 x17919 -1 x17920 -1 x17921 -1 x17922 -1 x17923 -1 x17924 >= 0 ;
+2 x18257 +2 x18258 +2 x18259 +2 x18260 -1 x17921 -1 x17922 -1 x17923 -1 x17924 -1 x17925 -1 x17926 -1 x17927 -1 x17928 >= 0 ;
+2 x18261 +2 x18262 +2 x18263 +2 x18264 -1 x17925 -1 x17926 -1 x17927 -1 x17928 -1 x17929 -1 x17930 -1 x17931 -1 x17932 >= 0 ;
+2 x18265 +2 x18266 +2 x18267 +2 x18268 -1 x17929 -1 x17930 -1 x17931 -1 x17932 -1 x17933 -1 x17934 -1 x17935 -1 x17936 >= 0 ;
+2 x18269 +2 x18270 +2 x18271 +2 x18272 -1 x17933 -1 x17934 -1 x17935 -1 x17936 -1 x17937 -1 x17938 -1 x17939 -1 x17940 >= 0 ;
+2 x18273 +2 x18274 +2 x18275 +2 x18276 -1 x17937 -1 x17938 -1 x17939 -1 x17940 -1 x17941 -1 x17942 -1 x17943 -1 x17944 >= 0 ;
+2 x18277 +2 x18278 +2 x18279 +2 x18280 -1 x17941 -1 x17942 -1 x17943 -1 x17944 -1 x17945 -1 x17946 -1 x17947 -1 x17948 >= 0 ;
+2 x18281 +2 x18282 +2 x18283 +2 x18284 -1 x17945 -1 x17946 -1 x17947 -1 x17948 -1 x17949 -1 x17950 -1 x17951 -1 x17952 >= 0 ;
+2 x18285 +2 x18286 +2 x18287 +2 x18288 -1 x17949 -1 x17950 -1 x17951 -1 x17952 -1 x17953 -1 x17954 -1 x17955 -1 x17956 >= 0 ;
+2 x18289 +2 x18290 +2 x18291 +2 x18292 -1 x17953 -1 x17954 -1 x17955 -1 x17956 -1 x17957 -1 x17958 -1 x17959 -1 x17960 >= 0 ;
+2 x18293 +2 x18294 +2 x18295 +2 x18296 -1 x17957 -1 x17958 -1 x17959 -1 x17960 -1 x17961 -1 x17962 -1 x17963 -1 x17964 >= 0 ;
+2 x18297 +2 x18298 +2 x18299 +2 x18300 -1 x17961 -1 x17962 -1 x17963 -1 x17964 -1 x17965 -1 x17966 -1 x17967 -1 x17968 >= 0 ;
+2 x18301 +2 x18302 +2 x18303 +2 x18304 -1 x17965 -1 x17966 -1 x17967 -1 x17968 -1 x17969 -1 x17970 -1 x17971 -1 x17972 >= 0 ;
+2 x18305 +2 x18306 +2 x18307 +2 x18308 -1 x17969 -1 x17970 -1 x17971 -1 x17972 -1 x17973 -1 x17974 -1 x17975 -1 x17976 >= 0 ;
+2 x18309 +2 x18310 +2 x18311 +2 x18312 -1 x17973 -1 x17974 -1 x17975 -1 x17976 -1 x17977 -1 x17978 -1 x17979 -1 x17980 >= 0 ;
+2 x18313 +2 x18314 +2 x18315 +2 x18316 -1 x17977 -1 x17978 -1 x17979 -1 x17980 -1 x17981 -1 x17982 -1 x17983 -1 x17984 >= 0 ;
+2 x18317 +2 x18318 +2 x18319 +2 x18320 -1 x17981 -1 x17982 -1 x17983 -1 x17984 -1 x17985 -1 x17986 -1 x17987 -1 x17988 >= 0 ;
+2 x18321 +2 x18322 +2 x18323 +2 x18324 -1 x17985 -1 x17986 -1 x17987 -1 x17988 -1 x17989 -1 x17990 -1 x17991 -1 x17992 >= 0 ;
+2 x18325 +2 x18326 +2 x18327 +2 x18328 -1 x17989 -1 x17990 -1 x17991 -1 x17992 -1 x17993 -1 x17994 -1 x17995 -1 x17996 >= 0 ;
+2 x18329 +2 x18330 +2 x18331 +2 x18332 -1 x17993 -1 x17994 -1 x17995 -1 x17996 -1 x17997 -1 x17998 -1 x17999 -1 x18000 >= 0 ;
+2 x18333 +2 x18334 +2 x18335 +2 x18336 -1 x17997 -1 x17998 -1 x17999 -1 x18000 -1 x18001 -1 x18002 -1 x18003 -1 x18004 >= 0 ;
+2 x18337 +2 x18338 +2 x18339 +2 x18340 -1 x18001 -1 x18002 -1 x18003 -1 x18004 -1 x18005 -1 x18006 -1 x18007 -1 x18008 >= 0 ;
+2 x18341 +2 x18342 +2 x18343 +2 x18344 -1 x18005 -1 x18006 -1 x18007 -1 x18008 -1 x18009 -1 x18010 -1 x18011 -1 x18012 >= 0 ;
+2 x18345 +2 x18346 +2 x18347 +2 x18348 -1 x18009 -1 x18010 -1 x18011 -1 x18012 -1 x18013 -1 x18014 -1 x18015 -1 x18016 >= 0 ;
+2 x18349 +2 x18350 +2 x18351 +2 x18352 -1 x18013 -1 x18014 -1 x18015 -1 x18016 -1 x18017 -1 x18018 -1 x18019 -1 x18020 >= 0 ;
+2 x18353 +2 x18354 +2 x18355 +2 x18356 -1 x18017 -1 x18018 -1 x18019 -1 x18020 -1 x18021 -1 x18022 -1 x18023 -1 x18024 >= 0 ;
+2 x18357 +2 x18358 +2 x18359 +2 x18360 -1 x18021 -1 x18022 -1 x18023 -1 x18024 -1 x18025 -1 x18026 -1 x18027 -1 x18028 >= 0 ;
+2 x18361 +2 x18362 +2 x18363 +2 x18364 -1 x18025 -1 x18026 -1 x18027 -1 x18028 -1 x18029 -1 x18030 -1 x18031 -1 x18032 >= 0 ;
+2 x18365 +2 x18366 +2 x18367 +2 x18368 -1 x18029 -1 x18030 -1 x18031 -1 x18032 -1 x18033 -1 x18034 -1 x18035 -1 x18036 >= 0 ;
+2 x18369 +2 x18370 +2 x18371 +2 x18372 -1 x18033 -1 x18034 -1 x18035 -1 x18036 -1 x18037 -1 x18038 -1 x18039 -1 x18040 >= 0 ;
+2 x18373 +2 x18374 +2 x18375 +2 x18376 -1 x18037 -1 x18038 -1 x18039 -1 x18040 -1 x18041 -1 x18042 -1 x18043 -1 x18044 >= 0 ;
+2 x18377 +2 x18378 +2 x18379 +2 x18380 -1 x18041 -1 x18042 -1 x18043 -1 x18044 -1 x18045 -1 x18046 -1 x18047 -1 x18048 >= 0 ;
+2 x18381 +2 x18382 +2 x18383 +2 x18384 -1 x18045 -1 x18046 -1 x18047 -1 x18048 -1 x18049 -1 x18050 -1 x18051 -1 x18052 >= 0 ;
+2 x18385 +2 x18386 +2 x18387 +2 x18388 -1 x18049 -1 x18050 -1 x18051 -1 x18052 -1 x18053 -1 x18054 -1 x18055 -1 x18056 >= 0 ;
+2 x18389 +2 x18390 +2 x18391 +2 x18392 -1 x18053 -1 x18054 -1 x18055 -1 x18056 -1 x18057 -1 x18058 -1 x18059 -1 x18060 >= 0 ;
+2 x18393 +2 x18394 +2 x18395 +2 x18396 -1 x18061 -1 x18062 -1 x18063 -1 x18064 -1 x18065 -1 x18066 -1 x18067 -1 x18068 >= 0 ;
+2 x18397 +2 x18398 +2 x18399 +2 x18400 -1 x18065 -1 x18066 -1 x18067 -1 x18068 -1 x18069 -1 x18070 -1 x18071 -1 x18072 >= 0 ;
+2 x18401 +2 x18402 +2 x18403 +2 x18404 -1 x18069 -1 x18070 -1 x18071 -1 x18072 -1 x18073 -1 x18074 -1 x18075 -1 x18076 >= 0 ;
+2 x18405 +2 x18406 +2 x18407 +2 x18408 -1 x18073 -1 x18074 -1 x18075 -1 x18076 -1 x18077 -1 x18078 -1 x18079 -1 x18080 >= 0 ;
+2 x18409 +2 x18410 +2 x18411 +2 x18412 -1 x18077 -1 x18078 -1 x18079 -1 x18080 -1 x18081 -1 x18082 -1 x18083 -1 x18084 >= 0 ;
+2 x18413 +2 x18414 +2 x18415 +2 x18416 -1 x18081 -1 x18082 -1 x18083 -1 x18084 -1 x18085 -1 x18086 -1 x18087 -1 x18088 >= 0 ;
+2 x18417 +2 x18418 +2 x18419 +2 x18420 -1 x18085 -1 x18086 -1 x18087 -1 x18088 -1 x18089 -1 x18090 -1 x18091 -1 x18092 >= 0 ;
+2 x18421 +2 x18422 +2 x18423 +2 x18424 -1 x18089 -1 x18090 -1 x18091 -1 x18092 -1 x18093 -1 x18094 -1 x18095 -1 x18096 >= 0 ;
+2 x18425 +2 x18426 +2 x18427 +2 x18428 -1 x18093 -1 x18094 -1 x18095 -1 x18096 -1 x18097 -1 x18098 -1 x18099 -1 x18100 >= 0 ;
+2 x18429 +2 x18430 +2 x18431 +2 x18432 -1 x18097 -1 x18098 -1 x18099 -1 x18100 -1 x18101 -1 x18102 -1 x18103 -1 x18104 >= 0 ;
+2 x18433 +2 x18434 +2 x18435 +2 x18436 -1 x18101 -1 x18102 -1 x18103 -1 x18104 -1 x18105 -1 x18106 -1 x18107 -1 x18108 >= 0 ;
+2 x18437 +2 x18438 +2 x18439 +2 x18440 -1 x18105 -1 x18106 -1 x18107 -1 x18108 -1 x18109 -1 x18110 -1 x18111 -1 x18112 >= 0 ;
+2 x18441 +2 x18442 +2 x18443 +2 x18444 -1 x18109 -1 x18110 -1 x18111 -1 x18112 -1 x18113 -1 x18114 -1 x18115 -1 x18116 >= 0 ;
+2 x18445 +2 x18446 +2 x18447 +2 x18448 -1 x18113 -1 x18114 -1 x18115 -1 x18116 -1 x18117 -1 x18118 -1 x18119 -1 x18120 >= 0 ;
+2 x18449 +2 x18450 +2 x18451 +2 x18452 -1 x18117 -1 x18118 -1 x18119 -1 x18120 -1 x18121 -1 x18122 -1 x18123 -1 x18124 >= 0 ;
+2 x18453 +2 x18454 +2 x18455 +2 x18456 -1 x18121 -1 x18122 -1 x18123 -1 x18124 -1 x18125 -1 x18126 -1 x18127 -1 x18128 >= 0 ;
+2 x18457 +2 x18458 +2 x18459 +2 x18460 -1 x18125 -1 x18126 -1 x18127 -1 x18128 -1 x18129 -1 x18130 -1 x18131 -1 x18132 >= 0 ;
+2 x18461 +2 x18462 +2 x18463 +2 x18464 -1 x18129 -1 x18130 -1 x18131 -1 x18132 -1 x18133 -1 x18134 -1 x18135 -1 x18136 >= 0 ;
+2 x18465 +2 x18466 +2 x18467 +2 x18468 -1 x18133 -1 x18134 -1 x18135 -1 x18136 -1 x18137 -1 x18138 -1 x18139 -1 x18140 >= 0 ;
+2 x18469 +2 x18470 +2 x18471 +2 x18472 -1 x18137 -1 x18138 -1 x18139 -1 x18140 -1 x18141 -1 x18142 -1 x18143 -1 x18144 >= 0 ;
+2 x18473 +2 x18474 +2 x18475 +2 x18476 -1 x18141 -1 x18142 -1 x18143 -1 x18144 -1 x18145 -1 x18146 -1 x18147 -1 x18148 >= 0 ;
+2 x18477 +2 x18478 +2 x18479 +2 x18480 -1 x18145 -1 x18146 -1 x18147 -1 x18148 -1 x18149 -1 x18150 -1 x18151 -1 x18152 >= 0 ;
+2 x18481 +2 x18482 +2 x18483 +2 x18484 -1 x18149 -1 x18150 -1 x18151 -1 x18152 -1 x18153 -1 x18154 -1 x18155 -1 x18156 >= 0 ;
+2 x18485 +2 x18486 +2 x18487 +2 x18488 -1 x18153 -1 x18154 -1 x18155 -1 x18156 -1 x18157 -1 x18158 -1 x18159 -1 x18160 >= 0 ;
+2 x18489 +2 x18490 +2 x18491 +2 x18492 -1 x18157 -1 x18158 -1 x18159 -1 x18160 -1 x18161 -1 x18162 -1 x18163 -1 x18164 >= 0 ;
+2 x18493 +2 x18494 +2 x18495 +2 x18496 -1 x18161 -1 x18162 -1 x18163 -1 x18164 -1 x18165 -1 x18166 -1 x18167 -1 x18168 >= 0 ;
+2 x18497 +2 x18498 +2 x18499 +2 x18500 -1 x18165 -1 x18166 -1 x18167 -1 x18168 -1 x18169 -1 x18170 -1 x18171 -1 x18172 >= 0 ;
+2 x18501 +2 x18502 +2 x18503 +2 x18504 -1 x18169 -1 x18170 -1 x18171 -1 x18172 -1 x18173 -1 x18174 -1 x18175 -1 x18176 >= 0 ;
+2 x18505 +2 x18506 +2 x18507 +2 x18508 -1 x18173 -1 x18174 -1 x18175 -1 x18176 -1 x18177 -1 x18178 -1 x18179 -1 x18180 >= 0 ;
+2 x18509 +2 x18510 +2 x18511 +2 x18512 -1 x18177 -1 x18178 -1 x18179 -1 x18180 -1 x18181 -1 x18182 -1 x18183 -1 x18184 >= 0 ;
+2 x18513 +2 x18514 +2 x18515 +2 x18516 -1 x18181 -1 x18182 -1 x18183 -1 x18184 -1 x18185 -1 x18186 -1 x18187 -1 x18188 >= 0 ;
+2 x18517 +2 x18518 +2 x18519 +2 x18520 -1 x18185 -1 x18186 -1 x18187 -1 x18188 -1 x18189 -1 x18190 -1 x18191 -1 x18192 >= 0 ;
+2 x18521 +2 x18522 +2 x18523 +2 x18524 -1 x18189 -1 x18190 -1 x18191 -1 x18192 -1 x18193 -1 x18194 -1 x18195 -1 x18196 >= 0 ;
+2 x18525 +2 x18526 +2 x18527 +2 x18528 -1 x18193 -1 x18194 -1 x18195 -1 x18196 -1 x18197 -1 x18198 -1 x18199 -1 x18200 >= 0 ;
+2 x18529 +2 x18530 +2 x18531 +2 x18532 -1 x18197 -1 x18198 -1 x18199 -1 x18200 -1 x18201 -1 x18202 -1 x18203 -1 x18204 >= 0 ;
+2 x18533 +2 x18534 +2 x18535 +2 x18536 -1 x18201 -1 x18202 -1 x18203 -1 x18204 -1 x18205 -1 x18206 -1 x18207 -1 x18208 >= 0 ;
+2 x18537 +2 x18538 +2 x18539 +2 x18540 -1 x18205 -1 x18206 -1 x18207 -1 x18208 -1 x18209 -1 x18210 -1 x18211 -1 x18212 >= 0 ;
+2 x18541 +2 x18542 +2 x18543 +2 x18544 -1 x18209 -1 x18210 -1 x18211 -1 x18212 -1 x18213 -1 x18214 -1 x18215 -1 x18216 >= 0 ;
+2 x18545 +2 x18546 +2 x18547 +2 x18548 -1 x18213 -1 x18214 -1 x18215 -1 x18216 -1 x18217 -1 x18218 -1 x18219 -1 x18220 >= 0 ;
+2 x18549 +2 x18550 +2 x18551 +2 x18552 -1 x18217 -1 x18218 -1 x18219 -1 x18220 -1 x18221 -1 x18222 -1 x18223 -1 x18224 >= 0 ;
+2 x18553 +2 x18554 +2 x18555 +2 x18556 -1 x18221 -1 x18222 -1 x18223 -1 x18224 -1 x18225 -1 x18226 -1 x18227 -1 x18228 >= 0 ;
+2 x18557 +2 x18558 +2 x18559 +2 x18560 -1 x18225 -1 x18226 -1 x18227 -1 x18228 -1 x18229 -1 x18230 -1 x18231 -1 x18232 >= 0 ;
+2 x18561 +2 x18562 +2 x18563 +2 x18564 -1 x18229 -1 x18230 -1 x18231 -1 x18232 -1 x18233 -1 x18234 -1 x18235 -1 x18236 >= 0 ;
+2 x18565 +2 x18566 +2 x18567 +2 x18568 -1 x18233 -1 x18234 -1 x18235 -1 x18236 -1 x18237 -1 x18238 -1 x18239 -1 x18240 >= 0 ;
+2 x18569 +2 x18570 +2 x18571 +2 x18572 -1 x18237 -1 x18238 -1 x18239 -1 x18240 -1 x18241 -1 x18242 -1 x18243 -1 x18244 >= 0 ;
+2 x18573 +2 x18574 +2 x18575 +2 x18576 -1 x18241 -1 x18242 -1 x18243 -1 x18244 -1 x18245 -1 x18246 -1 x18247 -1 x18248 >= 0 ;
+2 x18577 +2 x18578 +2 x18579 +2 x18580 -1 x18245 -1 x18246 -1 x18247 -1 x18248 -1 x18249 -1 x18250 -1 x18251 -1 x18252 >= 0 ;
+2 x18581 +2 x18582 +2 x18583 +2 x18584 -1 x18249 -1 x18250 -1 x18251 -1 x18252 -1 x18253 -1 x18254 -1 x18255 -1 x18256 >= 0 ;
+2 x18585 +2 x18586 +2 x18587 +2 x18588 -1 x18253 -1 x18254 -1 x18255 -1 x18256 -1 x18257 -1 x18258 -1 x18259 -1 x18260 >= 0 ;
+2 x18589 +2 x18590 +2 x18591 +2 x18592 -1 x18257 -1 x18258 -1 x18259 -1 x18260 -1 x18261 -1 x18262 -1 x18263 -1 x18264 >= 0 ;
+2 x18593 +2 x18594 +2 x18595 +2 x18596 -1 x18261 -1 x18262 -1 x18263 -1 x18264 -1 x18265 -1 x18266 -1 x18267 -1 x18268 >= 0 ;
+2 x18597 +2 x18598 +2 x18599 +2 x18600 -1 x18265 -1 x18266 -1 x18267 -1 x18268 -1 x18269 -1 x18270 -1 x18271 -1 x18272 >= 0 ;
+2 x18601 +2 x18602 +2 x18603 +2 x18604 -1 x18269 -1 x18270 -1 x18271 -1 x18272 -1 x18273 -1 x18274 -1 x18275 -1 x18276 >= 0 ;
+2 x18605 +2 x18606 +2 x18607 +2 x18608 -1 x18273 -1 x18274 -1 x18275 -1 x18276 -1 x18277 -1 x18278 -1 x18279 -1 x18280 >= 0 ;
+2 x18609 +2 x18610 +2 x18611 +2 x18612 -1 x18277 -1 x18278 -1 x18279 -1 x18280 -1 x18281 -1 x18282 -1 x18283 -1 x18284 >= 0 ;
+2 x18613 +2 x18614 +2 x18615 +2 x18616 -1 x18281 -1 x18282 -1 x18283 -1 x18284 -1 x18285 -1 x18286 -1 x18287 -1 x18288 >= 0 ;
+2 x18617 +2 x18618 +2 x18619 +2 x18620 -1 x18285 -1 x18286 -1 x18287 -1 x18288 -1 x18289 -1 x18290 -1 x18291 -1 x18292 >= 0 ;
+2 x18621 +2 x18622 +2 x18623 +2 x18624 -1 x18289 -1 x18290 -1 x18291 -1 x18292 -1 x18293 -1 x18294 -1 x18295 -1 x18296 >= 0 ;
+2 x18625 +2 x18626 +2 x18627 +2 x18628 -1 x18293 -1 x18294 -1 x18295 -1 x18296 -1 x18297 -1 x18298 -1 x18299 -1 x18300 >= 0 ;
+2 x18629 +2 x18630 +2 x18631 +2 x18632 -1 x18297 -1 x18298 -1 x18299 -1 x18300 -1 x18301 -1 x18302 -1 x18303 -1 x18304 >= 0 ;
+2 x18633 +2 x18634 +2 x18635 +2 x18636 -1 x18301 -1 x18302 -1 x18303 -1 x18304 -1 x18305 -1 x18306 -1 x18307 -1 x18308 >= 0 ;
+2 x18637 +2 x18638 +2 x18639 +2 x18640 -1 x18305 -1 x18306 -1 x18307 -1 x18308 -1 x18309 -1 x18310 -1 x18311 -1 x18312 >= 0 ;
+2 x18641 +2 x18642 +2 x18643 +2 x18644 -1 x18309 -1 x18310 -1 x18311 -1 x18312 -1 x18313 -1 x18314 -1 x18315 -1 x18316 >= 0 ;
+2 x18645 +2 x18646 +2 x18647 +2 x18648 -1 x18313 -1 x18314 -1 x18315 -1 x18316 -1 x18317 -1 x18318 -1 x18319 -1 x18320 >= 0 ;
+2 x18649 +2 x18650 +2 x18651 +2 x18652 -1 x18317 -1 x18318 -1 x18319 -1 x18320 -1 x18321 -1 x18322 -1 x18323 -1 x18324 >= 0 ;
+2 x18653 +2 x18654 +2 x18655 +2 x18656 -1 x18321 -1 x18322 -1 x18323 -1 x18324 -1 x18325 -1 x18326 -1 x18327 -1 x18328 >= 0 ;
+2 x18657 +2 x18658 +2 x18659 +2 x18660 -1 x18325 -1 x18326 -1 x18327 -1 x18328 -1 x18329 -1 x18330 -1 x18331 -1 x18332 >= 0 ;
+2 x18661 +2 x18662 +2 x18663 +2 x18664 -1 x18329 -1 x18330 -1 x18331 -1 x18332 -1 x18333 -1 x18334 -1 x18335 -1 x18336 >= 0 ;
+2 x18665 +2 x18666 +2 x18667 +2 x18668 -1 x18333 -1 x18334 -1 x18335 -1 x18336 -1 x18337 -1 x18338 -1 x18339 -1 x18340 >= 0 ;
+2 x18669 +2 x18670 +2 x18671 +2 x18672 -1 x18337 -1 x18338 -1 x18339 -1 x18340 -1 x18341 -1 x18342 -1 x18343 -1 x18344 >= 0 ;
+2 x18673 +2 x18674 +2 x18675 +2 x18676 -1 x18341 -1 x18342 -1 x18343 -1 x18344 -1 x18345 -1 x18346 -1 x18347 -1 x18348 >= 0 ;
+2 x18677 +2 x18678 +2 x18679 +2 x18680 -1 x18345 -1 x18346 -1 x18347 -1 x18348 -1 x18349 -1 x18350 -1 x18351 -1 x18352 >= 0 ;
+2 x18681 +2 x18682 +2 x18683 +2 x18684 -1 x18349 -1 x18350 -1 x18351 -1 x18352 -1 x18353 -1 x18354 -1 x18355 -1 x18356 >= 0 ;
+2 x18685 +2 x18686 +2 x18687 +2 x18688 -1 x18353 -1 x18354 -1 x18355 -1 x18356 -1 x18357 -1 x18358 -1 x18359 -1 x18360 >= 0 ;
+2 x18689 +2 x18690 +2 x18691 +2 x18692 -1 x18357 -1 x18358 -1 x18359 -1 x18360 -1 x18361 -1 x18362 -1 x18363 -1 x18364 >= 0 ;
+2 x18693 +2 x18694 +2 x18695 +2 x18696 -1 x18361 -1 x18362 -1 x18363 -1 x18364 -1 x18365 -1 x18366 -1 x18367 -1 x18368 >= 0 ;
+2 x18697 +2 x18698 +2 x18699 +2 x18700 -1 x18365 -1 x18366 -1 x18367 -1 x18368 -1 x18369 -1 x18370 -1 x18371 -1 x18372 >= 0 ;
+2 x18701 +2 x18702 +2 x18703 +2 x18704 -1 x18369 -1 x18370 -1 x18371 -1 x18372 -1 x18373 -1 x18374 -1 x18375 -1 x18376 >= 0 ;
+2 x18705 +2 x18706 +2 x18707 +2 x18708 -1 x18373 -1 x18374 -1 x18375 -1 x18376 -1 x18377 -1 x18378 -1 x18379 -1 x18380 >= 0 ;
+2 x18709 +2 x18710 +2 x18711 +2 x18712 -1 x18377 -1 x18378 -1 x18379 -1 x18380 -1 x18381 -1 x18382 -1 x18383 -1 x18384 >= 0 ;
+2 x18713 +2 x18714 +2 x18715 +2 x18716 -1 x18381 -1 x18382 -1 x18383 -1 x18384 -1 x18385 -1 x18386 -1 x18387 -1 x18388 >= 0 ;
+2 x18717 +2 x18718 +2 x18719 +2 x18720 -1 x18385 -1 x18386 -1 x18387 -1 x18388 -1 x18389 -1 x18390 -1 x18391 -1 x18392 >= 0 ;
+2 x18721 +2 x18722 +2 x18723 +2 x18724 -1 x18393 -1 x18394 -1 x18395 -1 x18396 -1 x18397 -1 x18398 -1 x18399 -1 x18400 >= 0 ;
+2 x18725 +2 x18726 +2 x18727 +2 x18728 -1 x18397 -1 x18398 -1 x18399 -1 x18400 -1 x18401 -1 x18402 -1 x18403 -1 x18404 >= 0 ;
+2 x18729 +2 x18730 +2 x18731 +2 x18732 -1 x18401 -1 x18402 -1 x18403 -1 x18404 -1 x18405 -1 x18406 -1 x18407 -1 x18408 >= 0 ;
+2 x18733 +2 x18734 +2 x18735 +2 x18736 -1 x18405 -1 x18406 -1 x18407 -1 x18408 -1 x18409 -1 x18410 -1 x18411 -1 x18412 >= 0 ;
+2 x18737 +2 x18738 +2 x18739 +2 x18740 -1 x18409 -1 x18410 -1 x18411 -1 x18412 -1 x18413 -1 x18414 -1 x18415 -1 x18416 >= 0 ;
+2 x18741 +2 x18742 +2 x18743 +2 x18744 -1 x18413 -1 x18414 -1 x18415 -1 x18416 -1 x18417 -1 x18418 -1 x18419 -1 x18420 >= 0 ;
+2 x18745 +2 x18746 +2 x18747 +2 x18748 -1 x18417 -1 x18418 -1 x18419 -1 x18420 -1 x18421 -1 x18422 -1 x18423 -1 x18424 >= 0 ;
+2 x18749 +2 x18750 +2 x18751 +2 x18752 -1 x18421 -1 x18422 -1 x18423 -1 x18424 -1 x18425 -1 x18426 -1 x18427 -1 x18428 >= 0 ;
+2 x18753 +2 x18754 +2 x18755 +2 x18756 -1 x18425 -1 x18426 -1 x18427 -1 x18428 -1 x18429 -1 x18430 -1 x18431 -1 x18432 >= 0 ;
+2 x18757 +2 x18758 +2 x18759 +2 x18760 -1 x18429 -1 x18430 -1 x18431 -1 x18432 -1 x18433 -1 x18434 -1 x18435 -1 x18436 >= 0 ;
+2 x18761 +2 x18762 +2 x18763 +2 x18764 -1 x18433 -1 x18434 -1 x18435 -1 x18436 -1 x18437 -1 x18438 -1 x18439 -1 x18440 >= 0 ;
+2 x18765 +2 x18766 +2 x18767 +2 x18768 -1 x18437 -1 x18438 -1 x18439 -1 x18440 -1 x18441 -1 x18442 -1 x18443 -1 x18444 >= 0 ;
+2 x18769 +2 x18770 +2 x18771 +2 x18772 -1 x18441 -1 x18442 -1 x18443 -1 x18444 -1 x18445 -1 x18446 -1 x18447 -1 x18448 >= 0 ;
+2 x18773 +2 x18774 +2 x18775 +2 x18776 -1 x18445 -1 x18446 -1 x18447 -1 x18448 -1 x18449 -1 x18450 -1 x18451 -1 x18452 >= 0 ;
+2 x18777 +2 x18778 +2 x18779 +2 x18780 -1 x18449 -1 x18450 -1 x18451 -1 x18452 -1 x18453 -1 x18454 -1 x18455 -1 x18456 >= 0 ;
+2 x18781 +2 x18782 +2 x18783 +2 x18784 -1 x18453 -1 x18454 -1 x18455 -1 x18456 -1 x18457 -1 x18458 -1 x18459 -1 x18460 >= 0 ;
+2 x18785 +2 x18786 +2 x18787 +2 x18788 -1 x18457 -1 x18458 -1 x18459 -1 x18460 -1 x18461 -1 x18462 -1 x18463 -1 x18464 >= 0 ;
+2 x18789 +2 x18790 +2 x18791 +2 x18792 -1 x18461 -1 x18462 -1 x18463 -1 x18464 -1 x18465 -1 x18466 -1 x18467 -1 x18468 >= 0 ;
+2 x18793 +2 x18794 +2 x18795 +2 x18796 -1 x18465 -1 x18466 -1 x18467 -1 x18468 -1 x18469 -1 x18470 -1 x18471 -1 x18472 >= 0 ;
+2 x18797 +2 x18798 +2 x18799 +2 x18800 -1 x18469 -1 x18470 -1 x18471 -1 x18472 -1 x18473 -1 x18474 -1 x18475 -1 x18476 >= 0 ;
+2 x18801 +2 x18802 +2 x18803 +2 x18804 -1 x18473 -1 x18474 -1 x18475 -1 x18476 -1 x18477 -1 x18478 -1 x18479 -1 x18480 >= 0 ;
+2 x18805 +2 x18806 +2 x18807 +2 x18808 -1 x18477 -1 x18478 -1 x18479 -1 x18480 -1 x18481 -1 x18482 -1 x18483 -1 x18484 >= 0 ;
+2 x18809 +2 x18810 +2 x18811 +2 x18812 -1 x18481 -1 x18482 -1 x18483 -1 x18484 -1 x18485 -1 x18486 -1 x18487 -1 x18488 >= 0 ;
+2 x18813 +2 x18814 +2 x18815 +2 x18816 -1 x18485 -1 x18486 -1 x18487 -1 x18488 -1 x18489 -1 x18490 -1 x18491 -1 x18492 >= 0 ;
+2 x18817 +2 x18818 +2 x18819 +2 x18820 -1 x18489 -1 x18490 -1 x18491 -1 x18492 -1 x18493 -1 x18494 -1 x18495 -1 x18496 >= 0 ;
+2 x18821 +2 x18822 +2 x18823 +2 x18824 -1 x18493 -1 x18494 -1 x18495 -1 x18496 -1 x18497 -1 x18498 -1 x18499 -1 x18500 >= 0 ;
+2 x18825 +2 x18826 +2 x18827 +2 x18828 -1 x18497 -1 x18498 -1 x18499 -1 x18500 -1 x18501 -1 x18502 -1 x18503 -1 x18504 >= 0 ;
+2 x18829 +2 x18830 +2 x18831 +2 x18832 -1 x18501 -1 x18502 -1 x18503 -1 x18504 -1 x18505 -1 x18506 -1 x18507 -1 x18508 >= 0 ;
+2 x18833 +2 x18834 +2 x18835 +2 x18836 -1 x18505 -1 x18506 -1 x18507 -1 x18508 -1 x18509 -1 x18510 -1 x18511 -1 x18512 >= 0 ;
+2 x18837 +2 x18838 +2 x18839 +2 x18840 -1 x18509 -1 x18510 -1 x18511 -1 x18512 -1 x18513 -1 x18514 -1 x18515 -1 x18516 >= 0 ;
+2 x18841 +2 x18842 +2 x18843 +2 x18844 -1 x18513 -1 x18514 -1 x18515 -1 x18516 -1 x18517 -1 x18518 -1 x18519 -1 x18520 >= 0 ;
+2 x18845 +2 x18846 +2 x18847 +2 x18848 -1 x18517 -1 x18518 -1 x18519 -1 x18520 -1 x18521 -1 x18522 -1 x18523 -1 x18524 >= 0 ;
+2 x18849 +2 x18850 +2 x18851 +2 x18852 -1 x18521 -1 x18522 -1 x18523 -1 x18524 -1 x18525 -1 x18526 -1 x18527 -1 x18528 >= 0 ;
+2 x18853 +2 x18854 +2 x18855 +2 x18856 -1 x18525 -1 x18526 -1 x18527 -1 x18528 -1 x18529 -1 x18530 -1 x18531 -1 x18532 >= 0 ;
+2 x18857 +2 x18858 +2 x18859 +2 x18860 -1 x18529 -1 x18530 -1 x18531 -1 x18532 -1 x18533 -1 x18534 -1 x18535 -1 x18536 >= 0 ;
+2 x18861 +2 x18862 +2 x18863 +2 x18864 -1 x18533 -1 x18534 -1 x18535 -1 x18536 -1 x18537 -1 x18538 -1 x18539 -1 x18540 >= 0 ;
+2 x18865 +2 x18866 +2 x18867 +2 x18868 -1 x18537 -1 x18538 -1 x18539 -1 x18540 -1 x18541 -1 x18542 -1 x18543 -1 x18544 >= 0 ;
+2 x18869 +2 x18870 +2 x18871 +2 x18872 -1 x18541 -1 x18542 -1 x18543 -1 x18544 -1 x18545 -1 x18546 -1 x18547 -1 x18548 >= 0 ;
+2 x18873 +2 x18874 +2 x18875 +2 x18876 -1 x18545 -1 x18546 -1 x18547 -1 x18548 -1 x18549 -1 x18550 -1 x18551 -1 x18552 >= 0 ;
+2 x18877 +2 x18878 +2 x18879 +2 x18880 -1 x18549 -1 x18550 -1 x18551 -1 x18552 -1 x18553 -1 x18554 -1 x18555 -1 x18556 >= 0 ;
+2 x18881 +2 x18882 +2 x18883 +2 x18884 -1 x18553 -1 x18554 -1 x18555 -1 x18556 -1 x18557 -1 x18558 -1 x18559 -1 x18560 >= 0 ;
+2 x18885 +2 x18886 +2 x18887 +2 x18888 -1 x18557 -1 x18558 -1 x18559 -1 x18560 -1 x18561 -1 x18562 -1 x18563 -1 x18564 >= 0 ;
+2 x18889 +2 x18890 +2 x18891 +2 x18892 -1 x18561 -1 x18562 -1 x18563 -1 x18564 -1 x18565 -1 x18566 -1 x18567 -1 x18568 >= 0 ;
+2 x18893 +2 x18894 +2 x18895 +2 x18896 -1 x18565 -1 x18566 -1 x18567 -1 x18568 -1 x18569 -1 x18570 -1 x18571 -1 x18572 >= 0 ;
+2 x18897 +2 x18898 +2 x18899 +2 x18900 -1 x18569 -1 x18570 -1 x18571 -1 x18572 -1 x18573 -1 x18574 -1 x18575 -1 x18576 >= 0 ;
+2 x18901 +2 x18902 +2 x18903 +2 x18904 -1 x18573 -1 x18574 -1 x18575 -1 x18576 -1 x18577 -1 x18578 -1 x18579 -1 x18580 >= 0 ;
+2 x18905 +2 x18906 +2 x18907 +2 x18908 -1 x18577 -1 x18578 -1 x18579 -1 x18580 -1 x18581 -1 x18582 -1 x18583 -1 x18584 >= 0 ;
+2 x18909 +2 x18910 +2 x18911 +2 x18912 -1 x18581 -1 x18582 -1 x18583 -1 x18584 -1 x18585 -1 x18586 -1 x18587 -1 x18588 >= 0 ;
+2 x18913 +2 x18914 +2 x18915 +2 x18916 -1 x18585 -1 x18586 -1 x18587 -1 x18588 -1 x18589 -1 x18590 -1 x18591 -1 x18592 >= 0 ;
+2 x18917 +2 x18918 +2 x18919 +2 x18920 -1 x18589 -1 x18590 -1 x18591 -1 x18592 -1 x18593 -1 x18594 -1 x18595 -1 x18596 >= 0 ;
+2 x18921 +2 x18922 +2 x18923 +2 x18924 -1 x18593 -1 x18594 -1 x18595 -1 x18596 -1 x18597 -1 x18598 -1 x18599 -1 x18600 >= 0 ;
+2 x18925 +2 x18926 +2 x18927 +2 x18928 -1 x18597 -1 x18598 -1 x18599 -1 x18600 -1 x18601 -1 x18602 -1 x18603 -1 x18604 >= 0 ;
+2 x18929 +2 x18930 +2 x18931 +2 x18932 -1 x18601 -1 x18602 -1 x18603 -1 x18604 -1 x18605 -1 x18606 -1 x18607 -1 x18608 >= 0 ;
+2 x18933 +2 x18934 +2 x18935 +2 x18936 -1 x18605 -1 x18606 -1 x18607 -1 x18608 -1 x18609 -1 x18610 -1 x18611 -1 x18612 >= 0 ;
+2 x18937 +2 x18938 +2 x18939 +2 x18940 -1 x18609 -1 x18610 -1 x18611 -1 x18612 -1 x18613 -1 x18614 -1 x18615 -1 x18616 >= 0 ;
+2 x18941 +2 x18942 +2 x18943 +2 x18944 -1 x18613 -1 x18614 -1 x18615 -1 x18616 -1 x18617 -1 x18618 -1 x18619 -1 x18620 >= 0 ;
+2 x18945 +2 x18946 +2 x18947 +2 x18948 -1 x18617 -1 x18618 -1 x18619 -1 x18620 -1 x18621 -1 x18622 -1 x18623 -1 x18624 >= 0 ;
+2 x18949 +2 x18950 +2 x18951 +2 x18952 -1 x18621 -1 x18622 -1 x18623 -1 x18624 -1 x18625 -1 x18626 -1 x18627 -1 x18628 >= 0 ;
+2 x18953 +2 x18954 +2 x18955 +2 x18956 -1 x18625 -1 x18626 -1 x18627 -1 x18628 -1 x18629 -1 x18630 -1 x18631 -1 x18632 >= 0 ;
+2 x18957 +2 x18958 +2 x18959 +2 x18960 -1 x18629 -1 x18630 -1 x18631 -1 x18632 -1 x18633 -1 x18634 -1 x18635 -1 x18636 >= 0 ;
+2 x18961 +2 x18962 +2 x18963 +2 x18964 -1 x18633 -1 x18634 -1 x18635 -1 x18636 -1 x18637 -1 x18638 -1 x18639 -1 x18640 >= 0 ;
+2 x18965 +2 x18966 +2 x18967 +2 x18968 -1 x18637 -1 x18638 -1 x18639 -1 x18640 -1 x18641 -1 x18642 -1 x18643 -1 x18644 >= 0 ;
+2 x18969 +2 x18970 +2 x18971 +2 x18972 -1 x18641 -1 x18642 -1 x18643 -1 x18644 -1 x18645 -1 x18646 -1 x18647 -1 x18648 >= 0 ;
+2 x18973 +2 x18974 +2 x18975 +2 x18976 -1 x18645 -1 x18646 -1 x18647 -1 x18648 -1 x18649 -1 x18650 -1 x18651 -1 x18652 >= 0 ;
+2 x18977 +2 x18978 +2 x18979 +2 x18980 -1 x18649 -1 x18650 -1 x18651 -1 x18652 -1 x18653 -1 x18654 -1 x18655 -1 x18656 >= 0 ;
+2 x18981 +2 x18982 +2 x18983 +2 x18984 -1 x18653 -1 x18654 -1 x18655 -1 x18656 -1 x18657 -1 x18658 -1 x18659 -1 x18660 >= 0 ;
+2 x18985 +2 x18986 +2 x18987 +2 x18988 -1 x18657 -1 x18658 -1 x18659 -1 x18660 -1 x18661 -1 x18662 -1 x18663 -1 x18664 >= 0 ;
+2 x18989 +2 x18990 +2 x18991 +2 x18992 -1 x18661 -1 x18662 -1 x18663 -1 x18664 -1 x18665 -1 x18666 -1 x18667 -1 x18668 >= 0 ;
+2 x18993 +2 x18994 +2 x18995 +2 x18996 -1 x18665 -1 x18666 -1 x18667 -1 x18668 -1 x18669 -1 x18670 -1 x18671 -1 x18672 >= 0 ;
+2 x18997 +2 x18998 +2 x18999 +2 x19000 -1 x18669 -1 x18670 -1 x18671 -1 x18672 -1 x18673 -1 x18674 -1 x18675 -1 x18676 >= 0 ;
+2 x19001 +2 x19002 +2 x19003 +2 x19004 -1 x18673 -1 x18674 -1 x18675 -1 x18676 -1 x18677 -1 x18678 -1 x18679 -1 x18680 >= 0 ;
+2 x19005 +2 x19006 +2 x19007 +2 x19008 -1 x18677 -1 x18678 -1 x18679 -1 x18680 -1 x18681 -1 x18682 -1 x18683 -1 x18684 >= 0 ;
+2 x19009 +2 x19010 +2 x19011 +2 x19012 -1 x18681 -1 x18682 -1 x18683 -1 x18684 -1 x18685 -1 x18686 -1 x18687 -1 x18688 >= 0 ;
+2 x19013 +2 x19014 +2 x19015 +2 x19016 -1 x18685 -1 x18686 -1 x18687 -1 x18688 -1 x18689 -1 x18690 -1 x18691 -1 x18692 >= 0 ;
+2 x19017 +2 x19018 +2 x19019 +2 x19020 -1 x18689 -1 x18690 -1 x18691 -1 x18692 -1 x18693 -1 x18694 -1 x18695 -1 x18696 >= 0 ;
+2 x19021 +2 x19022 +2 x19023 +2 x19024 -1 x18693 -1 x18694 -1 x18695 -1 x18696 -1 x18697 -1 x18698 -1 x18699 -1 x18700 >= 0 ;
+2 x19025 +2 x19026 +2 x19027 +2 x19028 -1 x18697 -1 x18698 -1 x18699 -1 x18700 -1 x18701 -1 x18702 -1 x18703 -1 x18704 >= 0 ;
+2 x19029 +2 x19030 +2 x19031 +2 x19032 -1 x18701 -1 x18702 -1 x18703 -1 x18704 -1 x18705 -1 x18706 -1 x18707 -1 x18708 >= 0 ;
+2 x19033 +2 x19034 +2 x19035 +2 x19036 -1 x18705 -1 x18706 -1 x18707 -1 x18708 -1 x18709 -1 x18710 -1 x18711 -1 x18712 >= 0 ;
+2 x19037 +2 x19038 +2 x19039 +2 x19040 -1 x18709 -1 x18710 -1 x18711 -1 x18712 -1 x18713 -1 x18714 -1 x18715 -1 x18716 >= 0 ;
+2 x19041 +2 x19042 +2 x19043 +2 x19044 -1 x18713 -1 x18714 -1 x18715 -1 x18716 -1 x18717 -1 x18718 -1 x18719 -1 x18720 >= 0 ;
+2 x19045 +2 x19046 +2 x19047 +2 x19048 -1 x18721 -1 x18722 -1 x18723 -1 x18724 -1 x18725 -1 x18726 -1 x18727 -1 x18728 >= 0 ;
+2 x19049 +2 x19050 +2 x19051 +2 x19052 -1 x18725 -1 x18726 -1 x18727 -1 x18728 -1 x18729 -1 x18730 -1 x18731 -1 x18732 >= 0 ;
+2 x19053 +2 x19054 +2 x19055 +2 x19056 -1 x18729 -1 x18730 -1 x18731 -1 x18732 -1 x18733 -1 x18734 -1 x18735 -1 x18736 >= 0 ;
+2 x19057 +2 x19058 +2 x19059 +2 x19060 -1 x18733 -1 x18734 -1 x18735 -1 x18736 -1 x18737 -1 x18738 -1 x18739 -1 x18740 >= 0 ;
+2 x19061 +2 x19062 +2 x19063 +2 x19064 -1 x18737 -1 x18738 -1 x18739 -1 x18740 -1 x18741 -1 x18742 -1 x18743 -1 x18744 >= 0 ;
+2 x19065 +2 x19066 +2 x19067 +2 x19068 -1 x18741 -1 x18742 -1 x18743 -1 x18744 -1 x18745 -1 x18746 -1 x18747 -1 x18748 >= 0 ;
+2 x19069 +2 x19070 +2 x19071 +2 x19072 -1 x18745 -1 x18746 -1 x18747 -1 x18748 -1 x18749 -1 x18750 -1 x18751 -1 x18752 >= 0 ;
+2 x19073 +2 x19074 +2 x19075 +2 x19076 -1 x18749 -1 x18750 -1 x18751 -1 x18752 -1 x18753 -1 x18754 -1 x18755 -1 x18756 >= 0 ;
+2 x19077 +2 x19078 +2 x19079 +2 x19080 -1 x18753 -1 x18754 -1 x18755 -1 x18756 -1 x18757 -1 x18758 -1 x18759 -1 x18760 >= 0 ;
+2 x19081 +2 x19082 +2 x19083 +2 x19084 -1 x18757 -1 x18758 -1 x18759 -1 x18760 -1 x18761 -1 x18762 -1 x18763 -1 x18764 >= 0 ;
+2 x19085 +2 x19086 +2 x19087 +2 x19088 -1 x18761 -1 x18762 -1 x18763 -1 x18764 -1 x18765 -1 x18766 -1 x18767 -1 x18768 >= 0 ;
+2 x19089 +2 x19090 +2 x19091 +2 x19092 -1 x18765 -1 x18766 -1 x18767 -1 x18768 -1 x18769 -1 x18770 -1 x18771 -1 x18772 >= 0 ;
+2 x19093 +2 x19094 +2 x19095 +2 x19096 -1 x18769 -1 x18770 -1 x18771 -1 x18772 -1 x18773 -1 x18774 -1 x18775 -1 x18776 >= 0 ;
+2 x19097 +2 x19098 +2 x19099 +2 x19100 -1 x18773 -1 x18774 -1 x18775 -1 x18776 -1 x18777 -1 x18778 -1 x18779 -1 x18780 >= 0 ;
+2 x19101 +2 x19102 +2 x19103 +2 x19104 -1 x18777 -1 x18778 -1 x18779 -1 x18780 -1 x18781 -1 x18782 -1 x18783 -1 x18784 >= 0 ;
+2 x19105 +2 x19106 +2 x19107 +2 x19108 -1 x18781 -1 x18782 -1 x18783 -1 x18784 -1 x18785 -1 x18786 -1 x18787 -1 x18788 >= 0 ;
+2 x19109 +2 x19110 +2 x19111 +2 x19112 -1 x18785 -1 x18786 -1 x18787 -1 x18788 -1 x18789 -1 x18790 -1 x18791 -1 x18792 >= 0 ;
+2 x19113 +2 x19114 +2 x19115 +2 x19116 -1 x18789 -1 x18790 -1 x18791 -1 x18792 -1 x18793 -1 x18794 -1 x18795 -1 x18796 >= 0 ;
+2 x19117 +2 x19118 +2 x19119 +2 x19120 -1 x18793 -1 x18794 -1 x18795 -1 x18796 -1 x18797 -1 x18798 -1 x18799 -1 x18800 >= 0 ;
+2 x19121 +2 x19122 +2 x19123 +2 x19124 -1 x18797 -1 x18798 -1 x18799 -1 x18800 -1 x18801 -1 x18802 -1 x18803 -1 x18804 >= 0 ;
+2 x19125 +2 x19126 +2 x19127 +2 x19128 -1 x18801 -1 x18802 -1 x18803 -1 x18804 -1 x18805 -1 x18806 -1 x18807 -1 x18808 >= 0 ;
+2 x19129 +2 x19130 +2 x19131 +2 x19132 -1 x18805 -1 x18806 -1 x18807 -1 x18808 -1 x18809 -1 x18810 -1 x18811 -1 x18812 >= 0 ;
+2 x19133 +2 x19134 +2 x19135 +2 x19136 -1 x18809 -1 x18810 -1 x18811 -1 x18812 -1 x18813 -1 x18814 -1 x18815 -1 x18816 >= 0 ;
+2 x19137 +2 x19138 +2 x19139 +2 x19140 -1 x18813 -1 x18814 -1 x18815 -1 x18816 -1 x18817 -1 x18818 -1 x18819 -1 x18820 >= 0 ;
+2 x19141 +2 x19142 +2 x19143 +2 x19144 -1 x18817 -1 x18818 -1 x18819 -1 x18820 -1 x18821 -1 x18822 -1 x18823 -1 x18824 >= 0 ;
+2 x19145 +2 x19146 +2 x19147 +2 x19148 -1 x18821 -1 x18822 -1 x18823 -1 x18824 -1 x18825 -1 x18826 -1 x18827 -1 x18828 >= 0 ;
+2 x19149 +2 x19150 +2 x19151 +2 x19152 -1 x18825 -1 x18826 -1 x18827 -1 x18828 -1 x18829 -1 x18830 -1 x18831 -1 x18832 >= 0 ;
+2 x19153 +2 x19154 +2 x19155 +2 x19156 -1 x18829 -1 x18830 -1 x18831 -1 x18832 -1 x18833 -1 x18834 -1 x18835 -1 x18836 >= 0 ;
+2 x19157 +2 x19158 +2 x19159 +2 x19160 -1 x18833 -1 x18834 -1 x18835 -1 x18836 -1 x18837 -1 x18838 -1 x18839 -1 x18840 >= 0 ;
+2 x19161 +2 x19162 +2 x19163 +2 x19164 -1 x18837 -1 x18838 -1 x18839 -1 x18840 -1 x18841 -1 x18842 -1 x18843 -1 x18844 >= 0 ;
+2 x19165 +2 x19166 +2 x19167 +2 x19168 -1 x18841 -1 x18842 -1 x18843 -1 x18844 -1 x18845 -1 x18846 -1 x18847 -1 x18848 >= 0 ;
+2 x19169 +2 x19170 +2 x19171 +2 x19172 -1 x18845 -1 x18846 -1 x18847 -1 x18848 -1 x18849 -1 x18850 -1 x18851 -1 x18852 >= 0 ;
+2 x19173 +2 x19174 +2 x19175 +2 x19176 -1 x18849 -1 x18850 -1 x18851 -1 x18852 -1 x18853 -1 x18854 -1 x18855 -1 x18856 >= 0 ;
+2 x19177 +2 x19178 +2 x19179 +2 x19180 -1 x18853 -1 x18854 -1 x18855 -1 x18856 -1 x18857 -1 x18858 -1 x18859 -1 x18860 >= 0 ;
+2 x19181 +2 x19182 +2 x19183 +2 x19184 -1 x18857 -1 x18858 -1 x18859 -1 x18860 -1 x18861 -1 x18862 -1 x18863 -1 x18864 >= 0 ;
+2 x19185 +2 x19186 +2 x19187 +2 x19188 -1 x18861 -1 x18862 -1 x18863 -1 x18864 -1 x18865 -1 x18866 -1 x18867 -1 x18868 >= 0 ;
+2 x19189 +2 x19190 +2 x19191 +2 x19192 -1 x18865 -1 x18866 -1 x18867 -1 x18868 -1 x18869 -1 x18870 -1 x18871 -1 x18872 >= 0 ;
+2 x19193 +2 x19194 +2 x19195 +2 x19196 -1 x18869 -1 x18870 -1 x18871 -1 x18872 -1 x18873 -1 x18874 -1 x18875 -1 x18876 >= 0 ;
+2 x19197 +2 x19198 +2 x19199 +2 x19200 -1 x18873 -1 x18874 -1 x18875 -1 x18876 -1 x18877 -1 x18878 -1 x18879 -1 x18880 >= 0 ;
+2 x19201 +2 x19202 +2 x19203 +2 x19204 -1 x18877 -1 x18878 -1 x18879 -1 x18880 -1 x18881 -1 x18882 -1 x18883 -1 x18884 >= 0 ;
+2 x19205 +2 x19206 +2 x19207 +2 x19208 -1 x18881 -1 x18882 -1 x18883 -1 x18884 -1 x18885 -1 x18886 -1 x18887 -1 x18888 >= 0 ;
+2 x19209 +2 x19210 +2 x19211 +2 x19212 -1 x18885 -1 x18886 -1 x18887 -1 x18888 -1 x18889 -1 x18890 -1 x18891 -1 x18892 >= 0 ;
+2 x19213 +2 x19214 +2 x19215 +2 x19216 -1 x18889 -1 x18890 -1 x18891 -1 x18892 -1 x18893 -1 x18894 -1 x18895 -1 x18896 >= 0 ;
+2 x19217 +2 x19218 +2 x19219 +2 x19220 -1 x18893 -1 x18894 -1 x18895 -1 x18896 -1 x18897 -1 x18898 -1 x18899 -1 x18900 >= 0 ;
+2 x19221 +2 x19222 +2 x19223 +2 x19224 -1 x18897 -1 x18898 -1 x18899 -1 x18900 -1 x18901 -1 x18902 -1 x18903 -1 x18904 >= 0 ;
+2 x19225 +2 x19226 +2 x19227 +2 x19228 -1 x18901 -1 x18902 -1 x18903 -1 x18904 -1 x18905 -1 x18906 -1 x18907 -1 x18908 >= 0 ;
+2 x19229 +2 x19230 +2 x19231 +2 x19232 -1 x18905 -1 x18906 -1 x18907 -1 x18908 -1 x18909 -1 x18910 -1 x18911 -1 x18912 >= 0 ;
+2 x19233 +2 x19234 +2 x19235 +2 x19236 -1 x18909 -1 x18910 -1 x18911 -1 x18912 -1 x18913 -1 x18914 -1 x18915 -1 x18916 >= 0 ;
+2 x19237 +2 x19238 +2 x19239 +2 x19240 -1 x18913 -1 x18914 -1 x18915 -1 x18916 -1 x18917 -1 x18918 -1 x18919 -1 x18920 >= 0 ;
+2 x19241 +2 x19242 +2 x19243 +2 x19244 -1 x18917 -1 x18918 -1 x18919 -1 x18920 -1 x18921 -1 x18922 -1 x18923 -1 x18924 >= 0 ;
+2 x19245 +2 x19246 +2 x19247 +2 x19248 -1 x18921 -1 x18922 -1 x18923 -1 x18924 -1 x18925 -1 x18926 -1 x18927 -1 x18928 >= 0 ;
+2 x19249 +2 x19250 +2 x19251 +2 x19252 -1 x18925 -1 x18926 -1 x18927 -1 x18928 -1 x18929 -1 x18930 -1 x18931 -1 x18932 >= 0 ;
+2 x19253 +2 x19254 +2 x19255 +2 x19256 -1 x18929 -1 x18930 -1 x18931 -1 x18932 -1 x18933 -1 x18934 -1 x18935 -1 x18936 >= 0 ;
+2 x19257 +2 x19258 +2 x19259 +2 x19260 -1 x18933 -1 x18934 -1 x18935 -1 x18936 -1 x18937 -1 x18938 -1 x18939 -1 x18940 >= 0 ;
+2 x19261 +2 x19262 +2 x19263 +2 x19264 -1 x18937 -1 x18938 -1 x18939 -1 x18940 -1 x18941 -1 x18942 -1 x18943 -1 x18944 >= 0 ;
+2 x19265 +2 x19266 +2 x19267 +2 x19268 -1 x18941 -1 x18942 -1 x18943 -1 x18944 -1 x18945 -1 x18946 -1 x18947 -1 x18948 >= 0 ;
+2 x19269 +2 x19270 +2 x19271 +2 x19272 -1 x18945 -1 x18946 -1 x18947 -1 x18948 -1 x18949 -1 x18950 -1 x18951 -1 x18952 >= 0 ;
+2 x19273 +2 x19274 +2 x19275 +2 x19276 -1 x18949 -1 x18950 -1 x18951 -1 x18952 -1 x18953 -1 x18954 -1 x18955 -1 x18956 >= 0 ;
+2 x19277 +2 x19278 +2 x19279 +2 x19280 -1 x18953 -1 x18954 -1 x18955 -1 x18956 -1 x18957 -1 x18958 -1 x18959 -1 x18960 >= 0 ;
+2 x19281 +2 x19282 +2 x19283 +2 x19284 -1 x18957 -1 x18958 -1 x18959 -1 x18960 -1 x18961 -1 x18962 -1 x18963 -1 x18964 >= 0 ;
+2 x19285 +2 x19286 +2 x19287 +2 x19288 -1 x18961 -1 x18962 -1 x18963 -1 x18964 -1 x18965 -1 x18966 -1 x18967 -1 x18968 >= 0 ;
+2 x19289 +2 x19290 +2 x19291 +2 x19292 -1 x18965 -1 x18966 -1 x18967 -1 x18968 -1 x18969 -1 x18970 -1 x18971 -1 x18972 >= 0 ;
+2 x19293 +2 x19294 +2 x19295 +2 x19296 -1 x18969 -1 x18970 -1 x18971 -1 x18972 -1 x18973 -1 x18974 -1 x18975 -1 x18976 >= 0 ;
+2 x19297 +2 x19298 +2 x19299 +2 x19300 -1 x18973 -1 x18974 -1 x18975 -1 x18976 -1 x18977 -1 x18978 -1 x18979 -1 x18980 >= 0 ;
+2 x19301 +2 x19302 +2 x19303 +2 x19304 -1 x18977 -1 x18978 -1 x18979 -1 x18980 -1 x18981 -1 x18982 -1 x18983 -1 x18984 >= 0 ;
+2 x19305 +2 x19306 +2 x19307 +2 x19308 -1 x18981 -1 x18982 -1 x18983 -1 x18984 -1 x18985 -1 x18986 -1 x18987 -1 x18988 >= 0 ;
+2 x19309 +2 x19310 +2 x19311 +2 x19312 -1 x18985 -1 x18986 -1 x18987 -1 x18988 -1 x18989 -1 x18990 -1 x18991 -1 x18992 >= 0 ;
+2 x19313 +2 x19314 +2 x19315 +2 x19316 -1 x18989 -1 x18990 -1 x18991 -1 x18992 -1 x18993 -1 x18994 -1 x18995 -1 x18996 >= 0 ;
+2 x19317 +2 x19318 +2 x19319 +2 x19320 -1 x18993 -1 x18994 -1 x18995 -1 x18996 -1 x18997 -1 x18998 -1 x18999 -1 x19000 >= 0 ;
+2 x19321 +2 x19322 +2 x19323 +2 x19324 -1 x18997 -1 x18998 -1 x18999 -1 x19000 -1 x19001 -1 x19002 -1 x19003 -1 x19004 >= 0 ;
+2 x19325 +2 x19326 +2 x19327 +2 x19328 -1 x19001 -1 x19002 -1 x19003 -1 x19004 -1 x19005 -1 x19006 -1 x19007 -1 x19008 >= 0 ;
+2 x19329 +2 x19330 +2 x19331 +2 x19332 -1 x19005 -1 x19006 -1 x19007 -1 x19008 -1 x19009 -1 x19010 -1 x19011 -1 x19012 >= 0 ;
+2 x19333 +2 x19334 +2 x19335 +2 x19336 -1 x19009 -1 x19010 -1 x19011 -1 x19012 -1 x19013 -1 x19014 -1 x19015 -1 x19016 >= 0 ;
+2 x19337 +2 x19338 +2 x19339 +2 x19340 -1 x19013 -1 x19014 -1 x19015 -1 x19016 -1 x19017 -1 x19018 -1 x19019 -1 x19020 >= 0 ;
+2 x19341 +2 x19342 +2 x19343 +2 x19344 -1 x19017 -1 x19018 -1 x19019 -1 x19020 -1 x19021 -1 x19022 -1 x19023 -1 x19024 >= 0 ;
+2 x19345 +2 x19346 +2 x19347 +2 x19348 -1 x19021 -1 x19022 -1 x19023 -1 x19024 -1 x19025 -1 x19026 -1 x19027 -1 x19028 >= 0 ;
+2 x19349 +2 x19350 +2 x19351 +2 x19352 -1 x19025 -1 x19026 -1 x19027 -1 x19028 -1 x19029 -1 x19030 -1 x19031 -1 x19032 >= 0 ;
+2 x19353 +2 x19354 +2 x19355 +2 x19356 -1 x19029 -1 x19030 -1 x19031 -1 x19032 -1 x19033 -1 x19034 -1 x19035 -1 x19036 >= 0 ;
+2 x19357 +2 x19358 +2 x19359 +2 x19360 -1 x19033 -1 x19034 -1 x19035 -1 x19036 -1 x19037 -1 x19038 -1 x19039 -1 x19040 >= 0 ;
+2 x19361 +2 x19362 +2 x19363 +2 x19364 -1 x19037 -1 x19038 -1 x19039 -1 x19040 -1 x19041 -1 x19042 -1 x19043 -1 x19044 >= 0 ;
+2 x19365 +2 x19366 +2 x19367 +2 x19368 -1 x19045 -1 x19046 -1 x19047 -1 x19048 -1 x19049 -1 x19050 -1 x19051 -1 x19052 >= 0 ;
+2 x19369 +2 x19370 +2 x19371 +2 x19372 -1 x19049 -1 x19050 -1 x19051 -1 x19052 -1 x19053 -1 x19054 -1 x19055 -1 x19056 >= 0 ;
+2 x19373 +2 x19374 +2 x19375 +2 x19376 -1 x19053 -1 x19054 -1 x19055 -1 x19056 -1 x19057 -1 x19058 -1 x19059 -1 x19060 >= 0 ;
+2 x19377 +2 x19378 +2 x19379 +2 x19380 -1 x19057 -1 x19058 -1 x19059 -1 x19060 -1 x19061 -1 x19062 -1 x19063 -1 x19064 >= 0 ;
+2 x19381 +2 x19382 +2 x19383 +2 x19384 -1 x19061 -1 x19062 -1 x19063 -1 x19064 -1 x19065 -1 x19066 -1 x19067 -1 x19068 >= 0 ;
+2 x19385 +2 x19386 +2 x19387 +2 x19388 -1 x19065 -1 x19066 -1 x19067 -1 x19068 -1 x19069 -1 x19070 -1 x19071 -1 x19072 >= 0 ;
+2 x19389 +2 x19390 +2 x19391 +2 x19392 -1 x19069 -1 x19070 -1 x19071 -1 x19072 -1 x19073 -1 x19074 -1 x19075 -1 x19076 >= 0 ;
+2 x19393 +2 x19394 +2 x19395 +2 x19396 -1 x19073 -1 x19074 -1 x19075 -1 x19076 -1 x19077 -1 x19078 -1 x19079 -1 x19080 >= 0 ;
+2 x19397 +2 x19398 +2 x19399 +2 x19400 -1 x19077 -1 x19078 -1 x19079 -1 x19080 -1 x19081 -1 x19082 -1 x19083 -1 x19084 >= 0 ;
+2 x19401 +2 x19402 +2 x19403 +2 x19404 -1 x19081 -1 x19082 -1 x19083 -1 x19084 -1 x19085 -1 x19086 -1 x19087 -1 x19088 >= 0 ;
+2 x19405 +2 x19406 +2 x19407 +2 x19408 -1 x19085 -1 x19086 -1 x19087 -1 x19088 -1 x19089 -1 x19090 -1 x19091 -1 x19092 >= 0 ;
+2 x19409 +2 x19410 +2 x19411 +2 x19412 -1 x19089 -1 x19090 -1 x19091 -1 x19092 -1 x19093 -1 x19094 -1 x19095 -1 x19096 >= 0 ;
+2 x19413 +2 x19414 +2 x19415 +2 x19416 -1 x19093 -1 x19094 -1 x19095 -1 x19096 -1 x19097 -1 x19098 -1 x19099 -1 x19100 >= 0 ;
+2 x19417 +2 x19418 +2 x19419 +2 x19420 -1 x19097 -1 x19098 -1 x19099 -1 x19100 -1 x19101 -1 x19102 -1 x19103 -1 x19104 >= 0 ;
+2 x19421 +2 x19422 +2 x19423 +2 x19424 -1 x19101 -1 x19102 -1 x19103 -1 x19104 -1 x19105 -1 x19106 -1 x19107 -1 x19108 >= 0 ;
+2 x19425 +2 x19426 +2 x19427 +2 x19428 -1 x19105 -1 x19106 -1 x19107 -1 x19108 -1 x19109 -1 x19110 -1 x19111 -1 x19112 >= 0 ;
+2 x19429 +2 x19430 +2 x19431 +2 x19432 -1 x19109 -1 x19110 -1 x19111 -1 x19112 -1 x19113 -1 x19114 -1 x19115 -1 x19116 >= 0 ;
+2 x19433 +2 x19434 +2 x19435 +2 x19436 -1 x19113 -1 x19114 -1 x19115 -1 x19116 -1 x19117 -1 x19118 -1 x19119 -1 x19120 >= 0 ;
+2 x19437 +2 x19438 +2 x19439 +2 x19440 -1 x19117 -1 x19118 -1 x19119 -1 x19120 -1 x19121 -1 x19122 -1 x19123 -1 x19124 >= 0 ;
+2 x19441 +2 x19442 +2 x19443 +2 x19444 -1 x19121 -1 x19122 -1 x19123 -1 x19124 -1 x19125 -1 x19126 -1 x19127 -1 x19128 >= 0 ;
+2 x19445 +2 x19446 +2 x19447 +2 x19448 -1 x19125 -1 x19126 -1 x19127 -1 x19128 -1 x19129 -1 x19130 -1 x19131 -1 x19132 >= 0 ;
+2 x19449 +2 x19450 +2 x19451 +2 x19452 -1 x19129 -1 x19130 -1 x19131 -1 x19132 -1 x19133 -1 x19134 -1 x19135 -1 x19136 >= 0 ;
+2 x19453 +2 x19454 +2 x19455 +2 x19456 -1 x19133 -1 x19134 -1 x19135 -1 x19136 -1 x19137 -1 x19138 -1 x19139 -1 x19140 >= 0 ;
+2 x19457 +2 x19458 +2 x19459 +2 x19460 -1 x19137 -1 x19138 -1 x19139 -1 x19140 -1 x19141 -1 x19142 -1 x19143 -1 x19144 >= 0 ;
+2 x19461 +2 x19462 +2 x19463 +2 x19464 -1 x19141 -1 x19142 -1 x19143 -1 x19144 -1 x19145 -1 x19146 -1 x19147 -1 x19148 >= 0 ;
+2 x19465 +2 x19466 +2 x19467 +2 x19468 -1 x19145 -1 x19146 -1 x19147 -1 x19148 -1 x19149 -1 x19150 -1 x19151 -1 x19152 >= 0 ;
+2 x19469 +2 x19470 +2 x19471 +2 x19472 -1 x19149 -1 x19150 -1 x19151 -1 x19152 -1 x19153 -1 x19154 -1 x19155 -1 x19156 >= 0 ;
+2 x19473 +2 x19474 +2 x19475 +2 x19476 -1 x19153 -1 x19154 -1 x19155 -1 x19156 -1 x19157 -1 x19158 -1 x19159 -1 x19160 >= 0 ;
+2 x19477 +2 x19478 +2 x19479 +2 x19480 -1 x19157 -1 x19158 -1 x19159 -1 x19160 -1 x19161 -1 x19162 -1 x19163 -1 x19164 >= 0 ;
+2 x19481 +2 x19482 +2 x19483 +2 x19484 -1 x19161 -1 x19162 -1 x19163 -1 x19164 -1 x19165 -1 x19166 -1 x19167 -1 x19168 >= 0 ;
+2 x19485 +2 x19486 +2 x19487 +2 x19488 -1 x19165 -1 x19166 -1 x19167 -1 x19168 -1 x19169 -1 x19170 -1 x19171 -1 x19172 >= 0 ;
+2 x19489 +2 x19490 +2 x19491 +2 x19492 -1 x19169 -1 x19170 -1 x19171 -1 x19172 -1 x19173 -1 x19174 -1 x19175 -1 x19176 >= 0 ;
+2 x19493 +2 x19494 +2 x19495 +2 x19496 -1 x19173 -1 x19174 -1 x19175 -1 x19176 -1 x19177 -1 x19178 -1 x19179 -1 x19180 >= 0 ;
+2 x19497 +2 x19498 +2 x19499 +2 x19500 -1 x19177 -1 x19178 -1 x19179 -1 x19180 -1 x19181 -1 x19182 -1 x19183 -1 x19184 >= 0 ;
+2 x19501 +2 x19502 +2 x19503 +2 x19504 -1 x19181 -1 x19182 -1 x19183 -1 x19184 -1 x19185 -1 x19186 -1 x19187 -1 x19188 >= 0 ;
+2 x19505 +2 x19506 +2 x19507 +2 x19508 -1 x19185 -1 x19186 -1 x19187 -1 x19188 -1 x19189 -1 x19190 -1 x19191 -1 x19192 >= 0 ;
+2 x19509 +2 x19510 +2 x19511 +2 x19512 -1 x19189 -1 x19190 -1 x19191 -1 x19192 -1 x19193 -1 x19194 -1 x19195 -1 x19196 >= 0 ;
+2 x19513 +2 x19514 +2 x19515 +2 x19516 -1 x19193 -1 x19194 -1 x19195 -1 x19196 -1 x19197 -1 x19198 -1 x19199 -1 x19200 >= 0 ;
+2 x19517 +2 x19518 +2 x19519 +2 x19520 -1 x19197 -1 x19198 -1 x19199 -1 x19200 -1 x19201 -1 x19202 -1 x19203 -1 x19204 >= 0 ;
+2 x19521 +2 x19522 +2 x19523 +2 x19524 -1 x19201 -1 x19202 -1 x19203 -1 x19204 -1 x19205 -1 x19206 -1 x19207 -1 x19208 >= 0 ;
+2 x19525 +2 x19526 +2 x19527 +2 x19528 -1 x19205 -1 x19206 -1 x19207 -1 x19208 -1 x19209 -1 x19210 -1 x19211 -1 x19212 >= 0 ;
+2 x19529 +2 x19530 +2 x19531 +2 x19532 -1 x19209 -1 x19210 -1 x19211 -1 x19212 -1 x19213 -1 x19214 -1 x19215 -1 x19216 >= 0 ;
+2 x19533 +2 x19534 +2 x19535 +2 x19536 -1 x19213 -1 x19214 -1 x19215 -1 x19216 -1 x19217 -1 x19218 -1 x19219 -1 x19220 >= 0 ;
+2 x19537 +2 x19538 +2 x19539 +2 x19540 -1 x19217 -1 x19218 -1 x19219 -1 x19220 -1 x19221 -1 x19222 -1 x19223 -1 x19224 >= 0 ;
+2 x19541 +2 x19542 +2 x19543 +2 x19544 -1 x19221 -1 x19222 -1 x19223 -1 x19224 -1 x19225 -1 x19226 -1 x19227 -1 x19228 >= 0 ;
+2 x19545 +2 x19546 +2 x19547 +2 x19548 -1 x19225 -1 x19226 -1 x19227 -1 x19228 -1 x19229 -1 x19230 -1 x19231 -1 x19232 >= 0 ;
+2 x19549 +2 x19550 +2 x19551 +2 x19552 -1 x19229 -1 x19230 -1 x19231 -1 x19232 -1 x19233 -1 x19234 -1 x19235 -1 x19236 >= 0 ;
+2 x19553 +2 x19554 +2 x19555 +2 x19556 -1 x19233 -1 x19234 -1 x19235 -1 x19236 -1 x19237 -1 x19238 -1 x19239 -1 x19240 >= 0 ;
+2 x19557 +2 x19558 +2 x19559 +2 x19560 -1 x19237 -1 x19238 -1 x19239 -1 x19240 -1 x19241 -1 x19242 -1 x19243 -1 x19244 >= 0 ;
+2 x19561 +2 x19562 +2 x19563 +2 x19564 -1 x19241 -1 x19242 -1 x19243 -1 x19244 -1 x19245 -1 x19246 -1 x19247 -1 x19248 >= 0 ;
+2 x19565 +2 x19566 +2 x19567 +2 x19568 -1 x19245 -1 x19246 -1 x19247 -1 x19248 -1 x19249 -1 x19250 -1 x19251 -1 x19252 >= 0 ;
+2 x19569 +2 x19570 +2 x19571 +2 x19572 -1 x19249 -1 x19250 -1 x19251 -1 x19252 -1 x19253 -1 x19254 -1 x19255 -1 x19256 >= 0 ;
+2 x19573 +2 x19574 +2 x19575 +2 x19576 -1 x19253 -1 x19254 -1 x19255 -1 x19256 -1 x19257 -1 x19258 -1 x19259 -1 x19260 >= 0 ;
+2 x19577 +2 x19578 +2 x19579 +2 x19580 -1 x19257 -1 x19258 -1 x19259 -1 x19260 -1 x19261 -1 x19262 -1 x19263 -1 x19264 >= 0 ;
+2 x19581 +2 x19582 +2 x19583 +2 x19584 -1 x19261 -1 x19262 -1 x19263 -1 x19264 -1 x19265 -1 x19266 -1 x19267 -1 x19268 >= 0 ;
+2 x19585 +2 x19586 +2 x19587 +2 x19588 -1 x19265 -1 x19266 -1 x19267 -1 x19268 -1 x19269 -1 x19270 -1 x19271 -1 x19272 >= 0 ;
+2 x19589 +2 x19590 +2 x19591 +2 x19592 -1 x19269 -1 x19270 -1 x19271 -1 x19272 -1 x19273 -1 x19274 -1 x19275 -1 x19276 >= 0 ;
+2 x19593 +2 x19594 +2 x19595 +2 x19596 -1 x19273 -1 x19274 -1 x19275 -1 x19276 -1 x19277 -1 x19278 -1 x19279 -1 x19280 >= 0 ;
+2 x19597 +2 x19598 +2 x19599 +2 x19600 -1 x19277 -1 x19278 -1 x19279 -1 x19280 -1 x19281 -1 x19282 -1 x19283 -1 x19284 >= 0 ;
+2 x19601 +2 x19602 +2 x19603 +2 x19604 -1 x19281 -1 x19282 -1 x19283 -1 x19284 -1 x19285 -1 x19286 -1 x19287 -1 x19288 >= 0 ;
+2 x19605 +2 x19606 +2 x19607 +2 x19608 -1 x19285 -1 x19286 -1 x19287 -1 x19288 -1 x19289 -1 x19290 -1 x19291 -1 x19292 >= 0 ;
+2 x19609 +2 x19610 +2 x19611 +2 x19612 -1 x19289 -1 x19290 -1 x19291 -1 x19292 -1 x19293 -1 x19294 -1 x19295 -1 x19296 >= 0 ;
+2 x19613 +2 x19614 +2 x19615 +2 x19616 -1 x19293 -1 x19294 -1 x19295 -1 x19296 -1 x19297 -1 x19298 -1 x19299 -1 x19300 >= 0 ;
+2 x19617 +2 x19618 +2 x19619 +2 x19620 -1 x19297 -1 x19298 -1 x19299 -1 x19300 -1 x19301 -1 x19302 -1 x19303 -1 x19304 >= 0 ;
+2 x19621 +2 x19622 +2 x19623 +2 x19624 -1 x19301 -1 x19302 -1 x19303 -1 x19304 -1 x19305 -1 x19306 -1 x19307 -1 x19308 >= 0 ;
+2 x19625 +2 x19626 +2 x19627 +2 x19628 -1 x19305 -1 x19306 -1 x19307 -1 x19308 -1 x19309 -1 x19310 -1 x19311 -1 x19312 >= 0 ;
+2 x19629 +2 x19630 +2 x19631 +2 x19632 -1 x19309 -1 x19310 -1 x19311 -1 x19312 -1 x19313 -1 x19314 -1 x19315 -1 x19316 >= 0 ;
+2 x19633 +2 x19634 +2 x19635 +2 x19636 -1 x19313 -1 x19314 -1 x19315 -1 x19316 -1 x19317 -1 x19318 -1 x19319 -1 x19320 >= 0 ;
+2 x19637 +2 x19638 +2 x19639 +2 x19640 -1 x19317 -1 x19318 -1 x19319 -1 x19320 -1 x19321 -1 x19322 -1 x19323 -1 x19324 >= 0 ;
+2 x19641 +2 x19642 +2 x19643 +2 x19644 -1 x19321 -1 x19322 -1 x19323 -1 x19324 -1 x19325 -1 x19326 -1 x19327 -1 x19328 >= 0 ;
+2 x19645 +2 x19646 +2 x19647 +2 x19648 -1 x19325 -1 x19326 -1 x19327 -1 x19328 -1 x19329 -1 x19330 -1 x19331 -1 x19332 >= 0 ;
+2 x19649 +2 x19650 +2 x19651 +2 x19652 -1 x19329 -1 x19330 -1 x19331 -1 x19332 -1 x19333 -1 x19334 -1 x19335 -1 x19336 >= 0 ;
+2 x19653 +2 x19654 +2 x19655 +2 x19656 -1 x19333 -1 x19334 -1 x19335 -1 x19336 -1 x19337 -1 x19338 -1 x19339 -1 x19340 >= 0 ;
+2 x19657 +2 x19658 +2 x19659 +2 x19660 -1 x19337 -1 x19338 -1 x19339 -1 x19340 -1 x19341 -1 x19342 -1 x19343 -1 x19344 >= 0 ;
+2 x19661 +2 x19662 +2 x19663 +2 x19664 -1 x19341 -1 x19342 -1 x19343 -1 x19344 -1 x19345 -1 x19346 -1 x19347 -1 x19348 >= 0 ;
+2 x19665 +2 x19666 +2 x19667 +2 x19668 -1 x19345 -1 x19346 -1 x19347 -1 x19348 -1 x19349 -1 x19350 -1 x19351 -1 x19352 >= 0 ;
+2 x19669 +2 x19670 +2 x19671 +2 x19672 -1 x19349 -1 x19350 -1 x19351 -1 x19352 -1 x19353 -1 x19354 -1 x19355 -1 x19356 >= 0 ;
+2 x19673 +2 x19674 +2 x19675 +2 x19676 -1 x19353 -1 x19354 -1 x19355 -1 x19356 -1 x19357 -1 x19358 -1 x19359 -1 x19360 >= 0 ;
+2 x19677 +2 x19678 +2 x19679 +2 x19680 -1 x19357 -1 x19358 -1 x19359 -1 x19360 -1 x19361 -1 x19362 -1 x19363 -1 x19364 >= 0 ;
+2 x19681 +2 x19682 +2 x19683 +2 x19684 -1 x19365 -1 x19366 -1 x19367 -1 x19368 -1 x19369 -1 x19370 -1 x19371 -1 x19372 >= 0 ;
+2 x19685 +2 x19686 +2 x19687 +2 x19688 -1 x19369 -1 x19370 -1 x19371 -1 x19372 -1 x19373 -1 x19374 -1 x19375 -1 x19376 >= 0 ;
+2 x19689 +2 x19690 +2 x19691 +2 x19692 -1 x19373 -1 x19374 -1 x19375 -1 x19376 -1 x19377 -1 x19378 -1 x19379 -1 x19380 >= 0 ;
+2 x19693 +2 x19694 +2 x19695 +2 x19696 -1 x19377 -1 x19378 -1 x19379 -1 x19380 -1 x19381 -1 x19382 -1 x19383 -1 x19384 >= 0 ;
+2 x19697 +2 x19698 +2 x19699 +2 x19700 -1 x19381 -1 x19382 -1 x19383 -1 x19384 -1 x19385 -1 x19386 -1 x19387 -1 x19388 >= 0 ;
+2 x19701 +2 x19702 +2 x19703 +2 x19704 -1 x19385 -1 x19386 -1 x19387 -1 x19388 -1 x19389 -1 x19390 -1 x19391 -1 x19392 >= 0 ;
+2 x19705 +2 x19706 +2 x19707 +2 x19708 -1 x19389 -1 x19390 -1 x19391 -1 x19392 -1 x19393 -1 x19394 -1 x19395 -1 x19396 >= 0 ;
+2 x19709 +2 x19710 +2 x19711 +2 x19712 -1 x19393 -1 x19394 -1 x19395 -1 x19396 -1 x19397 -1 x19398 -1 x19399 -1 x19400 >= 0 ;
+2 x19713 +2 x19714 +2 x19715 +2 x19716 -1 x19397 -1 x19398 -1 x19399 -1 x19400 -1 x19401 -1 x19402 -1 x19403 -1 x19404 >= 0 ;
+2 x19717 +2 x19718 +2 x19719 +2 x19720 -1 x19401 -1 x19402 -1 x19403 -1 x19404 -1 x19405 -1 x19406 -1 x19407 -1 x19408 >= 0 ;
+2 x19721 +2 x19722 +2 x19723 +2 x19724 -1 x19405 -1 x19406 -1 x19407 -1 x19408 -1 x19409 -1 x19410 -1 x19411 -1 x19412 >= 0 ;
+2 x19725 +2 x19726 +2 x19727 +2 x19728 -1 x19409 -1 x19410 -1 x19411 -1 x19412 -1 x19413 -1 x19414 -1 x19415 -1 x19416 >= 0 ;
+2 x19729 +2 x19730 +2 x19731 +2 x19732 -1 x19413 -1 x19414 -1 x19415 -1 x19416 -1 x19417 -1 x19418 -1 x19419 -1 x19420 >= 0 ;
+2 x19733 +2 x19734 +2 x19735 +2 x19736 -1 x19417 -1 x19418 -1 x19419 -1 x19420 -1 x19421 -1 x19422 -1 x19423 -1 x19424 >= 0 ;
+2 x19737 +2 x19738 +2 x19739 +2 x19740 -1 x19421 -1 x19422 -1 x19423 -1 x19424 -1 x19425 -1 x19426 -1 x19427 -1 x19428 >= 0 ;
+2 x19741 +2 x19742 +2 x19743 +2 x19744 -1 x19425 -1 x19426 -1 x19427 -1 x19428 -1 x19429 -1 x19430 -1 x19431 -1 x19432 >= 0 ;
+2 x19745 +2 x19746 +2 x19747 +2 x19748 -1 x19429 -1 x19430 -1 x19431 -1 x19432 -1 x19433 -1 x19434 -1 x19435 -1 x19436 >= 0 ;
+2 x19749 +2 x19750 +2 x19751 +2 x19752 -1 x19433 -1 x19434 -1 x19435 -1 x19436 -1 x19437 -1 x19438 -1 x19439 -1 x19440 >= 0 ;
+2 x19753 +2 x19754 +2 x19755 +2 x19756 -1 x19437 -1 x19438 -1 x19439 -1 x19440 -1 x19441 -1 x19442 -1 x19443 -1 x19444 >= 0 ;
+2 x19757 +2 x19758 +2 x19759 +2 x19760 -1 x19441 -1 x19442 -1 x19443 -1 x19444 -1 x19445 -1 x19446 -1 x19447 -1 x19448 >= 0 ;
+2 x19761 +2 x19762 +2 x19763 +2 x19764 -1 x19445 -1 x19446 -1 x19447 -1 x19448 -1 x19449 -1 x19450 -1 x19451 -1 x19452 >= 0 ;
+2 x19765 +2 x19766 +2 x19767 +2 x19768 -1 x19449 -1 x19450 -1 x19451 -1 x19452 -1 x19453 -1 x19454 -1 x19455 -1 x19456 >= 0 ;
+2 x19769 +2 x19770 +2 x19771 +2 x19772 -1 x19453 -1 x19454 -1 x19455 -1 x19456 -1 x19457 -1 x19458 -1 x19459 -1 x19460 >= 0 ;
+2 x19773 +2 x19774 +2 x19775 +2 x19776 -1 x19457 -1 x19458 -1 x19459 -1 x19460 -1 x19461 -1 x19462 -1 x19463 -1 x19464 >= 0 ;
+2 x19777 +2 x19778 +2 x19779 +2 x19780 -1 x19461 -1 x19462 -1 x19463 -1 x19464 -1 x19465 -1 x19466 -1 x19467 -1 x19468 >= 0 ;
+2 x19781 +2 x19782 +2 x19783 +2 x19784 -1 x19465 -1 x19466 -1 x19467 -1 x19468 -1 x19469 -1 x19470 -1 x19471 -1 x19472 >= 0 ;
+2 x19785 +2 x19786 +2 x19787 +2 x19788 -1 x19469 -1 x19470 -1 x19471 -1 x19472 -1 x19473 -1 x19474 -1 x19475 -1 x19476 >= 0 ;
+2 x19789 +2 x19790 +2 x19791 +2 x19792 -1 x19473 -1 x19474 -1 x19475 -1 x19476 -1 x19477 -1 x19478 -1 x19479 -1 x19480 >= 0 ;
+2 x19793 +2 x19794 +2 x19795 +2 x19796 -1 x19477 -1 x19478 -1 x19479 -1 x19480 -1 x19481 -1 x19482 -1 x19483 -1 x19484 >= 0 ;
+2 x19797 +2 x19798 +2 x19799 +2 x19800 -1 x19481 -1 x19482 -1 x19483 -1 x19484 -1 x19485 -1 x19486 -1 x19487 -1 x19488 >= 0 ;
+2 x19801 +2 x19802 +2 x19803 +2 x19804 -1 x19485 -1 x19486 -1 x19487 -1 x19488 -1 x19489 -1 x19490 -1 x19491 -1 x19492 >= 0 ;
+2 x19805 +2 x19806 +2 x19807 +2 x19808 -1 x19489 -1 x19490 -1 x19491 -1 x19492 -1 x19493 -1 x19494 -1 x19495 -1 x19496 >= 0 ;
+2 x19809 +2 x19810 +2 x19811 +2 x19812 -1 x19493 -1 x19494 -1 x19495 -1 x19496 -1 x19497 -1 x19498 -1 x19499 -1 x19500 >= 0 ;
+2 x19813 +2 x19814 +2 x19815 +2 x19816 -1 x19497 -1 x19498 -1 x19499 -1 x19500 -1 x19501 -1 x19502 -1 x19503 -1 x19504 >= 0 ;
+2 x19817 +2 x19818 +2 x19819 +2 x19820 -1 x19501 -1 x19502 -1 x19503 -1 x19504 -1 x19505 -1 x19506 -1 x19507 -1 x19508 >= 0 ;
+2 x19821 +2 x19822 +2 x19823 +2 x19824 -1 x19505 -1 x19506 -1 x19507 -1 x19508 -1 x19509 -1 x19510 -1 x19511 -1 x19512 >= 0 ;
+2 x19825 +2 x19826 +2 x19827 +2 x19828 -1 x19509 -1 x19510 -1 x19511 -1 x19512 -1 x19513 -1 x19514 -1 x19515 -1 x19516 >= 0 ;
+2 x19829 +2 x19830 +2 x19831 +2 x19832 -1 x19513 -1 x19514 -1 x19515 -1 x19516 -1 x19517 -1 x19518 -1 x19519 -1 x19520 >= 0 ;
+2 x19833 +2 x19834 +2 x19835 +2 x19836 -1 x19517 -1 x19518 -1 x19519 -1 x19520 -1 x19521 -1 x19522 -1 x19523 -1 x19524 >= 0 ;
+2 x19837 +2 x19838 +2 x19839 +2 x19840 -1 x19521 -1 x19522 -1 x19523 -1 x19524 -1 x19525 -1 x19526 -1 x19527 -1 x19528 >= 0 ;
+2 x19841 +2 x19842 +2 x19843 +2 x19844 -1 x19525 -1 x19526 -1 x19527 -1 x19528 -1 x19529 -1 x19530 -1 x19531 -1 x19532 >= 0 ;
+2 x19845 +2 x19846 +2 x19847 +2 x19848 -1 x19529 -1 x19530 -1 x19531 -1 x19532 -1 x19533 -1 x19534 -1 x19535 -1 x19536 >= 0 ;
+2 x19849 +2 x19850 +2 x19851 +2 x19852 -1 x19533 -1 x19534 -1 x19535 -1 x19536 -1 x19537 -1 x19538 -1 x19539 -1 x19540 >= 0 ;
+2 x19853 +2 x19854 +2 x19855 +2 x19856 -1 x19537 -1 x19538 -1 x19539 -1 x19540 -1 x19541 -1 x19542 -1 x19543 -1 x19544 >= 0 ;
+2 x19857 +2 x19858 +2 x19859 +2 x19860 -1 x19541 -1 x19542 -1 x19543 -1 x19544 -1 x19545 -1 x19546 -1 x19547 -1 x19548 >= 0 ;
+2 x19861 +2 x19862 +2 x19863 +2 x19864 -1 x19545 -1 x19546 -1 x19547 -1 x19548 -1 x19549 -1 x19550 -1 x19551 -1 x19552 >= 0 ;
+2 x19865 +2 x19866 +2 x19867 +2 x19868 -1 x19549 -1 x19550 -1 x19551 -1 x19552 -1 x19553 -1 x19554 -1 x19555 -1 x19556 >= 0 ;
+2 x19869 +2 x19870 +2 x19871 +2 x19872 -1 x19553 -1 x19554 -1 x19555 -1 x19556 -1 x19557 -1 x19558 -1 x19559 -1 x19560 >= 0 ;
+2 x19873 +2 x19874 +2 x19875 +2 x19876 -1 x19557 -1 x19558 -1 x19559 -1 x19560 -1 x19561 -1 x19562 -1 x19563 -1 x19564 >= 0 ;
+2 x19877 +2 x19878 +2 x19879 +2 x19880 -1 x19561 -1 x19562 -1 x19563 -1 x19564 -1 x19565 -1 x19566 -1 x19567 -1 x19568 >= 0 ;
+2 x19881 +2 x19882 +2 x19883 +2 x19884 -1 x19565 -1 x19566 -1 x19567 -1 x19568 -1 x19569 -1 x19570 -1 x19571 -1 x19572 >= 0 ;
+2 x19885 +2 x19886 +2 x19887 +2 x19888 -1 x19569 -1 x19570 -1 x19571 -1 x19572 -1 x19573 -1 x19574 -1 x19575 -1 x19576 >= 0 ;
+2 x19889 +2 x19890 +2 x19891 +2 x19892 -1 x19573 -1 x19574 -1 x19575 -1 x19576 -1 x19577 -1 x19578 -1 x19579 -1 x19580 >= 0 ;
+2 x19893 +2 x19894 +2 x19895 +2 x19896 -1 x19577 -1 x19578 -1 x19579 -1 x19580 -1 x19581 -1 x19582 -1 x19583 -1 x19584 >= 0 ;
+2 x19897 +2 x19898 +2 x19899 +2 x19900 -1 x19581 -1 x19582 -1 x19583 -1 x19584 -1 x19585 -1 x19586 -1 x19587 -1 x19588 >= 0 ;
+2 x19901 +2 x19902 +2 x19903 +2 x19904 -1 x19585 -1 x19586 -1 x19587 -1 x19588 -1 x19589 -1 x19590 -1 x19591 -1 x19592 >= 0 ;
+2 x19905 +2 x19906 +2 x19907 +2 x19908 -1 x19589 -1 x19590 -1 x19591 -1 x19592 -1 x19593 -1 x19594 -1 x19595 -1 x19596 >= 0 ;
+2 x19909 +2 x19910 +2 x19911 +2 x19912 -1 x19593 -1 x19594 -1 x19595 -1 x19596 -1 x19597 -1 x19598 -1 x19599 -1 x19600 >= 0 ;
+2 x19913 +2 x19914 +2 x19915 +2 x19916 -1 x19597 -1 x19598 -1 x19599 -1 x19600 -1 x19601 -1 x19602 -1 x19603 -1 x19604 >= 0 ;
+2 x19917 +2 x19918 +2 x19919 +2 x19920 -1 x19601 -1 x19602 -1 x19603 -1 x19604 -1 x19605 -1 x19606 -1 x19607 -1 x19608 >= 0 ;
+2 x19921 +2 x19922 +2 x19923 +2 x19924 -1 x19605 -1 x19606 -1 x19607 -1 x19608 -1 x19609 -1 x19610 -1 x19611 -1 x19612 >= 0 ;
+2 x19925 +2 x19926 +2 x19927 +2 x19928 -1 x19609 -1 x19610 -1 x19611 -1 x19612 -1 x19613 -1 x19614 -1 x19615 -1 x19616 >= 0 ;
+2 x19929 +2 x19930 +2 x19931 +2 x19932 -1 x19613 -1 x19614 -1 x19615 -1 x19616 -1 x19617 -1 x19618 -1 x19619 -1 x19620 >= 0 ;
+2 x19933 +2 x19934 +2 x19935 +2 x19936 -1 x19617 -1 x19618 -1 x19619 -1 x19620 -1 x19621 -1 x19622 -1 x19623 -1 x19624 >= 0 ;
+2 x19937 +2 x19938 +2 x19939 +2 x19940 -1 x19621 -1 x19622 -1 x19623 -1 x19624 -1 x19625 -1 x19626 -1 x19627 -1 x19628 >= 0 ;
+2 x19941 +2 x19942 +2 x19943 +2 x19944 -1 x19625 -1 x19626 -1 x19627 -1 x19628 -1 x19629 -1 x19630 -1 x19631 -1 x19632 >= 0 ;
+2 x19945 +2 x19946 +2 x19947 +2 x19948 -1 x19629 -1 x19630 -1 x19631 -1 x19632 -1 x19633 -1 x19634 -1 x19635 -1 x19636 >= 0 ;
+2 x19949 +2 x19950 +2 x19951 +2 x19952 -1 x19633 -1 x19634 -1 x19635 -1 x19636 -1 x19637 -1 x19638 -1 x19639 -1 x19640 >= 0 ;
+2 x19953 +2 x19954 +2 x19955 +2 x19956 -1 x19637 -1 x19638 -1 x19639 -1 x19640 -1 x19641 -1 x19642 -1 x19643 -1 x19644 >= 0 ;
+2 x19957 +2 x19958 +2 x19959 +2 x19960 -1 x19641 -1 x19642 -1 x19643 -1 x19644 -1 x19645 -1 x19646 -1 x19647 -1 x19648 >= 0 ;
+2 x19961 +2 x19962 +2 x19963 +2 x19964 -1 x19645 -1 x19646 -1 x19647 -1 x19648 -1 x19649 -1 x19650 -1 x19651 -1 x19652 >= 0 ;
+2 x19965 +2 x19966 +2 x19967 +2 x19968 -1 x19649 -1 x19650 -1 x19651 -1 x19652 -1 x19653 -1 x19654 -1 x19655 -1 x19656 >= 0 ;
+2 x19969 +2 x19970 +2 x19971 +2 x19972 -1 x19653 -1 x19654 -1 x19655 -1 x19656 -1 x19657 -1 x19658 -1 x19659 -1 x19660 >= 0 ;
+2 x19973 +2 x19974 +2 x19975 +2 x19976 -1 x19657 -1 x19658 -1 x19659 -1 x19660 -1 x19661 -1 x19662 -1 x19663 -1 x19664 >= 0 ;
+2 x19977 +2 x19978 +2 x19979 +2 x19980 -1 x19661 -1 x19662 -1 x19663 -1 x19664 -1 x19665 -1 x19666 -1 x19667 -1 x19668 >= 0 ;
+2 x19981 +2 x19982 +2 x19983 +2 x19984 -1 x19665 -1 x19666 -1 x19667 -1 x19668 -1 x19669 -1 x19670 -1 x19671 -1 x19672 >= 0 ;
+2 x19985 +2 x19986 +2 x19987 +2 x19988 -1 x19669 -1 x19670 -1 x19671 -1 x19672 -1 x19673 -1 x19674 -1 x19675 -1 x19676 >= 0 ;
+2 x19989 +2 x19990 +2 x19991 +2 x19992 -1 x19673 -1 x19674 -1 x19675 -1 x19676 -1 x19677 -1 x19678 -1 x19679 -1 x19680 >= 0 ;
+2 x19993 +2 x19994 +2 x19995 +2 x19996 -1 x19681 -1 x19682 -1 x19683 -1 x19684 -1 x19685 -1 x19686 -1 x19687 -1 x19688 >= 0 ;
+2 x19997 +2 x19998 +2 x19999 +2 x20000 -1 x19685 -1 x19686 -1 x19687 -1 x19688 -1 x19689 -1 x19690 -1 x19691 -1 x19692 >= 0 ;
+2 x20001 +2 x20002 +2 x20003 +2 x20004 -1 x19689 -1 x19690 -1 x19691 -1 x19692 -1 x19693 -1 x19694 -1 x19695 -1 x19696 >= 0 ;
+2 x20005 +2 x20006 +2 x20007 +2 x20008 -1 x19693 -1 x19694 -1 x19695 -1 x19696 -1 x19697 -1 x19698 -1 x19699 -1 x19700 >= 0 ;
+2 x20009 +2 x20010 +2 x20011 +2 x20012 -1 x19697 -1 x19698 -1 x19699 -1 x19700 -1 x19701 -1 x19702 -1 x19703 -1 x19704 >= 0 ;
+2 x20013 +2 x20014 +2 x20015 +2 x20016 -1 x19701 -1 x19702 -1 x19703 -1 x19704 -1 x19705 -1 x19706 -1 x19707 -1 x19708 >= 0 ;
+2 x20017 +2 x20018 +2 x20019 +2 x20020 -1 x19705 -1 x19706 -1 x19707 -1 x19708 -1 x19709 -1 x19710 -1 x19711 -1 x19712 >= 0 ;
+2 x20021 +2 x20022 +2 x20023 +2 x20024 -1 x19709 -1 x19710 -1 x19711 -1 x19712 -1 x19713 -1 x19714 -1 x19715 -1 x19716 >= 0 ;
+2 x20025 +2 x20026 +2 x20027 +2 x20028 -1 x19713 -1 x19714 -1 x19715 -1 x19716 -1 x19717 -1 x19718 -1 x19719 -1 x19720 >= 0 ;
+2 x20029 +2 x20030 +2 x20031 +2 x20032 -1 x19717 -1 x19718 -1 x19719 -1 x19720 -1 x19721 -1 x19722 -1 x19723 -1 x19724 >= 0 ;
+2 x20033 +2 x20034 +2 x20035 +2 x20036 -1 x19721 -1 x19722 -1 x19723 -1 x19724 -1 x19725 -1 x19726 -1 x19727 -1 x19728 >= 0 ;
+2 x20037 +2 x20038 +2 x20039 +2 x20040 -1 x19725 -1 x19726 -1 x19727 -1 x19728 -1 x19729 -1 x19730 -1 x19731 -1 x19732 >= 0 ;
+2 x20041 +2 x20042 +2 x20043 +2 x20044 -1 x19729 -1 x19730 -1 x19731 -1 x19732 -1 x19733 -1 x19734 -1 x19735 -1 x19736 >= 0 ;
+2 x20045 +2 x20046 +2 x20047 +2 x20048 -1 x19733 -1 x19734 -1 x19735 -1 x19736 -1 x19737 -1 x19738 -1 x19739 -1 x19740 >= 0 ;
+2 x20049 +2 x20050 +2 x20051 +2 x20052 -1 x19737 -1 x19738 -1 x19739 -1 x19740 -1 x19741 -1 x19742 -1 x19743 -1 x19744 >= 0 ;
+2 x20053 +2 x20054 +2 x20055 +2 x20056 -1 x19741 -1 x19742 -1 x19743 -1 x19744 -1 x19745 -1 x19746 -1 x19747 -1 x19748 >= 0 ;
+2 x20057 +2 x20058 +2 x20059 +2 x20060 -1 x19745 -1 x19746 -1 x19747 -1 x19748 -1 x19749 -1 x19750 -1 x19751 -1 x19752 >= 0 ;
+2 x20061 +2 x20062 +2 x20063 +2 x20064 -1 x19749 -1 x19750 -1 x19751 -1 x19752 -1 x19753 -1 x19754 -1 x19755 -1 x19756 >= 0 ;
+2 x20065 +2 x20066 +2 x20067 +2 x20068 -1 x19753 -1 x19754 -1 x19755 -1 x19756 -1 x19757 -1 x19758 -1 x19759 -1 x19760 >= 0 ;
+2 x20069 +2 x20070 +2 x20071 +2 x20072 -1 x19757 -1 x19758 -1 x19759 -1 x19760 -1 x19761 -1 x19762 -1 x19763 -1 x19764 >= 0 ;
+2 x20073 +2 x20074 +2 x20075 +2 x20076 -1 x19761 -1 x19762 -1 x19763 -1 x19764 -1 x19765 -1 x19766 -1 x19767 -1 x19768 >= 0 ;
+2 x20077 +2 x20078 +2 x20079 +2 x20080 -1 x19765 -1 x19766 -1 x19767 -1 x19768 -1 x19769 -1 x19770 -1 x19771 -1 x19772 >= 0 ;
+2 x20081 +2 x20082 +2 x20083 +2 x20084 -1 x19769 -1 x19770 -1 x19771 -1 x19772 -1 x19773 -1 x19774 -1 x19775 -1 x19776 >= 0 ;
+2 x20085 +2 x20086 +2 x20087 +2 x20088 -1 x19773 -1 x19774 -1 x19775 -1 x19776 -1 x19777 -1 x19778 -1 x19779 -1 x19780 >= 0 ;
+2 x20089 +2 x20090 +2 x20091 +2 x20092 -1 x19777 -1 x19778 -1 x19779 -1 x19780 -1 x19781 -1 x19782 -1 x19783 -1 x19784 >= 0 ;
+2 x20093 +2 x20094 +2 x20095 +2 x20096 -1 x19781 -1 x19782 -1 x19783 -1 x19784 -1 x19785 -1 x19786 -1 x19787 -1 x19788 >= 0 ;
+2 x20097 +2 x20098 +2 x20099 +2 x20100 -1 x19785 -1 x19786 -1 x19787 -1 x19788 -1 x19789 -1 x19790 -1 x19791 -1 x19792 >= 0 ;
+2 x20101 +2 x20102 +2 x20103 +2 x20104 -1 x19789 -1 x19790 -1 x19791 -1 x19792 -1 x19793 -1 x19794 -1 x19795 -1 x19796 >= 0 ;
+2 x20105 +2 x20106 +2 x20107 +2 x20108 -1 x19793 -1 x19794 -1 x19795 -1 x19796 -1 x19797 -1 x19798 -1 x19799 -1 x19800 >= 0 ;
+2 x20109 +2 x20110 +2 x20111 +2 x20112 -1 x19797 -1 x19798 -1 x19799 -1 x19800 -1 x19801 -1 x19802 -1 x19803 -1 x19804 >= 0 ;
+2 x20113 +2 x20114 +2 x20115 +2 x20116 -1 x19801 -1 x19802 -1 x19803 -1 x19804 -1 x19805 -1 x19806 -1 x19807 -1 x19808 >= 0 ;
+2 x20117 +2 x20118 +2 x20119 +2 x20120 -1 x19805 -1 x19806 -1 x19807 -1 x19808 -1 x19809 -1 x19810 -1 x19811 -1 x19812 >= 0 ;
+2 x20121 +2 x20122 +2 x20123 +2 x20124 -1 x19809 -1 x19810 -1 x19811 -1 x19812 -1 x19813 -1 x19814 -1 x19815 -1 x19816 >= 0 ;
+2 x20125 +2 x20126 +2 x20127 +2 x20128 -1 x19813 -1 x19814 -1 x19815 -1 x19816 -1 x19817 -1 x19818 -1 x19819 -1 x19820 >= 0 ;
+2 x20129 +2 x20130 +2 x20131 +2 x20132 -1 x19817 -1 x19818 -1 x19819 -1 x19820 -1 x19821 -1 x19822 -1 x19823 -1 x19824 >= 0 ;
+2 x20133 +2 x20134 +2 x20135 +2 x20136 -1 x19821 -1 x19822 -1 x19823 -1 x19824 -1 x19825 -1 x19826 -1 x19827 -1 x19828 >= 0 ;
+2 x20137 +2 x20138 +2 x20139 +2 x20140 -1 x19825 -1 x19826 -1 x19827 -1 x19828 -1 x19829 -1 x19830 -1 x19831 -1 x19832 >= 0 ;
+2 x20141 +2 x20142 +2 x20143 +2 x20144 -1 x19829 -1 x19830 -1 x19831 -1 x19832 -1 x19833 -1 x19834 -1 x19835 -1 x19836 >= 0 ;
+2 x20145 +2 x20146 +2 x20147 +2 x20148 -1 x19833 -1 x19834 -1 x19835 -1 x19836 -1 x19837 -1 x19838 -1 x19839 -1 x19840 >= 0 ;
+2 x20149 +2 x20150 +2 x20151 +2 x20152 -1 x19837 -1 x19838 -1 x19839 -1 x19840 -1 x19841 -1 x19842 -1 x19843 -1 x19844 >= 0 ;
+2 x20153 +2 x20154 +2 x20155 +2 x20156 -1 x19841 -1 x19842 -1 x19843 -1 x19844 -1 x19845 -1 x19846 -1 x19847 -1 x19848 >= 0 ;
+2 x20157 +2 x20158 +2 x20159 +2 x20160 -1 x19845 -1 x19846 -1 x19847 -1 x19848 -1 x19849 -1 x19850 -1 x19851 -1 x19852 >= 0 ;
+2 x20161 +2 x20162 +2 x20163 +2 x20164 -1 x19849 -1 x19850 -1 x19851 -1 x19852 -1 x19853 -1 x19854 -1 x19855 -1 x19856 >= 0 ;
+2 x20165 +2 x20166 +2 x20167 +2 x20168 -1 x19853 -1 x19854 -1 x19855 -1 x19856 -1 x19857 -1 x19858 -1 x19859 -1 x19860 >= 0 ;
+2 x20169 +2 x20170 +2 x20171 +2 x20172 -1 x19857 -1 x19858 -1 x19859 -1 x19860 -1 x19861 -1 x19862 -1 x19863 -1 x19864 >= 0 ;
+2 x20173 +2 x20174 +2 x20175 +2 x20176 -1 x19861 -1 x19862 -1 x19863 -1 x19864 -1 x19865 -1 x19866 -1 x19867 -1 x19868 >= 0 ;
+2 x20177 +2 x20178 +2 x20179 +2 x20180 -1 x19865 -1 x19866 -1 x19867 -1 x19868 -1 x19869 -1 x19870 -1 x19871 -1 x19872 >= 0 ;
+2 x20181 +2 x20182 +2 x20183 +2 x20184 -1 x19869 -1 x19870 -1 x19871 -1 x19872 -1 x19873 -1 x19874 -1 x19875 -1 x19876 >= 0 ;
+2 x20185 +2 x20186 +2 x20187 +2 x20188 -1 x19873 -1 x19874 -1 x19875 -1 x19876 -1 x19877 -1 x19878 -1 x19879 -1 x19880 >= 0 ;
+2 x20189 +2 x20190 +2 x20191 +2 x20192 -1 x19877 -1 x19878 -1 x19879 -1 x19880 -1 x19881 -1 x19882 -1 x19883 -1 x19884 >= 0 ;
+2 x20193 +2 x20194 +2 x20195 +2 x20196 -1 x19881 -1 x19882 -1 x19883 -1 x19884 -1 x19885 -1 x19886 -1 x19887 -1 x19888 >= 0 ;
+2 x20197 +2 x20198 +2 x20199 +2 x20200 -1 x19885 -1 x19886 -1 x19887 -1 x19888 -1 x19889 -1 x19890 -1 x19891 -1 x19892 >= 0 ;
+2 x20201 +2 x20202 +2 x20203 +2 x20204 -1 x19889 -1 x19890 -1 x19891 -1 x19892 -1 x19893 -1 x19894 -1 x19895 -1 x19896 >= 0 ;
+2 x20205 +2 x20206 +2 x20207 +2 x20208 -1 x19893 -1 x19894 -1 x19895 -1 x19896 -1 x19897 -1 x19898 -1 x19899 -1 x19900 >= 0 ;
+2 x20209 +2 x20210 +2 x20211 +2 x20212 -1 x19897 -1 x19898 -1 x19899 -1 x19900 -1 x19901 -1 x19902 -1 x19903 -1 x19904 >= 0 ;
+2 x20213 +2 x20214 +2 x20215 +2 x20216 -1 x19901 -1 x19902 -1 x19903 -1 x19904 -1 x19905 -1 x19906 -1 x19907 -1 x19908 >= 0 ;
+2 x20217 +2 x20218 +2 x20219 +2 x20220 -1 x19905 -1 x19906 -1 x19907 -1 x19908 -1 x19909 -1 x19910 -1 x19911 -1 x19912 >= 0 ;
+2 x20221 +2 x20222 +2 x20223 +2 x20224 -1 x19909 -1 x19910 -1 x19911 -1 x19912 -1 x19913 -1 x19914 -1 x19915 -1 x19916 >= 0 ;
+2 x20225 +2 x20226 +2 x20227 +2 x20228 -1 x19913 -1 x19914 -1 x19915 -1 x19916 -1 x19917 -1 x19918 -1 x19919 -1 x19920 >= 0 ;
+2 x20229 +2 x20230 +2 x20231 +2 x20232 -1 x19917 -1 x19918 -1 x19919 -1 x19920 -1 x19921 -1 x19922 -1 x19923 -1 x19924 >= 0 ;
+2 x20233 +2 x20234 +2 x20235 +2 x20236 -1 x19921 -1 x19922 -1 x19923 -1 x19924 -1 x19925 -1 x19926 -1 x19927 -1 x19928 >= 0 ;
+2 x20237 +2 x20238 +2 x20239 +2 x20240 -1 x19925 -1 x19926 -1 x19927 -1 x19928 -1 x19929 -1 x19930 -1 x19931 -1 x19932 >= 0 ;
+2 x20241 +2 x20242 +2 x20243 +2 x20244 -1 x19929 -1 x19930 -1 x19931 -1 x19932 -1 x19933 -1 x19934 -1 x19935 -1 x19936 >= 0 ;
+2 x20245 +2 x20246 +2 x20247 +2 x20248 -1 x19933 -1 x19934 -1 x19935 -1 x19936 -1 x19937 -1 x19938 -1 x19939 -1 x19940 >= 0 ;
+2 x20249 +2 x20250 +2 x20251 +2 x20252 -1 x19937 -1 x19938 -1 x19939 -1 x19940 -1 x19941 -1 x19942 -1 x19943 -1 x19944 >= 0 ;
+2 x20253 +2 x20254 +2 x20255 +2 x20256 -1 x19941 -1 x19942 -1 x19943 -1 x19944 -1 x19945 -1 x19946 -1 x19947 -1 x19948 >= 0 ;
+2 x20257 +2 x20258 +2 x20259 +2 x20260 -1 x19945 -1 x19946 -1 x19947 -1 x19948 -1 x19949 -1 x19950 -1 x19951 -1 x19952 >= 0 ;
+2 x20261 +2 x20262 +2 x20263 +2 x20264 -1 x19949 -1 x19950 -1 x19951 -1 x19952 -1 x19953 -1 x19954 -1 x19955 -1 x19956 >= 0 ;
+2 x20265 +2 x20266 +2 x20267 +2 x20268 -1 x19953 -1 x19954 -1 x19955 -1 x19956 -1 x19957 -1 x19958 -1 x19959 -1 x19960 >= 0 ;
+2 x20269 +2 x20270 +2 x20271 +2 x20272 -1 x19957 -1 x19958 -1 x19959 -1 x19960 -1 x19961 -1 x19962 -1 x19963 -1 x19964 >= 0 ;
+2 x20273 +2 x20274 +2 x20275 +2 x20276 -1 x19961 -1 x19962 -1 x19963 -1 x19964 -1 x19965 -1 x19966 -1 x19967 -1 x19968 >= 0 ;
+2 x20277 +2 x20278 +2 x20279 +2 x20280 -1 x19965 -1 x19966 -1 x19967 -1 x19968 -1 x19969 -1 x19970 -1 x19971 -1 x19972 >= 0 ;
+2 x20281 +2 x20282 +2 x20283 +2 x20284 -1 x19969 -1 x19970 -1 x19971 -1 x19972 -1 x19973 -1 x19974 -1 x19975 -1 x19976 >= 0 ;
+2 x20285 +2 x20286 +2 x20287 +2 x20288 -1 x19973 -1 x19974 -1 x19975 -1 x19976 -1 x19977 -1 x19978 -1 x19979 -1 x19980 >= 0 ;
+2 x20289 +2 x20290 +2 x20291 +2 x20292 -1 x19977 -1 x19978 -1 x19979 -1 x19980 -1 x19981 -1 x19982 -1 x19983 -1 x19984 >= 0 ;
+2 x20293 +2 x20294 +2 x20295 +2 x20296 -1 x19981 -1 x19982 -1 x19983 -1 x19984 -1 x19985 -1 x19986 -1 x19987 -1 x19988 >= 0 ;
+2 x20297 +2 x20298 +2 x20299 +2 x20300 -1 x19985 -1 x19986 -1 x19987 -1 x19988 -1 x19989 -1 x19990 -1 x19991 -1 x19992 >= 0 ;
+2 x20301 +2 x20302 +2 x20303 +2 x20304 -1 x19993 -1 x19994 -1 x19995 -1 x19996 -1 x19997 -1 x19998 -1 x19999 -1 x20000 >= 0 ;
+2 x20305 +2 x20306 +2 x20307 +2 x20308 -1 x19997 -1 x19998 -1 x19999 -1 x20000 -1 x20001 -1 x20002 -1 x20003 -1 x20004 >= 0 ;
+2 x20309 +2 x20310 +2 x20311 +2 x20312 -1 x20001 -1 x20002 -1 x20003 -1 x20004 -1 x20005 -1 x20006 -1 x20007 -1 x20008 >= 0 ;
+2 x20313 +2 x20314 +2 x20315 +2 x20316 -1 x20005 -1 x20006 -1 x20007 -1 x20008 -1 x20009 -1 x20010 -1 x20011 -1 x20012 >= 0 ;
+2 x20317 +2 x20318 +2 x20319 +2 x20320 -1 x20009 -1 x20010 -1 x20011 -1 x20012 -1 x20013 -1 x20014 -1 x20015 -1 x20016 >= 0 ;
+2 x20321 +2 x20322 +2 x20323 +2 x20324 -1 x20013 -1 x20014 -1 x20015 -1 x20016 -1 x20017 -1 x20018 -1 x20019 -1 x20020 >= 0 ;
+2 x20325 +2 x20326 +2 x20327 +2 x20328 -1 x20017 -1 x20018 -1 x20019 -1 x20020 -1 x20021 -1 x20022 -1 x20023 -1 x20024 >= 0 ;
+2 x20329 +2 x20330 +2 x20331 +2 x20332 -1 x20021 -1 x20022 -1 x20023 -1 x20024 -1 x20025 -1 x20026 -1 x20027 -1 x20028 >= 0 ;
+2 x20333 +2 x20334 +2 x20335 +2 x20336 -1 x20025 -1 x20026 -1 x20027 -1 x20028 -1 x20029 -1 x20030 -1 x20031 -1 x20032 >= 0 ;
+2 x20337 +2 x20338 +2 x20339 +2 x20340 -1 x20029 -1 x20030 -1 x20031 -1 x20032 -1 x20033 -1 x20034 -1 x20035 -1 x20036 >= 0 ;
+2 x20341 +2 x20342 +2 x20343 +2 x20344 -1 x20033 -1 x20034 -1 x20035 -1 x20036 -1 x20037 -1 x20038 -1 x20039 -1 x20040 >= 0 ;
+2 x20345 +2 x20346 +2 x20347 +2 x20348 -1 x20037 -1 x20038 -1 x20039 -1 x20040 -1 x20041 -1 x20042 -1 x20043 -1 x20044 >= 0 ;
+2 x20349 +2 x20350 +2 x20351 +2 x20352 -1 x20041 -1 x20042 -1 x20043 -1 x20044 -1 x20045 -1 x20046 -1 x20047 -1 x20048 >= 0 ;
+2 x20353 +2 x20354 +2 x20355 +2 x20356 -1 x20045 -1 x20046 -1 x20047 -1 x20048 -1 x20049 -1 x20050 -1 x20051 -1 x20052 >= 0 ;
+2 x20357 +2 x20358 +2 x20359 +2 x20360 -1 x20049 -1 x20050 -1 x20051 -1 x20052 -1 x20053 -1 x20054 -1 x20055 -1 x20056 >= 0 ;
+2 x20361 +2 x20362 +2 x20363 +2 x20364 -1 x20053 -1 x20054 -1 x20055 -1 x20056 -1 x20057 -1 x20058 -1 x20059 -1 x20060 >= 0 ;
+2 x20365 +2 x20366 +2 x20367 +2 x20368 -1 x20057 -1 x20058 -1 x20059 -1 x20060 -1 x20061 -1 x20062 -1 x20063 -1 x20064 >= 0 ;
+2 x20369 +2 x20370 +2 x20371 +2 x20372 -1 x20061 -1 x20062 -1 x20063 -1 x20064 -1 x20065 -1 x20066 -1 x20067 -1 x20068 >= 0 ;
+2 x20373 +2 x20374 +2 x20375 +2 x20376 -1 x20065 -1 x20066 -1 x20067 -1 x20068 -1 x20069 -1 x20070 -1 x20071 -1 x20072 >= 0 ;
+2 x20377 +2 x20378 +2 x20379 +2 x20380 -1 x20069 -1 x20070 -1 x20071 -1 x20072 -1 x20073 -1 x20074 -1 x20075 -1 x20076 >= 0 ;
+2 x20381 +2 x20382 +2 x20383 +2 x20384 -1 x20073 -1 x20074 -1 x20075 -1 x20076 -1 x20077 -1 x20078 -1 x20079 -1 x20080 >= 0 ;
+2 x20385 +2 x20386 +2 x20387 +2 x20388 -1 x20077 -1 x20078 -1 x20079 -1 x20080 -1 x20081 -1 x20082 -1 x20083 -1 x20084 >= 0 ;
+2 x20389 +2 x20390 +2 x20391 +2 x20392 -1 x20081 -1 x20082 -1 x20083 -1 x20084 -1 x20085 -1 x20086 -1 x20087 -1 x20088 >= 0 ;
+2 x20393 +2 x20394 +2 x20395 +2 x20396 -1 x20085 -1 x20086 -1 x20087 -1 x20088 -1 x20089 -1 x20090 -1 x20091 -1 x20092 >= 0 ;
+2 x20397 +2 x20398 +2 x20399 +2 x20400 -1 x20089 -1 x20090 -1 x20091 -1 x20092 -1 x20093 -1 x20094 -1 x20095 -1 x20096 >= 0 ;
+2 x20401 +2 x20402 +2 x20403 +2 x20404 -1 x20093 -1 x20094 -1 x20095 -1 x20096 -1 x20097 -1 x20098 -1 x20099 -1 x20100 >= 0 ;
+2 x20405 +2 x20406 +2 x20407 +2 x20408 -1 x20097 -1 x20098 -1 x20099 -1 x20100 -1 x20101 -1 x20102 -1 x20103 -1 x20104 >= 0 ;
+2 x20409 +2 x20410 +2 x20411 +2 x20412 -1 x20101 -1 x20102 -1 x20103 -1 x20104 -1 x20105 -1 x20106 -1 x20107 -1 x20108 >= 0 ;
+2 x20413 +2 x20414 +2 x20415 +2 x20416 -1 x20105 -1 x20106 -1 x20107 -1 x20108 -1 x20109 -1 x20110 -1 x20111 -1 x20112 >= 0 ;
+2 x20417 +2 x20418 +2 x20419 +2 x20420 -1 x20109 -1 x20110 -1 x20111 -1 x20112 -1 x20113 -1 x20114 -1 x20115 -1 x20116 >= 0 ;
+2 x20421 +2 x20422 +2 x20423 +2 x20424 -1 x20113 -1 x20114 -1 x20115 -1 x20116 -1 x20117 -1 x20118 -1 x20119 -1 x20120 >= 0 ;
+2 x20425 +2 x20426 +2 x20427 +2 x20428 -1 x20117 -1 x20118 -1 x20119 -1 x20120 -1 x20121 -1 x20122 -1 x20123 -1 x20124 >= 0 ;
+2 x20429 +2 x20430 +2 x20431 +2 x20432 -1 x20121 -1 x20122 -1 x20123 -1 x20124 -1 x20125 -1 x20126 -1 x20127 -1 x20128 >= 0 ;
+2 x20433 +2 x20434 +2 x20435 +2 x20436 -1 x20125 -1 x20126 -1 x20127 -1 x20128 -1 x20129 -1 x20130 -1 x20131 -1 x20132 >= 0 ;
+2 x20437 +2 x20438 +2 x20439 +2 x20440 -1 x20129 -1 x20130 -1 x20131 -1 x20132 -1 x20133 -1 x20134 -1 x20135 -1 x20136 >= 0 ;
+2 x20441 +2 x20442 +2 x20443 +2 x20444 -1 x20133 -1 x20134 -1 x20135 -1 x20136 -1 x20137 -1 x20138 -1 x20139 -1 x20140 >= 0 ;
+2 x20445 +2 x20446 +2 x20447 +2 x20448 -1 x20137 -1 x20138 -1 x20139 -1 x20140 -1 x20141 -1 x20142 -1 x20143 -1 x20144 >= 0 ;
+2 x20449 +2 x20450 +2 x20451 +2 x20452 -1 x20141 -1 x20142 -1 x20143 -1 x20144 -1 x20145 -1 x20146 -1 x20147 -1 x20148 >= 0 ;
+2 x20453 +2 x20454 +2 x20455 +2 x20456 -1 x20145 -1 x20146 -1 x20147 -1 x20148 -1 x20149 -1 x20150 -1 x20151 -1 x20152 >= 0 ;
+2 x20457 +2 x20458 +2 x20459 +2 x20460 -1 x20149 -1 x20150 -1 x20151 -1 x20152 -1 x20153 -1 x20154 -1 x20155 -1 x20156 >= 0 ;
+2 x20461 +2 x20462 +2 x20463 +2 x20464 -1 x20153 -1 x20154 -1 x20155 -1 x20156 -1 x20157 -1 x20158 -1 x20159 -1 x20160 >= 0 ;
+2 x20465 +2 x20466 +2 x20467 +2 x20468 -1 x20157 -1 x20158 -1 x20159 -1 x20160 -1 x20161 -1 x20162 -1 x20163 -1 x20164 >= 0 ;
+2 x20469 +2 x20470 +2 x20471 +2 x20472 -1 x20161 -1 x20162 -1 x20163 -1 x20164 -1 x20165 -1 x20166 -1 x20167 -1 x20168 >= 0 ;
+2 x20473 +2 x20474 +2 x20475 +2 x20476 -1 x20165 -1 x20166 -1 x20167 -1 x20168 -1 x20169 -1 x20170 -1 x20171 -1 x20172 >= 0 ;
+2 x20477 +2 x20478 +2 x20479 +2 x20480 -1 x20169 -1 x20170 -1 x20171 -1 x20172 -1 x20173 -1 x20174 -1 x20175 -1 x20176 >= 0 ;
+2 x20481 +2 x20482 +2 x20483 +2 x20484 -1 x20173 -1 x20174 -1 x20175 -1 x20176 -1 x20177 -1 x20178 -1 x20179 -1 x20180 >= 0 ;
+2 x20485 +2 x20486 +2 x20487 +2 x20488 -1 x20177 -1 x20178 -1 x20179 -1 x20180 -1 x20181 -1 x20182 -1 x20183 -1 x20184 >= 0 ;
+2 x20489 +2 x20490 +2 x20491 +2 x20492 -1 x20181 -1 x20182 -1 x20183 -1 x20184 -1 x20185 -1 x20186 -1 x20187 -1 x20188 >= 0 ;
+2 x20493 +2 x20494 +2 x20495 +2 x20496 -1 x20185 -1 x20186 -1 x20187 -1 x20188 -1 x20189 -1 x20190 -1 x20191 -1 x20192 >= 0 ;
+2 x20497 +2 x20498 +2 x20499 +2 x20500 -1 x20189 -1 x20190 -1 x20191 -1 x20192 -1 x20193 -1 x20194 -1 x20195 -1 x20196 >= 0 ;
+2 x20501 +2 x20502 +2 x20503 +2 x20504 -1 x20193 -1 x20194 -1 x20195 -1 x20196 -1 x20197 -1 x20198 -1 x20199 -1 x20200 >= 0 ;
+2 x20505 +2 x20506 +2 x20507 +2 x20508 -1 x20197 -1 x20198 -1 x20199 -1 x20200 -1 x20201 -1 x20202 -1 x20203 -1 x20204 >= 0 ;
+2 x20509 +2 x20510 +2 x20511 +2 x20512 -1 x20201 -1 x20202 -1 x20203 -1 x20204 -1 x20205 -1 x20206 -1 x20207 -1 x20208 >= 0 ;
+2 x20513 +2 x20514 +2 x20515 +2 x20516 -1 x20205 -1 x20206 -1 x20207 -1 x20208 -1 x20209 -1 x20210 -1 x20211 -1 x20212 >= 0 ;
+2 x20517 +2 x20518 +2 x20519 +2 x20520 -1 x20209 -1 x20210 -1 x20211 -1 x20212 -1 x20213 -1 x20214 -1 x20215 -1 x20216 >= 0 ;
+2 x20521 +2 x20522 +2 x20523 +2 x20524 -1 x20213 -1 x20214 -1 x20215 -1 x20216 -1 x20217 -1 x20218 -1 x20219 -1 x20220 >= 0 ;
+2 x20525 +2 x20526 +2 x20527 +2 x20528 -1 x20217 -1 x20218 -1 x20219 -1 x20220 -1 x20221 -1 x20222 -1 x20223 -1 x20224 >= 0 ;
+2 x20529 +2 x20530 +2 x20531 +2 x20532 -1 x20221 -1 x20222 -1 x20223 -1 x20224 -1 x20225 -1 x20226 -1 x20227 -1 x20228 >= 0 ;
+2 x20533 +2 x20534 +2 x20535 +2 x20536 -1 x20225 -1 x20226 -1 x20227 -1 x20228 -1 x20229 -1 x20230 -1 x20231 -1 x20232 >= 0 ;
+2 x20537 +2 x20538 +2 x20539 +2 x20540 -1 x20229 -1 x20230 -1 x20231 -1 x20232 -1 x20233 -1 x20234 -1 x20235 -1 x20236 >= 0 ;
+2 x20541 +2 x20542 +2 x20543 +2 x20544 -1 x20233 -1 x20234 -1 x20235 -1 x20236 -1 x20237 -1 x20238 -1 x20239 -1 x20240 >= 0 ;
+2 x20545 +2 x20546 +2 x20547 +2 x20548 -1 x20237 -1 x20238 -1 x20239 -1 x20240 -1 x20241 -1 x20242 -1 x20243 -1 x20244 >= 0 ;
+2 x20549 +2 x20550 +2 x20551 +2 x20552 -1 x20241 -1 x20242 -1 x20243 -1 x20244 -1 x20245 -1 x20246 -1 x20247 -1 x20248 >= 0 ;
+2 x20553 +2 x20554 +2 x20555 +2 x20556 -1 x20245 -1 x20246 -1 x20247 -1 x20248 -1 x20249 -1 x20250 -1 x20251 -1 x20252 >= 0 ;
+2 x20557 +2 x20558 +2 x20559 +2 x20560 -1 x20249 -1 x20250 -1 x20251 -1 x20252 -1 x20253 -1 x20254 -1 x20255 -1 x20256 >= 0 ;
+2 x20561 +2 x20562 +2 x20563 +2 x20564 -1 x20253 -1 x20254 -1 x20255 -1 x20256 -1 x20257 -1 x20258 -1 x20259 -1 x20260 >= 0 ;
+2 x20565 +2 x20566 +2 x20567 +2 x20568 -1 x20257 -1 x20258 -1 x20259 -1 x20260 -1 x20261 -1 x20262 -1 x20263 -1 x20264 >= 0 ;
+2 x20569 +2 x20570 +2 x20571 +2 x20572 -1 x20261 -1 x20262 -1 x20263 -1 x20264 -1 x20265 -1 x20266 -1 x20267 -1 x20268 >= 0 ;
+2 x20573 +2 x20574 +2 x20575 +2 x20576 -1 x20265 -1 x20266 -1 x20267 -1 x20268 -1 x20269 -1 x20270 -1 x20271 -1 x20272 >= 0 ;
+2 x20577 +2 x20578 +2 x20579 +2 x20580 -1 x20269 -1 x20270 -1 x20271 -1 x20272 -1 x20273 -1 x20274 -1 x20275 -1 x20276 >= 0 ;
+2 x20581 +2 x20582 +2 x20583 +2 x20584 -1 x20273 -1 x20274 -1 x20275 -1 x20276 -1 x20277 -1 x20278 -1 x20279 -1 x20280 >= 0 ;
+2 x20585 +2 x20586 +2 x20587 +2 x20588 -1 x20277 -1 x20278 -1 x20279 -1 x20280 -1 x20281 -1 x20282 -1 x20283 -1 x20284 >= 0 ;
+2 x20589 +2 x20590 +2 x20591 +2 x20592 -1 x20281 -1 x20282 -1 x20283 -1 x20284 -1 x20285 -1 x20286 -1 x20287 -1 x20288 >= 0 ;
+2 x20593 +2 x20594 +2 x20595 +2 x20596 -1 x20285 -1 x20286 -1 x20287 -1 x20288 -1 x20289 -1 x20290 -1 x20291 -1 x20292 >= 0 ;
+2 x20597 +2 x20598 +2 x20599 +2 x20600 -1 x20289 -1 x20290 -1 x20291 -1 x20292 -1 x20293 -1 x20294 -1 x20295 -1 x20296 >= 0 ;
+2 x20601 +2 x20602 +2 x20603 +2 x20604 -1 x20293 -1 x20294 -1 x20295 -1 x20296 -1 x20297 -1 x20298 -1 x20299 -1 x20300 >= 0 ;
+2 x20605 +2 x20606 +2 x20607 +2 x20608 -1 x20301 -1 x20302 -1 x20303 -1 x20304 -1 x20305 -1 x20306 -1 x20307 -1 x20308 >= 0 ;
+2 x20609 +2 x20610 +2 x20611 +2 x20612 -1 x20305 -1 x20306 -1 x20307 -1 x20308 -1 x20309 -1 x20310 -1 x20311 -1 x20312 >= 0 ;
+2 x20613 +2 x20614 +2 x20615 +2 x20616 -1 x20309 -1 x20310 -1 x20311 -1 x20312 -1 x20313 -1 x20314 -1 x20315 -1 x20316 >= 0 ;
+2 x20617 +2 x20618 +2 x20619 +2 x20620 -1 x20313 -1 x20314 -1 x20315 -1 x20316 -1 x20317 -1 x20318 -1 x20319 -1 x20320 >= 0 ;
+2 x20621 +2 x20622 +2 x20623 +2 x20624 -1 x20317 -1 x20318 -1 x20319 -1 x20320 -1 x20321 -1 x20322 -1 x20323 -1 x20324 >= 0 ;
+2 x20625 +2 x20626 +2 x20627 +2 x20628 -1 x20321 -1 x20322 -1 x20323 -1 x20324 -1 x20325 -1 x20326 -1 x20327 -1 x20328 >= 0 ;
+2 x20629 +2 x20630 +2 x20631 +2 x20632 -1 x20325 -1 x20326 -1 x20327 -1 x20328 -1 x20329 -1 x20330 -1 x20331 -1 x20332 >= 0 ;
+2 x20633 +2 x20634 +2 x20635 +2 x20636 -1 x20329 -1 x20330 -1 x20331 -1 x20332 -1 x20333 -1 x20334 -1 x20335 -1 x20336 >= 0 ;
+2 x20637 +2 x20638 +2 x20639 +2 x20640 -1 x20333 -1 x20334 -1 x20335 -1 x20336 -1 x20337 -1 x20338 -1 x20339 -1 x20340 >= 0 ;
+2 x20641 +2 x20642 +2 x20643 +2 x20644 -1 x20337 -1 x20338 -1 x20339 -1 x20340 -1 x20341 -1 x20342 -1 x20343 -1 x20344 >= 0 ;
+2 x20645 +2 x20646 +2 x20647 +2 x20648 -1 x20341 -1 x20342 -1 x20343 -1 x20344 -1 x20345 -1 x20346 -1 x20347 -1 x20348 >= 0 ;
+2 x20649 +2 x20650 +2 x20651 +2 x20652 -1 x20345 -1 x20346 -1 x20347 -1 x20348 -1 x20349 -1 x20350 -1 x20351 -1 x20352 >= 0 ;
+2 x20653 +2 x20654 +2 x20655 +2 x20656 -1 x20349 -1 x20350 -1 x20351 -1 x20352 -1 x20353 -1 x20354 -1 x20355 -1 x20356 >= 0 ;
+2 x20657 +2 x20658 +2 x20659 +2 x20660 -1 x20353 -1 x20354 -1 x20355 -1 x20356 -1 x20357 -1 x20358 -1 x20359 -1 x20360 >= 0 ;
+2 x20661 +2 x20662 +2 x20663 +2 x20664 -1 x20357 -1 x20358 -1 x20359 -1 x20360 -1 x20361 -1 x20362 -1 x20363 -1 x20364 >= 0 ;
+2 x20665 +2 x20666 +2 x20667 +2 x20668 -1 x20361 -1 x20362 -1 x20363 -1 x20364 -1 x20365 -1 x20366 -1 x20367 -1 x20368 >= 0 ;
+2 x20669 +2 x20670 +2 x20671 +2 x20672 -1 x20365 -1 x20366 -1 x20367 -1 x20368 -1 x20369 -1 x20370 -1 x20371 -1 x20372 >= 0 ;
+2 x20673 +2 x20674 +2 x20675 +2 x20676 -1 x20369 -1 x20370 -1 x20371 -1 x20372 -1 x20373 -1 x20374 -1 x20375 -1 x20376 >= 0 ;
+2 x20677 +2 x20678 +2 x20679 +2 x20680 -1 x20373 -1 x20374 -1 x20375 -1 x20376 -1 x20377 -1 x20378 -1 x20379 -1 x20380 >= 0 ;
+2 x20681 +2 x20682 +2 x20683 +2 x20684 -1 x20377 -1 x20378 -1 x20379 -1 x20380 -1 x20381 -1 x20382 -1 x20383 -1 x20384 >= 0 ;
+2 x20685 +2 x20686 +2 x20687 +2 x20688 -1 x20381 -1 x20382 -1 x20383 -1 x20384 -1 x20385 -1 x20386 -1 x20387 -1 x20388 >= 0 ;
+2 x20689 +2 x20690 +2 x20691 +2 x20692 -1 x20385 -1 x20386 -1 x20387 -1 x20388 -1 x20389 -1 x20390 -1 x20391 -1 x20392 >= 0 ;
+2 x20693 +2 x20694 +2 x20695 +2 x20696 -1 x20389 -1 x20390 -1 x20391 -1 x20392 -1 x20393 -1 x20394 -1 x20395 -1 x20396 >= 0 ;
+2 x20697 +2 x20698 +2 x20699 +2 x20700 -1 x20393 -1 x20394 -1 x20395 -1 x20396 -1 x20397 -1 x20398 -1 x20399 -1 x20400 >= 0 ;
+2 x20701 +2 x20702 +2 x20703 +2 x20704 -1 x20397 -1 x20398 -1 x20399 -1 x20400 -1 x20401 -1 x20402 -1 x20403 -1 x20404 >= 0 ;
+2 x20705 +2 x20706 +2 x20707 +2 x20708 -1 x20401 -1 x20402 -1 x20403 -1 x20404 -1 x20405 -1 x20406 -1 x20407 -1 x20408 >= 0 ;
+2 x20709 +2 x20710 +2 x20711 +2 x20712 -1 x20405 -1 x20406 -1 x20407 -1 x20408 -1 x20409 -1 x20410 -1 x20411 -1 x20412 >= 0 ;
+2 x20713 +2 x20714 +2 x20715 +2 x20716 -1 x20409 -1 x20410 -1 x20411 -1 x20412 -1 x20413 -1 x20414 -1 x20415 -1 x20416 >= 0 ;
+2 x20717 +2 x20718 +2 x20719 +2 x20720 -1 x20413 -1 x20414 -1 x20415 -1 x20416 -1 x20417 -1 x20418 -1 x20419 -1 x20420 >= 0 ;
+2 x20721 +2 x20722 +2 x20723 +2 x20724 -1 x20417 -1 x20418 -1 x20419 -1 x20420 -1 x20421 -1 x20422 -1 x20423 -1 x20424 >= 0 ;
+2 x20725 +2 x20726 +2 x20727 +2 x20728 -1 x20421 -1 x20422 -1 x20423 -1 x20424 -1 x20425 -1 x20426 -1 x20427 -1 x20428 >= 0 ;
+2 x20729 +2 x20730 +2 x20731 +2 x20732 -1 x20425 -1 x20426 -1 x20427 -1 x20428 -1 x20429 -1 x20430 -1 x20431 -1 x20432 >= 0 ;
+2 x20733 +2 x20734 +2 x20735 +2 x20736 -1 x20429 -1 x20430 -1 x20431 -1 x20432 -1 x20433 -1 x20434 -1 x20435 -1 x20436 >= 0 ;
+2 x20737 +2 x20738 +2 x20739 +2 x20740 -1 x20433 -1 x20434 -1 x20435 -1 x20436 -1 x20437 -1 x20438 -1 x20439 -1 x20440 >= 0 ;
+2 x20741 +2 x20742 +2 x20743 +2 x20744 -1 x20437 -1 x20438 -1 x20439 -1 x20440 -1 x20441 -1 x20442 -1 x20443 -1 x20444 >= 0 ;
+2 x20745 +2 x20746 +2 x20747 +2 x20748 -1 x20441 -1 x20442 -1 x20443 -1 x20444 -1 x20445 -1 x20446 -1 x20447 -1 x20448 >= 0 ;
+2 x20749 +2 x20750 +2 x20751 +2 x20752 -1 x20445 -1 x20446 -1 x20447 -1 x20448 -1 x20449 -1 x20450 -1 x20451 -1 x20452 >= 0 ;
+2 x20753 +2 x20754 +2 x20755 +2 x20756 -1 x20449 -1 x20450 -1 x20451 -1 x20452 -1 x20453 -1 x20454 -1 x20455 -1 x20456 >= 0 ;
+2 x20757 +2 x20758 +2 x20759 +2 x20760 -1 x20453 -1 x20454 -1 x20455 -1 x20456 -1 x20457 -1 x20458 -1 x20459 -1 x20460 >= 0 ;
+2 x20761 +2 x20762 +2 x20763 +2 x20764 -1 x20457 -1 x20458 -1 x20459 -1 x20460 -1 x20461 -1 x20462 -1 x20463 -1 x20464 >= 0 ;
+2 x20765 +2 x20766 +2 x20767 +2 x20768 -1 x20461 -1 x20462 -1 x20463 -1 x20464 -1 x20465 -1 x20466 -1 x20467 -1 x20468 >= 0 ;
+2 x20769 +2 x20770 +2 x20771 +2 x20772 -1 x20465 -1 x20466 -1 x20467 -1 x20468 -1 x20469 -1 x20470 -1 x20471 -1 x20472 >= 0 ;
+2 x20773 +2 x20774 +2 x20775 +2 x20776 -1 x20469 -1 x20470 -1 x20471 -1 x20472 -1 x20473 -1 x20474 -1 x20475 -1 x20476 >= 0 ;
+2 x20777 +2 x20778 +2 x20779 +2 x20780 -1 x20473 -1 x20474 -1 x20475 -1 x20476 -1 x20477 -1 x20478 -1 x20479 -1 x20480 >= 0 ;
+2 x20781 +2 x20782 +2 x20783 +2 x20784 -1 x20477 -1 x20478 -1 x20479 -1 x20480 -1 x20481 -1 x20482 -1 x20483 -1 x20484 >= 0 ;
+2 x20785 +2 x20786 +2 x20787 +2 x20788 -1 x20481 -1 x20482 -1 x20483 -1 x20484 -1 x20485 -1 x20486 -1 x20487 -1 x20488 >= 0 ;
+2 x20789 +2 x20790 +2 x20791 +2 x20792 -1 x20485 -1 x20486 -1 x20487 -1 x20488 -1 x20489 -1 x20490 -1 x20491 -1 x20492 >= 0 ;
+2 x20793 +2 x20794 +2 x20795 +2 x20796 -1 x20489 -1 x20490 -1 x20491 -1 x20492 -1 x20493 -1 x20494 -1 x20495 -1 x20496 >= 0 ;
+2 x20797 +2 x20798 +2 x20799 +2 x20800 -1 x20493 -1 x20494 -1 x20495 -1 x20496 -1 x20497 -1 x20498 -1 x20499 -1 x20500 >= 0 ;
+2 x20801 +2 x20802 +2 x20803 +2 x20804 -1 x20497 -1 x20498 -1 x20499 -1 x20500 -1 x20501 -1 x20502 -1 x20503 -1 x20504 >= 0 ;
+2 x20805 +2 x20806 +2 x20807 +2 x20808 -1 x20501 -1 x20502 -1 x20503 -1 x20504 -1 x20505 -1 x20506 -1 x20507 -1 x20508 >= 0 ;
+2 x20809 +2 x20810 +2 x20811 +2 x20812 -1 x20505 -1 x20506 -1 x20507 -1 x20508 -1 x20509 -1 x20510 -1 x20511 -1 x20512 >= 0 ;
+2 x20813 +2 x20814 +2 x20815 +2 x20816 -1 x20509 -1 x20510 -1 x20511 -1 x20512 -1 x20513 -1 x20514 -1 x20515 -1 x20516 >= 0 ;
+2 x20817 +2 x20818 +2 x20819 +2 x20820 -1 x20513 -1 x20514 -1 x20515 -1 x20516 -1 x20517 -1 x20518 -1 x20519 -1 x20520 >= 0 ;
+2 x20821 +2 x20822 +2 x20823 +2 x20824 -1 x20517 -1 x20518 -1 x20519 -1 x20520 -1 x20521 -1 x20522 -1 x20523 -1 x20524 >= 0 ;
+2 x20825 +2 x20826 +2 x20827 +2 x20828 -1 x20521 -1 x20522 -1 x20523 -1 x20524 -1 x20525 -1 x20526 -1 x20527 -1 x20528 >= 0 ;
+2 x20829 +2 x20830 +2 x20831 +2 x20832 -1 x20525 -1 x20526 -1 x20527 -1 x20528 -1 x20529 -1 x20530 -1 x20531 -1 x20532 >= 0 ;
+2 x20833 +2 x20834 +2 x20835 +2 x20836 -1 x20529 -1 x20530 -1 x20531 -1 x20532 -1 x20533 -1 x20534 -1 x20535 -1 x20536 >= 0 ;
+2 x20837 +2 x20838 +2 x20839 +2 x20840 -1 x20533 -1 x20534 -1 x20535 -1 x20536 -1 x20537 -1 x20538 -1 x20539 -1 x20540 >= 0 ;
+2 x20841 +2 x20842 +2 x20843 +2 x20844 -1 x20537 -1 x20538 -1 x20539 -1 x20540 -1 x20541 -1 x20542 -1 x20543 -1 x20544 >= 0 ;
+2 x20845 +2 x20846 +2 x20847 +2 x20848 -1 x20541 -1 x20542 -1 x20543 -1 x20544 -1 x20545 -1 x20546 -1 x20547 -1 x20548 >= 0 ;
+2 x20849 +2 x20850 +2 x20851 +2 x20852 -1 x20545 -1 x20546 -1 x20547 -1 x20548 -1 x20549 -1 x20550 -1 x20551 -1 x20552 >= 0 ;
+2 x20853 +2 x20854 +2 x20855 +2 x20856 -1 x20549 -1 x20550 -1 x20551 -1 x20552 -1 x20553 -1 x20554 -1 x20555 -1 x20556 >= 0 ;
+2 x20857 +2 x20858 +2 x20859 +2 x20860 -1 x20553 -1 x20554 -1 x20555 -1 x20556 -1 x20557 -1 x20558 -1 x20559 -1 x20560 >= 0 ;
+2 x20861 +2 x20862 +2 x20863 +2 x20864 -1 x20557 -1 x20558 -1 x20559 -1 x20560 -1 x20561 -1 x20562 -1 x20563 -1 x20564 >= 0 ;
+2 x20865 +2 x20866 +2 x20867 +2 x20868 -1 x20561 -1 x20562 -1 x20563 -1 x20564 -1 x20565 -1 x20566 -1 x20567 -1 x20568 >= 0 ;
+2 x20869 +2 x20870 +2 x20871 +2 x20872 -1 x20565 -1 x20566 -1 x20567 -1 x20568 -1 x20569 -1 x20570 -1 x20571 -1 x20572 >= 0 ;
+2 x20873 +2 x20874 +2 x20875 +2 x20876 -1 x20569 -1 x20570 -1 x20571 -1 x20572 -1 x20573 -1 x20574 -1 x20575 -1 x20576 >= 0 ;
+2 x20877 +2 x20878 +2 x20879 +2 x20880 -1 x20573 -1 x20574 -1 x20575 -1 x20576 -1 x20577 -1 x20578 -1 x20579 -1 x20580 >= 0 ;
+2 x20881 +2 x20882 +2 x20883 +2 x20884 -1 x20577 -1 x20578 -1 x20579 -1 x20580 -1 x20581 -1 x20582 -1 x20583 -1 x20584 >= 0 ;
+2 x20885 +2 x20886 +2 x20887 +2 x20888 -1 x20581 -1 x20582 -1 x20583 -1 x20584 -1 x20585 -1 x20586 -1 x20587 -1 x20588 >= 0 ;
+2 x20889 +2 x20890 +2 x20891 +2 x20892 -1 x20585 -1 x20586 -1 x20587 -1 x20588 -1 x20589 -1 x20590 -1 x20591 -1 x20592 >= 0 ;
+2 x20893 +2 x20894 +2 x20895 +2 x20896 -1 x20589 -1 x20590 -1 x20591 -1 x20592 -1 x20593 -1 x20594 -1 x20595 -1 x20596 >= 0 ;
+2 x20897 +2 x20898 +2 x20899 +2 x20900 -1 x20593 -1 x20594 -1 x20595 -1 x20596 -1 x20597 -1 x20598 -1 x20599 -1 x20600 >= 0 ;
+2 x20901 +2 x20902 +2 x20903 +2 x20904 -1 x20597 -1 x20598 -1 x20599 -1 x20600 -1 x20601 -1 x20602 -1 x20603 -1 x20604 >= 0 ;
+2 x20905 +2 x20906 +2 x20907 +2 x20908 -1 x20605 -1 x20606 -1 x20607 -1 x20608 -1 x20609 -1 x20610 -1 x20611 -1 x20612 >= 0 ;
+2 x20909 +2 x20910 +2 x20911 +2 x20912 -1 x20609 -1 x20610 -1 x20611 -1 x20612 -1 x20613 -1 x20614 -1 x20615 -1 x20616 >= 0 ;
+2 x20913 +2 x20914 +2 x20915 +2 x20916 -1 x20613 -1 x20614 -1 x20615 -1 x20616 -1 x20617 -1 x20618 -1 x20619 -1 x20620 >= 0 ;
+2 x20917 +2 x20918 +2 x20919 +2 x20920 -1 x20617 -1 x20618 -1 x20619 -1 x20620 -1 x20621 -1 x20622 -1 x20623 -1 x20624 >= 0 ;
+2 x20921 +2 x20922 +2 x20923 +2 x20924 -1 x20621 -1 x20622 -1 x20623 -1 x20624 -1 x20625 -1 x20626 -1 x20627 -1 x20628 >= 0 ;
+2 x20925 +2 x20926 +2 x20927 +2 x20928 -1 x20625 -1 x20626 -1 x20627 -1 x20628 -1 x20629 -1 x20630 -1 x20631 -1 x20632 >= 0 ;
+2 x20929 +2 x20930 +2 x20931 +2 x20932 -1 x20629 -1 x20630 -1 x20631 -1 x20632 -1 x20633 -1 x20634 -1 x20635 -1 x20636 >= 0 ;
+2 x20933 +2 x20934 +2 x20935 +2 x20936 -1 x20633 -1 x20634 -1 x20635 -1 x20636 -1 x20637 -1 x20638 -1 x20639 -1 x20640 >= 0 ;
+2 x20937 +2 x20938 +2 x20939 +2 x20940 -1 x20637 -1 x20638 -1 x20639 -1 x20640 -1 x20641 -1 x20642 -1 x20643 -1 x20644 >= 0 ;
+2 x20941 +2 x20942 +2 x20943 +2 x20944 -1 x20641 -1 x20642 -1 x20643 -1 x20644 -1 x20645 -1 x20646 -1 x20647 -1 x20648 >= 0 ;
+2 x20945 +2 x20946 +2 x20947 +2 x20948 -1 x20645 -1 x20646 -1 x20647 -1 x20648 -1 x20649 -1 x20650 -1 x20651 -1 x20652 >= 0 ;
+2 x20949 +2 x20950 +2 x20951 +2 x20952 -1 x20649 -1 x20650 -1 x20651 -1 x20652 -1 x20653 -1 x20654 -1 x20655 -1 x20656 >= 0 ;
+2 x20953 +2 x20954 +2 x20955 +2 x20956 -1 x20653 -1 x20654 -1 x20655 -1 x20656 -1 x20657 -1 x20658 -1 x20659 -1 x20660 >= 0 ;
+2 x20957 +2 x20958 +2 x20959 +2 x20960 -1 x20657 -1 x20658 -1 x20659 -1 x20660 -1 x20661 -1 x20662 -1 x20663 -1 x20664 >= 0 ;
+2 x20961 +2 x20962 +2 x20963 +2 x20964 -1 x20661 -1 x20662 -1 x20663 -1 x20664 -1 x20665 -1 x20666 -1 x20667 -1 x20668 >= 0 ;
+2 x20965 +2 x20966 +2 x20967 +2 x20968 -1 x20665 -1 x20666 -1 x20667 -1 x20668 -1 x20669 -1 x20670 -1 x20671 -1 x20672 >= 0 ;
+2 x20969 +2 x20970 +2 x20971 +2 x20972 -1 x20669 -1 x20670 -1 x20671 -1 x20672 -1 x20673 -1 x20674 -1 x20675 -1 x20676 >= 0 ;
+2 x20973 +2 x20974 +2 x20975 +2 x20976 -1 x20673 -1 x20674 -1 x20675 -1 x20676 -1 x20677 -1 x20678 -1 x20679 -1 x20680 >= 0 ;
+2 x20977 +2 x20978 +2 x20979 +2 x20980 -1 x20677 -1 x20678 -1 x20679 -1 x20680 -1 x20681 -1 x20682 -1 x20683 -1 x20684 >= 0 ;
+2 x20981 +2 x20982 +2 x20983 +2 x20984 -1 x20681 -1 x20682 -1 x20683 -1 x20684 -1 x20685 -1 x20686 -1 x20687 -1 x20688 >= 0 ;
+2 x20985 +2 x20986 +2 x20987 +2 x20988 -1 x20685 -1 x20686 -1 x20687 -1 x20688 -1 x20689 -1 x20690 -1 x20691 -1 x20692 >= 0 ;
+2 x20989 +2 x20990 +2 x20991 +2 x20992 -1 x20689 -1 x20690 -1 x20691 -1 x20692 -1 x20693 -1 x20694 -1 x20695 -1 x20696 >= 0 ;
+2 x20993 +2 x20994 +2 x20995 +2 x20996 -1 x20693 -1 x20694 -1 x20695 -1 x20696 -1 x20697 -1 x20698 -1 x20699 -1 x20700 >= 0 ;
+2 x20997 +2 x20998 +2 x20999 +2 x21000 -1 x20697 -1 x20698 -1 x20699 -1 x20700 -1 x20701 -1 x20702 -1 x20703 -1 x20704 >= 0 ;
+2 x21001 +2 x21002 +2 x21003 +2 x21004 -1 x20701 -1 x20702 -1 x20703 -1 x20704 -1 x20705 -1 x20706 -1 x20707 -1 x20708 >= 0 ;
+2 x21005 +2 x21006 +2 x21007 +2 x21008 -1 x20705 -1 x20706 -1 x20707 -1 x20708 -1 x20709 -1 x20710 -1 x20711 -1 x20712 >= 0 ;
+2 x21009 +2 x21010 +2 x21011 +2 x21012 -1 x20709 -1 x20710 -1 x20711 -1 x20712 -1 x20713 -1 x20714 -1 x20715 -1 x20716 >= 0 ;
+2 x21013 +2 x21014 +2 x21015 +2 x21016 -1 x20713 -1 x20714 -1 x20715 -1 x20716 -1 x20717 -1 x20718 -1 x20719 -1 x20720 >= 0 ;
+2 x21017 +2 x21018 +2 x21019 +2 x21020 -1 x20717 -1 x20718 -1 x20719 -1 x20720 -1 x20721 -1 x20722 -1 x20723 -1 x20724 >= 0 ;
+2 x21021 +2 x21022 +2 x21023 +2 x21024 -1 x20721 -1 x20722 -1 x20723 -1 x20724 -1 x20725 -1 x20726 -1 x20727 -1 x20728 >= 0 ;
+2 x21025 +2 x21026 +2 x21027 +2 x21028 -1 x20725 -1 x20726 -1 x20727 -1 x20728 -1 x20729 -1 x20730 -1 x20731 -1 x20732 >= 0 ;
+2 x21029 +2 x21030 +2 x21031 +2 x21032 -1 x20729 -1 x20730 -1 x20731 -1 x20732 -1 x20733 -1 x20734 -1 x20735 -1 x20736 >= 0 ;
+2 x21033 +2 x21034 +2 x21035 +2 x21036 -1 x20733 -1 x20734 -1 x20735 -1 x20736 -1 x20737 -1 x20738 -1 x20739 -1 x20740 >= 0 ;
+2 x21037 +2 x21038 +2 x21039 +2 x21040 -1 x20737 -1 x20738 -1 x20739 -1 x20740 -1 x20741 -1 x20742 -1 x20743 -1 x20744 >= 0 ;
+2 x21041 +2 x21042 +2 x21043 +2 x21044 -1 x20741 -1 x20742 -1 x20743 -1 x20744 -1 x20745 -1 x20746 -1 x20747 -1 x20748 >= 0 ;
+2 x21045 +2 x21046 +2 x21047 +2 x21048 -1 x20745 -1 x20746 -1 x20747 -1 x20748 -1 x20749 -1 x20750 -1 x20751 -1 x20752 >= 0 ;
+2 x21049 +2 x21050 +2 x21051 +2 x21052 -1 x20749 -1 x20750 -1 x20751 -1 x20752 -1 x20753 -1 x20754 -1 x20755 -1 x20756 >= 0 ;
+2 x21053 +2 x21054 +2 x21055 +2 x21056 -1 x20753 -1 x20754 -1 x20755 -1 x20756 -1 x20757 -1 x20758 -1 x20759 -1 x20760 >= 0 ;
+2 x21057 +2 x21058 +2 x21059 +2 x21060 -1 x20757 -1 x20758 -1 x20759 -1 x20760 -1 x20761 -1 x20762 -1 x20763 -1 x20764 >= 0 ;
+2 x21061 +2 x21062 +2 x21063 +2 x21064 -1 x20761 -1 x20762 -1 x20763 -1 x20764 -1 x20765 -1 x20766 -1 x20767 -1 x20768 >= 0 ;
+2 x21065 +2 x21066 +2 x21067 +2 x21068 -1 x20765 -1 x20766 -1 x20767 -1 x20768 -1 x20769 -1 x20770 -1 x20771 -1 x20772 >= 0 ;
+2 x21069 +2 x21070 +2 x21071 +2 x21072 -1 x20769 -1 x20770 -1 x20771 -1 x20772 -1 x20773 -1 x20774 -1 x20775 -1 x20776 >= 0 ;
+2 x21073 +2 x21074 +2 x21075 +2 x21076 -1 x20773 -1 x20774 -1 x20775 -1 x20776 -1 x20777 -1 x20778 -1 x20779 -1 x20780 >= 0 ;
+2 x21077 +2 x21078 +2 x21079 +2 x21080 -1 x20777 -1 x20778 -1 x20779 -1 x20780 -1 x20781 -1 x20782 -1 x20783 -1 x20784 >= 0 ;
+2 x21081 +2 x21082 +2 x21083 +2 x21084 -1 x20781 -1 x20782 -1 x20783 -1 x20784 -1 x20785 -1 x20786 -1 x20787 -1 x20788 >= 0 ;
+2 x21085 +2 x21086 +2 x21087 +2 x21088 -1 x20785 -1 x20786 -1 x20787 -1 x20788 -1 x20789 -1 x20790 -1 x20791 -1 x20792 >= 0 ;
+2 x21089 +2 x21090 +2 x21091 +2 x21092 -1 x20789 -1 x20790 -1 x20791 -1 x20792 -1 x20793 -1 x20794 -1 x20795 -1 x20796 >= 0 ;
+2 x21093 +2 x21094 +2 x21095 +2 x21096 -1 x20793 -1 x20794 -1 x20795 -1 x20796 -1 x20797 -1 x20798 -1 x20799 -1 x20800 >= 0 ;
+2 x21097 +2 x21098 +2 x21099 +2 x21100 -1 x20797 -1 x20798 -1 x20799 -1 x20800 -1 x20801 -1 x20802 -1 x20803 -1 x20804 >= 0 ;
+2 x21101 +2 x21102 +2 x21103 +2 x21104 -1 x20801 -1 x20802 -1 x20803 -1 x20804 -1 x20805 -1 x20806 -1 x20807 -1 x20808 >= 0 ;
+2 x21105 +2 x21106 +2 x21107 +2 x21108 -1 x20805 -1 x20806 -1 x20807 -1 x20808 -1 x20809 -1 x20810 -1 x20811 -1 x20812 >= 0 ;
+2 x21109 +2 x21110 +2 x21111 +2 x21112 -1 x20809 -1 x20810 -1 x20811 -1 x20812 -1 x20813 -1 x20814 -1 x20815 -1 x20816 >= 0 ;
+2 x21113 +2 x21114 +2 x21115 +2 x21116 -1 x20813 -1 x20814 -1 x20815 -1 x20816 -1 x20817 -1 x20818 -1 x20819 -1 x20820 >= 0 ;
+2 x21117 +2 x21118 +2 x21119 +2 x21120 -1 x20817 -1 x20818 -1 x20819 -1 x20820 -1 x20821 -1 x20822 -1 x20823 -1 x20824 >= 0 ;
+2 x21121 +2 x21122 +2 x21123 +2 x21124 -1 x20821 -1 x20822 -1 x20823 -1 x20824 -1 x20825 -1 x20826 -1 x20827 -1 x20828 >= 0 ;
+2 x21125 +2 x21126 +2 x21127 +2 x21128 -1 x20825 -1 x20826 -1 x20827 -1 x20828 -1 x20829 -1 x20830 -1 x20831 -1 x20832 >= 0 ;
+2 x21129 +2 x21130 +2 x21131 +2 x21132 -1 x20829 -1 x20830 -1 x20831 -1 x20832 -1 x20833 -1 x20834 -1 x20835 -1 x20836 >= 0 ;
+2 x21133 +2 x21134 +2 x21135 +2 x21136 -1 x20833 -1 x20834 -1 x20835 -1 x20836 -1 x20837 -1 x20838 -1 x20839 -1 x20840 >= 0 ;
+2 x21137 +2 x21138 +2 x21139 +2 x21140 -1 x20837 -1 x20838 -1 x20839 -1 x20840 -1 x20841 -1 x20842 -1 x20843 -1 x20844 >= 0 ;
+2 x21141 +2 x21142 +2 x21143 +2 x21144 -1 x20841 -1 x20842 -1 x20843 -1 x20844 -1 x20845 -1 x20846 -1 x20847 -1 x20848 >= 0 ;
+2 x21145 +2 x21146 +2 x21147 +2 x21148 -1 x20845 -1 x20846 -1 x20847 -1 x20848 -1 x20849 -1 x20850 -1 x20851 -1 x20852 >= 0 ;
+2 x21149 +2 x21150 +2 x21151 +2 x21152 -1 x20849 -1 x20850 -1 x20851 -1 x20852 -1 x20853 -1 x20854 -1 x20855 -1 x20856 >= 0 ;
+2 x21153 +2 x21154 +2 x21155 +2 x21156 -1 x20853 -1 x20854 -1 x20855 -1 x20856 -1 x20857 -1 x20858 -1 x20859 -1 x20860 >= 0 ;
+2 x21157 +2 x21158 +2 x21159 +2 x21160 -1 x20857 -1 x20858 -1 x20859 -1 x20860 -1 x20861 -1 x20862 -1 x20863 -1 x20864 >= 0 ;
+2 x21161 +2 x21162 +2 x21163 +2 x21164 -1 x20861 -1 x20862 -1 x20863 -1 x20864 -1 x20865 -1 x20866 -1 x20867 -1 x20868 >= 0 ;
+2 x21165 +2 x21166 +2 x21167 +2 x21168 -1 x20865 -1 x20866 -1 x20867 -1 x20868 -1 x20869 -1 x20870 -1 x20871 -1 x20872 >= 0 ;
+2 x21169 +2 x21170 +2 x21171 +2 x21172 -1 x20869 -1 x20870 -1 x20871 -1 x20872 -1 x20873 -1 x20874 -1 x20875 -1 x20876 >= 0 ;
+2 x21173 +2 x21174 +2 x21175 +2 x21176 -1 x20873 -1 x20874 -1 x20875 -1 x20876 -1 x20877 -1 x20878 -1 x20879 -1 x20880 >= 0 ;
+2 x21177 +2 x21178 +2 x21179 +2 x21180 -1 x20877 -1 x20878 -1 x20879 -1 x20880 -1 x20881 -1 x20882 -1 x20883 -1 x20884 >= 0 ;
+2 x21181 +2 x21182 +2 x21183 +2 x21184 -1 x20881 -1 x20882 -1 x20883 -1 x20884 -1 x20885 -1 x20886 -1 x20887 -1 x20888 >= 0 ;
+2 x21185 +2 x21186 +2 x21187 +2 x21188 -1 x20885 -1 x20886 -1 x20887 -1 x20888 -1 x20889 -1 x20890 -1 x20891 -1 x20892 >= 0 ;
+2 x21189 +2 x21190 +2 x21191 +2 x21192 -1 x20889 -1 x20890 -1 x20891 -1 x20892 -1 x20893 -1 x20894 -1 x20895 -1 x20896 >= 0 ;
+2 x21193 +2 x21194 +2 x21195 +2 x21196 -1 x20893 -1 x20894 -1 x20895 -1 x20896 -1 x20897 -1 x20898 -1 x20899 -1 x20900 >= 0 ;
+2 x21197 +2 x21198 +2 x21199 +2 x21200 -1 x20897 -1 x20898 -1 x20899 -1 x20900 -1 x20901 -1 x20902 -1 x20903 -1 x20904 >= 0 ;
+2 x21201 +2 x21202 +2 x21203 +2 x21204 -1 x20905 -1 x20906 -1 x20907 -1 x20908 -1 x20909 -1 x20910 -1 x20911 -1 x20912 >= 0 ;
+2 x21205 +2 x21206 +2 x21207 +2 x21208 -1 x20909 -1 x20910 -1 x20911 -1 x20912 -1 x20913 -1 x20914 -1 x20915 -1 x20916 >= 0 ;
+2 x21209 +2 x21210 +2 x21211 +2 x21212 -1 x20913 -1 x20914 -1 x20915 -1 x20916 -1 x20917 -1 x20918 -1 x20919 -1 x20920 >= 0 ;
+2 x21213 +2 x21214 +2 x21215 +2 x21216 -1 x20917 -1 x20918 -1 x20919 -1 x20920 -1 x20921 -1 x20922 -1 x20923 -1 x20924 >= 0 ;
+2 x21217 +2 x21218 +2 x21219 +2 x21220 -1 x20921 -1 x20922 -1 x20923 -1 x20924 -1 x20925 -1 x20926 -1 x20927 -1 x20928 >= 0 ;
+2 x21221 +2 x21222 +2 x21223 +2 x21224 -1 x20925 -1 x20926 -1 x20927 -1 x20928 -1 x20929 -1 x20930 -1 x20931 -1 x20932 >= 0 ;
+2 x21225 +2 x21226 +2 x21227 +2 x21228 -1 x20929 -1 x20930 -1 x20931 -1 x20932 -1 x20933 -1 x20934 -1 x20935 -1 x20936 >= 0 ;
+2 x21229 +2 x21230 +2 x21231 +2 x21232 -1 x20933 -1 x20934 -1 x20935 -1 x20936 -1 x20937 -1 x20938 -1 x20939 -1 x20940 >= 0 ;
+2 x21233 +2 x21234 +2 x21235 +2 x21236 -1 x20937 -1 x20938 -1 x20939 -1 x20940 -1 x20941 -1 x20942 -1 x20943 -1 x20944 >= 0 ;
+2 x21237 +2 x21238 +2 x21239 +2 x21240 -1 x20941 -1 x20942 -1 x20943 -1 x20944 -1 x20945 -1 x20946 -1 x20947 -1 x20948 >= 0 ;
+2 x21241 +2 x21242 +2 x21243 +2 x21244 -1 x20945 -1 x20946 -1 x20947 -1 x20948 -1 x20949 -1 x20950 -1 x20951 -1 x20952 >= 0 ;
+2 x21245 +2 x21246 +2 x21247 +2 x21248 -1 x20949 -1 x20950 -1 x20951 -1 x20952 -1 x20953 -1 x20954 -1 x20955 -1 x20956 >= 0 ;
+2 x21249 +2 x21250 +2 x21251 +2 x21252 -1 x20953 -1 x20954 -1 x20955 -1 x20956 -1 x20957 -1 x20958 -1 x20959 -1 x20960 >= 0 ;
+2 x21253 +2 x21254 +2 x21255 +2 x21256 -1 x20957 -1 x20958 -1 x20959 -1 x20960 -1 x20961 -1 x20962 -1 x20963 -1 x20964 >= 0 ;
+2 x21257 +2 x21258 +2 x21259 +2 x21260 -1 x20961 -1 x20962 -1 x20963 -1 x20964 -1 x20965 -1 x20966 -1 x20967 -1 x20968 >= 0 ;
+2 x21261 +2 x21262 +2 x21263 +2 x21264 -1 x20965 -1 x20966 -1 x20967 -1 x20968 -1 x20969 -1 x20970 -1 x20971 -1 x20972 >= 0 ;
+2 x21265 +2 x21266 +2 x21267 +2 x21268 -1 x20969 -1 x20970 -1 x20971 -1 x20972 -1 x20973 -1 x20974 -1 x20975 -1 x20976 >= 0 ;
+2 x21269 +2 x21270 +2 x21271 +2 x21272 -1 x20973 -1 x20974 -1 x20975 -1 x20976 -1 x20977 -1 x20978 -1 x20979 -1 x20980 >= 0 ;
+2 x21273 +2 x21274 +2 x21275 +2 x21276 -1 x20977 -1 x20978 -1 x20979 -1 x20980 -1 x20981 -1 x20982 -1 x20983 -1 x20984 >= 0 ;
+2 x21277 +2 x21278 +2 x21279 +2 x21280 -1 x20981 -1 x20982 -1 x20983 -1 x20984 -1 x20985 -1 x20986 -1 x20987 -1 x20988 >= 0 ;
+2 x21281 +2 x21282 +2 x21283 +2 x21284 -1 x20985 -1 x20986 -1 x20987 -1 x20988 -1 x20989 -1 x20990 -1 x20991 -1 x20992 >= 0 ;
+2 x21285 +2 x21286 +2 x21287 +2 x21288 -1 x20989 -1 x20990 -1 x20991 -1 x20992 -1 x20993 -1 x20994 -1 x20995 -1 x20996 >= 0 ;
+2 x21289 +2 x21290 +2 x21291 +2 x21292 -1 x20993 -1 x20994 -1 x20995 -1 x20996 -1 x20997 -1 x20998 -1 x20999 -1 x21000 >= 0 ;
+2 x21293 +2 x21294 +2 x21295 +2 x21296 -1 x20997 -1 x20998 -1 x20999 -1 x21000 -1 x21001 -1 x21002 -1 x21003 -1 x21004 >= 0 ;
+2 x21297 +2 x21298 +2 x21299 +2 x21300 -1 x21001 -1 x21002 -1 x21003 -1 x21004 -1 x21005 -1 x21006 -1 x21007 -1 x21008 >= 0 ;
+2 x21301 +2 x21302 +2 x21303 +2 x21304 -1 x21005 -1 x21006 -1 x21007 -1 x21008 -1 x21009 -1 x21010 -1 x21011 -1 x21012 >= 0 ;
+2 x21305 +2 x21306 +2 x21307 +2 x21308 -1 x21009 -1 x21010 -1 x21011 -1 x21012 -1 x21013 -1 x21014 -1 x21015 -1 x21016 >= 0 ;
+2 x21309 +2 x21310 +2 x21311 +2 x21312 -1 x21013 -1 x21014 -1 x21015 -1 x21016 -1 x21017 -1 x21018 -1 x21019 -1 x21020 >= 0 ;
+2 x21313 +2 x21314 +2 x21315 +2 x21316 -1 x21017 -1 x21018 -1 x21019 -1 x21020 -1 x21021 -1 x21022 -1 x21023 -1 x21024 >= 0 ;
+2 x21317 +2 x21318 +2 x21319 +2 x21320 -1 x21021 -1 x21022 -1 x21023 -1 x21024 -1 x21025 -1 x21026 -1 x21027 -1 x21028 >= 0 ;
+2 x21321 +2 x21322 +2 x21323 +2 x21324 -1 x21025 -1 x21026 -1 x21027 -1 x21028 -1 x21029 -1 x21030 -1 x21031 -1 x21032 >= 0 ;
+2 x21325 +2 x21326 +2 x21327 +2 x21328 -1 x21029 -1 x21030 -1 x21031 -1 x21032 -1 x21033 -1 x21034 -1 x21035 -1 x21036 >= 0 ;
+2 x21329 +2 x21330 +2 x21331 +2 x21332 -1 x21033 -1 x21034 -1 x21035 -1 x21036 -1 x21037 -1 x21038 -1 x21039 -1 x21040 >= 0 ;
+2 x21333 +2 x21334 +2 x21335 +2 x21336 -1 x21037 -1 x21038 -1 x21039 -1 x21040 -1 x21041 -1 x21042 -1 x21043 -1 x21044 >= 0 ;
+2 x21337 +2 x21338 +2 x21339 +2 x21340 -1 x21041 -1 x21042 -1 x21043 -1 x21044 -1 x21045 -1 x21046 -1 x21047 -1 x21048 >= 0 ;
+2 x21341 +2 x21342 +2 x21343 +2 x21344 -1 x21045 -1 x21046 -1 x21047 -1 x21048 -1 x21049 -1 x21050 -1 x21051 -1 x21052 >= 0 ;
+2 x21345 +2 x21346 +2 x21347 +2 x21348 -1 x21049 -1 x21050 -1 x21051 -1 x21052 -1 x21053 -1 x21054 -1 x21055 -1 x21056 >= 0 ;
+2 x21349 +2 x21350 +2 x21351 +2 x21352 -1 x21053 -1 x21054 -1 x21055 -1 x21056 -1 x21057 -1 x21058 -1 x21059 -1 x21060 >= 0 ;
+2 x21353 +2 x21354 +2 x21355 +2 x21356 -1 x21057 -1 x21058 -1 x21059 -1 x21060 -1 x21061 -1 x21062 -1 x21063 -1 x21064 >= 0 ;
+2 x21357 +2 x21358 +2 x21359 +2 x21360 -1 x21061 -1 x21062 -1 x21063 -1 x21064 -1 x21065 -1 x21066 -1 x21067 -1 x21068 >= 0 ;
+2 x21361 +2 x21362 +2 x21363 +2 x21364 -1 x21065 -1 x21066 -1 x21067 -1 x21068 -1 x21069 -1 x21070 -1 x21071 -1 x21072 >= 0 ;
+2 x21365 +2 x21366 +2 x21367 +2 x21368 -1 x21069 -1 x21070 -1 x21071 -1 x21072 -1 x21073 -1 x21074 -1 x21075 -1 x21076 >= 0 ;
+2 x21369 +2 x21370 +2 x21371 +2 x21372 -1 x21073 -1 x21074 -1 x21075 -1 x21076 -1 x21077 -1 x21078 -1 x21079 -1 x21080 >= 0 ;
+2 x21373 +2 x21374 +2 x21375 +2 x21376 -1 x21077 -1 x21078 -1 x21079 -1 x21080 -1 x21081 -1 x21082 -1 x21083 -1 x21084 >= 0 ;
+2 x21377 +2 x21378 +2 x21379 +2 x21380 -1 x21081 -1 x21082 -1 x21083 -1 x21084 -1 x21085 -1 x21086 -1 x21087 -1 x21088 >= 0 ;
+2 x21381 +2 x21382 +2 x21383 +2 x21384 -1 x21085 -1 x21086 -1 x21087 -1 x21088 -1 x21089 -1 x21090 -1 x21091 -1 x21092 >= 0 ;
+2 x21385 +2 x21386 +2 x21387 +2 x21388 -1 x21089 -1 x21090 -1 x21091 -1 x21092 -1 x21093 -1 x21094 -1 x21095 -1 x21096 >= 0 ;
+2 x21389 +2 x21390 +2 x21391 +2 x21392 -1 x21093 -1 x21094 -1 x21095 -1 x21096 -1 x21097 -1 x21098 -1 x21099 -1 x21100 >= 0 ;
+2 x21393 +2 x21394 +2 x21395 +2 x21396 -1 x21097 -1 x21098 -1 x21099 -1 x21100 -1 x21101 -1 x21102 -1 x21103 -1 x21104 >= 0 ;
+2 x21397 +2 x21398 +2 x21399 +2 x21400 -1 x21101 -1 x21102 -1 x21103 -1 x21104 -1 x21105 -1 x21106 -1 x21107 -1 x21108 >= 0 ;
+2 x21401 +2 x21402 +2 x21403 +2 x21404 -1 x21105 -1 x21106 -1 x21107 -1 x21108 -1 x21109 -1 x21110 -1 x21111 -1 x21112 >= 0 ;
+2 x21405 +2 x21406 +2 x21407 +2 x21408 -1 x21109 -1 x21110 -1 x21111 -1 x21112 -1 x21113 -1 x21114 -1 x21115 -1 x21116 >= 0 ;
+2 x21409 +2 x21410 +2 x21411 +2 x21412 -1 x21113 -1 x21114 -1 x21115 -1 x21116 -1 x21117 -1 x21118 -1 x21119 -1 x21120 >= 0 ;
+2 x21413 +2 x21414 +2 x21415 +2 x21416 -1 x21117 -1 x21118 -1 x21119 -1 x21120 -1 x21121 -1 x21122 -1 x21123 -1 x21124 >= 0 ;
+2 x21417 +2 x21418 +2 x21419 +2 x21420 -1 x21121 -1 x21122 -1 x21123 -1 x21124 -1 x21125 -1 x21126 -1 x21127 -1 x21128 >= 0 ;
+2 x21421 +2 x21422 +2 x21423 +2 x21424 -1 x21125 -1 x21126 -1 x21127 -1 x21128 -1 x21129 -1 x21130 -1 x21131 -1 x21132 >= 0 ;
+2 x21425 +2 x21426 +2 x21427 +2 x21428 -1 x21129 -1 x21130 -1 x21131 -1 x21132 -1 x21133 -1 x21134 -1 x21135 -1 x21136 >= 0 ;
+2 x21429 +2 x21430 +2 x21431 +2 x21432 -1 x21133 -1 x21134 -1 x21135 -1 x21136 -1 x21137 -1 x21138 -1 x21139 -1 x21140 >= 0 ;
+2 x21433 +2 x21434 +2 x21435 +2 x21436 -1 x21137 -1 x21138 -1 x21139 -1 x21140 -1 x21141 -1 x21142 -1 x21143 -1 x21144 >= 0 ;
+2 x21437 +2 x21438 +2 x21439 +2 x21440 -1 x21141 -1 x21142 -1 x21143 -1 x21144 -1 x21145 -1 x21146 -1 x21147 -1 x21148 >= 0 ;
+2 x21441 +2 x21442 +2 x21443 +2 x21444 -1 x21145 -1 x21146 -1 x21147 -1 x21148 -1 x21149 -1 x21150 -1 x21151 -1 x21152 >= 0 ;
+2 x21445 +2 x21446 +2 x21447 +2 x21448 -1 x21149 -1 x21150 -1 x21151 -1 x21152 -1 x21153 -1 x21154 -1 x21155 -1 x21156 >= 0 ;
+2 x21449 +2 x21450 +2 x21451 +2 x21452 -1 x21153 -1 x21154 -1 x21155 -1 x21156 -1 x21157 -1 x21158 -1 x21159 -1 x21160 >= 0 ;
+2 x21453 +2 x21454 +2 x21455 +2 x21456 -1 x21157 -1 x21158 -1 x21159 -1 x21160 -1 x21161 -1 x21162 -1 x21163 -1 x21164 >= 0 ;
+2 x21457 +2 x21458 +2 x21459 +2 x21460 -1 x21161 -1 x21162 -1 x21163 -1 x21164 -1 x21165 -1 x21166 -1 x21167 -1 x21168 >= 0 ;
+2 x21461 +2 x21462 +2 x21463 +2 x21464 -1 x21165 -1 x21166 -1 x21167 -1 x21168 -1 x21169 -1 x21170 -1 x21171 -1 x21172 >= 0 ;
+2 x21465 +2 x21466 +2 x21467 +2 x21468 -1 x21169 -1 x21170 -1 x21171 -1 x21172 -1 x21173 -1 x21174 -1 x21175 -1 x21176 >= 0 ;
+2 x21469 +2 x21470 +2 x21471 +2 x21472 -1 x21173 -1 x21174 -1 x21175 -1 x21176 -1 x21177 -1 x21178 -1 x21179 -1 x21180 >= 0 ;
+2 x21473 +2 x21474 +2 x21475 +2 x21476 -1 x21177 -1 x21178 -1 x21179 -1 x21180 -1 x21181 -1 x21182 -1 x21183 -1 x21184 >= 0 ;
+2 x21477 +2 x21478 +2 x21479 +2 x21480 -1 x21181 -1 x21182 -1 x21183 -1 x21184 -1 x21185 -1 x21186 -1 x21187 -1 x21188 >= 0 ;
+2 x21481 +2 x21482 +2 x21483 +2 x21484 -1 x21185 -1 x21186 -1 x21187 -1 x21188 -1 x21189 -1 x21190 -1 x21191 -1 x21192 >= 0 ;
+2 x21485 +2 x21486 +2 x21487 +2 x21488 -1 x21189 -1 x21190 -1 x21191 -1 x21192 -1 x21193 -1 x21194 -1 x21195 -1 x21196 >= 0 ;
+2 x21489 +2 x21490 +2 x21491 +2 x21492 -1 x21193 -1 x21194 -1 x21195 -1 x21196 -1 x21197 -1 x21198 -1 x21199 -1 x21200 >= 0 ;
+2 x21493 +2 x21494 +2 x21495 +2 x21496 -1 x21201 -1 x21202 -1 x21203 -1 x21204 -1 x21205 -1 x21206 -1 x21207 -1 x21208 >= 0 ;
+2 x21497 +2 x21498 +2 x21499 +2 x21500 -1 x21205 -1 x21206 -1 x21207 -1 x21208 -1 x21209 -1 x21210 -1 x21211 -1 x21212 >= 0 ;
+2 x21501 +2 x21502 +2 x21503 +2 x21504 -1 x21209 -1 x21210 -1 x21211 -1 x21212 -1 x21213 -1 x21214 -1 x21215 -1 x21216 >= 0 ;
+2 x21505 +2 x21506 +2 x21507 +2 x21508 -1 x21213 -1 x21214 -1 x21215 -1 x21216 -1 x21217 -1 x21218 -1 x21219 -1 x21220 >= 0 ;
+2 x21509 +2 x21510 +2 x21511 +2 x21512 -1 x21217 -1 x21218 -1 x21219 -1 x21220 -1 x21221 -1 x21222 -1 x21223 -1 x21224 >= 0 ;
+2 x21513 +2 x21514 +2 x21515 +2 x21516 -1 x21221 -1 x21222 -1 x21223 -1 x21224 -1 x21225 -1 x21226 -1 x21227 -1 x21228 >= 0 ;
+2 x21517 +2 x21518 +2 x21519 +2 x21520 -1 x21225 -1 x21226 -1 x21227 -1 x21228 -1 x21229 -1 x21230 -1 x21231 -1 x21232 >= 0 ;
+2 x21521 +2 x21522 +2 x21523 +2 x21524 -1 x21229 -1 x21230 -1 x21231 -1 x21232 -1 x21233 -1 x21234 -1 x21235 -1 x21236 >= 0 ;
+2 x21525 +2 x21526 +2 x21527 +2 x21528 -1 x21233 -1 x21234 -1 x21235 -1 x21236 -1 x21237 -1 x21238 -1 x21239 -1 x21240 >= 0 ;
+2 x21529 +2 x21530 +2 x21531 +2 x21532 -1 x21237 -1 x21238 -1 x21239 -1 x21240 -1 x21241 -1 x21242 -1 x21243 -1 x21244 >= 0 ;
+2 x21533 +2 x21534 +2 x21535 +2 x21536 -1 x21241 -1 x21242 -1 x21243 -1 x21244 -1 x21245 -1 x21246 -1 x21247 -1 x21248 >= 0 ;
+2 x21537 +2 x21538 +2 x21539 +2 x21540 -1 x21245 -1 x21246 -1 x21247 -1 x21248 -1 x21249 -1 x21250 -1 x21251 -1 x21252 >= 0 ;
+2 x21541 +2 x21542 +2 x21543 +2 x21544 -1 x21249 -1 x21250 -1 x21251 -1 x21252 -1 x21253 -1 x21254 -1 x21255 -1 x21256 >= 0 ;
+2 x21545 +2 x21546 +2 x21547 +2 x21548 -1 x21253 -1 x21254 -1 x21255 -1 x21256 -1 x21257 -1 x21258 -1 x21259 -1 x21260 >= 0 ;
+2 x21549 +2 x21550 +2 x21551 +2 x21552 -1 x21257 -1 x21258 -1 x21259 -1 x21260 -1 x21261 -1 x21262 -1 x21263 -1 x21264 >= 0 ;
+2 x21553 +2 x21554 +2 x21555 +2 x21556 -1 x21261 -1 x21262 -1 x21263 -1 x21264 -1 x21265 -1 x21266 -1 x21267 -1 x21268 >= 0 ;
+2 x21557 +2 x21558 +2 x21559 +2 x21560 -1 x21265 -1 x21266 -1 x21267 -1 x21268 -1 x21269 -1 x21270 -1 x21271 -1 x21272 >= 0 ;
+2 x21561 +2 x21562 +2 x21563 +2 x21564 -1 x21269 -1 x21270 -1 x21271 -1 x21272 -1 x21273 -1 x21274 -1 x21275 -1 x21276 >= 0 ;
+2 x21565 +2 x21566 +2 x21567 +2 x21568 -1 x21273 -1 x21274 -1 x21275 -1 x21276 -1 x21277 -1 x21278 -1 x21279 -1 x21280 >= 0 ;
+2 x21569 +2 x21570 +2 x21571 +2 x21572 -1 x21277 -1 x21278 -1 x21279 -1 x21280 -1 x21281 -1 x21282 -1 x21283 -1 x21284 >= 0 ;
+2 x21573 +2 x21574 +2 x21575 +2 x21576 -1 x21281 -1 x21282 -1 x21283 -1 x21284 -1 x21285 -1 x21286 -1 x21287 -1 x21288 >= 0 ;
+2 x21577 +2 x21578 +2 x21579 +2 x21580 -1 x21285 -1 x21286 -1 x21287 -1 x21288 -1 x21289 -1 x21290 -1 x21291 -1 x21292 >= 0 ;
+2 x21581 +2 x21582 +2 x21583 +2 x21584 -1 x21289 -1 x21290 -1 x21291 -1 x21292 -1 x21293 -1 x21294 -1 x21295 -1 x21296 >= 0 ;
+2 x21585 +2 x21586 +2 x21587 +2 x21588 -1 x21293 -1 x21294 -1 x21295 -1 x21296 -1 x21297 -1 x21298 -1 x21299 -1 x21300 >= 0 ;
+2 x21589 +2 x21590 +2 x21591 +2 x21592 -1 x21297 -1 x21298 -1 x21299 -1 x21300 -1 x21301 -1 x21302 -1 x21303 -1 x21304 >= 0 ;
+2 x21593 +2 x21594 +2 x21595 +2 x21596 -1 x21301 -1 x21302 -1 x21303 -1 x21304 -1 x21305 -1 x21306 -1 x21307 -1 x21308 >= 0 ;
+2 x21597 +2 x21598 +2 x21599 +2 x21600 -1 x21305 -1 x21306 -1 x21307 -1 x21308 -1 x21309 -1 x21310 -1 x21311 -1 x21312 >= 0 ;
+2 x21601 +2 x21602 +2 x21603 +2 x21604 -1 x21309 -1 x21310 -1 x21311 -1 x21312 -1 x21313 -1 x21314 -1 x21315 -1 x21316 >= 0 ;
+2 x21605 +2 x21606 +2 x21607 +2 x21608 -1 x21313 -1 x21314 -1 x21315 -1 x21316 -1 x21317 -1 x21318 -1 x21319 -1 x21320 >= 0 ;
+2 x21609 +2 x21610 +2 x21611 +2 x21612 -1 x21317 -1 x21318 -1 x21319 -1 x21320 -1 x21321 -1 x21322 -1 x21323 -1 x21324 >= 0 ;
+2 x21613 +2 x21614 +2 x21615 +2 x21616 -1 x21321 -1 x21322 -1 x21323 -1 x21324 -1 x21325 -1 x21326 -1 x21327 -1 x21328 >= 0 ;
+2 x21617 +2 x21618 +2 x21619 +2 x21620 -1 x21325 -1 x21326 -1 x21327 -1 x21328 -1 x21329 -1 x21330 -1 x21331 -1 x21332 >= 0 ;
+2 x21621 +2 x21622 +2 x21623 +2 x21624 -1 x21329 -1 x21330 -1 x21331 -1 x21332 -1 x21333 -1 x21334 -1 x21335 -1 x21336 >= 0 ;
+2 x21625 +2 x21626 +2 x21627 +2 x21628 -1 x21333 -1 x21334 -1 x21335 -1 x21336 -1 x21337 -1 x21338 -1 x21339 -1 x21340 >= 0 ;
+2 x21629 +2 x21630 +2 x21631 +2 x21632 -1 x21337 -1 x21338 -1 x21339 -1 x21340 -1 x21341 -1 x21342 -1 x21343 -1 x21344 >= 0 ;
+2 x21633 +2 x21634 +2 x21635 +2 x21636 -1 x21341 -1 x21342 -1 x21343 -1 x21344 -1 x21345 -1 x21346 -1 x21347 -1 x21348 >= 0 ;
+2 x21637 +2 x21638 +2 x21639 +2 x21640 -1 x21345 -1 x21346 -1 x21347 -1 x21348 -1 x21349 -1 x21350 -1 x21351 -1 x21352 >= 0 ;
+2 x21641 +2 x21642 +2 x21643 +2 x21644 -1 x21349 -1 x21350 -1 x21351 -1 x21352 -1 x21353 -1 x21354 -1 x21355 -1 x21356 >= 0 ;
+2 x21645 +2 x21646 +2 x21647 +2 x21648 -1 x21353 -1 x21354 -1 x21355 -1 x21356 -1 x21357 -1 x21358 -1 x21359 -1 x21360 >= 0 ;
+2 x21649 +2 x21650 +2 x21651 +2 x21652 -1 x21357 -1 x21358 -1 x21359 -1 x21360 -1 x21361 -1 x21362 -1 x21363 -1 x21364 >= 0 ;
+2 x21653 +2 x21654 +2 x21655 +2 x21656 -1 x21361 -1 x21362 -1 x21363 -1 x21364 -1 x21365 -1 x21366 -1 x21367 -1 x21368 >= 0 ;
+2 x21657 +2 x21658 +2 x21659 +2 x21660 -1 x21365 -1 x21366 -1 x21367 -1 x21368 -1 x21369 -1 x21370 -1 x21371 -1 x21372 >= 0 ;
+2 x21661 +2 x21662 +2 x21663 +2 x21664 -1 x21369 -1 x21370 -1 x21371 -1 x21372 -1 x21373 -1 x21374 -1 x21375 -1 x21376 >= 0 ;
+2 x21665 +2 x21666 +2 x21667 +2 x21668 -1 x21373 -1 x21374 -1 x21375 -1 x21376 -1 x21377 -1 x21378 -1 x21379 -1 x21380 >= 0 ;
+2 x21669 +2 x21670 +2 x21671 +2 x21672 -1 x21377 -1 x21378 -1 x21379 -1 x21380 -1 x21381 -1 x21382 -1 x21383 -1 x21384 >= 0 ;
+2 x21673 +2 x21674 +2 x21675 +2 x21676 -1 x21381 -1 x21382 -1 x21383 -1 x21384 -1 x21385 -1 x21386 -1 x21387 -1 x21388 >= 0 ;
+2 x21677 +2 x21678 +2 x21679 +2 x21680 -1 x21385 -1 x21386 -1 x21387 -1 x21388 -1 x21389 -1 x21390 -1 x21391 -1 x21392 >= 0 ;
+2 x21681 +2 x21682 +2 x21683 +2 x21684 -1 x21389 -1 x21390 -1 x21391 -1 x21392 -1 x21393 -1 x21394 -1 x21395 -1 x21396 >= 0 ;
+2 x21685 +2 x21686 +2 x21687 +2 x21688 -1 x21393 -1 x21394 -1 x21395 -1 x21396 -1 x21397 -1 x21398 -1 x21399 -1 x21400 >= 0 ;
+2 x21689 +2 x21690 +2 x21691 +2 x21692 -1 x21397 -1 x21398 -1 x21399 -1 x21400 -1 x21401 -1 x21402 -1 x21403 -1 x21404 >= 0 ;
+2 x21693 +2 x21694 +2 x21695 +2 x21696 -1 x21401 -1 x21402 -1 x21403 -1 x21404 -1 x21405 -1 x21406 -1 x21407 -1 x21408 >= 0 ;
+2 x21697 +2 x21698 +2 x21699 +2 x21700 -1 x21405 -1 x21406 -1 x21407 -1 x21408 -1 x21409 -1 x21410 -1 x21411 -1 x21412 >= 0 ;
+2 x21701 +2 x21702 +2 x21703 +2 x21704 -1 x21409 -1 x21410 -1 x21411 -1 x21412 -1 x21413 -1 x21414 -1 x21415 -1 x21416 >= 0 ;
+2 x21705 +2 x21706 +2 x21707 +2 x21708 -1 x21413 -1 x21414 -1 x21415 -1 x21416 -1 x21417 -1 x21418 -1 x21419 -1 x21420 >= 0 ;
+2 x21709 +2 x21710 +2 x21711 +2 x21712 -1 x21417 -1 x21418 -1 x21419 -1 x21420 -1 x21421 -1 x21422 -1 x21423 -1 x21424 >= 0 ;
+2 x21713 +2 x21714 +2 x21715 +2 x21716 -1 x21421 -1 x21422 -1 x21423 -1 x21424 -1 x21425 -1 x21426 -1 x21427 -1 x21428 >= 0 ;
+2 x21717 +2 x21718 +2 x21719 +2 x21720 -1 x21425 -1 x21426 -1 x21427 -1 x21428 -1 x21429 -1 x21430 -1 x21431 -1 x21432 >= 0 ;
+2 x21721 +2 x21722 +2 x21723 +2 x21724 -1 x21429 -1 x21430 -1 x21431 -1 x21432 -1 x21433 -1 x21434 -1 x21435 -1 x21436 >= 0 ;
+2 x21725 +2 x21726 +2 x21727 +2 x21728 -1 x21433 -1 x21434 -1 x21435 -1 x21436 -1 x21437 -1 x21438 -1 x21439 -1 x21440 >= 0 ;
+2 x21729 +2 x21730 +2 x21731 +2 x21732 -1 x21437 -1 x21438 -1 x21439 -1 x21440 -1 x21441 -1 x21442 -1 x21443 -1 x21444 >= 0 ;
+2 x21733 +2 x21734 +2 x21735 +2 x21736 -1 x21441 -1 x21442 -1 x21443 -1 x21444 -1 x21445 -1 x21446 -1 x21447 -1 x21448 >= 0 ;
+2 x21737 +2 x21738 +2 x21739 +2 x21740 -1 x21445 -1 x21446 -1 x21447 -1 x21448 -1 x21449 -1 x21450 -1 x21451 -1 x21452 >= 0 ;
+2 x21741 +2 x21742 +2 x21743 +2 x21744 -1 x21449 -1 x21450 -1 x21451 -1 x21452 -1 x21453 -1 x21454 -1 x21455 -1 x21456 >= 0 ;
+2 x21745 +2 x21746 +2 x21747 +2 x21748 -1 x21453 -1 x21454 -1 x21455 -1 x21456 -1 x21457 -1 x21458 -1 x21459 -1 x21460 >= 0 ;
+2 x21749 +2 x21750 +2 x21751 +2 x21752 -1 x21457 -1 x21458 -1 x21459 -1 x21460 -1 x21461 -1 x21462 -1 x21463 -1 x21464 >= 0 ;
+2 x21753 +2 x21754 +2 x21755 +2 x21756 -1 x21461 -1 x21462 -1 x21463 -1 x21464 -1 x21465 -1 x21466 -1 x21467 -1 x21468 >= 0 ;
+2 x21757 +2 x21758 +2 x21759 +2 x21760 -1 x21465 -1 x21466 -1 x21467 -1 x21468 -1 x21469 -1 x21470 -1 x21471 -1 x21472 >= 0 ;
+2 x21761 +2 x21762 +2 x21763 +2 x21764 -1 x21469 -1 x21470 -1 x21471 -1 x21472 -1 x21473 -1 x21474 -1 x21475 -1 x21476 >= 0 ;
+2 x21765 +2 x21766 +2 x21767 +2 x21768 -1 x21473 -1 x21474 -1 x21475 -1 x21476 -1 x21477 -1 x21478 -1 x21479 -1 x21480 >= 0 ;
+2 x21769 +2 x21770 +2 x21771 +2 x21772 -1 x21477 -1 x21478 -1 x21479 -1 x21480 -1 x21481 -1 x21482 -1 x21483 -1 x21484 >= 0 ;
+2 x21773 +2 x21774 +2 x21775 +2 x21776 -1 x21481 -1 x21482 -1 x21483 -1 x21484 -1 x21485 -1 x21486 -1 x21487 -1 x21488 >= 0 ;
+2 x21777 +2 x21778 +2 x21779 +2 x21780 -1 x21485 -1 x21486 -1 x21487 -1 x21488 -1 x21489 -1 x21490 -1 x21491 -1 x21492 >= 0 ;
+2 x21781 +2 x21782 +2 x21783 +2 x21784 -1 x21493 -1 x21494 -1 x21495 -1 x21496 -1 x21497 -1 x21498 -1 x21499 -1 x21500 >= 0 ;
+2 x21785 +2 x21786 +2 x21787 +2 x21788 -1 x21497 -1 x21498 -1 x21499 -1 x21500 -1 x21501 -1 x21502 -1 x21503 -1 x21504 >= 0 ;
+2 x21789 +2 x21790 +2 x21791 +2 x21792 -1 x21501 -1 x21502 -1 x21503 -1 x21504 -1 x21505 -1 x21506 -1 x21507 -1 x21508 >= 0 ;
+2 x21793 +2 x21794 +2 x21795 +2 x21796 -1 x21505 -1 x21506 -1 x21507 -1 x21508 -1 x21509 -1 x21510 -1 x21511 -1 x21512 >= 0 ;
+2 x21797 +2 x21798 +2 x21799 +2 x21800 -1 x21509 -1 x21510 -1 x21511 -1 x21512 -1 x21513 -1 x21514 -1 x21515 -1 x21516 >= 0 ;
+2 x21801 +2 x21802 +2 x21803 +2 x21804 -1 x21513 -1 x21514 -1 x21515 -1 x21516 -1 x21517 -1 x21518 -1 x21519 -1 x21520 >= 0 ;
+2 x21805 +2 x21806 +2 x21807 +2 x21808 -1 x21517 -1 x21518 -1 x21519 -1 x21520 -1 x21521 -1 x21522 -1 x21523 -1 x21524 >= 0 ;
+2 x21809 +2 x21810 +2 x21811 +2 x21812 -1 x21521 -1 x21522 -1 x21523 -1 x21524 -1 x21525 -1 x21526 -1 x21527 -1 x21528 >= 0 ;
+2 x21813 +2 x21814 +2 x21815 +2 x21816 -1 x21525 -1 x21526 -1 x21527 -1 x21528 -1 x21529 -1 x21530 -1 x21531 -1 x21532 >= 0 ;
+2 x21817 +2 x21818 +2 x21819 +2 x21820 -1 x21529 -1 x21530 -1 x21531 -1 x21532 -1 x21533 -1 x21534 -1 x21535 -1 x21536 >= 0 ;
+2 x21821 +2 x21822 +2 x21823 +2 x21824 -1 x21533 -1 x21534 -1 x21535 -1 x21536 -1 x21537 -1 x21538 -1 x21539 -1 x21540 >= 0 ;
+2 x21825 +2 x21826 +2 x21827 +2 x21828 -1 x21537 -1 x21538 -1 x21539 -1 x21540 -1 x21541 -1 x21542 -1 x21543 -1 x21544 >= 0 ;
+2 x21829 +2 x21830 +2 x21831 +2 x21832 -1 x21541 -1 x21542 -1 x21543 -1 x21544 -1 x21545 -1 x21546 -1 x21547 -1 x21548 >= 0 ;
+2 x21833 +2 x21834 +2 x21835 +2 x21836 -1 x21545 -1 x21546 -1 x21547 -1 x21548 -1 x21549 -1 x21550 -1 x21551 -1 x21552 >= 0 ;
+2 x21837 +2 x21838 +2 x21839 +2 x21840 -1 x21549 -1 x21550 -1 x21551 -1 x21552 -1 x21553 -1 x21554 -1 x21555 -1 x21556 >= 0 ;
+2 x21841 +2 x21842 +2 x21843 +2 x21844 -1 x21553 -1 x21554 -1 x21555 -1 x21556 -1 x21557 -1 x21558 -1 x21559 -1 x21560 >= 0 ;
+2 x21845 +2 x21846 +2 x21847 +2 x21848 -1 x21557 -1 x21558 -1 x21559 -1 x21560 -1 x21561 -1 x21562 -1 x21563 -1 x21564 >= 0 ;
+2 x21849 +2 x21850 +2 x21851 +2 x21852 -1 x21561 -1 x21562 -1 x21563 -1 x21564 -1 x21565 -1 x21566 -1 x21567 -1 x21568 >= 0 ;
+2 x21853 +2 x21854 +2 x21855 +2 x21856 -1 x21565 -1 x21566 -1 x21567 -1 x21568 -1 x21569 -1 x21570 -1 x21571 -1 x21572 >= 0 ;
+2 x21857 +2 x21858 +2 x21859 +2 x21860 -1 x21569 -1 x21570 -1 x21571 -1 x21572 -1 x21573 -1 x21574 -1 x21575 -1 x21576 >= 0 ;
+2 x21861 +2 x21862 +2 x21863 +2 x21864 -1 x21573 -1 x21574 -1 x21575 -1 x21576 -1 x21577 -1 x21578 -1 x21579 -1 x21580 >= 0 ;
+2 x21865 +2 x21866 +2 x21867 +2 x21868 -1 x21577 -1 x21578 -1 x21579 -1 x21580 -1 x21581 -1 x21582 -1 x21583 -1 x21584 >= 0 ;
+2 x21869 +2 x21870 +2 x21871 +2 x21872 -1 x21581 -1 x21582 -1 x21583 -1 x21584 -1 x21585 -1 x21586 -1 x21587 -1 x21588 >= 0 ;
+2 x21873 +2 x21874 +2 x21875 +2 x21876 -1 x21585 -1 x21586 -1 x21587 -1 x21588 -1 x21589 -1 x21590 -1 x21591 -1 x21592 >= 0 ;
+2 x21877 +2 x21878 +2 x21879 +2 x21880 -1 x21589 -1 x21590 -1 x21591 -1 x21592 -1 x21593 -1 x21594 -1 x21595 -1 x21596 >= 0 ;
+2 x21881 +2 x21882 +2 x21883 +2 x21884 -1 x21593 -1 x21594 -1 x21595 -1 x21596 -1 x21597 -1 x21598 -1 x21599 -1 x21600 >= 0 ;
+2 x21885 +2 x21886 +2 x21887 +2 x21888 -1 x21597 -1 x21598 -1 x21599 -1 x21600 -1 x21601 -1 x21602 -1 x21603 -1 x21604 >= 0 ;
+2 x21889 +2 x21890 +2 x21891 +2 x21892 -1 x21601 -1 x21602 -1 x21603 -1 x21604 -1 x21605 -1 x21606 -1 x21607 -1 x21608 >= 0 ;
+2 x21893 +2 x21894 +2 x21895 +2 x21896 -1 x21605 -1 x21606 -1 x21607 -1 x21608 -1 x21609 -1 x21610 -1 x21611 -1 x21612 >= 0 ;
+2 x21897 +2 x21898 +2 x21899 +2 x21900 -1 x21609 -1 x21610 -1 x21611 -1 x21612 -1 x21613 -1 x21614 -1 x21615 -1 x21616 >= 0 ;
+2 x21901 +2 x21902 +2 x21903 +2 x21904 -1 x21613 -1 x21614 -1 x21615 -1 x21616 -1 x21617 -1 x21618 -1 x21619 -1 x21620 >= 0 ;
+2 x21905 +2 x21906 +2 x21907 +2 x21908 -1 x21617 -1 x21618 -1 x21619 -1 x21620 -1 x21621 -1 x21622 -1 x21623 -1 x21624 >= 0 ;
+2 x21909 +2 x21910 +2 x21911 +2 x21912 -1 x21621 -1 x21622 -1 x21623 -1 x21624 -1 x21625 -1 x21626 -1 x21627 -1 x21628 >= 0 ;
+2 x21913 +2 x21914 +2 x21915 +2 x21916 -1 x21625 -1 x21626 -1 x21627 -1 x21628 -1 x21629 -1 x21630 -1 x21631 -1 x21632 >= 0 ;
+2 x21917 +2 x21918 +2 x21919 +2 x21920 -1 x21629 -1 x21630 -1 x21631 -1 x21632 -1 x21633 -1 x21634 -1 x21635 -1 x21636 >= 0 ;
+2 x21921 +2 x21922 +2 x21923 +2 x21924 -1 x21633 -1 x21634 -1 x21635 -1 x21636 -1 x21637 -1 x21638 -1 x21639 -1 x21640 >= 0 ;
+2 x21925 +2 x21926 +2 x21927 +2 x21928 -1 x21637 -1 x21638 -1 x21639 -1 x21640 -1 x21641 -1 x21642 -1 x21643 -1 x21644 >= 0 ;
+2 x21929 +2 x21930 +2 x21931 +2 x21932 -1 x21641 -1 x21642 -1 x21643 -1 x21644 -1 x21645 -1 x21646 -1 x21647 -1 x21648 >= 0 ;
+2 x21933 +2 x21934 +2 x21935 +2 x21936 -1 x21645 -1 x21646 -1 x21647 -1 x21648 -1 x21649 -1 x21650 -1 x21651 -1 x21652 >= 0 ;
+2 x21937 +2 x21938 +2 x21939 +2 x21940 -1 x21649 -1 x21650 -1 x21651 -1 x21652 -1 x21653 -1 x21654 -1 x21655 -1 x21656 >= 0 ;
+2 x21941 +2 x21942 +2 x21943 +2 x21944 -1 x21653 -1 x21654 -1 x21655 -1 x21656 -1 x21657 -1 x21658 -1 x21659 -1 x21660 >= 0 ;
+2 x21945 +2 x21946 +2 x21947 +2 x21948 -1 x21657 -1 x21658 -1 x21659 -1 x21660 -1 x21661 -1 x21662 -1 x21663 -1 x21664 >= 0 ;
+2 x21949 +2 x21950 +2 x21951 +2 x21952 -1 x21661 -1 x21662 -1 x21663 -1 x21664 -1 x21665 -1 x21666 -1 x21667 -1 x21668 >= 0 ;
+2 x21953 +2 x21954 +2 x21955 +2 x21956 -1 x21665 -1 x21666 -1 x21667 -1 x21668 -1 x21669 -1 x21670 -1 x21671 -1 x21672 >= 0 ;
+2 x21957 +2 x21958 +2 x21959 +2 x21960 -1 x21669 -1 x21670 -1 x21671 -1 x21672 -1 x21673 -1 x21674 -1 x21675 -1 x21676 >= 0 ;
+2 x21961 +2 x21962 +2 x21963 +2 x21964 -1 x21673 -1 x21674 -1 x21675 -1 x21676 -1 x21677 -1 x21678 -1 x21679 -1 x21680 >= 0 ;
+2 x21965 +2 x21966 +2 x21967 +2 x21968 -1 x21677 -1 x21678 -1 x21679 -1 x21680 -1 x21681 -1 x21682 -1 x21683 -1 x21684 >= 0 ;
+2 x21969 +2 x21970 +2 x21971 +2 x21972 -1 x21681 -1 x21682 -1 x21683 -1 x21684 -1 x21685 -1 x21686 -1 x21687 -1 x21688 >= 0 ;
+2 x21973 +2 x21974 +2 x21975 +2 x21976 -1 x21685 -1 x21686 -1 x21687 -1 x21688 -1 x21689 -1 x21690 -1 x21691 -1 x21692 >= 0 ;
+2 x21977 +2 x21978 +2 x21979 +2 x21980 -1 x21689 -1 x21690 -1 x21691 -1 x21692 -1 x21693 -1 x21694 -1 x21695 -1 x21696 >= 0 ;
+2 x21981 +2 x21982 +2 x21983 +2 x21984 -1 x21693 -1 x21694 -1 x21695 -1 x21696 -1 x21697 -1 x21698 -1 x21699 -1 x21700 >= 0 ;
+2 x21985 +2 x21986 +2 x21987 +2 x21988 -1 x21697 -1 x21698 -1 x21699 -1 x21700 -1 x21701 -1 x21702 -1 x21703 -1 x21704 >= 0 ;
+2 x21989 +2 x21990 +2 x21991 +2 x21992 -1 x21701 -1 x21702 -1 x21703 -1 x21704 -1 x21705 -1 x21706 -1 x21707 -1 x21708 >= 0 ;
+2 x21993 +2 x21994 +2 x21995 +2 x21996 -1 x21705 -1 x21706 -1 x21707 -1 x21708 -1 x21709 -1 x21710 -1 x21711 -1 x21712 >= 0 ;
+2 x21997 +2 x21998 +2 x21999 +2 x22000 -1 x21709 -1 x21710 -1 x21711 -1 x21712 -1 x21713 -1 x21714 -1 x21715 -1 x21716 >= 0 ;
+2 x22001 +2 x22002 +2 x22003 +2 x22004 -1 x21713 -1 x21714 -1 x21715 -1 x21716 -1 x21717 -1 x21718 -1 x21719 -1 x21720 >= 0 ;
+2 x22005 +2 x22006 +2 x22007 +2 x22008 -1 x21717 -1 x21718 -1 x21719 -1 x21720 -1 x21721 -1 x21722 -1 x21723 -1 x21724 >= 0 ;
+2 x22009 +2 x22010 +2 x22011 +2 x22012 -1 x21721 -1 x21722 -1 x21723 -1 x21724 -1 x21725 -1 x21726 -1 x21727 -1 x21728 >= 0 ;
+2 x22013 +2 x22014 +2 x22015 +2 x22016 -1 x21725 -1 x21726 -1 x21727 -1 x21728 -1 x21729 -1 x21730 -1 x21731 -1 x21732 >= 0 ;
+2 x22017 +2 x22018 +2 x22019 +2 x22020 -1 x21729 -1 x21730 -1 x21731 -1 x21732 -1 x21733 -1 x21734 -1 x21735 -1 x21736 >= 0 ;
+2 x22021 +2 x22022 +2 x22023 +2 x22024 -1 x21733 -1 x21734 -1 x21735 -1 x21736 -1 x21737 -1 x21738 -1 x21739 -1 x21740 >= 0 ;
+2 x22025 +2 x22026 +2 x22027 +2 x22028 -1 x21737 -1 x21738 -1 x21739 -1 x21740 -1 x21741 -1 x21742 -1 x21743 -1 x21744 >= 0 ;
+2 x22029 +2 x22030 +2 x22031 +2 x22032 -1 x21741 -1 x21742 -1 x21743 -1 x21744 -1 x21745 -1 x21746 -1 x21747 -1 x21748 >= 0 ;
+2 x22033 +2 x22034 +2 x22035 +2 x22036 -1 x21745 -1 x21746 -1 x21747 -1 x21748 -1 x21749 -1 x21750 -1 x21751 -1 x21752 >= 0 ;
+2 x22037 +2 x22038 +2 x22039 +2 x22040 -1 x21749 -1 x21750 -1 x21751 -1 x21752 -1 x21753 -1 x21754 -1 x21755 -1 x21756 >= 0 ;
+2 x22041 +2 x22042 +2 x22043 +2 x22044 -1 x21753 -1 x21754 -1 x21755 -1 x21756 -1 x21757 -1 x21758 -1 x21759 -1 x21760 >= 0 ;
+2 x22045 +2 x22046 +2 x22047 +2 x22048 -1 x21757 -1 x21758 -1 x21759 -1 x21760 -1 x21761 -1 x21762 -1 x21763 -1 x21764 >= 0 ;
+2 x22049 +2 x22050 +2 x22051 +2 x22052 -1 x21761 -1 x21762 -1 x21763 -1 x21764 -1 x21765 -1 x21766 -1 x21767 -1 x21768 >= 0 ;
+2 x22053 +2 x22054 +2 x22055 +2 x22056 -1 x21765 -1 x21766 -1 x21767 -1 x21768 -1 x21769 -1 x21770 -1 x21771 -1 x21772 >= 0 ;
+2 x22057 +2 x22058 +2 x22059 +2 x22060 -1 x21769 -1 x21770 -1 x21771 -1 x21772 -1 x21773 -1 x21774 -1 x21775 -1 x21776 >= 0 ;
+2 x22061 +2 x22062 +2 x22063 +2 x22064 -1 x21773 -1 x21774 -1 x21775 -1 x21776 -1 x21777 -1 x21778 -1 x21779 -1 x21780 >= 0 ;
+2 x22065 +2 x22066 +2 x22067 +2 x22068 -1 x21781 -1 x21782 -1 x21783 -1 x21784 -1 x21785 -1 x21786 -1 x21787 -1 x21788 >= 0 ;
+2 x22069 +2 x22070 +2 x22071 +2 x22072 -1 x21785 -1 x21786 -1 x21787 -1 x21788 -1 x21789 -1 x21790 -1 x21791 -1 x21792 >= 0 ;
+2 x22073 +2 x22074 +2 x22075 +2 x22076 -1 x21789 -1 x21790 -1 x21791 -1 x21792 -1 x21793 -1 x21794 -1 x21795 -1 x21796 >= 0 ;
+2 x22077 +2 x22078 +2 x22079 +2 x22080 -1 x21793 -1 x21794 -1 x21795 -1 x21796 -1 x21797 -1 x21798 -1 x21799 -1 x21800 >= 0 ;
+2 x22081 +2 x22082 +2 x22083 +2 x22084 -1 x21797 -1 x21798 -1 x21799 -1 x21800 -1 x21801 -1 x21802 -1 x21803 -1 x21804 >= 0 ;
+2 x22085 +2 x22086 +2 x22087 +2 x22088 -1 x21801 -1 x21802 -1 x21803 -1 x21804 -1 x21805 -1 x21806 -1 x21807 -1 x21808 >= 0 ;
+2 x22089 +2 x22090 +2 x22091 +2 x22092 -1 x21805 -1 x21806 -1 x21807 -1 x21808 -1 x21809 -1 x21810 -1 x21811 -1 x21812 >= 0 ;
+2 x22093 +2 x22094 +2 x22095 +2 x22096 -1 x21809 -1 x21810 -1 x21811 -1 x21812 -1 x21813 -1 x21814 -1 x21815 -1 x21816 >= 0 ;
+2 x22097 +2 x22098 +2 x22099 +2 x22100 -1 x21813 -1 x21814 -1 x21815 -1 x21816 -1 x21817 -1 x21818 -1 x21819 -1 x21820 >= 0 ;
+2 x22101 +2 x22102 +2 x22103 +2 x22104 -1 x21817 -1 x21818 -1 x21819 -1 x21820 -1 x21821 -1 x21822 -1 x21823 -1 x21824 >= 0 ;
+2 x22105 +2 x22106 +2 x22107 +2 x22108 -1 x21821 -1 x21822 -1 x21823 -1 x21824 -1 x21825 -1 x21826 -1 x21827 -1 x21828 >= 0 ;
+2 x22109 +2 x22110 +2 x22111 +2 x22112 -1 x21825 -1 x21826 -1 x21827 -1 x21828 -1 x21829 -1 x21830 -1 x21831 -1 x21832 >= 0 ;
+2 x22113 +2 x22114 +2 x22115 +2 x22116 -1 x21829 -1 x21830 -1 x21831 -1 x21832 -1 x21833 -1 x21834 -1 x21835 -1 x21836 >= 0 ;
+2 x22117 +2 x22118 +2 x22119 +2 x22120 -1 x21833 -1 x21834 -1 x21835 -1 x21836 -1 x21837 -1 x21838 -1 x21839 -1 x21840 >= 0 ;
+2 x22121 +2 x22122 +2 x22123 +2 x22124 -1 x21837 -1 x21838 -1 x21839 -1 x21840 -1 x21841 -1 x21842 -1 x21843 -1 x21844 >= 0 ;
+2 x22125 +2 x22126 +2 x22127 +2 x22128 -1 x21841 -1 x21842 -1 x21843 -1 x21844 -1 x21845 -1 x21846 -1 x21847 -1 x21848 >= 0 ;
+2 x22129 +2 x22130 +2 x22131 +2 x22132 -1 x21845 -1 x21846 -1 x21847 -1 x21848 -1 x21849 -1 x21850 -1 x21851 -1 x21852 >= 0 ;
+2 x22133 +2 x22134 +2 x22135 +2 x22136 -1 x21849 -1 x21850 -1 x21851 -1 x21852 -1 x21853 -1 x21854 -1 x21855 -1 x21856 >= 0 ;
+2 x22137 +2 x22138 +2 x22139 +2 x22140 -1 x21853 -1 x21854 -1 x21855 -1 x21856 -1 x21857 -1 x21858 -1 x21859 -1 x21860 >= 0 ;
+2 x22141 +2 x22142 +2 x22143 +2 x22144 -1 x21857 -1 x21858 -1 x21859 -1 x21860 -1 x21861 -1 x21862 -1 x21863 -1 x21864 >= 0 ;
+2 x22145 +2 x22146 +2 x22147 +2 x22148 -1 x21861 -1 x21862 -1 x21863 -1 x21864 -1 x21865 -1 x21866 -1 x21867 -1 x21868 >= 0 ;
+2 x22149 +2 x22150 +2 x22151 +2 x22152 -1 x21865 -1 x21866 -1 x21867 -1 x21868 -1 x21869 -1 x21870 -1 x21871 -1 x21872 >= 0 ;
+2 x22153 +2 x22154 +2 x22155 +2 x22156 -1 x21869 -1 x21870 -1 x21871 -1 x21872 -1 x21873 -1 x21874 -1 x21875 -1 x21876 >= 0 ;
+2 x22157 +2 x22158 +2 x22159 +2 x22160 -1 x21873 -1 x21874 -1 x21875 -1 x21876 -1 x21877 -1 x21878 -1 x21879 -1 x21880 >= 0 ;
+2 x22161 +2 x22162 +2 x22163 +2 x22164 -1 x21877 -1 x21878 -1 x21879 -1 x21880 -1 x21881 -1 x21882 -1 x21883 -1 x21884 >= 0 ;
+2 x22165 +2 x22166 +2 x22167 +2 x22168 -1 x21881 -1 x21882 -1 x21883 -1 x21884 -1 x21885 -1 x21886 -1 x21887 -1 x21888 >= 0 ;
+2 x22169 +2 x22170 +2 x22171 +2 x22172 -1 x21885 -1 x21886 -1 x21887 -1 x21888 -1 x21889 -1 x21890 -1 x21891 -1 x21892 >= 0 ;
+2 x22173 +2 x22174 +2 x22175 +2 x22176 -1 x21889 -1 x21890 -1 x21891 -1 x21892 -1 x21893 -1 x21894 -1 x21895 -1 x21896 >= 0 ;
+2 x22177 +2 x22178 +2 x22179 +2 x22180 -1 x21893 -1 x21894 -1 x21895 -1 x21896 -1 x21897 -1 x21898 -1 x21899 -1 x21900 >= 0 ;
+2 x22181 +2 x22182 +2 x22183 +2 x22184 -1 x21897 -1 x21898 -1 x21899 -1 x21900 -1 x21901 -1 x21902 -1 x21903 -1 x21904 >= 0 ;
+2 x22185 +2 x22186 +2 x22187 +2 x22188 -1 x21901 -1 x21902 -1 x21903 -1 x21904 -1 x21905 -1 x21906 -1 x21907 -1 x21908 >= 0 ;
+2 x22189 +2 x22190 +2 x22191 +2 x22192 -1 x21905 -1 x21906 -1 x21907 -1 x21908 -1 x21909 -1 x21910 -1 x21911 -1 x21912 >= 0 ;
+2 x22193 +2 x22194 +2 x22195 +2 x22196 -1 x21909 -1 x21910 -1 x21911 -1 x21912 -1 x21913 -1 x21914 -1 x21915 -1 x21916 >= 0 ;
+2 x22197 +2 x22198 +2 x22199 +2 x22200 -1 x21913 -1 x21914 -1 x21915 -1 x21916 -1 x21917 -1 x21918 -1 x21919 -1 x21920 >= 0 ;
+2 x22201 +2 x22202 +2 x22203 +2 x22204 -1 x21917 -1 x21918 -1 x21919 -1 x21920 -1 x21921 -1 x21922 -1 x21923 -1 x21924 >= 0 ;
+2 x22205 +2 x22206 +2 x22207 +2 x22208 -1 x21921 -1 x21922 -1 x21923 -1 x21924 -1 x21925 -1 x21926 -1 x21927 -1 x21928 >= 0 ;
+2 x22209 +2 x22210 +2 x22211 +2 x22212 -1 x21925 -1 x21926 -1 x21927 -1 x21928 -1 x21929 -1 x21930 -1 x21931 -1 x21932 >= 0 ;
+2 x22213 +2 x22214 +2 x22215 +2 x22216 -1 x21929 -1 x21930 -1 x21931 -1 x21932 -1 x21933 -1 x21934 -1 x21935 -1 x21936 >= 0 ;
+2 x22217 +2 x22218 +2 x22219 +2 x22220 -1 x21933 -1 x21934 -1 x21935 -1 x21936 -1 x21937 -1 x21938 -1 x21939 -1 x21940 >= 0 ;
+2 x22221 +2 x22222 +2 x22223 +2 x22224 -1 x21937 -1 x21938 -1 x21939 -1 x21940 -1 x21941 -1 x21942 -1 x21943 -1 x21944 >= 0 ;
+2 x22225 +2 x22226 +2 x22227 +2 x22228 -1 x21941 -1 x21942 -1 x21943 -1 x21944 -1 x21945 -1 x21946 -1 x21947 -1 x21948 >= 0 ;
+2 x22229 +2 x22230 +2 x22231 +2 x22232 -1 x21945 -1 x21946 -1 x21947 -1 x21948 -1 x21949 -1 x21950 -1 x21951 -1 x21952 >= 0 ;
+2 x22233 +2 x22234 +2 x22235 +2 x22236 -1 x21949 -1 x21950 -1 x21951 -1 x21952 -1 x21953 -1 x21954 -1 x21955 -1 x21956 >= 0 ;
+2 x22237 +2 x22238 +2 x22239 +2 x22240 -1 x21953 -1 x21954 -1 x21955 -1 x21956 -1 x21957 -1 x21958 -1 x21959 -1 x21960 >= 0 ;
+2 x22241 +2 x22242 +2 x22243 +2 x22244 -1 x21957 -1 x21958 -1 x21959 -1 x21960 -1 x21961 -1 x21962 -1 x21963 -1 x21964 >= 0 ;
+2 x22245 +2 x22246 +2 x22247 +2 x22248 -1 x21961 -1 x21962 -1 x21963 -1 x21964 -1 x21965 -1 x21966 -1 x21967 -1 x21968 >= 0 ;
+2 x22249 +2 x22250 +2 x22251 +2 x22252 -1 x21965 -1 x21966 -1 x21967 -1 x21968 -1 x21969 -1 x21970 -1 x21971 -1 x21972 >= 0 ;
+2 x22253 +2 x22254 +2 x22255 +2 x22256 -1 x21969 -1 x21970 -1 x21971 -1 x21972 -1 x21973 -1 x21974 -1 x21975 -1 x21976 >= 0 ;
+2 x22257 +2 x22258 +2 x22259 +2 x22260 -1 x21973 -1 x21974 -1 x21975 -1 x21976 -1 x21977 -1 x21978 -1 x21979 -1 x21980 >= 0 ;
+2 x22261 +2 x22262 +2 x22263 +2 x22264 -1 x21977 -1 x21978 -1 x21979 -1 x21980 -1 x21981 -1 x21982 -1 x21983 -1 x21984 >= 0 ;
+2 x22265 +2 x22266 +2 x22267 +2 x22268 -1 x21981 -1 x21982 -1 x21983 -1 x21984 -1 x21985 -1 x21986 -1 x21987 -1 x21988 >= 0 ;
+2 x22269 +2 x22270 +2 x22271 +2 x22272 -1 x21985 -1 x21986 -1 x21987 -1 x21988 -1 x21989 -1 x21990 -1 x21991 -1 x21992 >= 0 ;
+2 x22273 +2 x22274 +2 x22275 +2 x22276 -1 x21989 -1 x21990 -1 x21991 -1 x21992 -1 x21993 -1 x21994 -1 x21995 -1 x21996 >= 0 ;
+2 x22277 +2 x22278 +2 x22279 +2 x22280 -1 x21993 -1 x21994 -1 x21995 -1 x21996 -1 x21997 -1 x21998 -1 x21999 -1 x22000 >= 0 ;
+2 x22281 +2 x22282 +2 x22283 +2 x22284 -1 x21997 -1 x21998 -1 x21999 -1 x22000 -1 x22001 -1 x22002 -1 x22003 -1 x22004 >= 0 ;
+2 x22285 +2 x22286 +2 x22287 +2 x22288 -1 x22001 -1 x22002 -1 x22003 -1 x22004 -1 x22005 -1 x22006 -1 x22007 -1 x22008 >= 0 ;
+2 x22289 +2 x22290 +2 x22291 +2 x22292 -1 x22005 -1 x22006 -1 x22007 -1 x22008 -1 x22009 -1 x22010 -1 x22011 -1 x22012 >= 0 ;
+2 x22293 +2 x22294 +2 x22295 +2 x22296 -1 x22009 -1 x22010 -1 x22011 -1 x22012 -1 x22013 -1 x22014 -1 x22015 -1 x22016 >= 0 ;
+2 x22297 +2 x22298 +2 x22299 +2 x22300 -1 x22013 -1 x22014 -1 x22015 -1 x22016 -1 x22017 -1 x22018 -1 x22019 -1 x22020 >= 0 ;
+2 x22301 +2 x22302 +2 x22303 +2 x22304 -1 x22017 -1 x22018 -1 x22019 -1 x22020 -1 x22021 -1 x22022 -1 x22023 -1 x22024 >= 0 ;
+2 x22305 +2 x22306 +2 x22307 +2 x22308 -1 x22021 -1 x22022 -1 x22023 -1 x22024 -1 x22025 -1 x22026 -1 x22027 -1 x22028 >= 0 ;
+2 x22309 +2 x22310 +2 x22311 +2 x22312 -1 x22025 -1 x22026 -1 x22027 -1 x22028 -1 x22029 -1 x22030 -1 x22031 -1 x22032 >= 0 ;
+2 x22313 +2 x22314 +2 x22315 +2 x22316 -1 x22029 -1 x22030 -1 x22031 -1 x22032 -1 x22033 -1 x22034 -1 x22035 -1 x22036 >= 0 ;
+2 x22317 +2 x22318 +2 x22319 +2 x22320 -1 x22033 -1 x22034 -1 x22035 -1 x22036 -1 x22037 -1 x22038 -1 x22039 -1 x22040 >= 0 ;
+2 x22321 +2 x22322 +2 x22323 +2 x22324 -1 x22037 -1 x22038 -1 x22039 -1 x22040 -1 x22041 -1 x22042 -1 x22043 -1 x22044 >= 0 ;
+2 x22325 +2 x22326 +2 x22327 +2 x22328 -1 x22041 -1 x22042 -1 x22043 -1 x22044 -1 x22045 -1 x22046 -1 x22047 -1 x22048 >= 0 ;
+2 x22329 +2 x22330 +2 x22331 +2 x22332 -1 x22045 -1 x22046 -1 x22047 -1 x22048 -1 x22049 -1 x22050 -1 x22051 -1 x22052 >= 0 ;
+2 x22333 +2 x22334 +2 x22335 +2 x22336 -1 x22049 -1 x22050 -1 x22051 -1 x22052 -1 x22053 -1 x22054 -1 x22055 -1 x22056 >= 0 ;
+2 x22337 +2 x22338 +2 x22339 +2 x22340 -1 x22053 -1 x22054 -1 x22055 -1 x22056 -1 x22057 -1 x22058 -1 x22059 -1 x22060 >= 0 ;
+2 x22341 +2 x22342 +2 x22343 +2 x22344 -1 x22057 -1 x22058 -1 x22059 -1 x22060 -1 x22061 -1 x22062 -1 x22063 -1 x22064 >= 0 ;
+2 x22345 +2 x22346 +2 x22347 +2 x22348 -1 x22065 -1 x22066 -1 x22067 -1 x22068 -1 x22069 -1 x22070 -1 x22071 -1 x22072 >= 0 ;
+2 x22349 +2 x22350 +2 x22351 +2 x22352 -1 x22069 -1 x22070 -1 x22071 -1 x22072 -1 x22073 -1 x22074 -1 x22075 -1 x22076 >= 0 ;
+2 x22353 +2 x22354 +2 x22355 +2 x22356 -1 x22073 -1 x22074 -1 x22075 -1 x22076 -1 x22077 -1 x22078 -1 x22079 -1 x22080 >= 0 ;
+2 x22357 +2 x22358 +2 x22359 +2 x22360 -1 x22077 -1 x22078 -1 x22079 -1 x22080 -1 x22081 -1 x22082 -1 x22083 -1 x22084 >= 0 ;
+2 x22361 +2 x22362 +2 x22363 +2 x22364 -1 x22081 -1 x22082 -1 x22083 -1 x22084 -1 x22085 -1 x22086 -1 x22087 -1 x22088 >= 0 ;
+2 x22365 +2 x22366 +2 x22367 +2 x22368 -1 x22085 -1 x22086 -1 x22087 -1 x22088 -1 x22089 -1 x22090 -1 x22091 -1 x22092 >= 0 ;
+2 x22369 +2 x22370 +2 x22371 +2 x22372 -1 x22089 -1 x22090 -1 x22091 -1 x22092 -1 x22093 -1 x22094 -1 x22095 -1 x22096 >= 0 ;
+2 x22373 +2 x22374 +2 x22375 +2 x22376 -1 x22093 -1 x22094 -1 x22095 -1 x22096 -1 x22097 -1 x22098 -1 x22099 -1 x22100 >= 0 ;
+2 x22377 +2 x22378 +2 x22379 +2 x22380 -1 x22097 -1 x22098 -1 x22099 -1 x22100 -1 x22101 -1 x22102 -1 x22103 -1 x22104 >= 0 ;
+2 x22381 +2 x22382 +2 x22383 +2 x22384 -1 x22101 -1 x22102 -1 x22103 -1 x22104 -1 x22105 -1 x22106 -1 x22107 -1 x22108 >= 0 ;
+2 x22385 +2 x22386 +2 x22387 +2 x22388 -1 x22105 -1 x22106 -1 x22107 -1 x22108 -1 x22109 -1 x22110 -1 x22111 -1 x22112 >= 0 ;
+2 x22389 +2 x22390 +2 x22391 +2 x22392 -1 x22109 -1 x22110 -1 x22111 -1 x22112 -1 x22113 -1 x22114 -1 x22115 -1 x22116 >= 0 ;
+2 x22393 +2 x22394 +2 x22395 +2 x22396 -1 x22113 -1 x22114 -1 x22115 -1 x22116 -1 x22117 -1 x22118 -1 x22119 -1 x22120 >= 0 ;
+2 x22397 +2 x22398 +2 x22399 +2 x22400 -1 x22117 -1 x22118 -1 x22119 -1 x22120 -1 x22121 -1 x22122 -1 x22123 -1 x22124 >= 0 ;
+2 x22401 +2 x22402 +2 x22403 +2 x22404 -1 x22121 -1 x22122 -1 x22123 -1 x22124 -1 x22125 -1 x22126 -1 x22127 -1 x22128 >= 0 ;
+2 x22405 +2 x22406 +2 x22407 +2 x22408 -1 x22125 -1 x22126 -1 x22127 -1 x22128 -1 x22129 -1 x22130 -1 x22131 -1 x22132 >= 0 ;
+2 x22409 +2 x22410 +2 x22411 +2 x22412 -1 x22129 -1 x22130 -1 x22131 -1 x22132 -1 x22133 -1 x22134 -1 x22135 -1 x22136 >= 0 ;
+2 x22413 +2 x22414 +2 x22415 +2 x22416 -1 x22133 -1 x22134 -1 x22135 -1 x22136 -1 x22137 -1 x22138 -1 x22139 -1 x22140 >= 0 ;
+2 x22417 +2 x22418 +2 x22419 +2 x22420 -1 x22137 -1 x22138 -1 x22139 -1 x22140 -1 x22141 -1 x22142 -1 x22143 -1 x22144 >= 0 ;
+2 x22421 +2 x22422 +2 x22423 +2 x22424 -1 x22141 -1 x22142 -1 x22143 -1 x22144 -1 x22145 -1 x22146 -1 x22147 -1 x22148 >= 0 ;
+2 x22425 +2 x22426 +2 x22427 +2 x22428 -1 x22145 -1 x22146 -1 x22147 -1 x22148 -1 x22149 -1 x22150 -1 x22151 -1 x22152 >= 0 ;
+2 x22429 +2 x22430 +2 x22431 +2 x22432 -1 x22149 -1 x22150 -1 x22151 -1 x22152 -1 x22153 -1 x22154 -1 x22155 -1 x22156 >= 0 ;
+2 x22433 +2 x22434 +2 x22435 +2 x22436 -1 x22153 -1 x22154 -1 x22155 -1 x22156 -1 x22157 -1 x22158 -1 x22159 -1 x22160 >= 0 ;
+2 x22437 +2 x22438 +2 x22439 +2 x22440 -1 x22157 -1 x22158 -1 x22159 -1 x22160 -1 x22161 -1 x22162 -1 x22163 -1 x22164 >= 0 ;
+2 x22441 +2 x22442 +2 x22443 +2 x22444 -1 x22161 -1 x22162 -1 x22163 -1 x22164 -1 x22165 -1 x22166 -1 x22167 -1 x22168 >= 0 ;
+2 x22445 +2 x22446 +2 x22447 +2 x22448 -1 x22165 -1 x22166 -1 x22167 -1 x22168 -1 x22169 -1 x22170 -1 x22171 -1 x22172 >= 0 ;
+2 x22449 +2 x22450 +2 x22451 +2 x22452 -1 x22169 -1 x22170 -1 x22171 -1 x22172 -1 x22173 -1 x22174 -1 x22175 -1 x22176 >= 0 ;
+2 x22453 +2 x22454 +2 x22455 +2 x22456 -1 x22173 -1 x22174 -1 x22175 -1 x22176 -1 x22177 -1 x22178 -1 x22179 -1 x22180 >= 0 ;
+2 x22457 +2 x22458 +2 x22459 +2 x22460 -1 x22177 -1 x22178 -1 x22179 -1 x22180 -1 x22181 -1 x22182 -1 x22183 -1 x22184 >= 0 ;
+2 x22461 +2 x22462 +2 x22463 +2 x22464 -1 x22181 -1 x22182 -1 x22183 -1 x22184 -1 x22185 -1 x22186 -1 x22187 -1 x22188 >= 0 ;
+2 x22465 +2 x22466 +2 x22467 +2 x22468 -1 x22185 -1 x22186 -1 x22187 -1 x22188 -1 x22189 -1 x22190 -1 x22191 -1 x22192 >= 0 ;
+2 x22469 +2 x22470 +2 x22471 +2 x22472 -1 x22189 -1 x22190 -1 x22191 -1 x22192 -1 x22193 -1 x22194 -1 x22195 -1 x22196 >= 0 ;
+2 x22473 +2 x22474 +2 x22475 +2 x22476 -1 x22193 -1 x22194 -1 x22195 -1 x22196 -1 x22197 -1 x22198 -1 x22199 -1 x22200 >= 0 ;
+2 x22477 +2 x22478 +2 x22479 +2 x22480 -1 x22197 -1 x22198 -1 x22199 -1 x22200 -1 x22201 -1 x22202 -1 x22203 -1 x22204 >= 0 ;
+2 x22481 +2 x22482 +2 x22483 +2 x22484 -1 x22201 -1 x22202 -1 x22203 -1 x22204 -1 x22205 -1 x22206 -1 x22207 -1 x22208 >= 0 ;
+2 x22485 +2 x22486 +2 x22487 +2 x22488 -1 x22205 -1 x22206 -1 x22207 -1 x22208 -1 x22209 -1 x22210 -1 x22211 -1 x22212 >= 0 ;
+2 x22489 +2 x22490 +2 x22491 +2 x22492 -1 x22209 -1 x22210 -1 x22211 -1 x22212 -1 x22213 -1 x22214 -1 x22215 -1 x22216 >= 0 ;
+2 x22493 +2 x22494 +2 x22495 +2 x22496 -1 x22213 -1 x22214 -1 x22215 -1 x22216 -1 x22217 -1 x22218 -1 x22219 -1 x22220 >= 0 ;
+2 x22497 +2 x22498 +2 x22499 +2 x22500 -1 x22217 -1 x22218 -1 x22219 -1 x22220 -1 x22221 -1 x22222 -1 x22223 -1 x22224 >= 0 ;
+2 x22501 +2 x22502 +2 x22503 +2 x22504 -1 x22221 -1 x22222 -1 x22223 -1 x22224 -1 x22225 -1 x22226 -1 x22227 -1 x22228 >= 0 ;
+2 x22505 +2 x22506 +2 x22507 +2 x22508 -1 x22225 -1 x22226 -1 x22227 -1 x22228 -1 x22229 -1 x22230 -1 x22231 -1 x22232 >= 0 ;
+2 x22509 +2 x22510 +2 x22511 +2 x22512 -1 x22229 -1 x22230 -1 x22231 -1 x22232 -1 x22233 -1 x22234 -1 x22235 -1 x22236 >= 0 ;
+2 x22513 +2 x22514 +2 x22515 +2 x22516 -1 x22233 -1 x22234 -1 x22235 -1 x22236 -1 x22237 -1 x22238 -1 x22239 -1 x22240 >= 0 ;
+2 x22517 +2 x22518 +2 x22519 +2 x22520 -1 x22237 -1 x22238 -1 x22239 -1 x22240 -1 x22241 -1 x22242 -1 x22243 -1 x22244 >= 0 ;
+2 x22521 +2 x22522 +2 x22523 +2 x22524 -1 x22241 -1 x22242 -1 x22243 -1 x22244 -1 x22245 -1 x22246 -1 x22247 -1 x22248 >= 0 ;
+2 x22525 +2 x22526 +2 x22527 +2 x22528 -1 x22245 -1 x22246 -1 x22247 -1 x22248 -1 x22249 -1 x22250 -1 x22251 -1 x22252 >= 0 ;
+2 x22529 +2 x22530 +2 x22531 +2 x22532 -1 x22249 -1 x22250 -1 x22251 -1 x22252 -1 x22253 -1 x22254 -1 x22255 -1 x22256 >= 0 ;
+2 x22533 +2 x22534 +2 x22535 +2 x22536 -1 x22253 -1 x22254 -1 x22255 -1 x22256 -1 x22257 -1 x22258 -1 x22259 -1 x22260 >= 0 ;
+2 x22537 +2 x22538 +2 x22539 +2 x22540 -1 x22257 -1 x22258 -1 x22259 -1 x22260 -1 x22261 -1 x22262 -1 x22263 -1 x22264 >= 0 ;
+2 x22541 +2 x22542 +2 x22543 +2 x22544 -1 x22261 -1 x22262 -1 x22263 -1 x22264 -1 x22265 -1 x22266 -1 x22267 -1 x22268 >= 0 ;
+2 x22545 +2 x22546 +2 x22547 +2 x22548 -1 x22265 -1 x22266 -1 x22267 -1 x22268 -1 x22269 -1 x22270 -1 x22271 -1 x22272 >= 0 ;
+2 x22549 +2 x22550 +2 x22551 +2 x22552 -1 x22269 -1 x22270 -1 x22271 -1 x22272 -1 x22273 -1 x22274 -1 x22275 -1 x22276 >= 0 ;
+2 x22553 +2 x22554 +2 x22555 +2 x22556 -1 x22273 -1 x22274 -1 x22275 -1 x22276 -1 x22277 -1 x22278 -1 x22279 -1 x22280 >= 0 ;
+2 x22557 +2 x22558 +2 x22559 +2 x22560 -1 x22277 -1 x22278 -1 x22279 -1 x22280 -1 x22281 -1 x22282 -1 x22283 -1 x22284 >= 0 ;
+2 x22561 +2 x22562 +2 x22563 +2 x22564 -1 x22281 -1 x22282 -1 x22283 -1 x22284 -1 x22285 -1 x22286 -1 x22287 -1 x22288 >= 0 ;
+2 x22565 +2 x22566 +2 x22567 +2 x22568 -1 x22285 -1 x22286 -1 x22287 -1 x22288 -1 x22289 -1 x22290 -1 x22291 -1 x22292 >= 0 ;
+2 x22569 +2 x22570 +2 x22571 +2 x22572 -1 x22289 -1 x22290 -1 x22291 -1 x22292 -1 x22293 -1 x22294 -1 x22295 -1 x22296 >= 0 ;
+2 x22573 +2 x22574 +2 x22575 +2 x22576 -1 x22293 -1 x22294 -1 x22295 -1 x22296 -1 x22297 -1 x22298 -1 x22299 -1 x22300 >= 0 ;
+2 x22577 +2 x22578 +2 x22579 +2 x22580 -1 x22297 -1 x22298 -1 x22299 -1 x22300 -1 x22301 -1 x22302 -1 x22303 -1 x22304 >= 0 ;
+2 x22581 +2 x22582 +2 x22583 +2 x22584 -1 x22301 -1 x22302 -1 x22303 -1 x22304 -1 x22305 -1 x22306 -1 x22307 -1 x22308 >= 0 ;
+2 x22585 +2 x22586 +2 x22587 +2 x22588 -1 x22305 -1 x22306 -1 x22307 -1 x22308 -1 x22309 -1 x22310 -1 x22311 -1 x22312 >= 0 ;
+2 x22589 +2 x22590 +2 x22591 +2 x22592 -1 x22309 -1 x22310 -1 x22311 -1 x22312 -1 x22313 -1 x22314 -1 x22315 -1 x22316 >= 0 ;
+2 x22593 +2 x22594 +2 x22595 +2 x22596 -1 x22313 -1 x22314 -1 x22315 -1 x22316 -1 x22317 -1 x22318 -1 x22319 -1 x22320 >= 0 ;
+2 x22597 +2 x22598 +2 x22599 +2 x22600 -1 x22317 -1 x22318 -1 x22319 -1 x22320 -1 x22321 -1 x22322 -1 x22323 -1 x22324 >= 0 ;
+2 x22601 +2 x22602 +2 x22603 +2 x22604 -1 x22321 -1 x22322 -1 x22323 -1 x22324 -1 x22325 -1 x22326 -1 x22327 -1 x22328 >= 0 ;
+2 x22605 +2 x22606 +2 x22607 +2 x22608 -1 x22325 -1 x22326 -1 x22327 -1 x22328 -1 x22329 -1 x22330 -1 x22331 -1 x22332 >= 0 ;
+2 x22609 +2 x22610 +2 x22611 +2 x22612 -1 x22329 -1 x22330 -1 x22331 -1 x22332 -1 x22333 -1 x22334 -1 x22335 -1 x22336 >= 0 ;
+2 x22613 +2 x22614 +2 x22615 +2 x22616 -1 x22333 -1 x22334 -1 x22335 -1 x22336 -1 x22337 -1 x22338 -1 x22339 -1 x22340 >= 0 ;
+2 x22617 +2 x22618 +2 x22619 +2 x22620 -1 x22337 -1 x22338 -1 x22339 -1 x22340 -1 x22341 -1 x22342 -1 x22343 -1 x22344 >= 0 ;
+2 x22621 +2 x22622 +2 x22623 +2 x22624 -1 x22345 -1 x22346 -1 x22347 -1 x22348 -1 x22349 -1 x22350 -1 x22351 -1 x22352 >= 0 ;
+2 x22625 +2 x22626 +2 x22627 +2 x22628 -1 x22349 -1 x22350 -1 x22351 -1 x22352 -1 x22353 -1 x22354 -1 x22355 -1 x22356 >= 0 ;
+2 x22629 +2 x22630 +2 x22631 +2 x22632 -1 x22353 -1 x22354 -1 x22355 -1 x22356 -1 x22357 -1 x22358 -1 x22359 -1 x22360 >= 0 ;
+2 x22633 +2 x22634 +2 x22635 +2 x22636 -1 x22357 -1 x22358 -1 x22359 -1 x22360 -1 x22361 -1 x22362 -1 x22363 -1 x22364 >= 0 ;
+2 x22637 +2 x22638 +2 x22639 +2 x22640 -1 x22361 -1 x22362 -1 x22363 -1 x22364 -1 x22365 -1 x22366 -1 x22367 -1 x22368 >= 0 ;
+2 x22641 +2 x22642 +2 x22643 +2 x22644 -1 x22365 -1 x22366 -1 x22367 -1 x22368 -1 x22369 -1 x22370 -1 x22371 -1 x22372 >= 0 ;
+2 x22645 +2 x22646 +2 x22647 +2 x22648 -1 x22369 -1 x22370 -1 x22371 -1 x22372 -1 x22373 -1 x22374 -1 x22375 -1 x22376 >= 0 ;
+2 x22649 +2 x22650 +2 x22651 +2 x22652 -1 x22373 -1 x22374 -1 x22375 -1 x22376 -1 x22377 -1 x22378 -1 x22379 -1 x22380 >= 0 ;
+2 x22653 +2 x22654 +2 x22655 +2 x22656 -1 x22377 -1 x22378 -1 x22379 -1 x22380 -1 x22381 -1 x22382 -1 x22383 -1 x22384 >= 0 ;
+2 x22657 +2 x22658 +2 x22659 +2 x22660 -1 x22381 -1 x22382 -1 x22383 -1 x22384 -1 x22385 -1 x22386 -1 x22387 -1 x22388 >= 0 ;
+2 x22661 +2 x22662 +2 x22663 +2 x22664 -1 x22385 -1 x22386 -1 x22387 -1 x22388 -1 x22389 -1 x22390 -1 x22391 -1 x22392 >= 0 ;
+2 x22665 +2 x22666 +2 x22667 +2 x22668 -1 x22389 -1 x22390 -1 x22391 -1 x22392 -1 x22393 -1 x22394 -1 x22395 -1 x22396 >= 0 ;
+2 x22669 +2 x22670 +2 x22671 +2 x22672 -1 x22393 -1 x22394 -1 x22395 -1 x22396 -1 x22397 -1 x22398 -1 x22399 -1 x22400 >= 0 ;
+2 x22673 +2 x22674 +2 x22675 +2 x22676 -1 x22397 -1 x22398 -1 x22399 -1 x22400 -1 x22401 -1 x22402 -1 x22403 -1 x22404 >= 0 ;
+2 x22677 +2 x22678 +2 x22679 +2 x22680 -1 x22401 -1 x22402 -1 x22403 -1 x22404 -1 x22405 -1 x22406 -1 x22407 -1 x22408 >= 0 ;
+2 x22681 +2 x22682 +2 x22683 +2 x22684 -1 x22405 -1 x22406 -1 x22407 -1 x22408 -1 x22409 -1 x22410 -1 x22411 -1 x22412 >= 0 ;
+2 x22685 +2 x22686 +2 x22687 +2 x22688 -1 x22409 -1 x22410 -1 x22411 -1 x22412 -1 x22413 -1 x22414 -1 x22415 -1 x22416 >= 0 ;
+2 x22689 +2 x22690 +2 x22691 +2 x22692 -1 x22413 -1 x22414 -1 x22415 -1 x22416 -1 x22417 -1 x22418 -1 x22419 -1 x22420 >= 0 ;
+2 x22693 +2 x22694 +2 x22695 +2 x22696 -1 x22417 -1 x22418 -1 x22419 -1 x22420 -1 x22421 -1 x22422 -1 x22423 -1 x22424 >= 0 ;
+2 x22697 +2 x22698 +2 x22699 +2 x22700 -1 x22421 -1 x22422 -1 x22423 -1 x22424 -1 x22425 -1 x22426 -1 x22427 -1 x22428 >= 0 ;
+2 x22701 +2 x22702 +2 x22703 +2 x22704 -1 x22425 -1 x22426 -1 x22427 -1 x22428 -1 x22429 -1 x22430 -1 x22431 -1 x22432 >= 0 ;
+2 x22705 +2 x22706 +2 x22707 +2 x22708 -1 x22429 -1 x22430 -1 x22431 -1 x22432 -1 x22433 -1 x22434 -1 x22435 -1 x22436 >= 0 ;
+2 x22709 +2 x22710 +2 x22711 +2 x22712 -1 x22433 -1 x22434 -1 x22435 -1 x22436 -1 x22437 -1 x22438 -1 x22439 -1 x22440 >= 0 ;
+2 x22713 +2 x22714 +2 x22715 +2 x22716 -1 x22437 -1 x22438 -1 x22439 -1 x22440 -1 x22441 -1 x22442 -1 x22443 -1 x22444 >= 0 ;
+2 x22717 +2 x22718 +2 x22719 +2 x22720 -1 x22441 -1 x22442 -1 x22443 -1 x22444 -1 x22445 -1 x22446 -1 x22447 -1 x22448 >= 0 ;
+2 x22721 +2 x22722 +2 x22723 +2 x22724 -1 x22445 -1 x22446 -1 x22447 -1 x22448 -1 x22449 -1 x22450 -1 x22451 -1 x22452 >= 0 ;
+2 x22725 +2 x22726 +2 x22727 +2 x22728 -1 x22449 -1 x22450 -1 x22451 -1 x22452 -1 x22453 -1 x22454 -1 x22455 -1 x22456 >= 0 ;
+2 x22729 +2 x22730 +2 x22731 +2 x22732 -1 x22453 -1 x22454 -1 x22455 -1 x22456 -1 x22457 -1 x22458 -1 x22459 -1 x22460 >= 0 ;
+2 x22733 +2 x22734 +2 x22735 +2 x22736 -1 x22457 -1 x22458 -1 x22459 -1 x22460 -1 x22461 -1 x22462 -1 x22463 -1 x22464 >= 0 ;
+2 x22737 +2 x22738 +2 x22739 +2 x22740 -1 x22461 -1 x22462 -1 x22463 -1 x22464 -1 x22465 -1 x22466 -1 x22467 -1 x22468 >= 0 ;
+2 x22741 +2 x22742 +2 x22743 +2 x22744 -1 x22465 -1 x22466 -1 x22467 -1 x22468 -1 x22469 -1 x22470 -1 x22471 -1 x22472 >= 0 ;
+2 x22745 +2 x22746 +2 x22747 +2 x22748 -1 x22469 -1 x22470 -1 x22471 -1 x22472 -1 x22473 -1 x22474 -1 x22475 -1 x22476 >= 0 ;
+2 x22749 +2 x22750 +2 x22751 +2 x22752 -1 x22473 -1 x22474 -1 x22475 -1 x22476 -1 x22477 -1 x22478 -1 x22479 -1 x22480 >= 0 ;
+2 x22753 +2 x22754 +2 x22755 +2 x22756 -1 x22477 -1 x22478 -1 x22479 -1 x22480 -1 x22481 -1 x22482 -1 x22483 -1 x22484 >= 0 ;
+2 x22757 +2 x22758 +2 x22759 +2 x22760 -1 x22481 -1 x22482 -1 x22483 -1 x22484 -1 x22485 -1 x22486 -1 x22487 -1 x22488 >= 0 ;
+2 x22761 +2 x22762 +2 x22763 +2 x22764 -1 x22485 -1 x22486 -1 x22487 -1 x22488 -1 x22489 -1 x22490 -1 x22491 -1 x22492 >= 0 ;
+2 x22765 +2 x22766 +2 x22767 +2 x22768 -1 x22489 -1 x22490 -1 x22491 -1 x22492 -1 x22493 -1 x22494 -1 x22495 -1 x22496 >= 0 ;
+2 x22769 +2 x22770 +2 x22771 +2 x22772 -1 x22493 -1 x22494 -1 x22495 -1 x22496 -1 x22497 -1 x22498 -1 x22499 -1 x22500 >= 0 ;
+2 x22773 +2 x22774 +2 x22775 +2 x22776 -1 x22497 -1 x22498 -1 x22499 -1 x22500 -1 x22501 -1 x22502 -1 x22503 -1 x22504 >= 0 ;
+2 x22777 +2 x22778 +2 x22779 +2 x22780 -1 x22501 -1 x22502 -1 x22503 -1 x22504 -1 x22505 -1 x22506 -1 x22507 -1 x22508 >= 0 ;
+2 x22781 +2 x22782 +2 x22783 +2 x22784 -1 x22505 -1 x22506 -1 x22507 -1 x22508 -1 x22509 -1 x22510 -1 x22511 -1 x22512 >= 0 ;
+2 x22785 +2 x22786 +2 x22787 +2 x22788 -1 x22509 -1 x22510 -1 x22511 -1 x22512 -1 x22513 -1 x22514 -1 x22515 -1 x22516 >= 0 ;
+2 x22789 +2 x22790 +2 x22791 +2 x22792 -1 x22513 -1 x22514 -1 x22515 -1 x22516 -1 x22517 -1 x22518 -1 x22519 -1 x22520 >= 0 ;
+2 x22793 +2 x22794 +2 x22795 +2 x22796 -1 x22517 -1 x22518 -1 x22519 -1 x22520 -1 x22521 -1 x22522 -1 x22523 -1 x22524 >= 0 ;
+2 x22797 +2 x22798 +2 x22799 +2 x22800 -1 x22521 -1 x22522 -1 x22523 -1 x22524 -1 x22525 -1 x22526 -1 x22527 -1 x22528 >= 0 ;
+2 x22801 +2 x22802 +2 x22803 +2 x22804 -1 x22525 -1 x22526 -1 x22527 -1 x22528 -1 x22529 -1 x22530 -1 x22531 -1 x22532 >= 0 ;
+2 x22805 +2 x22806 +2 x22807 +2 x22808 -1 x22529 -1 x22530 -1 x22531 -1 x22532 -1 x22533 -1 x22534 -1 x22535 -1 x22536 >= 0 ;
+2 x22809 +2 x22810 +2 x22811 +2 x22812 -1 x22533 -1 x22534 -1 x22535 -1 x22536 -1 x22537 -1 x22538 -1 x22539 -1 x22540 >= 0 ;
+2 x22813 +2 x22814 +2 x22815 +2 x22816 -1 x22537 -1 x22538 -1 x22539 -1 x22540 -1 x22541 -1 x22542 -1 x22543 -1 x22544 >= 0 ;
+2 x22817 +2 x22818 +2 x22819 +2 x22820 -1 x22541 -1 x22542 -1 x22543 -1 x22544 -1 x22545 -1 x22546 -1 x22547 -1 x22548 >= 0 ;
+2 x22821 +2 x22822 +2 x22823 +2 x22824 -1 x22545 -1 x22546 -1 x22547 -1 x22548 -1 x22549 -1 x22550 -1 x22551 -1 x22552 >= 0 ;
+2 x22825 +2 x22826 +2 x22827 +2 x22828 -1 x22549 -1 x22550 -1 x22551 -1 x22552 -1 x22553 -1 x22554 -1 x22555 -1 x22556 >= 0 ;
+2 x22829 +2 x22830 +2 x22831 +2 x22832 -1 x22553 -1 x22554 -1 x22555 -1 x22556 -1 x22557 -1 x22558 -1 x22559 -1 x22560 >= 0 ;
+2 x22833 +2 x22834 +2 x22835 +2 x22836 -1 x22557 -1 x22558 -1 x22559 -1 x22560 -1 x22561 -1 x22562 -1 x22563 -1 x22564 >= 0 ;
+2 x22837 +2 x22838 +2 x22839 +2 x22840 -1 x22561 -1 x22562 -1 x22563 -1 x22564 -1 x22565 -1 x22566 -1 x22567 -1 x22568 >= 0 ;
+2 x22841 +2 x22842 +2 x22843 +2 x22844 -1 x22565 -1 x22566 -1 x22567 -1 x22568 -1 x22569 -1 x22570 -1 x22571 -1 x22572 >= 0 ;
+2 x22845 +2 x22846 +2 x22847 +2 x22848 -1 x22569 -1 x22570 -1 x22571 -1 x22572 -1 x22573 -1 x22574 -1 x22575 -1 x22576 >= 0 ;
+2 x22849 +2 x22850 +2 x22851 +2 x22852 -1 x22573 -1 x22574 -1 x22575 -1 x22576 -1 x22577 -1 x22578 -1 x22579 -1 x22580 >= 0 ;
+2 x22853 +2 x22854 +2 x22855 +2 x22856 -1 x22577 -1 x22578 -1 x22579 -1 x22580 -1 x22581 -1 x22582 -1 x22583 -1 x22584 >= 0 ;
+2 x22857 +2 x22858 +2 x22859 +2 x22860 -1 x22581 -1 x22582 -1 x22583 -1 x22584 -1 x22585 -1 x22586 -1 x22587 -1 x22588 >= 0 ;
+2 x22861 +2 x22862 +2 x22863 +2 x22864 -1 x22585 -1 x22586 -1 x22587 -1 x22588 -1 x22589 -1 x22590 -1 x22591 -1 x22592 >= 0 ;
+2 x22865 +2 x22866 +2 x22867 +2 x22868 -1 x22589 -1 x22590 -1 x22591 -1 x22592 -1 x22593 -1 x22594 -1 x22595 -1 x22596 >= 0 ;
+2 x22869 +2 x22870 +2 x22871 +2 x22872 -1 x22593 -1 x22594 -1 x22595 -1 x22596 -1 x22597 -1 x22598 -1 x22599 -1 x22600 >= 0 ;
+2 x22873 +2 x22874 +2 x22875 +2 x22876 -1 x22597 -1 x22598 -1 x22599 -1 x22600 -1 x22601 -1 x22602 -1 x22603 -1 x22604 >= 0 ;
+2 x22877 +2 x22878 +2 x22879 +2 x22880 -1 x22601 -1 x22602 -1 x22603 -1 x22604 -1 x22605 -1 x22606 -1 x22607 -1 x22608 >= 0 ;
+2 x22881 +2 x22882 +2 x22883 +2 x22884 -1 x22605 -1 x22606 -1 x22607 -1 x22608 -1 x22609 -1 x22610 -1 x22611 -1 x22612 >= 0 ;
+2 x22885 +2 x22886 +2 x22887 +2 x22888 -1 x22609 -1 x22610 -1 x22611 -1 x22612 -1 x22613 -1 x22614 -1 x22615 -1 x22616 >= 0 ;
+2 x22889 +2 x22890 +2 x22891 +2 x22892 -1 x22613 -1 x22614 -1 x22615 -1 x22616 -1 x22617 -1 x22618 -1 x22619 -1 x22620 >= 0 ;
+2 x22893 +2 x22894 +2 x22895 +2 x22896 -1 x22621 -1 x22622 -1 x22623 -1 x22624 -1 x22625 -1 x22626 -1 x22627 -1 x22628 >= 0 ;
+2 x22897 +2 x22898 +2 x22899 +2 x22900 -1 x22625 -1 x22626 -1 x22627 -1 x22628 -1 x22629 -1 x22630 -1 x22631 -1 x22632 >= 0 ;
+2 x22901 +2 x22902 +2 x22903 +2 x22904 -1 x22629 -1 x22630 -1 x22631 -1 x22632 -1 x22633 -1 x22634 -1 x22635 -1 x22636 >= 0 ;
+2 x22905 +2 x22906 +2 x22907 +2 x22908 -1 x22633 -1 x22634 -1 x22635 -1 x22636 -1 x22637 -1 x22638 -1 x22639 -1 x22640 >= 0 ;
+2 x22909 +2 x22910 +2 x22911 +2 x22912 -1 x22637 -1 x22638 -1 x22639 -1 x22640 -1 x22641 -1 x22642 -1 x22643 -1 x22644 >= 0 ;
+2 x22913 +2 x22914 +2 x22915 +2 x22916 -1 x22641 -1 x22642 -1 x22643 -1 x22644 -1 x22645 -1 x22646 -1 x22647 -1 x22648 >= 0 ;
+2 x22917 +2 x22918 +2 x22919 +2 x22920 -1 x22645 -1 x22646 -1 x22647 -1 x22648 -1 x22649 -1 x22650 -1 x22651 -1 x22652 >= 0 ;
+2 x22921 +2 x22922 +2 x22923 +2 x22924 -1 x22649 -1 x22650 -1 x22651 -1 x22652 -1 x22653 -1 x22654 -1 x22655 -1 x22656 >= 0 ;
+2 x22925 +2 x22926 +2 x22927 +2 x22928 -1 x22653 -1 x22654 -1 x22655 -1 x22656 -1 x22657 -1 x22658 -1 x22659 -1 x22660 >= 0 ;
+2 x22929 +2 x22930 +2 x22931 +2 x22932 -1 x22657 -1 x22658 -1 x22659 -1 x22660 -1 x22661 -1 x22662 -1 x22663 -1 x22664 >= 0 ;
+2 x22933 +2 x22934 +2 x22935 +2 x22936 -1 x22661 -1 x22662 -1 x22663 -1 x22664 -1 x22665 -1 x22666 -1 x22667 -1 x22668 >= 0 ;
+2 x22937 +2 x22938 +2 x22939 +2 x22940 -1 x22665 -1 x22666 -1 x22667 -1 x22668 -1 x22669 -1 x22670 -1 x22671 -1 x22672 >= 0 ;
+2 x22941 +2 x22942 +2 x22943 +2 x22944 -1 x22669 -1 x22670 -1 x22671 -1 x22672 -1 x22673 -1 x22674 -1 x22675 -1 x22676 >= 0 ;
+2 x22945 +2 x22946 +2 x22947 +2 x22948 -1 x22673 -1 x22674 -1 x22675 -1 x22676 -1 x22677 -1 x22678 -1 x22679 -1 x22680 >= 0 ;
+2 x22949 +2 x22950 +2 x22951 +2 x22952 -1 x22677 -1 x22678 -1 x22679 -1 x22680 -1 x22681 -1 x22682 -1 x22683 -1 x22684 >= 0 ;
+2 x22953 +2 x22954 +2 x22955 +2 x22956 -1 x22681 -1 x22682 -1 x22683 -1 x22684 -1 x22685 -1 x22686 -1 x22687 -1 x22688 >= 0 ;
+2 x22957 +2 x22958 +2 x22959 +2 x22960 -1 x22685 -1 x22686 -1 x22687 -1 x22688 -1 x22689 -1 x22690 -1 x22691 -1 x22692 >= 0 ;
+2 x22961 +2 x22962 +2 x22963 +2 x22964 -1 x22689 -1 x22690 -1 x22691 -1 x22692 -1 x22693 -1 x22694 -1 x22695 -1 x22696 >= 0 ;
+2 x22965 +2 x22966 +2 x22967 +2 x22968 -1 x22693 -1 x22694 -1 x22695 -1 x22696 -1 x22697 -1 x22698 -1 x22699 -1 x22700 >= 0 ;
+2 x22969 +2 x22970 +2 x22971 +2 x22972 -1 x22697 -1 x22698 -1 x22699 -1 x22700 -1 x22701 -1 x22702 -1 x22703 -1 x22704 >= 0 ;
+2 x22973 +2 x22974 +2 x22975 +2 x22976 -1 x22701 -1 x22702 -1 x22703 -1 x22704 -1 x22705 -1 x22706 -1 x22707 -1 x22708 >= 0 ;
+2 x22977 +2 x22978 +2 x22979 +2 x22980 -1 x22705 -1 x22706 -1 x22707 -1 x22708 -1 x22709 -1 x22710 -1 x22711 -1 x22712 >= 0 ;
+2 x22981 +2 x22982 +2 x22983 +2 x22984 -1 x22709 -1 x22710 -1 x22711 -1 x22712 -1 x22713 -1 x22714 -1 x22715 -1 x22716 >= 0 ;
+2 x22985 +2 x22986 +2 x22987 +2 x22988 -1 x22713 -1 x22714 -1 x22715 -1 x22716 -1 x22717 -1 x22718 -1 x22719 -1 x22720 >= 0 ;
+2 x22989 +2 x22990 +2 x22991 +2 x22992 -1 x22717 -1 x22718 -1 x22719 -1 x22720 -1 x22721 -1 x22722 -1 x22723 -1 x22724 >= 0 ;
+2 x22993 +2 x22994 +2 x22995 +2 x22996 -1 x22721 -1 x22722 -1 x22723 -1 x22724 -1 x22725 -1 x22726 -1 x22727 -1 x22728 >= 0 ;
+2 x22997 +2 x22998 +2 x22999 +2 x23000 -1 x22725 -1 x22726 -1 x22727 -1 x22728 -1 x22729 -1 x22730 -1 x22731 -1 x22732 >= 0 ;
+2 x23001 +2 x23002 +2 x23003 +2 x23004 -1 x22729 -1 x22730 -1 x22731 -1 x22732 -1 x22733 -1 x22734 -1 x22735 -1 x22736 >= 0 ;
+2 x23005 +2 x23006 +2 x23007 +2 x23008 -1 x22733 -1 x22734 -1 x22735 -1 x22736 -1 x22737 -1 x22738 -1 x22739 -1 x22740 >= 0 ;
+2 x23009 +2 x23010 +2 x23011 +2 x23012 -1 x22737 -1 x22738 -1 x22739 -1 x22740 -1 x22741 -1 x22742 -1 x22743 -1 x22744 >= 0 ;
+2 x23013 +2 x23014 +2 x23015 +2 x23016 -1 x22741 -1 x22742 -1 x22743 -1 x22744 -1 x22745 -1 x22746 -1 x22747 -1 x22748 >= 0 ;
+2 x23017 +2 x23018 +2 x23019 +2 x23020 -1 x22745 -1 x22746 -1 x22747 -1 x22748 -1 x22749 -1 x22750 -1 x22751 -1 x22752 >= 0 ;
+2 x23021 +2 x23022 +2 x23023 +2 x23024 -1 x22749 -1 x22750 -1 x22751 -1 x22752 -1 x22753 -1 x22754 -1 x22755 -1 x22756 >= 0 ;
+2 x23025 +2 x23026 +2 x23027 +2 x23028 -1 x22753 -1 x22754 -1 x22755 -1 x22756 -1 x22757 -1 x22758 -1 x22759 -1 x22760 >= 0 ;
+2 x23029 +2 x23030 +2 x23031 +2 x23032 -1 x22757 -1 x22758 -1 x22759 -1 x22760 -1 x22761 -1 x22762 -1 x22763 -1 x22764 >= 0 ;
+2 x23033 +2 x23034 +2 x23035 +2 x23036 -1 x22761 -1 x22762 -1 x22763 -1 x22764 -1 x22765 -1 x22766 -1 x22767 -1 x22768 >= 0 ;
+2 x23037 +2 x23038 +2 x23039 +2 x23040 -1 x22765 -1 x22766 -1 x22767 -1 x22768 -1 x22769 -1 x22770 -1 x22771 -1 x22772 >= 0 ;
+2 x23041 +2 x23042 +2 x23043 +2 x23044 -1 x22769 -1 x22770 -1 x22771 -1 x22772 -1 x22773 -1 x22774 -1 x22775 -1 x22776 >= 0 ;
+2 x23045 +2 x23046 +2 x23047 +2 x23048 -1 x22773 -1 x22774 -1 x22775 -1 x22776 -1 x22777 -1 x22778 -1 x22779 -1 x22780 >= 0 ;
+2 x23049 +2 x23050 +2 x23051 +2 x23052 -1 x22777 -1 x22778 -1 x22779 -1 x22780 -1 x22781 -1 x22782 -1 x22783 -1 x22784 >= 0 ;
+2 x23053 +2 x23054 +2 x23055 +2 x23056 -1 x22781 -1 x22782 -1 x22783 -1 x22784 -1 x22785 -1 x22786 -1 x22787 -1 x22788 >= 0 ;
+2 x23057 +2 x23058 +2 x23059 +2 x23060 -1 x22785 -1 x22786 -1 x22787 -1 x22788 -1 x22789 -1 x22790 -1 x22791 -1 x22792 >= 0 ;
+2 x23061 +2 x23062 +2 x23063 +2 x23064 -1 x22789 -1 x22790 -1 x22791 -1 x22792 -1 x22793 -1 x22794 -1 x22795 -1 x22796 >= 0 ;
+2 x23065 +2 x23066 +2 x23067 +2 x23068 -1 x22793 -1 x22794 -1 x22795 -1 x22796 -1 x22797 -1 x22798 -1 x22799 -1 x22800 >= 0 ;
+2 x23069 +2 x23070 +2 x23071 +2 x23072 -1 x22797 -1 x22798 -1 x22799 -1 x22800 -1 x22801 -1 x22802 -1 x22803 -1 x22804 >= 0 ;
+2 x23073 +2 x23074 +2 x23075 +2 x23076 -1 x22801 -1 x22802 -1 x22803 -1 x22804 -1 x22805 -1 x22806 -1 x22807 -1 x22808 >= 0 ;
+2 x23077 +2 x23078 +2 x23079 +2 x23080 -1 x22805 -1 x22806 -1 x22807 -1 x22808 -1 x22809 -1 x22810 -1 x22811 -1 x22812 >= 0 ;
+2 x23081 +2 x23082 +2 x23083 +2 x23084 -1 x22809 -1 x22810 -1 x22811 -1 x22812 -1 x22813 -1 x22814 -1 x22815 -1 x22816 >= 0 ;
+2 x23085 +2 x23086 +2 x23087 +2 x23088 -1 x22813 -1 x22814 -1 x22815 -1 x22816 -1 x22817 -1 x22818 -1 x22819 -1 x22820 >= 0 ;
+2 x23089 +2 x23090 +2 x23091 +2 x23092 -1 x22817 -1 x22818 -1 x22819 -1 x22820 -1 x22821 -1 x22822 -1 x22823 -1 x22824 >= 0 ;
+2 x23093 +2 x23094 +2 x23095 +2 x23096 -1 x22821 -1 x22822 -1 x22823 -1 x22824 -1 x22825 -1 x22826 -1 x22827 -1 x22828 >= 0 ;
+2 x23097 +2 x23098 +2 x23099 +2 x23100 -1 x22825 -1 x22826 -1 x22827 -1 x22828 -1 x22829 -1 x22830 -1 x22831 -1 x22832 >= 0 ;
+2 x23101 +2 x23102 +2 x23103 +2 x23104 -1 x22829 -1 x22830 -1 x22831 -1 x22832 -1 x22833 -1 x22834 -1 x22835 -1 x22836 >= 0 ;
+2 x23105 +2 x23106 +2 x23107 +2 x23108 -1 x22833 -1 x22834 -1 x22835 -1 x22836 -1 x22837 -1 x22838 -1 x22839 -1 x22840 >= 0 ;
+2 x23109 +2 x23110 +2 x23111 +2 x23112 -1 x22837 -1 x22838 -1 x22839 -1 x22840 -1 x22841 -1 x22842 -1 x22843 -1 x22844 >= 0 ;
+2 x23113 +2 x23114 +2 x23115 +2 x23116 -1 x22841 -1 x22842 -1 x22843 -1 x22844 -1 x22845 -1 x22846 -1 x22847 -1 x22848 >= 0 ;
+2 x23117 +2 x23118 +2 x23119 +2 x23120 -1 x22845 -1 x22846 -1 x22847 -1 x22848 -1 x22849 -1 x22850 -1 x22851 -1 x22852 >= 0 ;
+2 x23121 +2 x23122 +2 x23123 +2 x23124 -1 x22849 -1 x22850 -1 x22851 -1 x22852 -1 x22853 -1 x22854 -1 x22855 -1 x22856 >= 0 ;
+2 x23125 +2 x23126 +2 x23127 +2 x23128 -1 x22853 -1 x22854 -1 x22855 -1 x22856 -1 x22857 -1 x22858 -1 x22859 -1 x22860 >= 0 ;
+2 x23129 +2 x23130 +2 x23131 +2 x23132 -1 x22857 -1 x22858 -1 x22859 -1 x22860 -1 x22861 -1 x22862 -1 x22863 -1 x22864 >= 0 ;
+2 x23133 +2 x23134 +2 x23135 +2 x23136 -1 x22861 -1 x22862 -1 x22863 -1 x22864 -1 x22865 -1 x22866 -1 x22867 -1 x22868 >= 0 ;
+2 x23137 +2 x23138 +2 x23139 +2 x23140 -1 x22865 -1 x22866 -1 x22867 -1 x22868 -1 x22869 -1 x22870 -1 x22871 -1 x22872 >= 0 ;
+2 x23141 +2 x23142 +2 x23143 +2 x23144 -1 x22869 -1 x22870 -1 x22871 -1 x22872 -1 x22873 -1 x22874 -1 x22875 -1 x22876 >= 0 ;
+2 x23145 +2 x23146 +2 x23147 +2 x23148 -1 x22873 -1 x22874 -1 x22875 -1 x22876 -1 x22877 -1 x22878 -1 x22879 -1 x22880 >= 0 ;
+2 x23149 +2 x23150 +2 x23151 +2 x23152 -1 x22877 -1 x22878 -1 x22879 -1 x22880 -1 x22881 -1 x22882 -1 x22883 -1 x22884 >= 0 ;
+2 x23153 +2 x23154 +2 x23155 +2 x23156 -1 x22881 -1 x22882 -1 x22883 -1 x22884 -1 x22885 -1 x22886 -1 x22887 -1 x22888 >= 0 ;
+2 x23157 +2 x23158 +2 x23159 +2 x23160 -1 x22885 -1 x22886 -1 x22887 -1 x22888 -1 x22889 -1 x22890 -1 x22891 -1 x22892 >= 0 ;
+2 x23161 +2 x23162 +2 x23163 +2 x23164 -1 x22893 -1 x22894 -1 x22895 -1 x22896 -1 x22897 -1 x22898 -1 x22899 -1 x22900 >= 0 ;
+2 x23165 +2 x23166 +2 x23167 +2 x23168 -1 x22897 -1 x22898 -1 x22899 -1 x22900 -1 x22901 -1 x22902 -1 x22903 -1 x22904 >= 0 ;
+2 x23169 +2 x23170 +2 x23171 +2 x23172 -1 x22901 -1 x22902 -1 x22903 -1 x22904 -1 x22905 -1 x22906 -1 x22907 -1 x22908 >= 0 ;
+2 x23173 +2 x23174 +2 x23175 +2 x23176 -1 x22905 -1 x22906 -1 x22907 -1 x22908 -1 x22909 -1 x22910 -1 x22911 -1 x22912 >= 0 ;
+2 x23177 +2 x23178 +2 x23179 +2 x23180 -1 x22909 -1 x22910 -1 x22911 -1 x22912 -1 x22913 -1 x22914 -1 x22915 -1 x22916 >= 0 ;
+2 x23181 +2 x23182 +2 x23183 +2 x23184 -1 x22913 -1 x22914 -1 x22915 -1 x22916 -1 x22917 -1 x22918 -1 x22919 -1 x22920 >= 0 ;
+2 x23185 +2 x23186 +2 x23187 +2 x23188 -1 x22917 -1 x22918 -1 x22919 -1 x22920 -1 x22921 -1 x22922 -1 x22923 -1 x22924 >= 0 ;
+2 x23189 +2 x23190 +2 x23191 +2 x23192 -1 x22921 -1 x22922 -1 x22923 -1 x22924 -1 x22925 -1 x22926 -1 x22927 -1 x22928 >= 0 ;
+2 x23193 +2 x23194 +2 x23195 +2 x23196 -1 x22925 -1 x22926 -1 x22927 -1 x22928 -1 x22929 -1 x22930 -1 x22931 -1 x22932 >= 0 ;
+2 x23197 +2 x23198 +2 x23199 +2 x23200 -1 x22929 -1 x22930 -1 x22931 -1 x22932 -1 x22933 -1 x22934 -1 x22935 -1 x22936 >= 0 ;
+2 x23201 +2 x23202 +2 x23203 +2 x23204 -1 x22933 -1 x22934 -1 x22935 -1 x22936 -1 x22937 -1 x22938 -1 x22939 -1 x22940 >= 0 ;
+2 x23205 +2 x23206 +2 x23207 +2 x23208 -1 x22937 -1 x22938 -1 x22939 -1 x22940 -1 x22941 -1 x22942 -1 x22943 -1 x22944 >= 0 ;
+2 x23209 +2 x23210 +2 x23211 +2 x23212 -1 x22941 -1 x22942 -1 x22943 -1 x22944 -1 x22945 -1 x22946 -1 x22947 -1 x22948 >= 0 ;
+2 x23213 +2 x23214 +2 x23215 +2 x23216 -1 x22945 -1 x22946 -1 x22947 -1 x22948 -1 x22949 -1 x22950 -1 x22951 -1 x22952 >= 0 ;
+2 x23217 +2 x23218 +2 x23219 +2 x23220 -1 x22949 -1 x22950 -1 x22951 -1 x22952 -1 x22953 -1 x22954 -1 x22955 -1 x22956 >= 0 ;
+2 x23221 +2 x23222 +2 x23223 +2 x23224 -1 x22953 -1 x22954 -1 x22955 -1 x22956 -1 x22957 -1 x22958 -1 x22959 -1 x22960 >= 0 ;
+2 x23225 +2 x23226 +2 x23227 +2 x23228 -1 x22957 -1 x22958 -1 x22959 -1 x22960 -1 x22961 -1 x22962 -1 x22963 -1 x22964 >= 0 ;
+2 x23229 +2 x23230 +2 x23231 +2 x23232 -1 x22961 -1 x22962 -1 x22963 -1 x22964 -1 x22965 -1 x22966 -1 x22967 -1 x22968 >= 0 ;
+2 x23233 +2 x23234 +2 x23235 +2 x23236 -1 x22965 -1 x22966 -1 x22967 -1 x22968 -1 x22969 -1 x22970 -1 x22971 -1 x22972 >= 0 ;
+2 x23237 +2 x23238 +2 x23239 +2 x23240 -1 x22969 -1 x22970 -1 x22971 -1 x22972 -1 x22973 -1 x22974 -1 x22975 -1 x22976 >= 0 ;
+2 x23241 +2 x23242 +2 x23243 +2 x23244 -1 x22973 -1 x22974 -1 x22975 -1 x22976 -1 x22977 -1 x22978 -1 x22979 -1 x22980 >= 0 ;
+2 x23245 +2 x23246 +2 x23247 +2 x23248 -1 x22977 -1 x22978 -1 x22979 -1 x22980 -1 x22981 -1 x22982 -1 x22983 -1 x22984 >= 0 ;
+2 x23249 +2 x23250 +2 x23251 +2 x23252 -1 x22981 -1 x22982 -1 x22983 -1 x22984 -1 x22985 -1 x22986 -1 x22987 -1 x22988 >= 0 ;
+2 x23253 +2 x23254 +2 x23255 +2 x23256 -1 x22985 -1 x22986 -1 x22987 -1 x22988 -1 x22989 -1 x22990 -1 x22991 -1 x22992 >= 0 ;
+2 x23257 +2 x23258 +2 x23259 +2 x23260 -1 x22989 -1 x22990 -1 x22991 -1 x22992 -1 x22993 -1 x22994 -1 x22995 -1 x22996 >= 0 ;
+2 x23261 +2 x23262 +2 x23263 +2 x23264 -1 x22993 -1 x22994 -1 x22995 -1 x22996 -1 x22997 -1 x22998 -1 x22999 -1 x23000 >= 0 ;
+2 x23265 +2 x23266 +2 x23267 +2 x23268 -1 x22997 -1 x22998 -1 x22999 -1 x23000 -1 x23001 -1 x23002 -1 x23003 -1 x23004 >= 0 ;
+2 x23269 +2 x23270 +2 x23271 +2 x23272 -1 x23001 -1 x23002 -1 x23003 -1 x23004 -1 x23005 -1 x23006 -1 x23007 -1 x23008 >= 0 ;
+2 x23273 +2 x23274 +2 x23275 +2 x23276 -1 x23005 -1 x23006 -1 x23007 -1 x23008 -1 x23009 -1 x23010 -1 x23011 -1 x23012 >= 0 ;
+2 x23277 +2 x23278 +2 x23279 +2 x23280 -1 x23009 -1 x23010 -1 x23011 -1 x23012 -1 x23013 -1 x23014 -1 x23015 -1 x23016 >= 0 ;
+2 x23281 +2 x23282 +2 x23283 +2 x23284 -1 x23013 -1 x23014 -1 x23015 -1 x23016 -1 x23017 -1 x23018 -1 x23019 -1 x23020 >= 0 ;
+2 x23285 +2 x23286 +2 x23287 +2 x23288 -1 x23017 -1 x23018 -1 x23019 -1 x23020 -1 x23021 -1 x23022 -1 x23023 -1 x23024 >= 0 ;
+2 x23289 +2 x23290 +2 x23291 +2 x23292 -1 x23021 -1 x23022 -1 x23023 -1 x23024 -1 x23025 -1 x23026 -1 x23027 -1 x23028 >= 0 ;
+2 x23293 +2 x23294 +2 x23295 +2 x23296 -1 x23025 -1 x23026 -1 x23027 -1 x23028 -1 x23029 -1 x23030 -1 x23031 -1 x23032 >= 0 ;
+2 x23297 +2 x23298 +2 x23299 +2 x23300 -1 x23029 -1 x23030 -1 x23031 -1 x23032 -1 x23033 -1 x23034 -1 x23035 -1 x23036 >= 0 ;
+2 x23301 +2 x23302 +2 x23303 +2 x23304 -1 x23033 -1 x23034 -1 x23035 -1 x23036 -1 x23037 -1 x23038 -1 x23039 -1 x23040 >= 0 ;
+2 x23305 +2 x23306 +2 x23307 +2 x23308 -1 x23037 -1 x23038 -1 x23039 -1 x23040 -1 x23041 -1 x23042 -1 x23043 -1 x23044 >= 0 ;
+2 x23309 +2 x23310 +2 x23311 +2 x23312 -1 x23041 -1 x23042 -1 x23043 -1 x23044 -1 x23045 -1 x23046 -1 x23047 -1 x23048 >= 0 ;
+2 x23313 +2 x23314 +2 x23315 +2 x23316 -1 x23045 -1 x23046 -1 x23047 -1 x23048 -1 x23049 -1 x23050 -1 x23051 -1 x23052 >= 0 ;
+2 x23317 +2 x23318 +2 x23319 +2 x23320 -1 x23049 -1 x23050 -1 x23051 -1 x23052 -1 x23053 -1 x23054 -1 x23055 -1 x23056 >= 0 ;
+2 x23321 +2 x23322 +2 x23323 +2 x23324 -1 x23053 -1 x23054 -1 x23055 -1 x23056 -1 x23057 -1 x23058 -1 x23059 -1 x23060 >= 0 ;
+2 x23325 +2 x23326 +2 x23327 +2 x23328 -1 x23057 -1 x23058 -1 x23059 -1 x23060 -1 x23061 -1 x23062 -1 x23063 -1 x23064 >= 0 ;
+2 x23329 +2 x23330 +2 x23331 +2 x23332 -1 x23061 -1 x23062 -1 x23063 -1 x23064 -1 x23065 -1 x23066 -1 x23067 -1 x23068 >= 0 ;
+2 x23333 +2 x23334 +2 x23335 +2 x23336 -1 x23065 -1 x23066 -1 x23067 -1 x23068 -1 x23069 -1 x23070 -1 x23071 -1 x23072 >= 0 ;
+2 x23337 +2 x23338 +2 x23339 +2 x23340 -1 x23069 -1 x23070 -1 x23071 -1 x23072 -1 x23073 -1 x23074 -1 x23075 -1 x23076 >= 0 ;
+2 x23341 +2 x23342 +2 x23343 +2 x23344 -1 x23073 -1 x23074 -1 x23075 -1 x23076 -1 x23077 -1 x23078 -1 x23079 -1 x23080 >= 0 ;
+2 x23345 +2 x23346 +2 x23347 +2 x23348 -1 x23077 -1 x23078 -1 x23079 -1 x23080 -1 x23081 -1 x23082 -1 x23083 -1 x23084 >= 0 ;
+2 x23349 +2 x23350 +2 x23351 +2 x23352 -1 x23081 -1 x23082 -1 x23083 -1 x23084 -1 x23085 -1 x23086 -1 x23087 -1 x23088 >= 0 ;
+2 x23353 +2 x23354 +2 x23355 +2 x23356 -1 x23085 -1 x23086 -1 x23087 -1 x23088 -1 x23089 -1 x23090 -1 x23091 -1 x23092 >= 0 ;
+2 x23357 +2 x23358 +2 x23359 +2 x23360 -1 x23089 -1 x23090 -1 x23091 -1 x23092 -1 x23093 -1 x23094 -1 x23095 -1 x23096 >= 0 ;
+2 x23361 +2 x23362 +2 x23363 +2 x23364 -1 x23093 -1 x23094 -1 x23095 -1 x23096 -1 x23097 -1 x23098 -1 x23099 -1 x23100 >= 0 ;
+2 x23365 +2 x23366 +2 x23367 +2 x23368 -1 x23097 -1 x23098 -1 x23099 -1 x23100 -1 x23101 -1 x23102 -1 x23103 -1 x23104 >= 0 ;
+2 x23369 +2 x23370 +2 x23371 +2 x23372 -1 x23101 -1 x23102 -1 x23103 -1 x23104 -1 x23105 -1 x23106 -1 x23107 -1 x23108 >= 0 ;
+2 x23373 +2 x23374 +2 x23375 +2 x23376 -1 x23105 -1 x23106 -1 x23107 -1 x23108 -1 x23109 -1 x23110 -1 x23111 -1 x23112 >= 0 ;
+2 x23377 +2 x23378 +2 x23379 +2 x23380 -1 x23109 -1 x23110 -1 x23111 -1 x23112 -1 x23113 -1 x23114 -1 x23115 -1 x23116 >= 0 ;
+2 x23381 +2 x23382 +2 x23383 +2 x23384 -1 x23113 -1 x23114 -1 x23115 -1 x23116 -1 x23117 -1 x23118 -1 x23119 -1 x23120 >= 0 ;
+2 x23385 +2 x23386 +2 x23387 +2 x23388 -1 x23117 -1 x23118 -1 x23119 -1 x23120 -1 x23121 -1 x23122 -1 x23123 -1 x23124 >= 0 ;
+2 x23389 +2 x23390 +2 x23391 +2 x23392 -1 x23121 -1 x23122 -1 x23123 -1 x23124 -1 x23125 -1 x23126 -1 x23127 -1 x23128 >= 0 ;
+2 x23393 +2 x23394 +2 x23395 +2 x23396 -1 x23125 -1 x23126 -1 x23127 -1 x23128 -1 x23129 -1 x23130 -1 x23131 -1 x23132 >= 0 ;
+2 x23397 +2 x23398 +2 x23399 +2 x23400 -1 x23129 -1 x23130 -1 x23131 -1 x23132 -1 x23133 -1 x23134 -1 x23135 -1 x23136 >= 0 ;
+2 x23401 +2 x23402 +2 x23403 +2 x23404 -1 x23133 -1 x23134 -1 x23135 -1 x23136 -1 x23137 -1 x23138 -1 x23139 -1 x23140 >= 0 ;
+2 x23405 +2 x23406 +2 x23407 +2 x23408 -1 x23137 -1 x23138 -1 x23139 -1 x23140 -1 x23141 -1 x23142 -1 x23143 -1 x23144 >= 0 ;
+2 x23409 +2 x23410 +2 x23411 +2 x23412 -1 x23141 -1 x23142 -1 x23143 -1 x23144 -1 x23145 -1 x23146 -1 x23147 -1 x23148 >= 0 ;
+2 x23413 +2 x23414 +2 x23415 +2 x23416 -1 x23145 -1 x23146 -1 x23147 -1 x23148 -1 x23149 -1 x23150 -1 x23151 -1 x23152 >= 0 ;
+2 x23417 +2 x23418 +2 x23419 +2 x23420 -1 x23149 -1 x23150 -1 x23151 -1 x23152 -1 x23153 -1 x23154 -1 x23155 -1 x23156 >= 0 ;
+2 x23421 +2 x23422 +2 x23423 +2 x23424 -1 x23153 -1 x23154 -1 x23155 -1 x23156 -1 x23157 -1 x23158 -1 x23159 -1 x23160 >= 0 ;
+2 x23425 +2 x23426 +2 x23427 +2 x23428 -1 x23161 -1 x23162 -1 x23163 -1 x23164 -1 x23165 -1 x23166 -1 x23167 -1 x23168 >= 0 ;
+2 x23429 +2 x23430 +2 x23431 +2 x23432 -1 x23165 -1 x23166 -1 x23167 -1 x23168 -1 x23169 -1 x23170 -1 x23171 -1 x23172 >= 0 ;
+2 x23433 +2 x23434 +2 x23435 +2 x23436 -1 x23169 -1 x23170 -1 x23171 -1 x23172 -1 x23173 -1 x23174 -1 x23175 -1 x23176 >= 0 ;
+2 x23437 +2 x23438 +2 x23439 +2 x23440 -1 x23173 -1 x23174 -1 x23175 -1 x23176 -1 x23177 -1 x23178 -1 x23179 -1 x23180 >= 0 ;
+2 x23441 +2 x23442 +2 x23443 +2 x23444 -1 x23177 -1 x23178 -1 x23179 -1 x23180 -1 x23181 -1 x23182 -1 x23183 -1 x23184 >= 0 ;
+2 x23445 +2 x23446 +2 x23447 +2 x23448 -1 x23181 -1 x23182 -1 x23183 -1 x23184 -1 x23185 -1 x23186 -1 x23187 -1 x23188 >= 0 ;
+2 x23449 +2 x23450 +2 x23451 +2 x23452 -1 x23185 -1 x23186 -1 x23187 -1 x23188 -1 x23189 -1 x23190 -1 x23191 -1 x23192 >= 0 ;
+2 x23453 +2 x23454 +2 x23455 +2 x23456 -1 x23189 -1 x23190 -1 x23191 -1 x23192 -1 x23193 -1 x23194 -1 x23195 -1 x23196 >= 0 ;
+2 x23457 +2 x23458 +2 x23459 +2 x23460 -1 x23193 -1 x23194 -1 x23195 -1 x23196 -1 x23197 -1 x23198 -1 x23199 -1 x23200 >= 0 ;
+2 x23461 +2 x23462 +2 x23463 +2 x23464 -1 x23197 -1 x23198 -1 x23199 -1 x23200 -1 x23201 -1 x23202 -1 x23203 -1 x23204 >= 0 ;
+2 x23465 +2 x23466 +2 x23467 +2 x23468 -1 x23201 -1 x23202 -1 x23203 -1 x23204 -1 x23205 -1 x23206 -1 x23207 -1 x23208 >= 0 ;
+2 x23469 +2 x23470 +2 x23471 +2 x23472 -1 x23205 -1 x23206 -1 x23207 -1 x23208 -1 x23209 -1 x23210 -1 x23211 -1 x23212 >= 0 ;
+2 x23473 +2 x23474 +2 x23475 +2 x23476 -1 x23209 -1 x23210 -1 x23211 -1 x23212 -1 x23213 -1 x23214 -1 x23215 -1 x23216 >= 0 ;
+2 x23477 +2 x23478 +2 x23479 +2 x23480 -1 x23213 -1 x23214 -1 x23215 -1 x23216 -1 x23217 -1 x23218 -1 x23219 -1 x23220 >= 0 ;
+2 x23481 +2 x23482 +2 x23483 +2 x23484 -1 x23217 -1 x23218 -1 x23219 -1 x23220 -1 x23221 -1 x23222 -1 x23223 -1 x23224 >= 0 ;
+2 x23485 +2 x23486 +2 x23487 +2 x23488 -1 x23221 -1 x23222 -1 x23223 -1 x23224 -1 x23225 -1 x23226 -1 x23227 -1 x23228 >= 0 ;
+2 x23489 +2 x23490 +2 x23491 +2 x23492 -1 x23225 -1 x23226 -1 x23227 -1 x23228 -1 x23229 -1 x23230 -1 x23231 -1 x23232 >= 0 ;
+2 x23493 +2 x23494 +2 x23495 +2 x23496 -1 x23229 -1 x23230 -1 x23231 -1 x23232 -1 x23233 -1 x23234 -1 x23235 -1 x23236 >= 0 ;
+2 x23497 +2 x23498 +2 x23499 +2 x23500 -1 x23233 -1 x23234 -1 x23235 -1 x23236 -1 x23237 -1 x23238 -1 x23239 -1 x23240 >= 0 ;
+2 x23501 +2 x23502 +2 x23503 +2 x23504 -1 x23237 -1 x23238 -1 x23239 -1 x23240 -1 x23241 -1 x23242 -1 x23243 -1 x23244 >= 0 ;
+2 x23505 +2 x23506 +2 x23507 +2 x23508 -1 x23241 -1 x23242 -1 x23243 -1 x23244 -1 x23245 -1 x23246 -1 x23247 -1 x23248 >= 0 ;
+2 x23509 +2 x23510 +2 x23511 +2 x23512 -1 x23245 -1 x23246 -1 x23247 -1 x23248 -1 x23249 -1 x23250 -1 x23251 -1 x23252 >= 0 ;
+2 x23513 +2 x23514 +2 x23515 +2 x23516 -1 x23249 -1 x23250 -1 x23251 -1 x23252 -1 x23253 -1 x23254 -1 x23255 -1 x23256 >= 0 ;
+2 x23517 +2 x23518 +2 x23519 +2 x23520 -1 x23253 -1 x23254 -1 x23255 -1 x23256 -1 x23257 -1 x23258 -1 x23259 -1 x23260 >= 0 ;
+2 x23521 +2 x23522 +2 x23523 +2 x23524 -1 x23257 -1 x23258 -1 x23259 -1 x23260 -1 x23261 -1 x23262 -1 x23263 -1 x23264 >= 0 ;
+2 x23525 +2 x23526 +2 x23527 +2 x23528 -1 x23261 -1 x23262 -1 x23263 -1 x23264 -1 x23265 -1 x23266 -1 x23267 -1 x23268 >= 0 ;
+2 x23529 +2 x23530 +2 x23531 +2 x23532 -1 x23265 -1 x23266 -1 x23267 -1 x23268 -1 x23269 -1 x23270 -1 x23271 -1 x23272 >= 0 ;
+2 x23533 +2 x23534 +2 x23535 +2 x23536 -1 x23269 -1 x23270 -1 x23271 -1 x23272 -1 x23273 -1 x23274 -1 x23275 -1 x23276 >= 0 ;
+2 x23537 +2 x23538 +2 x23539 +2 x23540 -1 x23273 -1 x23274 -1 x23275 -1 x23276 -1 x23277 -1 x23278 -1 x23279 -1 x23280 >= 0 ;
+2 x23541 +2 x23542 +2 x23543 +2 x23544 -1 x23277 -1 x23278 -1 x23279 -1 x23280 -1 x23281 -1 x23282 -1 x23283 -1 x23284 >= 0 ;
+2 x23545 +2 x23546 +2 x23547 +2 x23548 -1 x23281 -1 x23282 -1 x23283 -1 x23284 -1 x23285 -1 x23286 -1 x23287 -1 x23288 >= 0 ;
+2 x23549 +2 x23550 +2 x23551 +2 x23552 -1 x23285 -1 x23286 -1 x23287 -1 x23288 -1 x23289 -1 x23290 -1 x23291 -1 x23292 >= 0 ;
+2 x23553 +2 x23554 +2 x23555 +2 x23556 -1 x23289 -1 x23290 -1 x23291 -1 x23292 -1 x23293 -1 x23294 -1 x23295 -1 x23296 >= 0 ;
+2 x23557 +2 x23558 +2 x23559 +2 x23560 -1 x23293 -1 x23294 -1 x23295 -1 x23296 -1 x23297 -1 x23298 -1 x23299 -1 x23300 >= 0 ;
+2 x23561 +2 x23562 +2 x23563 +2 x23564 -1 x23297 -1 x23298 -1 x23299 -1 x23300 -1 x23301 -1 x23302 -1 x23303 -1 x23304 >= 0 ;
+2 x23565 +2 x23566 +2 x23567 +2 x23568 -1 x23301 -1 x23302 -1 x23303 -1 x23304 -1 x23305 -1 x23306 -1 x23307 -1 x23308 >= 0 ;
+2 x23569 +2 x23570 +2 x23571 +2 x23572 -1 x23305 -1 x23306 -1 x23307 -1 x23308 -1 x23309 -1 x23310 -1 x23311 -1 x23312 >= 0 ;
+2 x23573 +2 x23574 +2 x23575 +2 x23576 -1 x23309 -1 x23310 -1 x23311 -1 x23312 -1 x23313 -1 x23314 -1 x23315 -1 x23316 >= 0 ;
+2 x23577 +2 x23578 +2 x23579 +2 x23580 -1 x23313 -1 x23314 -1 x23315 -1 x23316 -1 x23317 -1 x23318 -1 x23319 -1 x23320 >= 0 ;
+2 x23581 +2 x23582 +2 x23583 +2 x23584 -1 x23317 -1 x23318 -1 x23319 -1 x23320 -1 x23321 -1 x23322 -1 x23323 -1 x23324 >= 0 ;
+2 x23585 +2 x23586 +2 x23587 +2 x23588 -1 x23321 -1 x23322 -1 x23323 -1 x23324 -1 x23325 -1 x23326 -1 x23327 -1 x23328 >= 0 ;
+2 x23589 +2 x23590 +2 x23591 +2 x23592 -1 x23325 -1 x23326 -1 x23327 -1 x23328 -1 x23329 -1 x23330 -1 x23331 -1 x23332 >= 0 ;
+2 x23593 +2 x23594 +2 x23595 +2 x23596 -1 x23329 -1 x23330 -1 x23331 -1 x23332 -1 x23333 -1 x23334 -1 x23335 -1 x23336 >= 0 ;
+2 x23597 +2 x23598 +2 x23599 +2 x23600 -1 x23333 -1 x23334 -1 x23335 -1 x23336 -1 x23337 -1 x23338 -1 x23339 -1 x23340 >= 0 ;
+2 x23601 +2 x23602 +2 x23603 +2 x23604 -1 x23337 -1 x23338 -1 x23339 -1 x23340 -1 x23341 -1 x23342 -1 x23343 -1 x23344 >= 0 ;
+2 x23605 +2 x23606 +2 x23607 +2 x23608 -1 x23341 -1 x23342 -1 x23343 -1 x23344 -1 x23345 -1 x23346 -1 x23347 -1 x23348 >= 0 ;
+2 x23609 +2 x23610 +2 x23611 +2 x23612 -1 x23345 -1 x23346 -1 x23347 -1 x23348 -1 x23349 -1 x23350 -1 x23351 -1 x23352 >= 0 ;
+2 x23613 +2 x23614 +2 x23615 +2 x23616 -1 x23349 -1 x23350 -1 x23351 -1 x23352 -1 x23353 -1 x23354 -1 x23355 -1 x23356 >= 0 ;
+2 x23617 +2 x23618 +2 x23619 +2 x23620 -1 x23353 -1 x23354 -1 x23355 -1 x23356 -1 x23357 -1 x23358 -1 x23359 -1 x23360 >= 0 ;
+2 x23621 +2 x23622 +2 x23623 +2 x23624 -1 x23357 -1 x23358 -1 x23359 -1 x23360 -1 x23361 -1 x23362 -1 x23363 -1 x23364 >= 0 ;
+2 x23625 +2 x23626 +2 x23627 +2 x23628 -1 x23361 -1 x23362 -1 x23363 -1 x23364 -1 x23365 -1 x23366 -1 x23367 -1 x23368 >= 0 ;
+2 x23629 +2 x23630 +2 x23631 +2 x23632 -1 x23365 -1 x23366 -1 x23367 -1 x23368 -1 x23369 -1 x23370 -1 x23371 -1 x23372 >= 0 ;
+2 x23633 +2 x23634 +2 x23635 +2 x23636 -1 x23369 -1 x23370 -1 x23371 -1 x23372 -1 x23373 -1 x23374 -1 x23375 -1 x23376 >= 0 ;
+2 x23637 +2 x23638 +2 x23639 +2 x23640 -1 x23373 -1 x23374 -1 x23375 -1 x23376 -1 x23377 -1 x23378 -1 x23379 -1 x23380 >= 0 ;
+2 x23641 +2 x23642 +2 x23643 +2 x23644 -1 x23377 -1 x23378 -1 x23379 -1 x23380 -1 x23381 -1 x23382 -1 x23383 -1 x23384 >= 0 ;
+2 x23645 +2 x23646 +2 x23647 +2 x23648 -1 x23381 -1 x23382 -1 x23383 -1 x23384 -1 x23385 -1 x23386 -1 x23387 -1 x23388 >= 0 ;
+2 x23649 +2 x23650 +2 x23651 +2 x23652 -1 x23385 -1 x23386 -1 x23387 -1 x23388 -1 x23389 -1 x23390 -1 x23391 -1 x23392 >= 0 ;
+2 x23653 +2 x23654 +2 x23655 +2 x23656 -1 x23389 -1 x23390 -1 x23391 -1 x23392 -1 x23393 -1 x23394 -1 x23395 -1 x23396 >= 0 ;
+2 x23657 +2 x23658 +2 x23659 +2 x23660 -1 x23393 -1 x23394 -1 x23395 -1 x23396 -1 x23397 -1 x23398 -1 x23399 -1 x23400 >= 0 ;
+2 x23661 +2 x23662 +2 x23663 +2 x23664 -1 x23397 -1 x23398 -1 x23399 -1 x23400 -1 x23401 -1 x23402 -1 x23403 -1 x23404 >= 0 ;
+2 x23665 +2 x23666 +2 x23667 +2 x23668 -1 x23401 -1 x23402 -1 x23403 -1 x23404 -1 x23405 -1 x23406 -1 x23407 -1 x23408 >= 0 ;
+2 x23669 +2 x23670 +2 x23671 +2 x23672 -1 x23405 -1 x23406 -1 x23407 -1 x23408 -1 x23409 -1 x23410 -1 x23411 -1 x23412 >= 0 ;
+2 x23673 +2 x23674 +2 x23675 +2 x23676 -1 x23409 -1 x23410 -1 x23411 -1 x23412 -1 x23413 -1 x23414 -1 x23415 -1 x23416 >= 0 ;
+2 x23677 +2 x23678 +2 x23679 +2 x23680 -1 x23413 -1 x23414 -1 x23415 -1 x23416 -1 x23417 -1 x23418 -1 x23419 -1 x23420 >= 0 ;
+2 x23681 +2 x23682 +2 x23683 +2 x23684 -1 x23417 -1 x23418 -1 x23419 -1 x23420 -1 x23421 -1 x23422 -1 x23423 -1 x23424 >= 0 ;
+2 x23685 +2 x23686 +2 x23687 +2 x23688 -1 x23425 -1 x23426 -1 x23427 -1 x23428 -1 x23429 -1 x23430 -1 x23431 -1 x23432 >= 0 ;
+2 x23689 +2 x23690 +2 x23691 +2 x23692 -1 x23429 -1 x23430 -1 x23431 -1 x23432 -1 x23433 -1 x23434 -1 x23435 -1 x23436 >= 0 ;
+2 x23693 +2 x23694 +2 x23695 +2 x23696 -1 x23433 -1 x23434 -1 x23435 -1 x23436 -1 x23437 -1 x23438 -1 x23439 -1 x23440 >= 0 ;
+2 x23697 +2 x23698 +2 x23699 +2 x23700 -1 x23437 -1 x23438 -1 x23439 -1 x23440 -1 x23441 -1 x23442 -1 x23443 -1 x23444 >= 0 ;
+2 x23701 +2 x23702 +2 x23703 +2 x23704 -1 x23441 -1 x23442 -1 x23443 -1 x23444 -1 x23445 -1 x23446 -1 x23447 -1 x23448 >= 0 ;
+2 x23705 +2 x23706 +2 x23707 +2 x23708 -1 x23445 -1 x23446 -1 x23447 -1 x23448 -1 x23449 -1 x23450 -1 x23451 -1 x23452 >= 0 ;
+2 x23709 +2 x23710 +2 x23711 +2 x23712 -1 x23449 -1 x23450 -1 x23451 -1 x23452 -1 x23453 -1 x23454 -1 x23455 -1 x23456 >= 0 ;
+2 x23713 +2 x23714 +2 x23715 +2 x23716 -1 x23453 -1 x23454 -1 x23455 -1 x23456 -1 x23457 -1 x23458 -1 x23459 -1 x23460 >= 0 ;
+2 x23717 +2 x23718 +2 x23719 +2 x23720 -1 x23457 -1 x23458 -1 x23459 -1 x23460 -1 x23461 -1 x23462 -1 x23463 -1 x23464 >= 0 ;
+2 x23721 +2 x23722 +2 x23723 +2 x23724 -1 x23461 -1 x23462 -1 x23463 -1 x23464 -1 x23465 -1 x23466 -1 x23467 -1 x23468 >= 0 ;
+2 x23725 +2 x23726 +2 x23727 +2 x23728 -1 x23465 -1 x23466 -1 x23467 -1 x23468 -1 x23469 -1 x23470 -1 x23471 -1 x23472 >= 0 ;
+2 x23729 +2 x23730 +2 x23731 +2 x23732 -1 x23469 -1 x23470 -1 x23471 -1 x23472 -1 x23473 -1 x23474 -1 x23475 -1 x23476 >= 0 ;
+2 x23733 +2 x23734 +2 x23735 +2 x23736 -1 x23473 -1 x23474 -1 x23475 -1 x23476 -1 x23477 -1 x23478 -1 x23479 -1 x23480 >= 0 ;
+2 x23737 +2 x23738 +2 x23739 +2 x23740 -1 x23477 -1 x23478 -1 x23479 -1 x23480 -1 x23481 -1 x23482 -1 x23483 -1 x23484 >= 0 ;
+2 x23741 +2 x23742 +2 x23743 +2 x23744 -1 x23481 -1 x23482 -1 x23483 -1 x23484 -1 x23485 -1 x23486 -1 x23487 -1 x23488 >= 0 ;
+2 x23745 +2 x23746 +2 x23747 +2 x23748 -1 x23485 -1 x23486 -1 x23487 -1 x23488 -1 x23489 -1 x23490 -1 x23491 -1 x23492 >= 0 ;
+2 x23749 +2 x23750 +2 x23751 +2 x23752 -1 x23489 -1 x23490 -1 x23491 -1 x23492 -1 x23493 -1 x23494 -1 x23495 -1 x23496 >= 0 ;
+2 x23753 +2 x23754 +2 x23755 +2 x23756 -1 x23493 -1 x23494 -1 x23495 -1 x23496 -1 x23497 -1 x23498 -1 x23499 -1 x23500 >= 0 ;
+2 x23757 +2 x23758 +2 x23759 +2 x23760 -1 x23497 -1 x23498 -1 x23499 -1 x23500 -1 x23501 -1 x23502 -1 x23503 -1 x23504 >= 0 ;
+2 x23761 +2 x23762 +2 x23763 +2 x23764 -1 x23501 -1 x23502 -1 x23503 -1 x23504 -1 x23505 -1 x23506 -1 x23507 -1 x23508 >= 0 ;
+2 x23765 +2 x23766 +2 x23767 +2 x23768 -1 x23505 -1 x23506 -1 x23507 -1 x23508 -1 x23509 -1 x23510 -1 x23511 -1 x23512 >= 0 ;
+2 x23769 +2 x23770 +2 x23771 +2 x23772 -1 x23509 -1 x23510 -1 x23511 -1 x23512 -1 x23513 -1 x23514 -1 x23515 -1 x23516 >= 0 ;
+2 x23773 +2 x23774 +2 x23775 +2 x23776 -1 x23513 -1 x23514 -1 x23515 -1 x23516 -1 x23517 -1 x23518 -1 x23519 -1 x23520 >= 0 ;
+2 x23777 +2 x23778 +2 x23779 +2 x23780 -1 x23517 -1 x23518 -1 x23519 -1 x23520 -1 x23521 -1 x23522 -1 x23523 -1 x23524 >= 0 ;
+2 x23781 +2 x23782 +2 x23783 +2 x23784 -1 x23521 -1 x23522 -1 x23523 -1 x23524 -1 x23525 -1 x23526 -1 x23527 -1 x23528 >= 0 ;
+2 x23785 +2 x23786 +2 x23787 +2 x23788 -1 x23525 -1 x23526 -1 x23527 -1 x23528 -1 x23529 -1 x23530 -1 x23531 -1 x23532 >= 0 ;
+2 x23789 +2 x23790 +2 x23791 +2 x23792 -1 x23529 -1 x23530 -1 x23531 -1 x23532 -1 x23533 -1 x23534 -1 x23535 -1 x23536 >= 0 ;
+2 x23793 +2 x23794 +2 x23795 +2 x23796 -1 x23533 -1 x23534 -1 x23535 -1 x23536 -1 x23537 -1 x23538 -1 x23539 -1 x23540 >= 0 ;
+2 x23797 +2 x23798 +2 x23799 +2 x23800 -1 x23537 -1 x23538 -1 x23539 -1 x23540 -1 x23541 -1 x23542 -1 x23543 -1 x23544 >= 0 ;
+2 x23801 +2 x23802 +2 x23803 +2 x23804 -1 x23541 -1 x23542 -1 x23543 -1 x23544 -1 x23545 -1 x23546 -1 x23547 -1 x23548 >= 0 ;
+2 x23805 +2 x23806 +2 x23807 +2 x23808 -1 x23545 -1 x23546 -1 x23547 -1 x23548 -1 x23549 -1 x23550 -1 x23551 -1 x23552 >= 0 ;
+2 x23809 +2 x23810 +2 x23811 +2 x23812 -1 x23549 -1 x23550 -1 x23551 -1 x23552 -1 x23553 -1 x23554 -1 x23555 -1 x23556 >= 0 ;
+2 x23813 +2 x23814 +2 x23815 +2 x23816 -1 x23553 -1 x23554 -1 x23555 -1 x23556 -1 x23557 -1 x23558 -1 x23559 -1 x23560 >= 0 ;
+2 x23817 +2 x23818 +2 x23819 +2 x23820 -1 x23557 -1 x23558 -1 x23559 -1 x23560 -1 x23561 -1 x23562 -1 x23563 -1 x23564 >= 0 ;
+2 x23821 +2 x23822 +2 x23823 +2 x23824 -1 x23561 -1 x23562 -1 x23563 -1 x23564 -1 x23565 -1 x23566 -1 x23567 -1 x23568 >= 0 ;
+2 x23825 +2 x23826 +2 x23827 +2 x23828 -1 x23565 -1 x23566 -1 x23567 -1 x23568 -1 x23569 -1 x23570 -1 x23571 -1 x23572 >= 0 ;
+2 x23829 +2 x23830 +2 x23831 +2 x23832 -1 x23569 -1 x23570 -1 x23571 -1 x23572 -1 x23573 -1 x23574 -1 x23575 -1 x23576 >= 0 ;
+2 x23833 +2 x23834 +2 x23835 +2 x23836 -1 x23573 -1 x23574 -1 x23575 -1 x23576 -1 x23577 -1 x23578 -1 x23579 -1 x23580 >= 0 ;
+2 x23837 +2 x23838 +2 x23839 +2 x23840 -1 x23577 -1 x23578 -1 x23579 -1 x23580 -1 x23581 -1 x23582 -1 x23583 -1 x23584 >= 0 ;
+2 x23841 +2 x23842 +2 x23843 +2 x23844 -1 x23581 -1 x23582 -1 x23583 -1 x23584 -1 x23585 -1 x23586 -1 x23587 -1 x23588 >= 0 ;
+2 x23845 +2 x23846 +2 x23847 +2 x23848 -1 x23585 -1 x23586 -1 x23587 -1 x23588 -1 x23589 -1 x23590 -1 x23591 -1 x23592 >= 0 ;
+2 x23849 +2 x23850 +2 x23851 +2 x23852 -1 x23589 -1 x23590 -1 x23591 -1 x23592 -1 x23593 -1 x23594 -1 x23595 -1 x23596 >= 0 ;
+2 x23853 +2 x23854 +2 x23855 +2 x23856 -1 x23593 -1 x23594 -1 x23595 -1 x23596 -1 x23597 -1 x23598 -1 x23599 -1 x23600 >= 0 ;
+2 x23857 +2 x23858 +2 x23859 +2 x23860 -1 x23597 -1 x23598 -1 x23599 -1 x23600 -1 x23601 -1 x23602 -1 x23603 -1 x23604 >= 0 ;
+2 x23861 +2 x23862 +2 x23863 +2 x23864 -1 x23601 -1 x23602 -1 x23603 -1 x23604 -1 x23605 -1 x23606 -1 x23607 -1 x23608 >= 0 ;
+2 x23865 +2 x23866 +2 x23867 +2 x23868 -1 x23605 -1 x23606 -1 x23607 -1 x23608 -1 x23609 -1 x23610 -1 x23611 -1 x23612 >= 0 ;
+2 x23869 +2 x23870 +2 x23871 +2 x23872 -1 x23609 -1 x23610 -1 x23611 -1 x23612 -1 x23613 -1 x23614 -1 x23615 -1 x23616 >= 0 ;
+2 x23873 +2 x23874 +2 x23875 +2 x23876 -1 x23613 -1 x23614 -1 x23615 -1 x23616 -1 x23617 -1 x23618 -1 x23619 -1 x23620 >= 0 ;
+2 x23877 +2 x23878 +2 x23879 +2 x23880 -1 x23617 -1 x23618 -1 x23619 -1 x23620 -1 x23621 -1 x23622 -1 x23623 -1 x23624 >= 0 ;
+2 x23881 +2 x23882 +2 x23883 +2 x23884 -1 x23621 -1 x23622 -1 x23623 -1 x23624 -1 x23625 -1 x23626 -1 x23627 -1 x23628 >= 0 ;
+2 x23885 +2 x23886 +2 x23887 +2 x23888 -1 x23625 -1 x23626 -1 x23627 -1 x23628 -1 x23629 -1 x23630 -1 x23631 -1 x23632 >= 0 ;
+2 x23889 +2 x23890 +2 x23891 +2 x23892 -1 x23629 -1 x23630 -1 x23631 -1 x23632 -1 x23633 -1 x23634 -1 x23635 -1 x23636 >= 0 ;
+2 x23893 +2 x23894 +2 x23895 +2 x23896 -1 x23633 -1 x23634 -1 x23635 -1 x23636 -1 x23637 -1 x23638 -1 x23639 -1 x23640 >= 0 ;
+2 x23897 +2 x23898 +2 x23899 +2 x23900 -1 x23637 -1 x23638 -1 x23639 -1 x23640 -1 x23641 -1 x23642 -1 x23643 -1 x23644 >= 0 ;
+2 x23901 +2 x23902 +2 x23903 +2 x23904 -1 x23641 -1 x23642 -1 x23643 -1 x23644 -1 x23645 -1 x23646 -1 x23647 -1 x23648 >= 0 ;
+2 x23905 +2 x23906 +2 x23907 +2 x23908 -1 x23645 -1 x23646 -1 x23647 -1 x23648 -1 x23649 -1 x23650 -1 x23651 -1 x23652 >= 0 ;
+2 x23909 +2 x23910 +2 x23911 +2 x23912 -1 x23649 -1 x23650 -1 x23651 -1 x23652 -1 x23653 -1 x23654 -1 x23655 -1 x23656 >= 0 ;
+2 x23913 +2 x23914 +2 x23915 +2 x23916 -1 x23653 -1 x23654 -1 x23655 -1 x23656 -1 x23657 -1 x23658 -1 x23659 -1 x23660 >= 0 ;
+2 x23917 +2 x23918 +2 x23919 +2 x23920 -1 x23657 -1 x23658 -1 x23659 -1 x23660 -1 x23661 -1 x23662 -1 x23663 -1 x23664 >= 0 ;
+2 x23921 +2 x23922 +2 x23923 +2 x23924 -1 x23661 -1 x23662 -1 x23663 -1 x23664 -1 x23665 -1 x23666 -1 x23667 -1 x23668 >= 0 ;
+2 x23925 +2 x23926 +2 x23927 +2 x23928 -1 x23665 -1 x23666 -1 x23667 -1 x23668 -1 x23669 -1 x23670 -1 x23671 -1 x23672 >= 0 ;
+2 x23929 +2 x23930 +2 x23931 +2 x23932 -1 x23669 -1 x23670 -1 x23671 -1 x23672 -1 x23673 -1 x23674 -1 x23675 -1 x23676 >= 0 ;
+2 x23933 +2 x23934 +2 x23935 +2 x23936 -1 x23673 -1 x23674 -1 x23675 -1 x23676 -1 x23677 -1 x23678 -1 x23679 -1 x23680 >= 0 ;
+2 x23937 +2 x23938 +2 x23939 +2 x23940 -1 x23677 -1 x23678 -1 x23679 -1 x23680 -1 x23681 -1 x23682 -1 x23683 -1 x23684 >= 0 ;
+2 x23941 +2 x23942 +2 x23943 +2 x23944 -1 x23685 -1 x23686 -1 x23687 -1 x23688 -1 x23689 -1 x23690 -1 x23691 -1 x23692 >= 0 ;
+2 x23945 +2 x23946 +2 x23947 +2 x23948 -1 x23689 -1 x23690 -1 x23691 -1 x23692 -1 x23693 -1 x23694 -1 x23695 -1 x23696 >= 0 ;
+2 x23949 +2 x23950 +2 x23951 +2 x23952 -1 x23693 -1 x23694 -1 x23695 -1 x23696 -1 x23697 -1 x23698 -1 x23699 -1 x23700 >= 0 ;
+2 x23953 +2 x23954 +2 x23955 +2 x23956 -1 x23697 -1 x23698 -1 x23699 -1 x23700 -1 x23701 -1 x23702 -1 x23703 -1 x23704 >= 0 ;
+2 x23957 +2 x23958 +2 x23959 +2 x23960 -1 x23701 -1 x23702 -1 x23703 -1 x23704 -1 x23705 -1 x23706 -1 x23707 -1 x23708 >= 0 ;
+2 x23961 +2 x23962 +2 x23963 +2 x23964 -1 x23705 -1 x23706 -1 x23707 -1 x23708 -1 x23709 -1 x23710 -1 x23711 -1 x23712 >= 0 ;
+2 x23965 +2 x23966 +2 x23967 +2 x23968 -1 x23709 -1 x23710 -1 x23711 -1 x23712 -1 x23713 -1 x23714 -1 x23715 -1 x23716 >= 0 ;
+2 x23969 +2 x23970 +2 x23971 +2 x23972 -1 x23713 -1 x23714 -1 x23715 -1 x23716 -1 x23717 -1 x23718 -1 x23719 -1 x23720 >= 0 ;
+2 x23973 +2 x23974 +2 x23975 +2 x23976 -1 x23717 -1 x23718 -1 x23719 -1 x23720 -1 x23721 -1 x23722 -1 x23723 -1 x23724 >= 0 ;
+2 x23977 +2 x23978 +2 x23979 +2 x23980 -1 x23721 -1 x23722 -1 x23723 -1 x23724 -1 x23725 -1 x23726 -1 x23727 -1 x23728 >= 0 ;
+2 x23981 +2 x23982 +2 x23983 +2 x23984 -1 x23725 -1 x23726 -1 x23727 -1 x23728 -1 x23729 -1 x23730 -1 x23731 -1 x23732 >= 0 ;
+2 x23985 +2 x23986 +2 x23987 +2 x23988 -1 x23729 -1 x23730 -1 x23731 -1 x23732 -1 x23733 -1 x23734 -1 x23735 -1 x23736 >= 0 ;
+2 x23989 +2 x23990 +2 x23991 +2 x23992 -1 x23733 -1 x23734 -1 x23735 -1 x23736 -1 x23737 -1 x23738 -1 x23739 -1 x23740 >= 0 ;
+2 x23993 +2 x23994 +2 x23995 +2 x23996 -1 x23737 -1 x23738 -1 x23739 -1 x23740 -1 x23741 -1 x23742 -1 x23743 -1 x23744 >= 0 ;
+2 x23997 +2 x23998 +2 x23999 +2 x24000 -1 x23741 -1 x23742 -1 x23743 -1 x23744 -1 x23745 -1 x23746 -1 x23747 -1 x23748 >= 0 ;
+2 x24001 +2 x24002 +2 x24003 +2 x24004 -1 x23745 -1 x23746 -1 x23747 -1 x23748 -1 x23749 -1 x23750 -1 x23751 -1 x23752 >= 0 ;
+2 x24005 +2 x24006 +2 x24007 +2 x24008 -1 x23749 -1 x23750 -1 x23751 -1 x23752 -1 x23753 -1 x23754 -1 x23755 -1 x23756 >= 0 ;
+2 x24009 +2 x24010 +2 x24011 +2 x24012 -1 x23753 -1 x23754 -1 x23755 -1 x23756 -1 x23757 -1 x23758 -1 x23759 -1 x23760 >= 0 ;
+2 x24013 +2 x24014 +2 x24015 +2 x24016 -1 x23757 -1 x23758 -1 x23759 -1 x23760 -1 x23761 -1 x23762 -1 x23763 -1 x23764 >= 0 ;
+2 x24017 +2 x24018 +2 x24019 +2 x24020 -1 x23761 -1 x23762 -1 x23763 -1 x23764 -1 x23765 -1 x23766 -1 x23767 -1 x23768 >= 0 ;
+2 x24021 +2 x24022 +2 x24023 +2 x24024 -1 x23765 -1 x23766 -1 x23767 -1 x23768 -1 x23769 -1 x23770 -1 x23771 -1 x23772 >= 0 ;
+2 x24025 +2 x24026 +2 x24027 +2 x24028 -1 x23769 -1 x23770 -1 x23771 -1 x23772 -1 x23773 -1 x23774 -1 x23775 -1 x23776 >= 0 ;
+2 x24029 +2 x24030 +2 x24031 +2 x24032 -1 x23773 -1 x23774 -1 x23775 -1 x23776 -1 x23777 -1 x23778 -1 x23779 -1 x23780 >= 0 ;
+2 x24033 +2 x24034 +2 x24035 +2 x24036 -1 x23777 -1 x23778 -1 x23779 -1 x23780 -1 x23781 -1 x23782 -1 x23783 -1 x23784 >= 0 ;
+2 x24037 +2 x24038 +2 x24039 +2 x24040 -1 x23781 -1 x23782 -1 x23783 -1 x23784 -1 x23785 -1 x23786 -1 x23787 -1 x23788 >= 0 ;
+2 x24041 +2 x24042 +2 x24043 +2 x24044 -1 x23785 -1 x23786 -1 x23787 -1 x23788 -1 x23789 -1 x23790 -1 x23791 -1 x23792 >= 0 ;
+2 x24045 +2 x24046 +2 x24047 +2 x24048 -1 x23789 -1 x23790 -1 x23791 -1 x23792 -1 x23793 -1 x23794 -1 x23795 -1 x23796 >= 0 ;
+2 x24049 +2 x24050 +2 x24051 +2 x24052 -1 x23793 -1 x23794 -1 x23795 -1 x23796 -1 x23797 -1 x23798 -1 x23799 -1 x23800 >= 0 ;
+2 x24053 +2 x24054 +2 x24055 +2 x24056 -1 x23797 -1 x23798 -1 x23799 -1 x23800 -1 x23801 -1 x23802 -1 x23803 -1 x23804 >= 0 ;
+2 x24057 +2 x24058 +2 x24059 +2 x24060 -1 x23801 -1 x23802 -1 x23803 -1 x23804 -1 x23805 -1 x23806 -1 x23807 -1 x23808 >= 0 ;
+2 x24061 +2 x24062 +2 x24063 +2 x24064 -1 x23805 -1 x23806 -1 x23807 -1 x23808 -1 x23809 -1 x23810 -1 x23811 -1 x23812 >= 0 ;
+2 x24065 +2 x24066 +2 x24067 +2 x24068 -1 x23809 -1 x23810 -1 x23811 -1 x23812 -1 x23813 -1 x23814 -1 x23815 -1 x23816 >= 0 ;
+2 x24069 +2 x24070 +2 x24071 +2 x24072 -1 x23813 -1 x23814 -1 x23815 -1 x23816 -1 x23817 -1 x23818 -1 x23819 -1 x23820 >= 0 ;
+2 x24073 +2 x24074 +2 x24075 +2 x24076 -1 x23817 -1 x23818 -1 x23819 -1 x23820 -1 x23821 -1 x23822 -1 x23823 -1 x23824 >= 0 ;
+2 x24077 +2 x24078 +2 x24079 +2 x24080 -1 x23821 -1 x23822 -1 x23823 -1 x23824 -1 x23825 -1 x23826 -1 x23827 -1 x23828 >= 0 ;
+2 x24081 +2 x24082 +2 x24083 +2 x24084 -1 x23825 -1 x23826 -1 x23827 -1 x23828 -1 x23829 -1 x23830 -1 x23831 -1 x23832 >= 0 ;
+2 x24085 +2 x24086 +2 x24087 +2 x24088 -1 x23829 -1 x23830 -1 x23831 -1 x23832 -1 x23833 -1 x23834 -1 x23835 -1 x23836 >= 0 ;
+2 x24089 +2 x24090 +2 x24091 +2 x24092 -1 x23833 -1 x23834 -1 x23835 -1 x23836 -1 x23837 -1 x23838 -1 x23839 -1 x23840 >= 0 ;
+2 x24093 +2 x24094 +2 x24095 +2 x24096 -1 x23837 -1 x23838 -1 x23839 -1 x23840 -1 x23841 -1 x23842 -1 x23843 -1 x23844 >= 0 ;
+2 x24097 +2 x24098 +2 x24099 +2 x24100 -1 x23841 -1 x23842 -1 x23843 -1 x23844 -1 x23845 -1 x23846 -1 x23847 -1 x23848 >= 0 ;
+2 x24101 +2 x24102 +2 x24103 +2 x24104 -1 x23845 -1 x23846 -1 x23847 -1 x23848 -1 x23849 -1 x23850 -1 x23851 -1 x23852 >= 0 ;
+2 x24105 +2 x24106 +2 x24107 +2 x24108 -1 x23849 -1 x23850 -1 x23851 -1 x23852 -1 x23853 -1 x23854 -1 x23855 -1 x23856 >= 0 ;
+2 x24109 +2 x24110 +2 x24111 +2 x24112 -1 x23853 -1 x23854 -1 x23855 -1 x23856 -1 x23857 -1 x23858 -1 x23859 -1 x23860 >= 0 ;
+2 x24113 +2 x24114 +2 x24115 +2 x24116 -1 x23857 -1 x23858 -1 x23859 -1 x23860 -1 x23861 -1 x23862 -1 x23863 -1 x23864 >= 0 ;
+2 x24117 +2 x24118 +2 x24119 +2 x24120 -1 x23861 -1 x23862 -1 x23863 -1 x23864 -1 x23865 -1 x23866 -1 x23867 -1 x23868 >= 0 ;
+2 x24121 +2 x24122 +2 x24123 +2 x24124 -1 x23865 -1 x23866 -1 x23867 -1 x23868 -1 x23869 -1 x23870 -1 x23871 -1 x23872 >= 0 ;
+2 x24125 +2 x24126 +2 x24127 +2 x24128 -1 x23869 -1 x23870 -1 x23871 -1 x23872 -1 x23873 -1 x23874 -1 x23875 -1 x23876 >= 0 ;
+2 x24129 +2 x24130 +2 x24131 +2 x24132 -1 x23873 -1 x23874 -1 x23875 -1 x23876 -1 x23877 -1 x23878 -1 x23879 -1 x23880 >= 0 ;
+2 x24133 +2 x24134 +2 x24135 +2 x24136 -1 x23877 -1 x23878 -1 x23879 -1 x23880 -1 x23881 -1 x23882 -1 x23883 -1 x23884 >= 0 ;
+2 x24137 +2 x24138 +2 x24139 +2 x24140 -1 x23881 -1 x23882 -1 x23883 -1 x23884 -1 x23885 -1 x23886 -1 x23887 -1 x23888 >= 0 ;
+2 x24141 +2 x24142 +2 x24143 +2 x24144 -1 x23885 -1 x23886 -1 x23887 -1 x23888 -1 x23889 -1 x23890 -1 x23891 -1 x23892 >= 0 ;
+2 x24145 +2 x24146 +2 x24147 +2 x24148 -1 x23889 -1 x23890 -1 x23891 -1 x23892 -1 x23893 -1 x23894 -1 x23895 -1 x23896 >= 0 ;
+2 x24149 +2 x24150 +2 x24151 +2 x24152 -1 x23893 -1 x23894 -1 x23895 -1 x23896 -1 x23897 -1 x23898 -1 x23899 -1 x23900 >= 0 ;
+2 x24153 +2 x24154 +2 x24155 +2 x24156 -1 x23897 -1 x23898 -1 x23899 -1 x23900 -1 x23901 -1 x23902 -1 x23903 -1 x23904 >= 0 ;
+2 x24157 +2 x24158 +2 x24159 +2 x24160 -1 x23901 -1 x23902 -1 x23903 -1 x23904 -1 x23905 -1 x23906 -1 x23907 -1 x23908 >= 0 ;
+2 x24161 +2 x24162 +2 x24163 +2 x24164 -1 x23905 -1 x23906 -1 x23907 -1 x23908 -1 x23909 -1 x23910 -1 x23911 -1 x23912 >= 0 ;
+2 x24165 +2 x24166 +2 x24167 +2 x24168 -1 x23909 -1 x23910 -1 x23911 -1 x23912 -1 x23913 -1 x23914 -1 x23915 -1 x23916 >= 0 ;
+2 x24169 +2 x24170 +2 x24171 +2 x24172 -1 x23913 -1 x23914 -1 x23915 -1 x23916 -1 x23917 -1 x23918 -1 x23919 -1 x23920 >= 0 ;
+2 x24173 +2 x24174 +2 x24175 +2 x24176 -1 x23917 -1 x23918 -1 x23919 -1 x23920 -1 x23921 -1 x23922 -1 x23923 -1 x23924 >= 0 ;
+2 x24177 +2 x24178 +2 x24179 +2 x24180 -1 x23921 -1 x23922 -1 x23923 -1 x23924 -1 x23925 -1 x23926 -1 x23927 -1 x23928 >= 0 ;
+2 x24181 +2 x24182 +2 x24183 +2 x24184 -1 x23925 -1 x23926 -1 x23927 -1 x23928 -1 x23929 -1 x23930 -1 x23931 -1 x23932 >= 0 ;
+2 x24185 +2 x24186 +2 x24187 +2 x24188 -1 x23929 -1 x23930 -1 x23931 -1 x23932 -1 x23933 -1 x23934 -1 x23935 -1 x23936 >= 0 ;
+2 x24189 +2 x24190 +2 x24191 +2 x24192 -1 x23933 -1 x23934 -1 x23935 -1 x23936 -1 x23937 -1 x23938 -1 x23939 -1 x23940 >= 0 ;
+2 x24193 +2 x24194 +2 x24195 +2 x24196 -1 x23941 -1 x23942 -1 x23943 -1 x23944 -1 x23945 -1 x23946 -1 x23947 -1 x23948 >= 0 ;
+2 x24197 +2 x24198 +2 x24199 +2 x24200 -1 x23945 -1 x23946 -1 x23947 -1 x23948 -1 x23949 -1 x23950 -1 x23951 -1 x23952 >= 0 ;
+2 x24201 +2 x24202 +2 x24203 +2 x24204 -1 x23949 -1 x23950 -1 x23951 -1 x23952 -1 x23953 -1 x23954 -1 x23955 -1 x23956 >= 0 ;
+2 x24205 +2 x24206 +2 x24207 +2 x24208 -1 x23953 -1 x23954 -1 x23955 -1 x23956 -1 x23957 -1 x23958 -1 x23959 -1 x23960 >= 0 ;
+2 x24209 +2 x24210 +2 x24211 +2 x24212 -1 x23957 -1 x23958 -1 x23959 -1 x23960 -1 x23961 -1 x23962 -1 x23963 -1 x23964 >= 0 ;
+2 x24213 +2 x24214 +2 x24215 +2 x24216 -1 x23961 -1 x23962 -1 x23963 -1 x23964 -1 x23965 -1 x23966 -1 x23967 -1 x23968 >= 0 ;
+2 x24217 +2 x24218 +2 x24219 +2 x24220 -1 x23965 -1 x23966 -1 x23967 -1 x23968 -1 x23969 -1 x23970 -1 x23971 -1 x23972 >= 0 ;
+2 x24221 +2 x24222 +2 x24223 +2 x24224 -1 x23969 -1 x23970 -1 x23971 -1 x23972 -1 x23973 -1 x23974 -1 x23975 -1 x23976 >= 0 ;
+2 x24225 +2 x24226 +2 x24227 +2 x24228 -1 x23973 -1 x23974 -1 x23975 -1 x23976 -1 x23977 -1 x23978 -1 x23979 -1 x23980 >= 0 ;
+2 x24229 +2 x24230 +2 x24231 +2 x24232 -1 x23977 -1 x23978 -1 x23979 -1 x23980 -1 x23981 -1 x23982 -1 x23983 -1 x23984 >= 0 ;
+2 x24233 +2 x24234 +2 x24235 +2 x24236 -1 x23981 -1 x23982 -1 x23983 -1 x23984 -1 x23985 -1 x23986 -1 x23987 -1 x23988 >= 0 ;
+2 x24237 +2 x24238 +2 x24239 +2 x24240 -1 x23985 -1 x23986 -1 x23987 -1 x23988 -1 x23989 -1 x23990 -1 x23991 -1 x23992 >= 0 ;
+2 x24241 +2 x24242 +2 x24243 +2 x24244 -1 x23989 -1 x23990 -1 x23991 -1 x23992 -1 x23993 -1 x23994 -1 x23995 -1 x23996 >= 0 ;
+2 x24245 +2 x24246 +2 x24247 +2 x24248 -1 x23993 -1 x23994 -1 x23995 -1 x23996 -1 x23997 -1 x23998 -1 x23999 -1 x24000 >= 0 ;
+2 x24249 +2 x24250 +2 x24251 +2 x24252 -1 x23997 -1 x23998 -1 x23999 -1 x24000 -1 x24001 -1 x24002 -1 x24003 -1 x24004 >= 0 ;
+2 x24253 +2 x24254 +2 x24255 +2 x24256 -1 x24001 -1 x24002 -1 x24003 -1 x24004 -1 x24005 -1 x24006 -1 x24007 -1 x24008 >= 0 ;
+2 x24257 +2 x24258 +2 x24259 +2 x24260 -1 x24005 -1 x24006 -1 x24007 -1 x24008 -1 x24009 -1 x24010 -1 x24011 -1 x24012 >= 0 ;
+2 x24261 +2 x24262 +2 x24263 +2 x24264 -1 x24009 -1 x24010 -1 x24011 -1 x24012 -1 x24013 -1 x24014 -1 x24015 -1 x24016 >= 0 ;
+2 x24265 +2 x24266 +2 x24267 +2 x24268 -1 x24013 -1 x24014 -1 x24015 -1 x24016 -1 x24017 -1 x24018 -1 x24019 -1 x24020 >= 0 ;
+2 x24269 +2 x24270 +2 x24271 +2 x24272 -1 x24017 -1 x24018 -1 x24019 -1 x24020 -1 x24021 -1 x24022 -1 x24023 -1 x24024 >= 0 ;
+2 x24273 +2 x24274 +2 x24275 +2 x24276 -1 x24021 -1 x24022 -1 x24023 -1 x24024 -1 x24025 -1 x24026 -1 x24027 -1 x24028 >= 0 ;
+2 x24277 +2 x24278 +2 x24279 +2 x24280 -1 x24025 -1 x24026 -1 x24027 -1 x24028 -1 x24029 -1 x24030 -1 x24031 -1 x24032 >= 0 ;
+2 x24281 +2 x24282 +2 x24283 +2 x24284 -1 x24029 -1 x24030 -1 x24031 -1 x24032 -1 x24033 -1 x24034 -1 x24035 -1 x24036 >= 0 ;
+2 x24285 +2 x24286 +2 x24287 +2 x24288 -1 x24033 -1 x24034 -1 x24035 -1 x24036 -1 x24037 -1 x24038 -1 x24039 -1 x24040 >= 0 ;
+2 x24289 +2 x24290 +2 x24291 +2 x24292 -1 x24037 -1 x24038 -1 x24039 -1 x24040 -1 x24041 -1 x24042 -1 x24043 -1 x24044 >= 0 ;
+2 x24293 +2 x24294 +2 x24295 +2 x24296 -1 x24041 -1 x24042 -1 x24043 -1 x24044 -1 x24045 -1 x24046 -1 x24047 -1 x24048 >= 0 ;
+2 x24297 +2 x24298 +2 x24299 +2 x24300 -1 x24045 -1 x24046 -1 x24047 -1 x24048 -1 x24049 -1 x24050 -1 x24051 -1 x24052 >= 0 ;
+2 x24301 +2 x24302 +2 x24303 +2 x24304 -1 x24049 -1 x24050 -1 x24051 -1 x24052 -1 x24053 -1 x24054 -1 x24055 -1 x24056 >= 0 ;
+2 x24305 +2 x24306 +2 x24307 +2 x24308 -1 x24053 -1 x24054 -1 x24055 -1 x24056 -1 x24057 -1 x24058 -1 x24059 -1 x24060 >= 0 ;
+2 x24309 +2 x24310 +2 x24311 +2 x24312 -1 x24057 -1 x24058 -1 x24059 -1 x24060 -1 x24061 -1 x24062 -1 x24063 -1 x24064 >= 0 ;
+2 x24313 +2 x24314 +2 x24315 +2 x24316 -1 x24061 -1 x24062 -1 x24063 -1 x24064 -1 x24065 -1 x24066 -1 x24067 -1 x24068 >= 0 ;
+2 x24317 +2 x24318 +2 x24319 +2 x24320 -1 x24065 -1 x24066 -1 x24067 -1 x24068 -1 x24069 -1 x24070 -1 x24071 -1 x24072 >= 0 ;
+2 x24321 +2 x24322 +2 x24323 +2 x24324 -1 x24069 -1 x24070 -1 x24071 -1 x24072 -1 x24073 -1 x24074 -1 x24075 -1 x24076 >= 0 ;
+2 x24325 +2 x24326 +2 x24327 +2 x24328 -1 x24073 -1 x24074 -1 x24075 -1 x24076 -1 x24077 -1 x24078 -1 x24079 -1 x24080 >= 0 ;
+2 x24329 +2 x24330 +2 x24331 +2 x24332 -1 x24077 -1 x24078 -1 x24079 -1 x24080 -1 x24081 -1 x24082 -1 x24083 -1 x24084 >= 0 ;
+2 x24333 +2 x24334 +2 x24335 +2 x24336 -1 x24081 -1 x24082 -1 x24083 -1 x24084 -1 x24085 -1 x24086 -1 x24087 -1 x24088 >= 0 ;
+2 x24337 +2 x24338 +2 x24339 +2 x24340 -1 x24085 -1 x24086 -1 x24087 -1 x24088 -1 x24089 -1 x24090 -1 x24091 -1 x24092 >= 0 ;
+2 x24341 +2 x24342 +2 x24343 +2 x24344 -1 x24089 -1 x24090 -1 x24091 -1 x24092 -1 x24093 -1 x24094 -1 x24095 -1 x24096 >= 0 ;
+2 x24345 +2 x24346 +2 x24347 +2 x24348 -1 x24093 -1 x24094 -1 x24095 -1 x24096 -1 x24097 -1 x24098 -1 x24099 -1 x24100 >= 0 ;
+2 x24349 +2 x24350 +2 x24351 +2 x24352 -1 x24097 -1 x24098 -1 x24099 -1 x24100 -1 x24101 -1 x24102 -1 x24103 -1 x24104 >= 0 ;
+2 x24353 +2 x24354 +2 x24355 +2 x24356 -1 x24101 -1 x24102 -1 x24103 -1 x24104 -1 x24105 -1 x24106 -1 x24107 -1 x24108 >= 0 ;
+2 x24357 +2 x24358 +2 x24359 +2 x24360 -1 x24105 -1 x24106 -1 x24107 -1 x24108 -1 x24109 -1 x24110 -1 x24111 -1 x24112 >= 0 ;
+2 x24361 +2 x24362 +2 x24363 +2 x24364 -1 x24109 -1 x24110 -1 x24111 -1 x24112 -1 x24113 -1 x24114 -1 x24115 -1 x24116 >= 0 ;
+2 x24365 +2 x24366 +2 x24367 +2 x24368 -1 x24113 -1 x24114 -1 x24115 -1 x24116 -1 x24117 -1 x24118 -1 x24119 -1 x24120 >= 0 ;
+2 x24369 +2 x24370 +2 x24371 +2 x24372 -1 x24117 -1 x24118 -1 x24119 -1 x24120 -1 x24121 -1 x24122 -1 x24123 -1 x24124 >= 0 ;
+2 x24373 +2 x24374 +2 x24375 +2 x24376 -1 x24121 -1 x24122 -1 x24123 -1 x24124 -1 x24125 -1 x24126 -1 x24127 -1 x24128 >= 0 ;
+2 x24377 +2 x24378 +2 x24379 +2 x24380 -1 x24125 -1 x24126 -1 x24127 -1 x24128 -1 x24129 -1 x24130 -1 x24131 -1 x24132 >= 0 ;
+2 x24381 +2 x24382 +2 x24383 +2 x24384 -1 x24129 -1 x24130 -1 x24131 -1 x24132 -1 x24133 -1 x24134 -1 x24135 -1 x24136 >= 0 ;
+2 x24385 +2 x24386 +2 x24387 +2 x24388 -1 x24133 -1 x24134 -1 x24135 -1 x24136 -1 x24137 -1 x24138 -1 x24139 -1 x24140 >= 0 ;
+2 x24389 +2 x24390 +2 x24391 +2 x24392 -1 x24137 -1 x24138 -1 x24139 -1 x24140 -1 x24141 -1 x24142 -1 x24143 -1 x24144 >= 0 ;
+2 x24393 +2 x24394 +2 x24395 +2 x24396 -1 x24141 -1 x24142 -1 x24143 -1 x24144 -1 x24145 -1 x24146 -1 x24147 -1 x24148 >= 0 ;
+2 x24397 +2 x24398 +2 x24399 +2 x24400 -1 x24145 -1 x24146 -1 x24147 -1 x24148 -1 x24149 -1 x24150 -1 x24151 -1 x24152 >= 0 ;
+2 x24401 +2 x24402 +2 x24403 +2 x24404 -1 x24149 -1 x24150 -1 x24151 -1 x24152 -1 x24153 -1 x24154 -1 x24155 -1 x24156 >= 0 ;
+2 x24405 +2 x24406 +2 x24407 +2 x24408 -1 x24153 -1 x24154 -1 x24155 -1 x24156 -1 x24157 -1 x24158 -1 x24159 -1 x24160 >= 0 ;
+2 x24409 +2 x24410 +2 x24411 +2 x24412 -1 x24157 -1 x24158 -1 x24159 -1 x24160 -1 x24161 -1 x24162 -1 x24163 -1 x24164 >= 0 ;
+2 x24413 +2 x24414 +2 x24415 +2 x24416 -1 x24161 -1 x24162 -1 x24163 -1 x24164 -1 x24165 -1 x24166 -1 x24167 -1 x24168 >= 0 ;
+2 x24417 +2 x24418 +2 x24419 +2 x24420 -1 x24165 -1 x24166 -1 x24167 -1 x24168 -1 x24169 -1 x24170 -1 x24171 -1 x24172 >= 0 ;
+2 x24421 +2 x24422 +2 x24423 +2 x24424 -1 x24169 -1 x24170 -1 x24171 -1 x24172 -1 x24173 -1 x24174 -1 x24175 -1 x24176 >= 0 ;
+2 x24425 +2 x24426 +2 x24427 +2 x24428 -1 x24173 -1 x24174 -1 x24175 -1 x24176 -1 x24177 -1 x24178 -1 x24179 -1 x24180 >= 0 ;
+2 x24429 +2 x24430 +2 x24431 +2 x24432 -1 x24177 -1 x24178 -1 x24179 -1 x24180 -1 x24181 -1 x24182 -1 x24183 -1 x24184 >= 0 ;
+2 x24433 +2 x24434 +2 x24435 +2 x24436 -1 x24181 -1 x24182 -1 x24183 -1 x24184 -1 x24185 -1 x24186 -1 x24187 -1 x24188 >= 0 ;
+2 x24437 +2 x24438 +2 x24439 +2 x24440 -1 x24185 -1 x24186 -1 x24187 -1 x24188 -1 x24189 -1 x24190 -1 x24191 -1 x24192 >= 0 ;
+2 x24441 +2 x24442 +2 x24443 +2 x24444 -1 x24193 -1 x24194 -1 x24195 -1 x24196 -1 x24197 -1 x24198 -1 x24199 -1 x24200 >= 0 ;
+2 x24445 +2 x24446 +2 x24447 +2 x24448 -1 x24197 -1 x24198 -1 x24199 -1 x24200 -1 x24201 -1 x24202 -1 x24203 -1 x24204 >= 0 ;
+2 x24449 +2 x24450 +2 x24451 +2 x24452 -1 x24201 -1 x24202 -1 x24203 -1 x24204 -1 x24205 -1 x24206 -1 x24207 -1 x24208 >= 0 ;
+2 x24453 +2 x24454 +2 x24455 +2 x24456 -1 x24205 -1 x24206 -1 x24207 -1 x24208 -1 x24209 -1 x24210 -1 x24211 -1 x24212 >= 0 ;
+2 x24457 +2 x24458 +2 x24459 +2 x24460 -1 x24209 -1 x24210 -1 x24211 -1 x24212 -1 x24213 -1 x24214 -1 x24215 -1 x24216 >= 0 ;
+2 x24461 +2 x24462 +2 x24463 +2 x24464 -1 x24213 -1 x24214 -1 x24215 -1 x24216 -1 x24217 -1 x24218 -1 x24219 -1 x24220 >= 0 ;
+2 x24465 +2 x24466 +2 x24467 +2 x24468 -1 x24217 -1 x24218 -1 x24219 -1 x24220 -1 x24221 -1 x24222 -1 x24223 -1 x24224 >= 0 ;
+2 x24469 +2 x24470 +2 x24471 +2 x24472 -1 x24221 -1 x24222 -1 x24223 -1 x24224 -1 x24225 -1 x24226 -1 x24227 -1 x24228 >= 0 ;
+2 x24473 +2 x24474 +2 x24475 +2 x24476 -1 x24225 -1 x24226 -1 x24227 -1 x24228 -1 x24229 -1 x24230 -1 x24231 -1 x24232 >= 0 ;
+2 x24477 +2 x24478 +2 x24479 +2 x24480 -1 x24229 -1 x24230 -1 x24231 -1 x24232 -1 x24233 -1 x24234 -1 x24235 -1 x24236 >= 0 ;
+2 x24481 +2 x24482 +2 x24483 +2 x24484 -1 x24233 -1 x24234 -1 x24235 -1 x24236 -1 x24237 -1 x24238 -1 x24239 -1 x24240 >= 0 ;
+2 x24485 +2 x24486 +2 x24487 +2 x24488 -1 x24237 -1 x24238 -1 x24239 -1 x24240 -1 x24241 -1 x24242 -1 x24243 -1 x24244 >= 0 ;
+2 x24489 +2 x24490 +2 x24491 +2 x24492 -1 x24241 -1 x24242 -1 x24243 -1 x24244 -1 x24245 -1 x24246 -1 x24247 -1 x24248 >= 0 ;
+2 x24493 +2 x24494 +2 x24495 +2 x24496 -1 x24245 -1 x24246 -1 x24247 -1 x24248 -1 x24249 -1 x24250 -1 x24251 -1 x24252 >= 0 ;
+2 x24497 +2 x24498 +2 x24499 +2 x24500 -1 x24249 -1 x24250 -1 x24251 -1 x24252 -1 x24253 -1 x24254 -1 x24255 -1 x24256 >= 0 ;
+2 x24501 +2 x24502 +2 x24503 +2 x24504 -1 x24253 -1 x24254 -1 x24255 -1 x24256 -1 x24257 -1 x24258 -1 x24259 -1 x24260 >= 0 ;
+2 x24505 +2 x24506 +2 x24507 +2 x24508 -1 x24257 -1 x24258 -1 x24259 -1 x24260 -1 x24261 -1 x24262 -1 x24263 -1 x24264 >= 0 ;
+2 x24509 +2 x24510 +2 x24511 +2 x24512 -1 x24261 -1 x24262 -1 x24263 -1 x24264 -1 x24265 -1 x24266 -1 x24267 -1 x24268 >= 0 ;
+2 x24513 +2 x24514 +2 x24515 +2 x24516 -1 x24265 -1 x24266 -1 x24267 -1 x24268 -1 x24269 -1 x24270 -1 x24271 -1 x24272 >= 0 ;
+2 x24517 +2 x24518 +2 x24519 +2 x24520 -1 x24269 -1 x24270 -1 x24271 -1 x24272 -1 x24273 -1 x24274 -1 x24275 -1 x24276 >= 0 ;
+2 x24521 +2 x24522 +2 x24523 +2 x24524 -1 x24273 -1 x24274 -1 x24275 -1 x24276 -1 x24277 -1 x24278 -1 x24279 -1 x24280 >= 0 ;
+2 x24525 +2 x24526 +2 x24527 +2 x24528 -1 x24277 -1 x24278 -1 x24279 -1 x24280 -1 x24281 -1 x24282 -1 x24283 -1 x24284 >= 0 ;
+2 x24529 +2 x24530 +2 x24531 +2 x24532 -1 x24281 -1 x24282 -1 x24283 -1 x24284 -1 x24285 -1 x24286 -1 x24287 -1 x24288 >= 0 ;
+2 x24533 +2 x24534 +2 x24535 +2 x24536 -1 x24285 -1 x24286 -1 x24287 -1 x24288 -1 x24289 -1 x24290 -1 x24291 -1 x24292 >= 0 ;
+2 x24537 +2 x24538 +2 x24539 +2 x24540 -1 x24289 -1 x24290 -1 x24291 -1 x24292 -1 x24293 -1 x24294 -1 x24295 -1 x24296 >= 0 ;
+2 x24541 +2 x24542 +2 x24543 +2 x24544 -1 x24293 -1 x24294 -1 x24295 -1 x24296 -1 x24297 -1 x24298 -1 x24299 -1 x24300 >= 0 ;
+2 x24545 +2 x24546 +2 x24547 +2 x24548 -1 x24297 -1 x24298 -1 x24299 -1 x24300 -1 x24301 -1 x24302 -1 x24303 -1 x24304 >= 0 ;
+2 x24549 +2 x24550 +2 x24551 +2 x24552 -1 x24301 -1 x24302 -1 x24303 -1 x24304 -1 x24305 -1 x24306 -1 x24307 -1 x24308 >= 0 ;
+2 x24553 +2 x24554 +2 x24555 +2 x24556 -1 x24305 -1 x24306 -1 x24307 -1 x24308 -1 x24309 -1 x24310 -1 x24311 -1 x24312 >= 0 ;
+2 x24557 +2 x24558 +2 x24559 +2 x24560 -1 x24309 -1 x24310 -1 x24311 -1 x24312 -1 x24313 -1 x24314 -1 x24315 -1 x24316 >= 0 ;
+2 x24561 +2 x24562 +2 x24563 +2 x24564 -1 x24313 -1 x24314 -1 x24315 -1 x24316 -1 x24317 -1 x24318 -1 x24319 -1 x24320 >= 0 ;
+2 x24565 +2 x24566 +2 x24567 +2 x24568 -1 x24317 -1 x24318 -1 x24319 -1 x24320 -1 x24321 -1 x24322 -1 x24323 -1 x24324 >= 0 ;
+2 x24569 +2 x24570 +2 x24571 +2 x24572 -1 x24321 -1 x24322 -1 x24323 -1 x24324 -1 x24325 -1 x24326 -1 x24327 -1 x24328 >= 0 ;
+2 x24573 +2 x24574 +2 x24575 +2 x24576 -1 x24325 -1 x24326 -1 x24327 -1 x24328 -1 x24329 -1 x24330 -1 x24331 -1 x24332 >= 0 ;
+2 x24577 +2 x24578 +2 x24579 +2 x24580 -1 x24329 -1 x24330 -1 x24331 -1 x24332 -1 x24333 -1 x24334 -1 x24335 -1 x24336 >= 0 ;
+2 x24581 +2 x24582 +2 x24583 +2 x24584 -1 x24333 -1 x24334 -1 x24335 -1 x24336 -1 x24337 -1 x24338 -1 x24339 -1 x24340 >= 0 ;
+2 x24585 +2 x24586 +2 x24587 +2 x24588 -1 x24337 -1 x24338 -1 x24339 -1 x24340 -1 x24341 -1 x24342 -1 x24343 -1 x24344 >= 0 ;
+2 x24589 +2 x24590 +2 x24591 +2 x24592 -1 x24341 -1 x24342 -1 x24343 -1 x24344 -1 x24345 -1 x24346 -1 x24347 -1 x24348 >= 0 ;
+2 x24593 +2 x24594 +2 x24595 +2 x24596 -1 x24345 -1 x24346 -1 x24347 -1 x24348 -1 x24349 -1 x24350 -1 x24351 -1 x24352 >= 0 ;
+2 x24597 +2 x24598 +2 x24599 +2 x24600 -1 x24349 -1 x24350 -1 x24351 -1 x24352 -1 x24353 -1 x24354 -1 x24355 -1 x24356 >= 0 ;
+2 x24601 +2 x24602 +2 x24603 +2 x24604 -1 x24353 -1 x24354 -1 x24355 -1 x24356 -1 x24357 -1 x24358 -1 x24359 -1 x24360 >= 0 ;
+2 x24605 +2 x24606 +2 x24607 +2 x24608 -1 x24357 -1 x24358 -1 x24359 -1 x24360 -1 x24361 -1 x24362 -1 x24363 -1 x24364 >= 0 ;
+2 x24609 +2 x24610 +2 x24611 +2 x24612 -1 x24361 -1 x24362 -1 x24363 -1 x24364 -1 x24365 -1 x24366 -1 x24367 -1 x24368 >= 0 ;
+2 x24613 +2 x24614 +2 x24615 +2 x24616 -1 x24365 -1 x24366 -1 x24367 -1 x24368 -1 x24369 -1 x24370 -1 x24371 -1 x24372 >= 0 ;
+2 x24617 +2 x24618 +2 x24619 +2 x24620 -1 x24369 -1 x24370 -1 x24371 -1 x24372 -1 x24373 -1 x24374 -1 x24375 -1 x24376 >= 0 ;
+2 x24621 +2 x24622 +2 x24623 +2 x24624 -1 x24373 -1 x24374 -1 x24375 -1 x24376 -1 x24377 -1 x24378 -1 x24379 -1 x24380 >= 0 ;
+2 x24625 +2 x24626 +2 x24627 +2 x24628 -1 x24377 -1 x24378 -1 x24379 -1 x24380 -1 x24381 -1 x24382 -1 x24383 -1 x24384 >= 0 ;
+2 x24629 +2 x24630 +2 x24631 +2 x24632 -1 x24381 -1 x24382 -1 x24383 -1 x24384 -1 x24385 -1 x24386 -1 x24387 -1 x24388 >= 0 ;
+2 x24633 +2 x24634 +2 x24635 +2 x24636 -1 x24385 -1 x24386 -1 x24387 -1 x24388 -1 x24389 -1 x24390 -1 x24391 -1 x24392 >= 0 ;
+2 x24637 +2 x24638 +2 x24639 +2 x24640 -1 x24389 -1 x24390 -1 x24391 -1 x24392 -1 x24393 -1 x24394 -1 x24395 -1 x24396 >= 0 ;
+2 x24641 +2 x24642 +2 x24643 +2 x24644 -1 x24393 -1 x24394 -1 x24395 -1 x24396 -1 x24397 -1 x24398 -1 x24399 -1 x24400 >= 0 ;
+2 x24645 +2 x24646 +2 x24647 +2 x24648 -1 x24397 -1 x24398 -1 x24399 -1 x24400 -1 x24401 -1 x24402 -1 x24403 -1 x24404 >= 0 ;
+2 x24649 +2 x24650 +2 x24651 +2 x24652 -1 x24401 -1 x24402 -1 x24403 -1 x24404 -1 x24405 -1 x24406 -1 x24407 -1 x24408 >= 0 ;
+2 x24653 +2 x24654 +2 x24655 +2 x24656 -1 x24405 -1 x24406 -1 x24407 -1 x24408 -1 x24409 -1 x24410 -1 x24411 -1 x24412 >= 0 ;
+2 x24657 +2 x24658 +2 x24659 +2 x24660 -1 x24409 -1 x24410 -1 x24411 -1 x24412 -1 x24413 -1 x24414 -1 x24415 -1 x24416 >= 0 ;
+2 x24661 +2 x24662 +2 x24663 +2 x24664 -1 x24413 -1 x24414 -1 x24415 -1 x24416 -1 x24417 -1 x24418 -1 x24419 -1 x24420 >= 0 ;
+2 x24665 +2 x24666 +2 x24667 +2 x24668 -1 x24417 -1 x24418 -1 x24419 -1 x24420 -1 x24421 -1 x24422 -1 x24423 -1 x24424 >= 0 ;
+2 x24669 +2 x24670 +2 x24671 +2 x24672 -1 x24421 -1 x24422 -1 x24423 -1 x24424 -1 x24425 -1 x24426 -1 x24427 -1 x24428 >= 0 ;
+2 x24673 +2 x24674 +2 x24675 +2 x24676 -1 x24425 -1 x24426 -1 x24427 -1 x24428 -1 x24429 -1 x24430 -1 x24431 -1 x24432 >= 0 ;
+2 x24677 +2 x24678 +2 x24679 +2 x24680 -1 x24429 -1 x24430 -1 x24431 -1 x24432 -1 x24433 -1 x24434 -1 x24435 -1 x24436 >= 0 ;
+2 x24681 +2 x24682 +2 x24683 +2 x24684 -1 x24433 -1 x24434 -1 x24435 -1 x24436 -1 x24437 -1 x24438 -1 x24439 -1 x24440 >= 0 ;
+2 x24685 +2 x24686 +2 x24687 +2 x24688 -1 x24441 -1 x24442 -1 x24443 -1 x24444 -1 x24445 -1 x24446 -1 x24447 -1 x24448 >= 0 ;
+2 x24689 +2 x24690 +2 x24691 +2 x24692 -1 x24445 -1 x24446 -1 x24447 -1 x24448 -1 x24449 -1 x24450 -1 x24451 -1 x24452 >= 0 ;
+2 x24693 +2 x24694 +2 x24695 +2 x24696 -1 x24449 -1 x24450 -1 x24451 -1 x24452 -1 x24453 -1 x24454 -1 x24455 -1 x24456 >= 0 ;
+2 x24697 +2 x24698 +2 x24699 +2 x24700 -1 x24453 -1 x24454 -1 x24455 -1 x24456 -1 x24457 -1 x24458 -1 x24459 -1 x24460 >= 0 ;
+2 x24701 +2 x24702 +2 x24703 +2 x24704 -1 x24457 -1 x24458 -1 x24459 -1 x24460 -1 x24461 -1 x24462 -1 x24463 -1 x24464 >= 0 ;
+2 x24705 +2 x24706 +2 x24707 +2 x24708 -1 x24461 -1 x24462 -1 x24463 -1 x24464 -1 x24465 -1 x24466 -1 x24467 -1 x24468 >= 0 ;
+2 x24709 +2 x24710 +2 x24711 +2 x24712 -1 x24465 -1 x24466 -1 x24467 -1 x24468 -1 x24469 -1 x24470 -1 x24471 -1 x24472 >= 0 ;
+2 x24713 +2 x24714 +2 x24715 +2 x24716 -1 x24469 -1 x24470 -1 x24471 -1 x24472 -1 x24473 -1 x24474 -1 x24475 -1 x24476 >= 0 ;
+2 x24717 +2 x24718 +2 x24719 +2 x24720 -1 x24473 -1 x24474 -1 x24475 -1 x24476 -1 x24477 -1 x24478 -1 x24479 -1 x24480 >= 0 ;
+2 x24721 +2 x24722 +2 x24723 +2 x24724 -1 x24477 -1 x24478 -1 x24479 -1 x24480 -1 x24481 -1 x24482 -1 x24483 -1 x24484 >= 0 ;
+2 x24725 +2 x24726 +2 x24727 +2 x24728 -1 x24481 -1 x24482 -1 x24483 -1 x24484 -1 x24485 -1 x24486 -1 x24487 -1 x24488 >= 0 ;
+2 x24729 +2 x24730 +2 x24731 +2 x24732 -1 x24485 -1 x24486 -1 x24487 -1 x24488 -1 x24489 -1 x24490 -1 x24491 -1 x24492 >= 0 ;
+2 x24733 +2 x24734 +2 x24735 +2 x24736 -1 x24489 -1 x24490 -1 x24491 -1 x24492 -1 x24493 -1 x24494 -1 x24495 -1 x24496 >= 0 ;
+2 x24737 +2 x24738 +2 x24739 +2 x24740 -1 x24493 -1 x24494 -1 x24495 -1 x24496 -1 x24497 -1 x24498 -1 x24499 -1 x24500 >= 0 ;
+2 x24741 +2 x24742 +2 x24743 +2 x24744 -1 x24497 -1 x24498 -1 x24499 -1 x24500 -1 x24501 -1 x24502 -1 x24503 -1 x24504 >= 0 ;
+2 x24745 +2 x24746 +2 x24747 +2 x24748 -1 x24501 -1 x24502 -1 x24503 -1 x24504 -1 x24505 -1 x24506 -1 x24507 -1 x24508 >= 0 ;
+2 x24749 +2 x24750 +2 x24751 +2 x24752 -1 x24505 -1 x24506 -1 x24507 -1 x24508 -1 x24509 -1 x24510 -1 x24511 -1 x24512 >= 0 ;
+2 x24753 +2 x24754 +2 x24755 +2 x24756 -1 x24509 -1 x24510 -1 x24511 -1 x24512 -1 x24513 -1 x24514 -1 x24515 -1 x24516 >= 0 ;
+2 x24757 +2 x24758 +2 x24759 +2 x24760 -1 x24513 -1 x24514 -1 x24515 -1 x24516 -1 x24517 -1 x24518 -1 x24519 -1 x24520 >= 0 ;
+2 x24761 +2 x24762 +2 x24763 +2 x24764 -1 x24517 -1 x24518 -1 x24519 -1 x24520 -1 x24521 -1 x24522 -1 x24523 -1 x24524 >= 0 ;
+2 x24765 +2 x24766 +2 x24767 +2 x24768 -1 x24521 -1 x24522 -1 x24523 -1 x24524 -1 x24525 -1 x24526 -1 x24527 -1 x24528 >= 0 ;
+2 x24769 +2 x24770 +2 x24771 +2 x24772 -1 x24525 -1 x24526 -1 x24527 -1 x24528 -1 x24529 -1 x24530 -1 x24531 -1 x24532 >= 0 ;
+2 x24773 +2 x24774 +2 x24775 +2 x24776 -1 x24529 -1 x24530 -1 x24531 -1 x24532 -1 x24533 -1 x24534 -1 x24535 -1 x24536 >= 0 ;
+2 x24777 +2 x24778 +2 x24779 +2 x24780 -1 x24533 -1 x24534 -1 x24535 -1 x24536 -1 x24537 -1 x24538 -1 x24539 -1 x24540 >= 0 ;
+2 x24781 +2 x24782 +2 x24783 +2 x24784 -1 x24537 -1 x24538 -1 x24539 -1 x24540 -1 x24541 -1 x24542 -1 x24543 -1 x24544 >= 0 ;
+2 x24785 +2 x24786 +2 x24787 +2 x24788 -1 x24541 -1 x24542 -1 x24543 -1 x24544 -1 x24545 -1 x24546 -1 x24547 -1 x24548 >= 0 ;
+2 x24789 +2 x24790 +2 x24791 +2 x24792 -1 x24545 -1 x24546 -1 x24547 -1 x24548 -1 x24549 -1 x24550 -1 x24551 -1 x24552 >= 0 ;
+2 x24793 +2 x24794 +2 x24795 +2 x24796 -1 x24549 -1 x24550 -1 x24551 -1 x24552 -1 x24553 -1 x24554 -1 x24555 -1 x24556 >= 0 ;
+2 x24797 +2 x24798 +2 x24799 +2 x24800 -1 x24553 -1 x24554 -1 x24555 -1 x24556 -1 x24557 -1 x24558 -1 x24559 -1 x24560 >= 0 ;
+2 x24801 +2 x24802 +2 x24803 +2 x24804 -1 x24557 -1 x24558 -1 x24559 -1 x24560 -1 x24561 -1 x24562 -1 x24563 -1 x24564 >= 0 ;
+2 x24805 +2 x24806 +2 x24807 +2 x24808 -1 x24561 -1 x24562 -1 x24563 -1 x24564 -1 x24565 -1 x24566 -1 x24567 -1 x24568 >= 0 ;
+2 x24809 +2 x24810 +2 x24811 +2 x24812 -1 x24565 -1 x24566 -1 x24567 -1 x24568 -1 x24569 -1 x24570 -1 x24571 -1 x24572 >= 0 ;
+2 x24813 +2 x24814 +2 x24815 +2 x24816 -1 x24569 -1 x24570 -1 x24571 -1 x24572 -1 x24573 -1 x24574 -1 x24575 -1 x24576 >= 0 ;
+2 x24817 +2 x24818 +2 x24819 +2 x24820 -1 x24573 -1 x24574 -1 x24575 -1 x24576 -1 x24577 -1 x24578 -1 x24579 -1 x24580 >= 0 ;
+2 x24821 +2 x24822 +2 x24823 +2 x24824 -1 x24577 -1 x24578 -1 x24579 -1 x24580 -1 x24581 -1 x24582 -1 x24583 -1 x24584 >= 0 ;
+2 x24825 +2 x24826 +2 x24827 +2 x24828 -1 x24581 -1 x24582 -1 x24583 -1 x24584 -1 x24585 -1 x24586 -1 x24587 -1 x24588 >= 0 ;
+2 x24829 +2 x24830 +2 x24831 +2 x24832 -1 x24585 -1 x24586 -1 x24587 -1 x24588 -1 x24589 -1 x24590 -1 x24591 -1 x24592 >= 0 ;
+2 x24833 +2 x24834 +2 x24835 +2 x24836 -1 x24589 -1 x24590 -1 x24591 -1 x24592 -1 x24593 -1 x24594 -1 x24595 -1 x24596 >= 0 ;
+2 x24837 +2 x24838 +2 x24839 +2 x24840 -1 x24593 -1 x24594 -1 x24595 -1 x24596 -1 x24597 -1 x24598 -1 x24599 -1 x24600 >= 0 ;
+2 x24841 +2 x24842 +2 x24843 +2 x24844 -1 x24597 -1 x24598 -1 x24599 -1 x24600 -1 x24601 -1 x24602 -1 x24603 -1 x24604 >= 0 ;
+2 x24845 +2 x24846 +2 x24847 +2 x24848 -1 x24601 -1 x24602 -1 x24603 -1 x24604 -1 x24605 -1 x24606 -1 x24607 -1 x24608 >= 0 ;
+2 x24849 +2 x24850 +2 x24851 +2 x24852 -1 x24605 -1 x24606 -1 x24607 -1 x24608 -1 x24609 -1 x24610 -1 x24611 -1 x24612 >= 0 ;
+2 x24853 +2 x24854 +2 x24855 +2 x24856 -1 x24609 -1 x24610 -1 x24611 -1 x24612 -1 x24613 -1 x24614 -1 x24615 -1 x24616 >= 0 ;
+2 x24857 +2 x24858 +2 x24859 +2 x24860 -1 x24613 -1 x24614 -1 x24615 -1 x24616 -1 x24617 -1 x24618 -1 x24619 -1 x24620 >= 0 ;
+2 x24861 +2 x24862 +2 x24863 +2 x24864 -1 x24617 -1 x24618 -1 x24619 -1 x24620 -1 x24621 -1 x24622 -1 x24623 -1 x24624 >= 0 ;
+2 x24865 +2 x24866 +2 x24867 +2 x24868 -1 x24621 -1 x24622 -1 x24623 -1 x24624 -1 x24625 -1 x24626 -1 x24627 -1 x24628 >= 0 ;
+2 x24869 +2 x24870 +2 x24871 +2 x24872 -1 x24625 -1 x24626 -1 x24627 -1 x24628 -1 x24629 -1 x24630 -1 x24631 -1 x24632 >= 0 ;
+2 x24873 +2 x24874 +2 x24875 +2 x24876 -1 x24629 -1 x24630 -1 x24631 -1 x24632 -1 x24633 -1 x24634 -1 x24635 -1 x24636 >= 0 ;
+2 x24877 +2 x24878 +2 x24879 +2 x24880 -1 x24633 -1 x24634 -1 x24635 -1 x24636 -1 x24637 -1 x24638 -1 x24639 -1 x24640 >= 0 ;
+2 x24881 +2 x24882 +2 x24883 +2 x24884 -1 x24637 -1 x24638 -1 x24639 -1 x24640 -1 x24641 -1 x24642 -1 x24643 -1 x24644 >= 0 ;
+2 x24885 +2 x24886 +2 x24887 +2 x24888 -1 x24641 -1 x24642 -1 x24643 -1 x24644 -1 x24645 -1 x24646 -1 x24647 -1 x24648 >= 0 ;
+2 x24889 +2 x24890 +2 x24891 +2 x24892 -1 x24645 -1 x24646 -1 x24647 -1 x24648 -1 x24649 -1 x24650 -1 x24651 -1 x24652 >= 0 ;
+2 x24893 +2 x24894 +2 x24895 +2 x24896 -1 x24649 -1 x24650 -1 x24651 -1 x24652 -1 x24653 -1 x24654 -1 x24655 -1 x24656 >= 0 ;
+2 x24897 +2 x24898 +2 x24899 +2 x24900 -1 x24653 -1 x24654 -1 x24655 -1 x24656 -1 x24657 -1 x24658 -1 x24659 -1 x24660 >= 0 ;
+2 x24901 +2 x24902 +2 x24903 +2 x24904 -1 x24657 -1 x24658 -1 x24659 -1 x24660 -1 x24661 -1 x24662 -1 x24663 -1 x24664 >= 0 ;
+2 x24905 +2 x24906 +2 x24907 +2 x24908 -1 x24661 -1 x24662 -1 x24663 -1 x24664 -1 x24665 -1 x24666 -1 x24667 -1 x24668 >= 0 ;
+2 x24909 +2 x24910 +2 x24911 +2 x24912 -1 x24665 -1 x24666 -1 x24667 -1 x24668 -1 x24669 -1 x24670 -1 x24671 -1 x24672 >= 0 ;
+2 x24913 +2 x24914 +2 x24915 +2 x24916 -1 x24669 -1 x24670 -1 x24671 -1 x24672 -1 x24673 -1 x24674 -1 x24675 -1 x24676 >= 0 ;
+2 x24917 +2 x24918 +2 x24919 +2 x24920 -1 x24673 -1 x24674 -1 x24675 -1 x24676 -1 x24677 -1 x24678 -1 x24679 -1 x24680 >= 0 ;
+2 x24921 +2 x24922 +2 x24923 +2 x24924 -1 x24677 -1 x24678 -1 x24679 -1 x24680 -1 x24681 -1 x24682 -1 x24683 -1 x24684 >= 0 ;
+2 x24925 +2 x24926 +2 x24927 +2 x24928 -1 x24685 -1 x24686 -1 x24687 -1 x24688 -1 x24689 -1 x24690 -1 x24691 -1 x24692 >= 0 ;
+2 x24929 +2 x24930 +2 x24931 +2 x24932 -1 x24689 -1 x24690 -1 x24691 -1 x24692 -1 x24693 -1 x24694 -1 x24695 -1 x24696 >= 0 ;
+2 x24933 +2 x24934 +2 x24935 +2 x24936 -1 x24693 -1 x24694 -1 x24695 -1 x24696 -1 x24697 -1 x24698 -1 x24699 -1 x24700 >= 0 ;
+2 x24937 +2 x24938 +2 x24939 +2 x24940 -1 x24697 -1 x24698 -1 x24699 -1 x24700 -1 x24701 -1 x24702 -1 x24703 -1 x24704 >= 0 ;
+2 x24941 +2 x24942 +2 x24943 +2 x24944 -1 x24701 -1 x24702 -1 x24703 -1 x24704 -1 x24705 -1 x24706 -1 x24707 -1 x24708 >= 0 ;
+2 x24945 +2 x24946 +2 x24947 +2 x24948 -1 x24705 -1 x24706 -1 x24707 -1 x24708 -1 x24709 -1 x24710 -1 x24711 -1 x24712 >= 0 ;
+2 x24949 +2 x24950 +2 x24951 +2 x24952 -1 x24709 -1 x24710 -1 x24711 -1 x24712 -1 x24713 -1 x24714 -1 x24715 -1 x24716 >= 0 ;
+2 x24953 +2 x24954 +2 x24955 +2 x24956 -1 x24713 -1 x24714 -1 x24715 -1 x24716 -1 x24717 -1 x24718 -1 x24719 -1 x24720 >= 0 ;
+2 x24957 +2 x24958 +2 x24959 +2 x24960 -1 x24717 -1 x24718 -1 x24719 -1 x24720 -1 x24721 -1 x24722 -1 x24723 -1 x24724 >= 0 ;
+2 x24961 +2 x24962 +2 x24963 +2 x24964 -1 x24721 -1 x24722 -1 x24723 -1 x24724 -1 x24725 -1 x24726 -1 x24727 -1 x24728 >= 0 ;
+2 x24965 +2 x24966 +2 x24967 +2 x24968 -1 x24725 -1 x24726 -1 x24727 -1 x24728 -1 x24729 -1 x24730 -1 x24731 -1 x24732 >= 0 ;
+2 x24969 +2 x24970 +2 x24971 +2 x24972 -1 x24729 -1 x24730 -1 x24731 -1 x24732 -1 x24733 -1 x24734 -1 x24735 -1 x24736 >= 0 ;
+2 x24973 +2 x24974 +2 x24975 +2 x24976 -1 x24733 -1 x24734 -1 x24735 -1 x24736 -1 x24737 -1 x24738 -1 x24739 -1 x24740 >= 0 ;
+2 x24977 +2 x24978 +2 x24979 +2 x24980 -1 x24737 -1 x24738 -1 x24739 -1 x24740 -1 x24741 -1 x24742 -1 x24743 -1 x24744 >= 0 ;
+2 x24981 +2 x24982 +2 x24983 +2 x24984 -1 x24741 -1 x24742 -1 x24743 -1 x24744 -1 x24745 -1 x24746 -1 x24747 -1 x24748 >= 0 ;
+2 x24985 +2 x24986 +2 x24987 +2 x24988 -1 x24745 -1 x24746 -1 x24747 -1 x24748 -1 x24749 -1 x24750 -1 x24751 -1 x24752 >= 0 ;
+2 x24989 +2 x24990 +2 x24991 +2 x24992 -1 x24749 -1 x24750 -1 x24751 -1 x24752 -1 x24753 -1 x24754 -1 x24755 -1 x24756 >= 0 ;
+2 x24993 +2 x24994 +2 x24995 +2 x24996 -1 x24753 -1 x24754 -1 x24755 -1 x24756 -1 x24757 -1 x24758 -1 x24759 -1 x24760 >= 0 ;
+2 x24997 +2 x24998 +2 x24999 +2 x25000 -1 x24757 -1 x24758 -1 x24759 -1 x24760 -1 x24761 -1 x24762 -1 x24763 -1 x24764 >= 0 ;
+2 x25001 +2 x25002 +2 x25003 +2 x25004 -1 x24761 -1 x24762 -1 x24763 -1 x24764 -1 x24765 -1 x24766 -1 x24767 -1 x24768 >= 0 ;
+2 x25005 +2 x25006 +2 x25007 +2 x25008 -1 x24765 -1 x24766 -1 x24767 -1 x24768 -1 x24769 -1 x24770 -1 x24771 -1 x24772 >= 0 ;
+2 x25009 +2 x25010 +2 x25011 +2 x25012 -1 x24769 -1 x24770 -1 x24771 -1 x24772 -1 x24773 -1 x24774 -1 x24775 -1 x24776 >= 0 ;
+2 x25013 +2 x25014 +2 x25015 +2 x25016 -1 x24773 -1 x24774 -1 x24775 -1 x24776 -1 x24777 -1 x24778 -1 x24779 -1 x24780 >= 0 ;
+2 x25017 +2 x25018 +2 x25019 +2 x25020 -1 x24777 -1 x24778 -1 x24779 -1 x24780 -1 x24781 -1 x24782 -1 x24783 -1 x24784 >= 0 ;
+2 x25021 +2 x25022 +2 x25023 +2 x25024 -1 x24781 -1 x24782 -1 x24783 -1 x24784 -1 x24785 -1 x24786 -1 x24787 -1 x24788 >= 0 ;
+2 x25025 +2 x25026 +2 x25027 +2 x25028 -1 x24785 -1 x24786 -1 x24787 -1 x24788 -1 x24789 -1 x24790 -1 x24791 -1 x24792 >= 0 ;
+2 x25029 +2 x25030 +2 x25031 +2 x25032 -1 x24789 -1 x24790 -1 x24791 -1 x24792 -1 x24793 -1 x24794 -1 x24795 -1 x24796 >= 0 ;
+2 x25033 +2 x25034 +2 x25035 +2 x25036 -1 x24793 -1 x24794 -1 x24795 -1 x24796 -1 x24797 -1 x24798 -1 x24799 -1 x24800 >= 0 ;
+2 x25037 +2 x25038 +2 x25039 +2 x25040 -1 x24797 -1 x24798 -1 x24799 -1 x24800 -1 x24801 -1 x24802 -1 x24803 -1 x24804 >= 0 ;
+2 x25041 +2 x25042 +2 x25043 +2 x25044 -1 x24801 -1 x24802 -1 x24803 -1 x24804 -1 x24805 -1 x24806 -1 x24807 -1 x24808 >= 0 ;
+2 x25045 +2 x25046 +2 x25047 +2 x25048 -1 x24805 -1 x24806 -1 x24807 -1 x24808 -1 x24809 -1 x24810 -1 x24811 -1 x24812 >= 0 ;
+2 x25049 +2 x25050 +2 x25051 +2 x25052 -1 x24809 -1 x24810 -1 x24811 -1 x24812 -1 x24813 -1 x24814 -1 x24815 -1 x24816 >= 0 ;
+2 x25053 +2 x25054 +2 x25055 +2 x25056 -1 x24813 -1 x24814 -1 x24815 -1 x24816 -1 x24817 -1 x24818 -1 x24819 -1 x24820 >= 0 ;
+2 x25057 +2 x25058 +2 x25059 +2 x25060 -1 x24817 -1 x24818 -1 x24819 -1 x24820 -1 x24821 -1 x24822 -1 x24823 -1 x24824 >= 0 ;
+2 x25061 +2 x25062 +2 x25063 +2 x25064 -1 x24821 -1 x24822 -1 x24823 -1 x24824 -1 x24825 -1 x24826 -1 x24827 -1 x24828 >= 0 ;
+2 x25065 +2 x25066 +2 x25067 +2 x25068 -1 x24825 -1 x24826 -1 x24827 -1 x24828 -1 x24829 -1 x24830 -1 x24831 -1 x24832 >= 0 ;
+2 x25069 +2 x25070 +2 x25071 +2 x25072 -1 x24829 -1 x24830 -1 x24831 -1 x24832 -1 x24833 -1 x24834 -1 x24835 -1 x24836 >= 0 ;
+2 x25073 +2 x25074 +2 x25075 +2 x25076 -1 x24833 -1 x24834 -1 x24835 -1 x24836 -1 x24837 -1 x24838 -1 x24839 -1 x24840 >= 0 ;
+2 x25077 +2 x25078 +2 x25079 +2 x25080 -1 x24837 -1 x24838 -1 x24839 -1 x24840 -1 x24841 -1 x24842 -1 x24843 -1 x24844 >= 0 ;
+2 x25081 +2 x25082 +2 x25083 +2 x25084 -1 x24841 -1 x24842 -1 x24843 -1 x24844 -1 x24845 -1 x24846 -1 x24847 -1 x24848 >= 0 ;
+2 x25085 +2 x25086 +2 x25087 +2 x25088 -1 x24845 -1 x24846 -1 x24847 -1 x24848 -1 x24849 -1 x24850 -1 x24851 -1 x24852 >= 0 ;
+2 x25089 +2 x25090 +2 x25091 +2 x25092 -1 x24849 -1 x24850 -1 x24851 -1 x24852 -1 x24853 -1 x24854 -1 x24855 -1 x24856 >= 0 ;
+2 x25093 +2 x25094 +2 x25095 +2 x25096 -1 x24853 -1 x24854 -1 x24855 -1 x24856 -1 x24857 -1 x24858 -1 x24859 -1 x24860 >= 0 ;
+2 x25097 +2 x25098 +2 x25099 +2 x25100 -1 x24857 -1 x24858 -1 x24859 -1 x24860 -1 x24861 -1 x24862 -1 x24863 -1 x24864 >= 0 ;
+2 x25101 +2 x25102 +2 x25103 +2 x25104 -1 x24861 -1 x24862 -1 x24863 -1 x24864 -1 x24865 -1 x24866 -1 x24867 -1 x24868 >= 0 ;
+2 x25105 +2 x25106 +2 x25107 +2 x25108 -1 x24865 -1 x24866 -1 x24867 -1 x24868 -1 x24869 -1 x24870 -1 x24871 -1 x24872 >= 0 ;
+2 x25109 +2 x25110 +2 x25111 +2 x25112 -1 x24869 -1 x24870 -1 x24871 -1 x24872 -1 x24873 -1 x24874 -1 x24875 -1 x24876 >= 0 ;
+2 x25113 +2 x25114 +2 x25115 +2 x25116 -1 x24873 -1 x24874 -1 x24875 -1 x24876 -1 x24877 -1 x24878 -1 x24879 -1 x24880 >= 0 ;
+2 x25117 +2 x25118 +2 x25119 +2 x25120 -1 x24877 -1 x24878 -1 x24879 -1 x24880 -1 x24881 -1 x24882 -1 x24883 -1 x24884 >= 0 ;
+2 x25121 +2 x25122 +2 x25123 +2 x25124 -1 x24881 -1 x24882 -1 x24883 -1 x24884 -1 x24885 -1 x24886 -1 x24887 -1 x24888 >= 0 ;
+2 x25125 +2 x25126 +2 x25127 +2 x25128 -1 x24885 -1 x24886 -1 x24887 -1 x24888 -1 x24889 -1 x24890 -1 x24891 -1 x24892 >= 0 ;
+2 x25129 +2 x25130 +2 x25131 +2 x25132 -1 x24889 -1 x24890 -1 x24891 -1 x24892 -1 x24893 -1 x24894 -1 x24895 -1 x24896 >= 0 ;
+2 x25133 +2 x25134 +2 x25135 +2 x25136 -1 x24893 -1 x24894 -1 x24895 -1 x24896 -1 x24897 -1 x24898 -1 x24899 -1 x24900 >= 0 ;
+2 x25137 +2 x25138 +2 x25139 +2 x25140 -1 x24897 -1 x24898 -1 x24899 -1 x24900 -1 x24901 -1 x24902 -1 x24903 -1 x24904 >= 0 ;
+2 x25141 +2 x25142 +2 x25143 +2 x25144 -1 x24901 -1 x24902 -1 x24903 -1 x24904 -1 x24905 -1 x24906 -1 x24907 -1 x24908 >= 0 ;
+2 x25145 +2 x25146 +2 x25147 +2 x25148 -1 x24905 -1 x24906 -1 x24907 -1 x24908 -1 x24909 -1 x24910 -1 x24911 -1 x24912 >= 0 ;
+2 x25149 +2 x25150 +2 x25151 +2 x25152 -1 x24909 -1 x24910 -1 x24911 -1 x24912 -1 x24913 -1 x24914 -1 x24915 -1 x24916 >= 0 ;
+2 x25153 +2 x25154 +2 x25155 +2 x25156 -1 x24913 -1 x24914 -1 x24915 -1 x24916 -1 x24917 -1 x24918 -1 x24919 -1 x24920 >= 0 ;
+2 x25157 +2 x25158 +2 x25159 +2 x25160 -1 x24917 -1 x24918 -1 x24919 -1 x24920 -1 x24921 -1 x24922 -1 x24923 -1 x24924 >= 0 ;
+2 x25161 +2 x25162 +2 x25163 +2 x25164 -1 x24925 -1 x24926 -1 x24927 -1 x24928 -1 x24929 -1 x24930 -1 x24931 -1 x24932 >= 0 ;
+2 x25165 +2 x25166 +2 x25167 +2 x25168 -1 x24929 -1 x24930 -1 x24931 -1 x24932 -1 x24933 -1 x24934 -1 x24935 -1 x24936 >= 0 ;
+2 x25169 +2 x25170 +2 x25171 +2 x25172 -1 x24933 -1 x24934 -1 x24935 -1 x24936 -1 x24937 -1 x24938 -1 x24939 -1 x24940 >= 0 ;
+2 x25173 +2 x25174 +2 x25175 +2 x25176 -1 x24937 -1 x24938 -1 x24939 -1 x24940 -1 x24941 -1 x24942 -1 x24943 -1 x24944 >= 0 ;
+2 x25177 +2 x25178 +2 x25179 +2 x25180 -1 x24941 -1 x24942 -1 x24943 -1 x24944 -1 x24945 -1 x24946 -1 x24947 -1 x24948 >= 0 ;
+2 x25181 +2 x25182 +2 x25183 +2 x25184 -1 x24945 -1 x24946 -1 x24947 -1 x24948 -1 x24949 -1 x24950 -1 x24951 -1 x24952 >= 0 ;
+2 x25185 +2 x25186 +2 x25187 +2 x25188 -1 x24949 -1 x24950 -1 x24951 -1 x24952 -1 x24953 -1 x24954 -1 x24955 -1 x24956 >= 0 ;
+2 x25189 +2 x25190 +2 x25191 +2 x25192 -1 x24953 -1 x24954 -1 x24955 -1 x24956 -1 x24957 -1 x24958 -1 x24959 -1 x24960 >= 0 ;
+2 x25193 +2 x25194 +2 x25195 +2 x25196 -1 x24957 -1 x24958 -1 x24959 -1 x24960 -1 x24961 -1 x24962 -1 x24963 -1 x24964 >= 0 ;
+2 x25197 +2 x25198 +2 x25199 +2 x25200 -1 x24961 -1 x24962 -1 x24963 -1 x24964 -1 x24965 -1 x24966 -1 x24967 -1 x24968 >= 0 ;
+2 x25201 +2 x25202 +2 x25203 +2 x25204 -1 x24965 -1 x24966 -1 x24967 -1 x24968 -1 x24969 -1 x24970 -1 x24971 -1 x24972 >= 0 ;
+2 x25205 +2 x25206 +2 x25207 +2 x25208 -1 x24969 -1 x24970 -1 x24971 -1 x24972 -1 x24973 -1 x24974 -1 x24975 -1 x24976 >= 0 ;
+2 x25209 +2 x25210 +2 x25211 +2 x25212 -1 x24973 -1 x24974 -1 x24975 -1 x24976 -1 x24977 -1 x24978 -1 x24979 -1 x24980 >= 0 ;
+2 x25213 +2 x25214 +2 x25215 +2 x25216 -1 x24977 -1 x24978 -1 x24979 -1 x24980 -1 x24981 -1 x24982 -1 x24983 -1 x24984 >= 0 ;
+2 x25217 +2 x25218 +2 x25219 +2 x25220 -1 x24981 -1 x24982 -1 x24983 -1 x24984 -1 x24985 -1 x24986 -1 x24987 -1 x24988 >= 0 ;
+2 x25221 +2 x25222 +2 x25223 +2 x25224 -1 x24985 -1 x24986 -1 x24987 -1 x24988 -1 x24989 -1 x24990 -1 x24991 -1 x24992 >= 0 ;
+2 x25225 +2 x25226 +2 x25227 +2 x25228 -1 x24989 -1 x24990 -1 x24991 -1 x24992 -1 x24993 -1 x24994 -1 x24995 -1 x24996 >= 0 ;
+2 x25229 +2 x25230 +2 x25231 +2 x25232 -1 x24993 -1 x24994 -1 x24995 -1 x24996 -1 x24997 -1 x24998 -1 x24999 -1 x25000 >= 0 ;
+2 x25233 +2 x25234 +2 x25235 +2 x25236 -1 x24997 -1 x24998 -1 x24999 -1 x25000 -1 x25001 -1 x25002 -1 x25003 -1 x25004 >= 0 ;
+2 x25237 +2 x25238 +2 x25239 +2 x25240 -1 x25001 -1 x25002 -1 x25003 -1 x25004 -1 x25005 -1 x25006 -1 x25007 -1 x25008 >= 0 ;
+2 x25241 +2 x25242 +2 x25243 +2 x25244 -1 x25005 -1 x25006 -1 x25007 -1 x25008 -1 x25009 -1 x25010 -1 x25011 -1 x25012 >= 0 ;
+2 x25245 +2 x25246 +2 x25247 +2 x25248 -1 x25009 -1 x25010 -1 x25011 -1 x25012 -1 x25013 -1 x25014 -1 x25015 -1 x25016 >= 0 ;
+2 x25249 +2 x25250 +2 x25251 +2 x25252 -1 x25013 -1 x25014 -1 x25015 -1 x25016 -1 x25017 -1 x25018 -1 x25019 -1 x25020 >= 0 ;
+2 x25253 +2 x25254 +2 x25255 +2 x25256 -1 x25017 -1 x25018 -1 x25019 -1 x25020 -1 x25021 -1 x25022 -1 x25023 -1 x25024 >= 0 ;
+2 x25257 +2 x25258 +2 x25259 +2 x25260 -1 x25021 -1 x25022 -1 x25023 -1 x25024 -1 x25025 -1 x25026 -1 x25027 -1 x25028 >= 0 ;
+2 x25261 +2 x25262 +2 x25263 +2 x25264 -1 x25025 -1 x25026 -1 x25027 -1 x25028 -1 x25029 -1 x25030 -1 x25031 -1 x25032 >= 0 ;
+2 x25265 +2 x25266 +2 x25267 +2 x25268 -1 x25029 -1 x25030 -1 x25031 -1 x25032 -1 x25033 -1 x25034 -1 x25035 -1 x25036 >= 0 ;
+2 x25269 +2 x25270 +2 x25271 +2 x25272 -1 x25033 -1 x25034 -1 x25035 -1 x25036 -1 x25037 -1 x25038 -1 x25039 -1 x25040 >= 0 ;
+2 x25273 +2 x25274 +2 x25275 +2 x25276 -1 x25037 -1 x25038 -1 x25039 -1 x25040 -1 x25041 -1 x25042 -1 x25043 -1 x25044 >= 0 ;
+2 x25277 +2 x25278 +2 x25279 +2 x25280 -1 x25041 -1 x25042 -1 x25043 -1 x25044 -1 x25045 -1 x25046 -1 x25047 -1 x25048 >= 0 ;
+2 x25281 +2 x25282 +2 x25283 +2 x25284 -1 x25045 -1 x25046 -1 x25047 -1 x25048 -1 x25049 -1 x25050 -1 x25051 -1 x25052 >= 0 ;
+2 x25285 +2 x25286 +2 x25287 +2 x25288 -1 x25049 -1 x25050 -1 x25051 -1 x25052 -1 x25053 -1 x25054 -1 x25055 -1 x25056 >= 0 ;
+2 x25289 +2 x25290 +2 x25291 +2 x25292 -1 x25053 -1 x25054 -1 x25055 -1 x25056 -1 x25057 -1 x25058 -1 x25059 -1 x25060 >= 0 ;
+2 x25293 +2 x25294 +2 x25295 +2 x25296 -1 x25057 -1 x25058 -1 x25059 -1 x25060 -1 x25061 -1 x25062 -1 x25063 -1 x25064 >= 0 ;
+2 x25297 +2 x25298 +2 x25299 +2 x25300 -1 x25061 -1 x25062 -1 x25063 -1 x25064 -1 x25065 -1 x25066 -1 x25067 -1 x25068 >= 0 ;
+2 x25301 +2 x25302 +2 x25303 +2 x25304 -1 x25065 -1 x25066 -1 x25067 -1 x25068 -1 x25069 -1 x25070 -1 x25071 -1 x25072 >= 0 ;
+2 x25305 +2 x25306 +2 x25307 +2 x25308 -1 x25069 -1 x25070 -1 x25071 -1 x25072 -1 x25073 -1 x25074 -1 x25075 -1 x25076 >= 0 ;
+2 x25309 +2 x25310 +2 x25311 +2 x25312 -1 x25073 -1 x25074 -1 x25075 -1 x25076 -1 x25077 -1 x25078 -1 x25079 -1 x25080 >= 0 ;
+2 x25313 +2 x25314 +2 x25315 +2 x25316 -1 x25077 -1 x25078 -1 x25079 -1 x25080 -1 x25081 -1 x25082 -1 x25083 -1 x25084 >= 0 ;
+2 x25317 +2 x25318 +2 x25319 +2 x25320 -1 x25081 -1 x25082 -1 x25083 -1 x25084 -1 x25085 -1 x25086 -1 x25087 -1 x25088 >= 0 ;
+2 x25321 +2 x25322 +2 x25323 +2 x25324 -1 x25085 -1 x25086 -1 x25087 -1 x25088 -1 x25089 -1 x25090 -1 x25091 -1 x25092 >= 0 ;
+2 x25325 +2 x25326 +2 x25327 +2 x25328 -1 x25089 -1 x25090 -1 x25091 -1 x25092 -1 x25093 -1 x25094 -1 x25095 -1 x25096 >= 0 ;
+2 x25329 +2 x25330 +2 x25331 +2 x25332 -1 x25093 -1 x25094 -1 x25095 -1 x25096 -1 x25097 -1 x25098 -1 x25099 -1 x25100 >= 0 ;
+2 x25333 +2 x25334 +2 x25335 +2 x25336 -1 x25097 -1 x25098 -1 x25099 -1 x25100 -1 x25101 -1 x25102 -1 x25103 -1 x25104 >= 0 ;
+2 x25337 +2 x25338 +2 x25339 +2 x25340 -1 x25101 -1 x25102 -1 x25103 -1 x25104 -1 x25105 -1 x25106 -1 x25107 -1 x25108 >= 0 ;
+2 x25341 +2 x25342 +2 x25343 +2 x25344 -1 x25105 -1 x25106 -1 x25107 -1 x25108 -1 x25109 -1 x25110 -1 x25111 -1 x25112 >= 0 ;
+2 x25345 +2 x25346 +2 x25347 +2 x25348 -1 x25109 -1 x25110 -1 x25111 -1 x25112 -1 x25113 -1 x25114 -1 x25115 -1 x25116 >= 0 ;
+2 x25349 +2 x25350 +2 x25351 +2 x25352 -1 x25113 -1 x25114 -1 x25115 -1 x25116 -1 x25117 -1 x25118 -1 x25119 -1 x25120 >= 0 ;
+2 x25353 +2 x25354 +2 x25355 +2 x25356 -1 x25117 -1 x25118 -1 x25119 -1 x25120 -1 x25121 -1 x25122 -1 x25123 -1 x25124 >= 0 ;
+2 x25357 +2 x25358 +2 x25359 +2 x25360 -1 x25121 -1 x25122 -1 x25123 -1 x25124 -1 x25125 -1 x25126 -1 x25127 -1 x25128 >= 0 ;
+2 x25361 +2 x25362 +2 x25363 +2 x25364 -1 x25125 -1 x25126 -1 x25127 -1 x25128 -1 x25129 -1 x25130 -1 x25131 -1 x25132 >= 0 ;
+2 x25365 +2 x25366 +2 x25367 +2 x25368 -1 x25129 -1 x25130 -1 x25131 -1 x25132 -1 x25133 -1 x25134 -1 x25135 -1 x25136 >= 0 ;
+2 x25369 +2 x25370 +2 x25371 +2 x25372 -1 x25133 -1 x25134 -1 x25135 -1 x25136 -1 x25137 -1 x25138 -1 x25139 -1 x25140 >= 0 ;
+2 x25373 +2 x25374 +2 x25375 +2 x25376 -1 x25137 -1 x25138 -1 x25139 -1 x25140 -1 x25141 -1 x25142 -1 x25143 -1 x25144 >= 0 ;
+2 x25377 +2 x25378 +2 x25379 +2 x25380 -1 x25141 -1 x25142 -1 x25143 -1 x25144 -1 x25145 -1 x25146 -1 x25147 -1 x25148 >= 0 ;
+2 x25381 +2 x25382 +2 x25383 +2 x25384 -1 x25145 -1 x25146 -1 x25147 -1 x25148 -1 x25149 -1 x25150 -1 x25151 -1 x25152 >= 0 ;
+2 x25385 +2 x25386 +2 x25387 +2 x25388 -1 x25149 -1 x25150 -1 x25151 -1 x25152 -1 x25153 -1 x25154 -1 x25155 -1 x25156 >= 0 ;
+2 x25389 +2 x25390 +2 x25391 +2 x25392 -1 x25153 -1 x25154 -1 x25155 -1 x25156 -1 x25157 -1 x25158 -1 x25159 -1 x25160 >= 0 ;
+2 x25393 +2 x25394 +2 x25395 +2 x25396 -1 x25161 -1 x25162 -1 x25163 -1 x25164 -1 x25165 -1 x25166 -1 x25167 -1 x25168 >= 0 ;
+2 x25397 +2 x25398 +2 x25399 +2 x25400 -1 x25165 -1 x25166 -1 x25167 -1 x25168 -1 x25169 -1 x25170 -1 x25171 -1 x25172 >= 0 ;
+2 x25401 +2 x25402 +2 x25403 +2 x25404 -1 x25169 -1 x25170 -1 x25171 -1 x25172 -1 x25173 -1 x25174 -1 x25175 -1 x25176 >= 0 ;
+2 x25405 +2 x25406 +2 x25407 +2 x25408 -1 x25173 -1 x25174 -1 x25175 -1 x25176 -1 x25177 -1 x25178 -1 x25179 -1 x25180 >= 0 ;
+2 x25409 +2 x25410 +2 x25411 +2 x25412 -1 x25177 -1 x25178 -1 x25179 -1 x25180 -1 x25181 -1 x25182 -1 x25183 -1 x25184 >= 0 ;
+2 x25413 +2 x25414 +2 x25415 +2 x25416 -1 x25181 -1 x25182 -1 x25183 -1 x25184 -1 x25185 -1 x25186 -1 x25187 -1 x25188 >= 0 ;
+2 x25417 +2 x25418 +2 x25419 +2 x25420 -1 x25185 -1 x25186 -1 x25187 -1 x25188 -1 x25189 -1 x25190 -1 x25191 -1 x25192 >= 0 ;
+2 x25421 +2 x25422 +2 x25423 +2 x25424 -1 x25189 -1 x25190 -1 x25191 -1 x25192 -1 x25193 -1 x25194 -1 x25195 -1 x25196 >= 0 ;
+2 x25425 +2 x25426 +2 x25427 +2 x25428 -1 x25193 -1 x25194 -1 x25195 -1 x25196 -1 x25197 -1 x25198 -1 x25199 -1 x25200 >= 0 ;
+2 x25429 +2 x25430 +2 x25431 +2 x25432 -1 x25197 -1 x25198 -1 x25199 -1 x25200 -1 x25201 -1 x25202 -1 x25203 -1 x25204 >= 0 ;
+2 x25433 +2 x25434 +2 x25435 +2 x25436 -1 x25201 -1 x25202 -1 x25203 -1 x25204 -1 x25205 -1 x25206 -1 x25207 -1 x25208 >= 0 ;
+2 x25437 +2 x25438 +2 x25439 +2 x25440 -1 x25205 -1 x25206 -1 x25207 -1 x25208 -1 x25209 -1 x25210 -1 x25211 -1 x25212 >= 0 ;
+2 x25441 +2 x25442 +2 x25443 +2 x25444 -1 x25209 -1 x25210 -1 x25211 -1 x25212 -1 x25213 -1 x25214 -1 x25215 -1 x25216 >= 0 ;
+2 x25445 +2 x25446 +2 x25447 +2 x25448 -1 x25213 -1 x25214 -1 x25215 -1 x25216 -1 x25217 -1 x25218 -1 x25219 -1 x25220 >= 0 ;
+2 x25449 +2 x25450 +2 x25451 +2 x25452 -1 x25217 -1 x25218 -1 x25219 -1 x25220 -1 x25221 -1 x25222 -1 x25223 -1 x25224 >= 0 ;
+2 x25453 +2 x25454 +2 x25455 +2 x25456 -1 x25221 -1 x25222 -1 x25223 -1 x25224 -1 x25225 -1 x25226 -1 x25227 -1 x25228 >= 0 ;
+2 x25457 +2 x25458 +2 x25459 +2 x25460 -1 x25225 -1 x25226 -1 x25227 -1 x25228 -1 x25229 -1 x25230 -1 x25231 -1 x25232 >= 0 ;
+2 x25461 +2 x25462 +2 x25463 +2 x25464 -1 x25229 -1 x25230 -1 x25231 -1 x25232 -1 x25233 -1 x25234 -1 x25235 -1 x25236 >= 0 ;
+2 x25465 +2 x25466 +2 x25467 +2 x25468 -1 x25233 -1 x25234 -1 x25235 -1 x25236 -1 x25237 -1 x25238 -1 x25239 -1 x25240 >= 0 ;
+2 x25469 +2 x25470 +2 x25471 +2 x25472 -1 x25237 -1 x25238 -1 x25239 -1 x25240 -1 x25241 -1 x25242 -1 x25243 -1 x25244 >= 0 ;
+2 x25473 +2 x25474 +2 x25475 +2 x25476 -1 x25241 -1 x25242 -1 x25243 -1 x25244 -1 x25245 -1 x25246 -1 x25247 -1 x25248 >= 0 ;
+2 x25477 +2 x25478 +2 x25479 +2 x25480 -1 x25245 -1 x25246 -1 x25247 -1 x25248 -1 x25249 -1 x25250 -1 x25251 -1 x25252 >= 0 ;
+2 x25481 +2 x25482 +2 x25483 +2 x25484 -1 x25249 -1 x25250 -1 x25251 -1 x25252 -1 x25253 -1 x25254 -1 x25255 -1 x25256 >= 0 ;
+2 x25485 +2 x25486 +2 x25487 +2 x25488 -1 x25253 -1 x25254 -1 x25255 -1 x25256 -1 x25257 -1 x25258 -1 x25259 -1 x25260 >= 0 ;
+2 x25489 +2 x25490 +2 x25491 +2 x25492 -1 x25257 -1 x25258 -1 x25259 -1 x25260 -1 x25261 -1 x25262 -1 x25263 -1 x25264 >= 0 ;
+2 x25493 +2 x25494 +2 x25495 +2 x25496 -1 x25261 -1 x25262 -1 x25263 -1 x25264 -1 x25265 -1 x25266 -1 x25267 -1 x25268 >= 0 ;
+2 x25497 +2 x25498 +2 x25499 +2 x25500 -1 x25265 -1 x25266 -1 x25267 -1 x25268 -1 x25269 -1 x25270 -1 x25271 -1 x25272 >= 0 ;
+2 x25501 +2 x25502 +2 x25503 +2 x25504 -1 x25269 -1 x25270 -1 x25271 -1 x25272 -1 x25273 -1 x25274 -1 x25275 -1 x25276 >= 0 ;
+2 x25505 +2 x25506 +2 x25507 +2 x25508 -1 x25273 -1 x25274 -1 x25275 -1 x25276 -1 x25277 -1 x25278 -1 x25279 -1 x25280 >= 0 ;
+2 x25509 +2 x25510 +2 x25511 +2 x25512 -1 x25277 -1 x25278 -1 x25279 -1 x25280 -1 x25281 -1 x25282 -1 x25283 -1 x25284 >= 0 ;
+2 x25513 +2 x25514 +2 x25515 +2 x25516 -1 x25281 -1 x25282 -1 x25283 -1 x25284 -1 x25285 -1 x25286 -1 x25287 -1 x25288 >= 0 ;
+2 x25517 +2 x25518 +2 x25519 +2 x25520 -1 x25285 -1 x25286 -1 x25287 -1 x25288 -1 x25289 -1 x25290 -1 x25291 -1 x25292 >= 0 ;
+2 x25521 +2 x25522 +2 x25523 +2 x25524 -1 x25289 -1 x25290 -1 x25291 -1 x25292 -1 x25293 -1 x25294 -1 x25295 -1 x25296 >= 0 ;
+2 x25525 +2 x25526 +2 x25527 +2 x25528 -1 x25293 -1 x25294 -1 x25295 -1 x25296 -1 x25297 -1 x25298 -1 x25299 -1 x25300 >= 0 ;
+2 x25529 +2 x25530 +2 x25531 +2 x25532 -1 x25297 -1 x25298 -1 x25299 -1 x25300 -1 x25301 -1 x25302 -1 x25303 -1 x25304 >= 0 ;
+2 x25533 +2 x25534 +2 x25535 +2 x25536 -1 x25301 -1 x25302 -1 x25303 -1 x25304 -1 x25305 -1 x25306 -1 x25307 -1 x25308 >= 0 ;
+2 x25537 +2 x25538 +2 x25539 +2 x25540 -1 x25305 -1 x25306 -1 x25307 -1 x25308 -1 x25309 -1 x25310 -1 x25311 -1 x25312 >= 0 ;
+2 x25541 +2 x25542 +2 x25543 +2 x25544 -1 x25309 -1 x25310 -1 x25311 -1 x25312 -1 x25313 -1 x25314 -1 x25315 -1 x25316 >= 0 ;
+2 x25545 +2 x25546 +2 x25547 +2 x25548 -1 x25313 -1 x25314 -1 x25315 -1 x25316 -1 x25317 -1 x25318 -1 x25319 -1 x25320 >= 0 ;
+2 x25549 +2 x25550 +2 x25551 +2 x25552 -1 x25317 -1 x25318 -1 x25319 -1 x25320 -1 x25321 -1 x25322 -1 x25323 -1 x25324 >= 0 ;
+2 x25553 +2 x25554 +2 x25555 +2 x25556 -1 x25321 -1 x25322 -1 x25323 -1 x25324 -1 x25325 -1 x25326 -1 x25327 -1 x25328 >= 0 ;
+2 x25557 +2 x25558 +2 x25559 +2 x25560 -1 x25325 -1 x25326 -1 x25327 -1 x25328 -1 x25329 -1 x25330 -1 x25331 -1 x25332 >= 0 ;
+2 x25561 +2 x25562 +2 x25563 +2 x25564 -1 x25329 -1 x25330 -1 x25331 -1 x25332 -1 x25333 -1 x25334 -1 x25335 -1 x25336 >= 0 ;
+2 x25565 +2 x25566 +2 x25567 +2 x25568 -1 x25333 -1 x25334 -1 x25335 -1 x25336 -1 x25337 -1 x25338 -1 x25339 -1 x25340 >= 0 ;
+2 x25569 +2 x25570 +2 x25571 +2 x25572 -1 x25337 -1 x25338 -1 x25339 -1 x25340 -1 x25341 -1 x25342 -1 x25343 -1 x25344 >= 0 ;
+2 x25573 +2 x25574 +2 x25575 +2 x25576 -1 x25341 -1 x25342 -1 x25343 -1 x25344 -1 x25345 -1 x25346 -1 x25347 -1 x25348 >= 0 ;
+2 x25577 +2 x25578 +2 x25579 +2 x25580 -1 x25345 -1 x25346 -1 x25347 -1 x25348 -1 x25349 -1 x25350 -1 x25351 -1 x25352 >= 0 ;
+2 x25581 +2 x25582 +2 x25583 +2 x25584 -1 x25349 -1 x25350 -1 x25351 -1 x25352 -1 x25353 -1 x25354 -1 x25355 -1 x25356 >= 0 ;
+2 x25585 +2 x25586 +2 x25587 +2 x25588 -1 x25353 -1 x25354 -1 x25355 -1 x25356 -1 x25357 -1 x25358 -1 x25359 -1 x25360 >= 0 ;
+2 x25589 +2 x25590 +2 x25591 +2 x25592 -1 x25357 -1 x25358 -1 x25359 -1 x25360 -1 x25361 -1 x25362 -1 x25363 -1 x25364 >= 0 ;
+2 x25593 +2 x25594 +2 x25595 +2 x25596 -1 x25361 -1 x25362 -1 x25363 -1 x25364 -1 x25365 -1 x25366 -1 x25367 -1 x25368 >= 0 ;
+2 x25597 +2 x25598 +2 x25599 +2 x25600 -1 x25365 -1 x25366 -1 x25367 -1 x25368 -1 x25369 -1 x25370 -1 x25371 -1 x25372 >= 0 ;
+2 x25601 +2 x25602 +2 x25603 +2 x25604 -1 x25369 -1 x25370 -1 x25371 -1 x25372 -1 x25373 -1 x25374 -1 x25375 -1 x25376 >= 0 ;
+2 x25605 +2 x25606 +2 x25607 +2 x25608 -1 x25373 -1 x25374 -1 x25375 -1 x25376 -1 x25377 -1 x25378 -1 x25379 -1 x25380 >= 0 ;
+2 x25609 +2 x25610 +2 x25611 +2 x25612 -1 x25377 -1 x25378 -1 x25379 -1 x25380 -1 x25381 -1 x25382 -1 x25383 -1 x25384 >= 0 ;
+2 x25613 +2 x25614 +2 x25615 +2 x25616 -1 x25381 -1 x25382 -1 x25383 -1 x25384 -1 x25385 -1 x25386 -1 x25387 -1 x25388 >= 0 ;
+2 x25617 +2 x25618 +2 x25619 +2 x25620 -1 x25385 -1 x25386 -1 x25387 -1 x25388 -1 x25389 -1 x25390 -1 x25391 -1 x25392 >= 0 ;
+2 x25621 +2 x25622 +2 x25623 +2 x25624 -1 x25393 -1 x25394 -1 x25395 -1 x25396 -1 x25397 -1 x25398 -1 x25399 -1 x25400 >= 0 ;
+2 x25625 +2 x25626 +2 x25627 +2 x25628 -1 x25397 -1 x25398 -1 x25399 -1 x25400 -1 x25401 -1 x25402 -1 x25403 -1 x25404 >= 0 ;
+2 x25629 +2 x25630 +2 x25631 +2 x25632 -1 x25401 -1 x25402 -1 x25403 -1 x25404 -1 x25405 -1 x25406 -1 x25407 -1 x25408 >= 0 ;
+2 x25633 +2 x25634 +2 x25635 +2 x25636 -1 x25405 -1 x25406 -1 x25407 -1 x25408 -1 x25409 -1 x25410 -1 x25411 -1 x25412 >= 0 ;
+2 x25637 +2 x25638 +2 x25639 +2 x25640 -1 x25409 -1 x25410 -1 x25411 -1 x25412 -1 x25413 -1 x25414 -1 x25415 -1 x25416 >= 0 ;
+2 x25641 +2 x25642 +2 x25643 +2 x25644 -1 x25413 -1 x25414 -1 x25415 -1 x25416 -1 x25417 -1 x25418 -1 x25419 -1 x25420 >= 0 ;
+2 x25645 +2 x25646 +2 x25647 +2 x25648 -1 x25417 -1 x25418 -1 x25419 -1 x25420 -1 x25421 -1 x25422 -1 x25423 -1 x25424 >= 0 ;
+2 x25649 +2 x25650 +2 x25651 +2 x25652 -1 x25421 -1 x25422 -1 x25423 -1 x25424 -1 x25425 -1 x25426 -1 x25427 -1 x25428 >= 0 ;
+2 x25653 +2 x25654 +2 x25655 +2 x25656 -1 x25425 -1 x25426 -1 x25427 -1 x25428 -1 x25429 -1 x25430 -1 x25431 -1 x25432 >= 0 ;
+2 x25657 +2 x25658 +2 x25659 +2 x25660 -1 x25429 -1 x25430 -1 x25431 -1 x25432 -1 x25433 -1 x25434 -1 x25435 -1 x25436 >= 0 ;
+2 x25661 +2 x25662 +2 x25663 +2 x25664 -1 x25433 -1 x25434 -1 x25435 -1 x25436 -1 x25437 -1 x25438 -1 x25439 -1 x25440 >= 0 ;
+2 x25665 +2 x25666 +2 x25667 +2 x25668 -1 x25437 -1 x25438 -1 x25439 -1 x25440 -1 x25441 -1 x25442 -1 x25443 -1 x25444 >= 0 ;
+2 x25669 +2 x25670 +2 x25671 +2 x25672 -1 x25441 -1 x25442 -1 x25443 -1 x25444 -1 x25445 -1 x25446 -1 x25447 -1 x25448 >= 0 ;
+2 x25673 +2 x25674 +2 x25675 +2 x25676 -1 x25445 -1 x25446 -1 x25447 -1 x25448 -1 x25449 -1 x25450 -1 x25451 -1 x25452 >= 0 ;
+2 x25677 +2 x25678 +2 x25679 +2 x25680 -1 x25449 -1 x25450 -1 x25451 -1 x25452 -1 x25453 -1 x25454 -1 x25455 -1 x25456 >= 0 ;
+2 x25681 +2 x25682 +2 x25683 +2 x25684 -1 x25453 -1 x25454 -1 x25455 -1 x25456 -1 x25457 -1 x25458 -1 x25459 -1 x25460 >= 0 ;
+2 x25685 +2 x25686 +2 x25687 +2 x25688 -1 x25457 -1 x25458 -1 x25459 -1 x25460 -1 x25461 -1 x25462 -1 x25463 -1 x25464 >= 0 ;
+2 x25689 +2 x25690 +2 x25691 +2 x25692 -1 x25461 -1 x25462 -1 x25463 -1 x25464 -1 x25465 -1 x25466 -1 x25467 -1 x25468 >= 0 ;
+2 x25693 +2 x25694 +2 x25695 +2 x25696 -1 x25465 -1 x25466 -1 x25467 -1 x25468 -1 x25469 -1 x25470 -1 x25471 -1 x25472 >= 0 ;
+2 x25697 +2 x25698 +2 x25699 +2 x25700 -1 x25469 -1 x25470 -1 x25471 -1 x25472 -1 x25473 -1 x25474 -1 x25475 -1 x25476 >= 0 ;
+2 x25701 +2 x25702 +2 x25703 +2 x25704 -1 x25473 -1 x25474 -1 x25475 -1 x25476 -1 x25477 -1 x25478 -1 x25479 -1 x25480 >= 0 ;
+2 x25705 +2 x25706 +2 x25707 +2 x25708 -1 x25477 -1 x25478 -1 x25479 -1 x25480 -1 x25481 -1 x25482 -1 x25483 -1 x25484 >= 0 ;
+2 x25709 +2 x25710 +2 x25711 +2 x25712 -1 x25481 -1 x25482 -1 x25483 -1 x25484 -1 x25485 -1 x25486 -1 x25487 -1 x25488 >= 0 ;
+2 x25713 +2 x25714 +2 x25715 +2 x25716 -1 x25485 -1 x25486 -1 x25487 -1 x25488 -1 x25489 -1 x25490 -1 x25491 -1 x25492 >= 0 ;
+2 x25717 +2 x25718 +2 x25719 +2 x25720 -1 x25489 -1 x25490 -1 x25491 -1 x25492 -1 x25493 -1 x25494 -1 x25495 -1 x25496 >= 0 ;
+2 x25721 +2 x25722 +2 x25723 +2 x25724 -1 x25493 -1 x25494 -1 x25495 -1 x25496 -1 x25497 -1 x25498 -1 x25499 -1 x25500 >= 0 ;
+2 x25725 +2 x25726 +2 x25727 +2 x25728 -1 x25497 -1 x25498 -1 x25499 -1 x25500 -1 x25501 -1 x25502 -1 x25503 -1 x25504 >= 0 ;
+2 x25729 +2 x25730 +2 x25731 +2 x25732 -1 x25501 -1 x25502 -1 x25503 -1 x25504 -1 x25505 -1 x25506 -1 x25507 -1 x25508 >= 0 ;
+2 x25733 +2 x25734 +2 x25735 +2 x25736 -1 x25505 -1 x25506 -1 x25507 -1 x25508 -1 x25509 -1 x25510 -1 x25511 -1 x25512 >= 0 ;
+2 x25737 +2 x25738 +2 x25739 +2 x25740 -1 x25509 -1 x25510 -1 x25511 -1 x25512 -1 x25513 -1 x25514 -1 x25515 -1 x25516 >= 0 ;
+2 x25741 +2 x25742 +2 x25743 +2 x25744 -1 x25513 -1 x25514 -1 x25515 -1 x25516 -1 x25517 -1 x25518 -1 x25519 -1 x25520 >= 0 ;
+2 x25745 +2 x25746 +2 x25747 +2 x25748 -1 x25517 -1 x25518 -1 x25519 -1 x25520 -1 x25521 -1 x25522 -1 x25523 -1 x25524 >= 0 ;
+2 x25749 +2 x25750 +2 x25751 +2 x25752 -1 x25521 -1 x25522 -1 x25523 -1 x25524 -1 x25525 -1 x25526 -1 x25527 -1 x25528 >= 0 ;
+2 x25753 +2 x25754 +2 x25755 +2 x25756 -1 x25525 -1 x25526 -1 x25527 -1 x25528 -1 x25529 -1 x25530 -1 x25531 -1 x25532 >= 0 ;
+2 x25757 +2 x25758 +2 x25759 +2 x25760 -1 x25529 -1 x25530 -1 x25531 -1 x25532 -1 x25533 -1 x25534 -1 x25535 -1 x25536 >= 0 ;
+2 x25761 +2 x25762 +2 x25763 +2 x25764 -1 x25533 -1 x25534 -1 x25535 -1 x25536 -1 x25537 -1 x25538 -1 x25539 -1 x25540 >= 0 ;
+2 x25765 +2 x25766 +2 x25767 +2 x25768 -1 x25537 -1 x25538 -1 x25539 -1 x25540 -1 x25541 -1 x25542 -1 x25543 -1 x25544 >= 0 ;
+2 x25769 +2 x25770 +2 x25771 +2 x25772 -1 x25541 -1 x25542 -1 x25543 -1 x25544 -1 x25545 -1 x25546 -1 x25547 -1 x25548 >= 0 ;
+2 x25773 +2 x25774 +2 x25775 +2 x25776 -1 x25545 -1 x25546 -1 x25547 -1 x25548 -1 x25549 -1 x25550 -1 x25551 -1 x25552 >= 0 ;
+2 x25777 +2 x25778 +2 x25779 +2 x25780 -1 x25549 -1 x25550 -1 x25551 -1 x25552 -1 x25553 -1 x25554 -1 x25555 -1 x25556 >= 0 ;
+2 x25781 +2 x25782 +2 x25783 +2 x25784 -1 x25553 -1 x25554 -1 x25555 -1 x25556 -1 x25557 -1 x25558 -1 x25559 -1 x25560 >= 0 ;
+2 x25785 +2 x25786 +2 x25787 +2 x25788 -1 x25557 -1 x25558 -1 x25559 -1 x25560 -1 x25561 -1 x25562 -1 x25563 -1 x25564 >= 0 ;
+2 x25789 +2 x25790 +2 x25791 +2 x25792 -1 x25561 -1 x25562 -1 x25563 -1 x25564 -1 x25565 -1 x25566 -1 x25567 -1 x25568 >= 0 ;
+2 x25793 +2 x25794 +2 x25795 +2 x25796 -1 x25565 -1 x25566 -1 x25567 -1 x25568 -1 x25569 -1 x25570 -1 x25571 -1 x25572 >= 0 ;
+2 x25797 +2 x25798 +2 x25799 +2 x25800 -1 x25569 -1 x25570 -1 x25571 -1 x25572 -1 x25573 -1 x25574 -1 x25575 -1 x25576 >= 0 ;
+2 x25801 +2 x25802 +2 x25803 +2 x25804 -1 x25573 -1 x25574 -1 x25575 -1 x25576 -1 x25577 -1 x25578 -1 x25579 -1 x25580 >= 0 ;
+2 x25805 +2 x25806 +2 x25807 +2 x25808 -1 x25577 -1 x25578 -1 x25579 -1 x25580 -1 x25581 -1 x25582 -1 x25583 -1 x25584 >= 0 ;
+2 x25809 +2 x25810 +2 x25811 +2 x25812 -1 x25581 -1 x25582 -1 x25583 -1 x25584 -1 x25585 -1 x25586 -1 x25587 -1 x25588 >= 0 ;
+2 x25813 +2 x25814 +2 x25815 +2 x25816 -1 x25585 -1 x25586 -1 x25587 -1 x25588 -1 x25589 -1 x25590 -1 x25591 -1 x25592 >= 0 ;
+2 x25817 +2 x25818 +2 x25819 +2 x25820 -1 x25589 -1 x25590 -1 x25591 -1 x25592 -1 x25593 -1 x25594 -1 x25595 -1 x25596 >= 0 ;
+2 x25821 +2 x25822 +2 x25823 +2 x25824 -1 x25593 -1 x25594 -1 x25595 -1 x25596 -1 x25597 -1 x25598 -1 x25599 -1 x25600 >= 0 ;
+2 x25825 +2 x25826 +2 x25827 +2 x25828 -1 x25597 -1 x25598 -1 x25599 -1 x25600 -1 x25601 -1 x25602 -1 x25603 -1 x25604 >= 0 ;
+2 x25829 +2 x25830 +2 x25831 +2 x25832 -1 x25601 -1 x25602 -1 x25603 -1 x25604 -1 x25605 -1 x25606 -1 x25607 -1 x25608 >= 0 ;
+2 x25833 +2 x25834 +2 x25835 +2 x25836 -1 x25605 -1 x25606 -1 x25607 -1 x25608 -1 x25609 -1 x25610 -1 x25611 -1 x25612 >= 0 ;
+2 x25837 +2 x25838 +2 x25839 +2 x25840 -1 x25609 -1 x25610 -1 x25611 -1 x25612 -1 x25613 -1 x25614 -1 x25615 -1 x25616 >= 0 ;
+2 x25841 +2 x25842 +2 x25843 +2 x25844 -1 x25613 -1 x25614 -1 x25615 -1 x25616 -1 x25617 -1 x25618 -1 x25619 -1 x25620 >= 0 ;
+2 x25845 +2 x25846 +2 x25847 +2 x25848 -1 x25621 -1 x25622 -1 x25623 -1 x25624 -1 x25625 -1 x25626 -1 x25627 -1 x25628 >= 0 ;
+2 x25849 +2 x25850 +2 x25851 +2 x25852 -1 x25625 -1 x25626 -1 x25627 -1 x25628 -1 x25629 -1 x25630 -1 x25631 -1 x25632 >= 0 ;
+2 x25853 +2 x25854 +2 x25855 +2 x25856 -1 x25629 -1 x25630 -1 x25631 -1 x25632 -1 x25633 -1 x25634 -1 x25635 -1 x25636 >= 0 ;
+2 x25857 +2 x25858 +2 x25859 +2 x25860 -1 x25633 -1 x25634 -1 x25635 -1 x25636 -1 x25637 -1 x25638 -1 x25639 -1 x25640 >= 0 ;
+2 x25861 +2 x25862 +2 x25863 +2 x25864 -1 x25637 -1 x25638 -1 x25639 -1 x25640 -1 x25641 -1 x25642 -1 x25643 -1 x25644 >= 0 ;
+2 x25865 +2 x25866 +2 x25867 +2 x25868 -1 x25641 -1 x25642 -1 x25643 -1 x25644 -1 x25645 -1 x25646 -1 x25647 -1 x25648 >= 0 ;
+2 x25869 +2 x25870 +2 x25871 +2 x25872 -1 x25645 -1 x25646 -1 x25647 -1 x25648 -1 x25649 -1 x25650 -1 x25651 -1 x25652 >= 0 ;
+2 x25873 +2 x25874 +2 x25875 +2 x25876 -1 x25649 -1 x25650 -1 x25651 -1 x25652 -1 x25653 -1 x25654 -1 x25655 -1 x25656 >= 0 ;
+2 x25877 +2 x25878 +2 x25879 +2 x25880 -1 x25653 -1 x25654 -1 x25655 -1 x25656 -1 x25657 -1 x25658 -1 x25659 -1 x25660 >= 0 ;
+2 x25881 +2 x25882 +2 x25883 +2 x25884 -1 x25657 -1 x25658 -1 x25659 -1 x25660 -1 x25661 -1 x25662 -1 x25663 -1 x25664 >= 0 ;
+2 x25885 +2 x25886 +2 x25887 +2 x25888 -1 x25661 -1 x25662 -1 x25663 -1 x25664 -1 x25665 -1 x25666 -1 x25667 -1 x25668 >= 0 ;
+2 x25889 +2 x25890 +2 x25891 +2 x25892 -1 x25665 -1 x25666 -1 x25667 -1 x25668 -1 x25669 -1 x25670 -1 x25671 -1 x25672 >= 0 ;
+2 x25893 +2 x25894 +2 x25895 +2 x25896 -1 x25669 -1 x25670 -1 x25671 -1 x25672 -1 x25673 -1 x25674 -1 x25675 -1 x25676 >= 0 ;
+2 x25897 +2 x25898 +2 x25899 +2 x25900 -1 x25673 -1 x25674 -1 x25675 -1 x25676 -1 x25677 -1 x25678 -1 x25679 -1 x25680 >= 0 ;
+2 x25901 +2 x25902 +2 x25903 +2 x25904 -1 x25677 -1 x25678 -1 x25679 -1 x25680 -1 x25681 -1 x25682 -1 x25683 -1 x25684 >= 0 ;
+2 x25905 +2 x25906 +2 x25907 +2 x25908 -1 x25681 -1 x25682 -1 x25683 -1 x25684 -1 x25685 -1 x25686 -1 x25687 -1 x25688 >= 0 ;
+2 x25909 +2 x25910 +2 x25911 +2 x25912 -1 x25685 -1 x25686 -1 x25687 -1 x25688 -1 x25689 -1 x25690 -1 x25691 -1 x25692 >= 0 ;
+2 x25913 +2 x25914 +2 x25915 +2 x25916 -1 x25689 -1 x25690 -1 x25691 -1 x25692 -1 x25693 -1 x25694 -1 x25695 -1 x25696 >= 0 ;
+2 x25917 +2 x25918 +2 x25919 +2 x25920 -1 x25693 -1 x25694 -1 x25695 -1 x25696 -1 x25697 -1 x25698 -1 x25699 -1 x25700 >= 0 ;
+2 x25921 +2 x25922 +2 x25923 +2 x25924 -1 x25697 -1 x25698 -1 x25699 -1 x25700 -1 x25701 -1 x25702 -1 x25703 -1 x25704 >= 0 ;
+2 x25925 +2 x25926 +2 x25927 +2 x25928 -1 x25701 -1 x25702 -1 x25703 -1 x25704 -1 x25705 -1 x25706 -1 x25707 -1 x25708 >= 0 ;
+2 x25929 +2 x25930 +2 x25931 +2 x25932 -1 x25705 -1 x25706 -1 x25707 -1 x25708 -1 x25709 -1 x25710 -1 x25711 -1 x25712 >= 0 ;
+2 x25933 +2 x25934 +2 x25935 +2 x25936 -1 x25709 -1 x25710 -1 x25711 -1 x25712 -1 x25713 -1 x25714 -1 x25715 -1 x25716 >= 0 ;
+2 x25937 +2 x25938 +2 x25939 +2 x25940 -1 x25713 -1 x25714 -1 x25715 -1 x25716 -1 x25717 -1 x25718 -1 x25719 -1 x25720 >= 0 ;
+2 x25941 +2 x25942 +2 x25943 +2 x25944 -1 x25717 -1 x25718 -1 x25719 -1 x25720 -1 x25721 -1 x25722 -1 x25723 -1 x25724 >= 0 ;
+2 x25945 +2 x25946 +2 x25947 +2 x25948 -1 x25721 -1 x25722 -1 x25723 -1 x25724 -1 x25725 -1 x25726 -1 x25727 -1 x25728 >= 0 ;
+2 x25949 +2 x25950 +2 x25951 +2 x25952 -1 x25725 -1 x25726 -1 x25727 -1 x25728 -1 x25729 -1 x25730 -1 x25731 -1 x25732 >= 0 ;
+2 x25953 +2 x25954 +2 x25955 +2 x25956 -1 x25729 -1 x25730 -1 x25731 -1 x25732 -1 x25733 -1 x25734 -1 x25735 -1 x25736 >= 0 ;
+2 x25957 +2 x25958 +2 x25959 +2 x25960 -1 x25733 -1 x25734 -1 x25735 -1 x25736 -1 x25737 -1 x25738 -1 x25739 -1 x25740 >= 0 ;
+2 x25961 +2 x25962 +2 x25963 +2 x25964 -1 x25737 -1 x25738 -1 x25739 -1 x25740 -1 x25741 -1 x25742 -1 x25743 -1 x25744 >= 0 ;
+2 x25965 +2 x25966 +2 x25967 +2 x25968 -1 x25741 -1 x25742 -1 x25743 -1 x25744 -1 x25745 -1 x25746 -1 x25747 -1 x25748 >= 0 ;
+2 x25969 +2 x25970 +2 x25971 +2 x25972 -1 x25745 -1 x25746 -1 x25747 -1 x25748 -1 x25749 -1 x25750 -1 x25751 -1 x25752 >= 0 ;
+2 x25973 +2 x25974 +2 x25975 +2 x25976 -1 x25749 -1 x25750 -1 x25751 -1 x25752 -1 x25753 -1 x25754 -1 x25755 -1 x25756 >= 0 ;
+2 x25977 +2 x25978 +2 x25979 +2 x25980 -1 x25753 -1 x25754 -1 x25755 -1 x25756 -1 x25757 -1 x25758 -1 x25759 -1 x25760 >= 0 ;
+2 x25981 +2 x25982 +2 x25983 +2 x25984 -1 x25757 -1 x25758 -1 x25759 -1 x25760 -1 x25761 -1 x25762 -1 x25763 -1 x25764 >= 0 ;
+2 x25985 +2 x25986 +2 x25987 +2 x25988 -1 x25761 -1 x25762 -1 x25763 -1 x25764 -1 x25765 -1 x25766 -1 x25767 -1 x25768 >= 0 ;
+2 x25989 +2 x25990 +2 x25991 +2 x25992 -1 x25765 -1 x25766 -1 x25767 -1 x25768 -1 x25769 -1 x25770 -1 x25771 -1 x25772 >= 0 ;
+2 x25993 +2 x25994 +2 x25995 +2 x25996 -1 x25769 -1 x25770 -1 x25771 -1 x25772 -1 x25773 -1 x25774 -1 x25775 -1 x25776 >= 0 ;
+2 x25997 +2 x25998 +2 x25999 +2 x26000 -1 x25773 -1 x25774 -1 x25775 -1 x25776 -1 x25777 -1 x25778 -1 x25779 -1 x25780 >= 0 ;
+2 x26001 +2 x26002 +2 x26003 +2 x26004 -1 x25777 -1 x25778 -1 x25779 -1 x25780 -1 x25781 -1 x25782 -1 x25783 -1 x25784 >= 0 ;
+2 x26005 +2 x26006 +2 x26007 +2 x26008 -1 x25781 -1 x25782 -1 x25783 -1 x25784 -1 x25785 -1 x25786 -1 x25787 -1 x25788 >= 0 ;
+2 x26009 +2 x26010 +2 x26011 +2 x26012 -1 x25785 -1 x25786 -1 x25787 -1 x25788 -1 x25789 -1 x25790 -1 x25791 -1 x25792 >= 0 ;
+2 x26013 +2 x26014 +2 x26015 +2 x26016 -1 x25789 -1 x25790 -1 x25791 -1 x25792 -1 x25793 -1 x25794 -1 x25795 -1 x25796 >= 0 ;
+2 x26017 +2 x26018 +2 x26019 +2 x26020 -1 x25793 -1 x25794 -1 x25795 -1 x25796 -1 x25797 -1 x25798 -1 x25799 -1 x25800 >= 0 ;
+2 x26021 +2 x26022 +2 x26023 +2 x26024 -1 x25797 -1 x25798 -1 x25799 -1 x25800 -1 x25801 -1 x25802 -1 x25803 -1 x25804 >= 0 ;
+2 x26025 +2 x26026 +2 x26027 +2 x26028 -1 x25801 -1 x25802 -1 x25803 -1 x25804 -1 x25805 -1 x25806 -1 x25807 -1 x25808 >= 0 ;
+2 x26029 +2 x26030 +2 x26031 +2 x26032 -1 x25805 -1 x25806 -1 x25807 -1 x25808 -1 x25809 -1 x25810 -1 x25811 -1 x25812 >= 0 ;
+2 x26033 +2 x26034 +2 x26035 +2 x26036 -1 x25809 -1 x25810 -1 x25811 -1 x25812 -1 x25813 -1 x25814 -1 x25815 -1 x25816 >= 0 ;
+2 x26037 +2 x26038 +2 x26039 +2 x26040 -1 x25813 -1 x25814 -1 x25815 -1 x25816 -1 x25817 -1 x25818 -1 x25819 -1 x25820 >= 0 ;
+2 x26041 +2 x26042 +2 x26043 +2 x26044 -1 x25817 -1 x25818 -1 x25819 -1 x25820 -1 x25821 -1 x25822 -1 x25823 -1 x25824 >= 0 ;
+2 x26045 +2 x26046 +2 x26047 +2 x26048 -1 x25821 -1 x25822 -1 x25823 -1 x25824 -1 x25825 -1 x25826 -1 x25827 -1 x25828 >= 0 ;
+2 x26049 +2 x26050 +2 x26051 +2 x26052 -1 x25825 -1 x25826 -1 x25827 -1 x25828 -1 x25829 -1 x25830 -1 x25831 -1 x25832 >= 0 ;
+2 x26053 +2 x26054 +2 x26055 +2 x26056 -1 x25829 -1 x25830 -1 x25831 -1 x25832 -1 x25833 -1 x25834 -1 x25835 -1 x25836 >= 0 ;
+2 x26057 +2 x26058 +2 x26059 +2 x26060 -1 x25833 -1 x25834 -1 x25835 -1 x25836 -1 x25837 -1 x25838 -1 x25839 -1 x25840 >= 0 ;
+2 x26061 +2 x26062 +2 x26063 +2 x26064 -1 x25837 -1 x25838 -1 x25839 -1 x25840 -1 x25841 -1 x25842 -1 x25843 -1 x25844 >= 0 ;
+2 x26065 +2 x26066 +2 x26067 +2 x26068 -1 x25845 -1 x25846 -1 x25847 -1 x25848 -1 x25849 -1 x25850 -1 x25851 -1 x25852 >= 0 ;
+2 x26069 +2 x26070 +2 x26071 +2 x26072 -1 x25849 -1 x25850 -1 x25851 -1 x25852 -1 x25853 -1 x25854 -1 x25855 -1 x25856 >= 0 ;
+2 x26073 +2 x26074 +2 x26075 +2 x26076 -1 x25853 -1 x25854 -1 x25855 -1 x25856 -1 x25857 -1 x25858 -1 x25859 -1 x25860 >= 0 ;
+2 x26077 +2 x26078 +2 x26079 +2 x26080 -1 x25857 -1 x25858 -1 x25859 -1 x25860 -1 x25861 -1 x25862 -1 x25863 -1 x25864 >= 0 ;
+2 x26081 +2 x26082 +2 x26083 +2 x26084 -1 x25861 -1 x25862 -1 x25863 -1 x25864 -1 x25865 -1 x25866 -1 x25867 -1 x25868 >= 0 ;
+2 x26085 +2 x26086 +2 x26087 +2 x26088 -1 x25865 -1 x25866 -1 x25867 -1 x25868 -1 x25869 -1 x25870 -1 x25871 -1 x25872 >= 0 ;
+2 x26089 +2 x26090 +2 x26091 +2 x26092 -1 x25869 -1 x25870 -1 x25871 -1 x25872 -1 x25873 -1 x25874 -1 x25875 -1 x25876 >= 0 ;
+2 x26093 +2 x26094 +2 x26095 +2 x26096 -1 x25873 -1 x25874 -1 x25875 -1 x25876 -1 x25877 -1 x25878 -1 x25879 -1 x25880 >= 0 ;
+2 x26097 +2 x26098 +2 x26099 +2 x26100 -1 x25877 -1 x25878 -1 x25879 -1 x25880 -1 x25881 -1 x25882 -1 x25883 -1 x25884 >= 0 ;
+2 x26101 +2 x26102 +2 x26103 +2 x26104 -1 x25881 -1 x25882 -1 x25883 -1 x25884 -1 x25885 -1 x25886 -1 x25887 -1 x25888 >= 0 ;
+2 x26105 +2 x26106 +2 x26107 +2 x26108 -1 x25885 -1 x25886 -1 x25887 -1 x25888 -1 x25889 -1 x25890 -1 x25891 -1 x25892 >= 0 ;
+2 x26109 +2 x26110 +2 x26111 +2 x26112 -1 x25889 -1 x25890 -1 x25891 -1 x25892 -1 x25893 -1 x25894 -1 x25895 -1 x25896 >= 0 ;
+2 x26113 +2 x26114 +2 x26115 +2 x26116 -1 x25893 -1 x25894 -1 x25895 -1 x25896 -1 x25897 -1 x25898 -1 x25899 -1 x25900 >= 0 ;
+2 x26117 +2 x26118 +2 x26119 +2 x26120 -1 x25897 -1 x25898 -1 x25899 -1 x25900 -1 x25901 -1 x25902 -1 x25903 -1 x25904 >= 0 ;
+2 x26121 +2 x26122 +2 x26123 +2 x26124 -1 x25901 -1 x25902 -1 x25903 -1 x25904 -1 x25905 -1 x25906 -1 x25907 -1 x25908 >= 0 ;
+2 x26125 +2 x26126 +2 x26127 +2 x26128 -1 x25905 -1 x25906 -1 x25907 -1 x25908 -1 x25909 -1 x25910 -1 x25911 -1 x25912 >= 0 ;
+2 x26129 +2 x26130 +2 x26131 +2 x26132 -1 x25909 -1 x25910 -1 x25911 -1 x25912 -1 x25913 -1 x25914 -1 x25915 -1 x25916 >= 0 ;
+2 x26133 +2 x26134 +2 x26135 +2 x26136 -1 x25913 -1 x25914 -1 x25915 -1 x25916 -1 x25917 -1 x25918 -1 x25919 -1 x25920 >= 0 ;
+2 x26137 +2 x26138 +2 x26139 +2 x26140 -1 x25917 -1 x25918 -1 x25919 -1 x25920 -1 x25921 -1 x25922 -1 x25923 -1 x25924 >= 0 ;
+2 x26141 +2 x26142 +2 x26143 +2 x26144 -1 x25921 -1 x25922 -1 x25923 -1 x25924 -1 x25925 -1 x25926 -1 x25927 -1 x25928 >= 0 ;
+2 x26145 +2 x26146 +2 x26147 +2 x26148 -1 x25925 -1 x25926 -1 x25927 -1 x25928 -1 x25929 -1 x25930 -1 x25931 -1 x25932 >= 0 ;
+2 x26149 +2 x26150 +2 x26151 +2 x26152 -1 x25929 -1 x25930 -1 x25931 -1 x25932 -1 x25933 -1 x25934 -1 x25935 -1 x25936 >= 0 ;
+2 x26153 +2 x26154 +2 x26155 +2 x26156 -1 x25933 -1 x25934 -1 x25935 -1 x25936 -1 x25937 -1 x25938 -1 x25939 -1 x25940 >= 0 ;
+2 x26157 +2 x26158 +2 x26159 +2 x26160 -1 x25937 -1 x25938 -1 x25939 -1 x25940 -1 x25941 -1 x25942 -1 x25943 -1 x25944 >= 0 ;
+2 x26161 +2 x26162 +2 x26163 +2 x26164 -1 x25941 -1 x25942 -1 x25943 -1 x25944 -1 x25945 -1 x25946 -1 x25947 -1 x25948 >= 0 ;
+2 x26165 +2 x26166 +2 x26167 +2 x26168 -1 x25945 -1 x25946 -1 x25947 -1 x25948 -1 x25949 -1 x25950 -1 x25951 -1 x25952 >= 0 ;
+2 x26169 +2 x26170 +2 x26171 +2 x26172 -1 x25949 -1 x25950 -1 x25951 -1 x25952 -1 x25953 -1 x25954 -1 x25955 -1 x25956 >= 0 ;
+2 x26173 +2 x26174 +2 x26175 +2 x26176 -1 x25953 -1 x25954 -1 x25955 -1 x25956 -1 x25957 -1 x25958 -1 x25959 -1 x25960 >= 0 ;
+2 x26177 +2 x26178 +2 x26179 +2 x26180 -1 x25957 -1 x25958 -1 x25959 -1 x25960 -1 x25961 -1 x25962 -1 x25963 -1 x25964 >= 0 ;
+2 x26181 +2 x26182 +2 x26183 +2 x26184 -1 x25961 -1 x25962 -1 x25963 -1 x25964 -1 x25965 -1 x25966 -1 x25967 -1 x25968 >= 0 ;
+2 x26185 +2 x26186 +2 x26187 +2 x26188 -1 x25965 -1 x25966 -1 x25967 -1 x25968 -1 x25969 -1 x25970 -1 x25971 -1 x25972 >= 0 ;
+2 x26189 +2 x26190 +2 x26191 +2 x26192 -1 x25969 -1 x25970 -1 x25971 -1 x25972 -1 x25973 -1 x25974 -1 x25975 -1 x25976 >= 0 ;
+2 x26193 +2 x26194 +2 x26195 +2 x26196 -1 x25973 -1 x25974 -1 x25975 -1 x25976 -1 x25977 -1 x25978 -1 x25979 -1 x25980 >= 0 ;
+2 x26197 +2 x26198 +2 x26199 +2 x26200 -1 x25977 -1 x25978 -1 x25979 -1 x25980 -1 x25981 -1 x25982 -1 x25983 -1 x25984 >= 0 ;
+2 x26201 +2 x26202 +2 x26203 +2 x26204 -1 x25981 -1 x25982 -1 x25983 -1 x25984 -1 x25985 -1 x25986 -1 x25987 -1 x25988 >= 0 ;
+2 x26205 +2 x26206 +2 x26207 +2 x26208 -1 x25985 -1 x25986 -1 x25987 -1 x25988 -1 x25989 -1 x25990 -1 x25991 -1 x25992 >= 0 ;
+2 x26209 +2 x26210 +2 x26211 +2 x26212 -1 x25989 -1 x25990 -1 x25991 -1 x25992 -1 x25993 -1 x25994 -1 x25995 -1 x25996 >= 0 ;
+2 x26213 +2 x26214 +2 x26215 +2 x26216 -1 x25993 -1 x25994 -1 x25995 -1 x25996 -1 x25997 -1 x25998 -1 x25999 -1 x26000 >= 0 ;
+2 x26217 +2 x26218 +2 x26219 +2 x26220 -1 x25997 -1 x25998 -1 x25999 -1 x26000 -1 x26001 -1 x26002 -1 x26003 -1 x26004 >= 0 ;
+2 x26221 +2 x26222 +2 x26223 +2 x26224 -1 x26001 -1 x26002 -1 x26003 -1 x26004 -1 x26005 -1 x26006 -1 x26007 -1 x26008 >= 0 ;
+2 x26225 +2 x26226 +2 x26227 +2 x26228 -1 x26005 -1 x26006 -1 x26007 -1 x26008 -1 x26009 -1 x26010 -1 x26011 -1 x26012 >= 0 ;
+2 x26229 +2 x26230 +2 x26231 +2 x26232 -1 x26009 -1 x26010 -1 x26011 -1 x26012 -1 x26013 -1 x26014 -1 x26015 -1 x26016 >= 0 ;
+2 x26233 +2 x26234 +2 x26235 +2 x26236 -1 x26013 -1 x26014 -1 x26015 -1 x26016 -1 x26017 -1 x26018 -1 x26019 -1 x26020 >= 0 ;
+2 x26237 +2 x26238 +2 x26239 +2 x26240 -1 x26017 -1 x26018 -1 x26019 -1 x26020 -1 x26021 -1 x26022 -1 x26023 -1 x26024 >= 0 ;
+2 x26241 +2 x26242 +2 x26243 +2 x26244 -1 x26021 -1 x26022 -1 x26023 -1 x26024 -1 x26025 -1 x26026 -1 x26027 -1 x26028 >= 0 ;
+2 x26245 +2 x26246 +2 x26247 +2 x26248 -1 x26025 -1 x26026 -1 x26027 -1 x26028 -1 x26029 -1 x26030 -1 x26031 -1 x26032 >= 0 ;
+2 x26249 +2 x26250 +2 x26251 +2 x26252 -1 x26029 -1 x26030 -1 x26031 -1 x26032 -1 x26033 -1 x26034 -1 x26035 -1 x26036 >= 0 ;
+2 x26253 +2 x26254 +2 x26255 +2 x26256 -1 x26033 -1 x26034 -1 x26035 -1 x26036 -1 x26037 -1 x26038 -1 x26039 -1 x26040 >= 0 ;
+2 x26257 +2 x26258 +2 x26259 +2 x26260 -1 x26037 -1 x26038 -1 x26039 -1 x26040 -1 x26041 -1 x26042 -1 x26043 -1 x26044 >= 0 ;
+2 x26261 +2 x26262 +2 x26263 +2 x26264 -1 x26041 -1 x26042 -1 x26043 -1 x26044 -1 x26045 -1 x26046 -1 x26047 -1 x26048 >= 0 ;
+2 x26265 +2 x26266 +2 x26267 +2 x26268 -1 x26045 -1 x26046 -1 x26047 -1 x26048 -1 x26049 -1 x26050 -1 x26051 -1 x26052 >= 0 ;
+2 x26269 +2 x26270 +2 x26271 +2 x26272 -1 x26049 -1 x26050 -1 x26051 -1 x26052 -1 x26053 -1 x26054 -1 x26055 -1 x26056 >= 0 ;
+2 x26273 +2 x26274 +2 x26275 +2 x26276 -1 x26053 -1 x26054 -1 x26055 -1 x26056 -1 x26057 -1 x26058 -1 x26059 -1 x26060 >= 0 ;
+2 x26277 +2 x26278 +2 x26279 +2 x26280 -1 x26057 -1 x26058 -1 x26059 -1 x26060 -1 x26061 -1 x26062 -1 x26063 -1 x26064 >= 0 ;
+2 x26281 +2 x26282 +2 x26283 +2 x26284 -1 x26065 -1 x26066 -1 x26067 -1 x26068 -1 x26069 -1 x26070 -1 x26071 -1 x26072 >= 0 ;
+2 x26285 +2 x26286 +2 x26287 +2 x26288 -1 x26069 -1 x26070 -1 x26071 -1 x26072 -1 x26073 -1 x26074 -1 x26075 -1 x26076 >= 0 ;
+2 x26289 +2 x26290 +2 x26291 +2 x26292 -1 x26073 -1 x26074 -1 x26075 -1 x26076 -1 x26077 -1 x26078 -1 x26079 -1 x26080 >= 0 ;
+2 x26293 +2 x26294 +2 x26295 +2 x26296 -1 x26077 -1 x26078 -1 x26079 -1 x26080 -1 x26081 -1 x26082 -1 x26083 -1 x26084 >= 0 ;
+2 x26297 +2 x26298 +2 x26299 +2 x26300 -1 x26081 -1 x26082 -1 x26083 -1 x26084 -1 x26085 -1 x26086 -1 x26087 -1 x26088 >= 0 ;
+2 x26301 +2 x26302 +2 x26303 +2 x26304 -1 x26085 -1 x26086 -1 x26087 -1 x26088 -1 x26089 -1 x26090 -1 x26091 -1 x26092 >= 0 ;
+2 x26305 +2 x26306 +2 x26307 +2 x26308 -1 x26089 -1 x26090 -1 x26091 -1 x26092 -1 x26093 -1 x26094 -1 x26095 -1 x26096 >= 0 ;
+2 x26309 +2 x26310 +2 x26311 +2 x26312 -1 x26093 -1 x26094 -1 x26095 -1 x26096 -1 x26097 -1 x26098 -1 x26099 -1 x26100 >= 0 ;
+2 x26313 +2 x26314 +2 x26315 +2 x26316 -1 x26097 -1 x26098 -1 x26099 -1 x26100 -1 x26101 -1 x26102 -1 x26103 -1 x26104 >= 0 ;
+2 x26317 +2 x26318 +2 x26319 +2 x26320 -1 x26101 -1 x26102 -1 x26103 -1 x26104 -1 x26105 -1 x26106 -1 x26107 -1 x26108 >= 0 ;
+2 x26321 +2 x26322 +2 x26323 +2 x26324 -1 x26105 -1 x26106 -1 x26107 -1 x26108 -1 x26109 -1 x26110 -1 x26111 -1 x26112 >= 0 ;
+2 x26325 +2 x26326 +2 x26327 +2 x26328 -1 x26109 -1 x26110 -1 x26111 -1 x26112 -1 x26113 -1 x26114 -1 x26115 -1 x26116 >= 0 ;
+2 x26329 +2 x26330 +2 x26331 +2 x26332 -1 x26113 -1 x26114 -1 x26115 -1 x26116 -1 x26117 -1 x26118 -1 x26119 -1 x26120 >= 0 ;
+2 x26333 +2 x26334 +2 x26335 +2 x26336 -1 x26117 -1 x26118 -1 x26119 -1 x26120 -1 x26121 -1 x26122 -1 x26123 -1 x26124 >= 0 ;
+2 x26337 +2 x26338 +2 x26339 +2 x26340 -1 x26121 -1 x26122 -1 x26123 -1 x26124 -1 x26125 -1 x26126 -1 x26127 -1 x26128 >= 0 ;
+2 x26341 +2 x26342 +2 x26343 +2 x26344 -1 x26125 -1 x26126 -1 x26127 -1 x26128 -1 x26129 -1 x26130 -1 x26131 -1 x26132 >= 0 ;
+2 x26345 +2 x26346 +2 x26347 +2 x26348 -1 x26129 -1 x26130 -1 x26131 -1 x26132 -1 x26133 -1 x26134 -1 x26135 -1 x26136 >= 0 ;
+2 x26349 +2 x26350 +2 x26351 +2 x26352 -1 x26133 -1 x26134 -1 x26135 -1 x26136 -1 x26137 -1 x26138 -1 x26139 -1 x26140 >= 0 ;
+2 x26353 +2 x26354 +2 x26355 +2 x26356 -1 x26137 -1 x26138 -1 x26139 -1 x26140 -1 x26141 -1 x26142 -1 x26143 -1 x26144 >= 0 ;
+2 x26357 +2 x26358 +2 x26359 +2 x26360 -1 x26141 -1 x26142 -1 x26143 -1 x26144 -1 x26145 -1 x26146 -1 x26147 -1 x26148 >= 0 ;
+2 x26361 +2 x26362 +2 x26363 +2 x26364 -1 x26145 -1 x26146 -1 x26147 -1 x26148 -1 x26149 -1 x26150 -1 x26151 -1 x26152 >= 0 ;
+2 x26365 +2 x26366 +2 x26367 +2 x26368 -1 x26149 -1 x26150 -1 x26151 -1 x26152 -1 x26153 -1 x26154 -1 x26155 -1 x26156 >= 0 ;
+2 x26369 +2 x26370 +2 x26371 +2 x26372 -1 x26153 -1 x26154 -1 x26155 -1 x26156 -1 x26157 -1 x26158 -1 x26159 -1 x26160 >= 0 ;
+2 x26373 +2 x26374 +2 x26375 +2 x26376 -1 x26157 -1 x26158 -1 x26159 -1 x26160 -1 x26161 -1 x26162 -1 x26163 -1 x26164 >= 0 ;
+2 x26377 +2 x26378 +2 x26379 +2 x26380 -1 x26161 -1 x26162 -1 x26163 -1 x26164 -1 x26165 -1 x26166 -1 x26167 -1 x26168 >= 0 ;
+2 x26381 +2 x26382 +2 x26383 +2 x26384 -1 x26165 -1 x26166 -1 x26167 -1 x26168 -1 x26169 -1 x26170 -1 x26171 -1 x26172 >= 0 ;
+2 x26385 +2 x26386 +2 x26387 +2 x26388 -1 x26169 -1 x26170 -1 x26171 -1 x26172 -1 x26173 -1 x26174 -1 x26175 -1 x26176 >= 0 ;
+2 x26389 +2 x26390 +2 x26391 +2 x26392 -1 x26173 -1 x26174 -1 x26175 -1 x26176 -1 x26177 -1 x26178 -1 x26179 -1 x26180 >= 0 ;
+2 x26393 +2 x26394 +2 x26395 +2 x26396 -1 x26177 -1 x26178 -1 x26179 -1 x26180 -1 x26181 -1 x26182 -1 x26183 -1 x26184 >= 0 ;
+2 x26397 +2 x26398 +2 x26399 +2 x26400 -1 x26181 -1 x26182 -1 x26183 -1 x26184 -1 x26185 -1 x26186 -1 x26187 -1 x26188 >= 0 ;
+2 x26401 +2 x26402 +2 x26403 +2 x26404 -1 x26185 -1 x26186 -1 x26187 -1 x26188 -1 x26189 -1 x26190 -1 x26191 -1 x26192 >= 0 ;
+2 x26405 +2 x26406 +2 x26407 +2 x26408 -1 x26189 -1 x26190 -1 x26191 -1 x26192 -1 x26193 -1 x26194 -1 x26195 -1 x26196 >= 0 ;
+2 x26409 +2 x26410 +2 x26411 +2 x26412 -1 x26193 -1 x26194 -1 x26195 -1 x26196 -1 x26197 -1 x26198 -1 x26199 -1 x26200 >= 0 ;
+2 x26413 +2 x26414 +2 x26415 +2 x26416 -1 x26197 -1 x26198 -1 x26199 -1 x26200 -1 x26201 -1 x26202 -1 x26203 -1 x26204 >= 0 ;
+2 x26417 +2 x26418 +2 x26419 +2 x26420 -1 x26201 -1 x26202 -1 x26203 -1 x26204 -1 x26205 -1 x26206 -1 x26207 -1 x26208 >= 0 ;
+2 x26421 +2 x26422 +2 x26423 +2 x26424 -1 x26205 -1 x26206 -1 x26207 -1 x26208 -1 x26209 -1 x26210 -1 x26211 -1 x26212 >= 0 ;
+2 x26425 +2 x26426 +2 x26427 +2 x26428 -1 x26209 -1 x26210 -1 x26211 -1 x26212 -1 x26213 -1 x26214 -1 x26215 -1 x26216 >= 0 ;
+2 x26429 +2 x26430 +2 x26431 +2 x26432 -1 x26213 -1 x26214 -1 x26215 -1 x26216 -1 x26217 -1 x26218 -1 x26219 -1 x26220 >= 0 ;
+2 x26433 +2 x26434 +2 x26435 +2 x26436 -1 x26217 -1 x26218 -1 x26219 -1 x26220 -1 x26221 -1 x26222 -1 x26223 -1 x26224 >= 0 ;
+2 x26437 +2 x26438 +2 x26439 +2 x26440 -1 x26221 -1 x26222 -1 x26223 -1 x26224 -1 x26225 -1 x26226 -1 x26227 -1 x26228 >= 0 ;
+2 x26441 +2 x26442 +2 x26443 +2 x26444 -1 x26225 -1 x26226 -1 x26227 -1 x26228 -1 x26229 -1 x26230 -1 x26231 -1 x26232 >= 0 ;
+2 x26445 +2 x26446 +2 x26447 +2 x26448 -1 x26229 -1 x26230 -1 x26231 -1 x26232 -1 x26233 -1 x26234 -1 x26235 -1 x26236 >= 0 ;
+2 x26449 +2 x26450 +2 x26451 +2 x26452 -1 x26233 -1 x26234 -1 x26235 -1 x26236 -1 x26237 -1 x26238 -1 x26239 -1 x26240 >= 0 ;
+2 x26453 +2 x26454 +2 x26455 +2 x26456 -1 x26237 -1 x26238 -1 x26239 -1 x26240 -1 x26241 -1 x26242 -1 x26243 -1 x26244 >= 0 ;
+2 x26457 +2 x26458 +2 x26459 +2 x26460 -1 x26241 -1 x26242 -1 x26243 -1 x26244 -1 x26245 -1 x26246 -1 x26247 -1 x26248 >= 0 ;
+2 x26461 +2 x26462 +2 x26463 +2 x26464 -1 x26245 -1 x26246 -1 x26247 -1 x26248 -1 x26249 -1 x26250 -1 x26251 -1 x26252 >= 0 ;
+2 x26465 +2 x26466 +2 x26467 +2 x26468 -1 x26249 -1 x26250 -1 x26251 -1 x26252 -1 x26253 -1 x26254 -1 x26255 -1 x26256 >= 0 ;
+2 x26469 +2 x26470 +2 x26471 +2 x26472 -1 x26253 -1 x26254 -1 x26255 -1 x26256 -1 x26257 -1 x26258 -1 x26259 -1 x26260 >= 0 ;
+2 x26473 +2 x26474 +2 x26475 +2 x26476 -1 x26257 -1 x26258 -1 x26259 -1 x26260 -1 x26261 -1 x26262 -1 x26263 -1 x26264 >= 0 ;
+2 x26477 +2 x26478 +2 x26479 +2 x26480 -1 x26261 -1 x26262 -1 x26263 -1 x26264 -1 x26265 -1 x26266 -1 x26267 -1 x26268 >= 0 ;
+2 x26481 +2 x26482 +2 x26483 +2 x26484 -1 x26265 -1 x26266 -1 x26267 -1 x26268 -1 x26269 -1 x26270 -1 x26271 -1 x26272 >= 0 ;
+2 x26485 +2 x26486 +2 x26487 +2 x26488 -1 x26269 -1 x26270 -1 x26271 -1 x26272 -1 x26273 -1 x26274 -1 x26275 -1 x26276 >= 0 ;
+2 x26489 +2 x26490 +2 x26491 +2 x26492 -1 x26273 -1 x26274 -1 x26275 -1 x26276 -1 x26277 -1 x26278 -1 x26279 -1 x26280 >= 0 ;
+2 x26493 +2 x26494 +2 x26495 +2 x26496 -1 x26281 -1 x26282 -1 x26283 -1 x26284 -1 x26285 -1 x26286 -1 x26287 -1 x26288 >= 0 ;
+2 x26497 +2 x26498 +2 x26499 +2 x26500 -1 x26285 -1 x26286 -1 x26287 -1 x26288 -1 x26289 -1 x26290 -1 x26291 -1 x26292 >= 0 ;
+2 x26501 +2 x26502 +2 x26503 +2 x26504 -1 x26289 -1 x26290 -1 x26291 -1 x26292 -1 x26293 -1 x26294 -1 x26295 -1 x26296 >= 0 ;
+2 x26505 +2 x26506 +2 x26507 +2 x26508 -1 x26293 -1 x26294 -1 x26295 -1 x26296 -1 x26297 -1 x26298 -1 x26299 -1 x26300 >= 0 ;
+2 x26509 +2 x26510 +2 x26511 +2 x26512 -1 x26297 -1 x26298 -1 x26299 -1 x26300 -1 x26301 -1 x26302 -1 x26303 -1 x26304 >= 0 ;
+2 x26513 +2 x26514 +2 x26515 +2 x26516 -1 x26301 -1 x26302 -1 x26303 -1 x26304 -1 x26305 -1 x26306 -1 x26307 -1 x26308 >= 0 ;
+2 x26517 +2 x26518 +2 x26519 +2 x26520 -1 x26305 -1 x26306 -1 x26307 -1 x26308 -1 x26309 -1 x26310 -1 x26311 -1 x26312 >= 0 ;
+2 x26521 +2 x26522 +2 x26523 +2 x26524 -1 x26309 -1 x26310 -1 x26311 -1 x26312 -1 x26313 -1 x26314 -1 x26315 -1 x26316 >= 0 ;
+2 x26525 +2 x26526 +2 x26527 +2 x26528 -1 x26313 -1 x26314 -1 x26315 -1 x26316 -1 x26317 -1 x26318 -1 x26319 -1 x26320 >= 0 ;
+2 x26529 +2 x26530 +2 x26531 +2 x26532 -1 x26317 -1 x26318 -1 x26319 -1 x26320 -1 x26321 -1 x26322 -1 x26323 -1 x26324 >= 0 ;
+2 x26533 +2 x26534 +2 x26535 +2 x26536 -1 x26321 -1 x26322 -1 x26323 -1 x26324 -1 x26325 -1 x26326 -1 x26327 -1 x26328 >= 0 ;
+2 x26537 +2 x26538 +2 x26539 +2 x26540 -1 x26325 -1 x26326 -1 x26327 -1 x26328 -1 x26329 -1 x26330 -1 x26331 -1 x26332 >= 0 ;
+2 x26541 +2 x26542 +2 x26543 +2 x26544 -1 x26329 -1 x26330 -1 x26331 -1 x26332 -1 x26333 -1 x26334 -1 x26335 -1 x26336 >= 0 ;
+2 x26545 +2 x26546 +2 x26547 +2 x26548 -1 x26333 -1 x26334 -1 x26335 -1 x26336 -1 x26337 -1 x26338 -1 x26339 -1 x26340 >= 0 ;
+2 x26549 +2 x26550 +2 x26551 +2 x26552 -1 x26337 -1 x26338 -1 x26339 -1 x26340 -1 x26341 -1 x26342 -1 x26343 -1 x26344 >= 0 ;
+2 x26553 +2 x26554 +2 x26555 +2 x26556 -1 x26341 -1 x26342 -1 x26343 -1 x26344 -1 x26345 -1 x26346 -1 x26347 -1 x26348 >= 0 ;
+2 x26557 +2 x26558 +2 x26559 +2 x26560 -1 x26345 -1 x26346 -1 x26347 -1 x26348 -1 x26349 -1 x26350 -1 x26351 -1 x26352 >= 0 ;
+2 x26561 +2 x26562 +2 x26563 +2 x26564 -1 x26349 -1 x26350 -1 x26351 -1 x26352 -1 x26353 -1 x26354 -1 x26355 -1 x26356 >= 0 ;
+2 x26565 +2 x26566 +2 x26567 +2 x26568 -1 x26353 -1 x26354 -1 x26355 -1 x26356 -1 x26357 -1 x26358 -1 x26359 -1 x26360 >= 0 ;
+2 x26569 +2 x26570 +2 x26571 +2 x26572 -1 x26357 -1 x26358 -1 x26359 -1 x26360 -1 x26361 -1 x26362 -1 x26363 -1 x26364 >= 0 ;
+2 x26573 +2 x26574 +2 x26575 +2 x26576 -1 x26361 -1 x26362 -1 x26363 -1 x26364 -1 x26365 -1 x26366 -1 x26367 -1 x26368 >= 0 ;
+2 x26577 +2 x26578 +2 x26579 +2 x26580 -1 x26365 -1 x26366 -1 x26367 -1 x26368 -1 x26369 -1 x26370 -1 x26371 -1 x26372 >= 0 ;
+2 x26581 +2 x26582 +2 x26583 +2 x26584 -1 x26369 -1 x26370 -1 x26371 -1 x26372 -1 x26373 -1 x26374 -1 x26375 -1 x26376 >= 0 ;
+2 x26585 +2 x26586 +2 x26587 +2 x26588 -1 x26373 -1 x26374 -1 x26375 -1 x26376 -1 x26377 -1 x26378 -1 x26379 -1 x26380 >= 0 ;
+2 x26589 +2 x26590 +2 x26591 +2 x26592 -1 x26377 -1 x26378 -1 x26379 -1 x26380 -1 x26381 -1 x26382 -1 x26383 -1 x26384 >= 0 ;
+2 x26593 +2 x26594 +2 x26595 +2 x26596 -1 x26381 -1 x26382 -1 x26383 -1 x26384 -1 x26385 -1 x26386 -1 x26387 -1 x26388 >= 0 ;
+2 x26597 +2 x26598 +2 x26599 +2 x26600 -1 x26385 -1 x26386 -1 x26387 -1 x26388 -1 x26389 -1 x26390 -1 x26391 -1 x26392 >= 0 ;
+2 x26601 +2 x26602 +2 x26603 +2 x26604 -1 x26389 -1 x26390 -1 x26391 -1 x26392 -1 x26393 -1 x26394 -1 x26395 -1 x26396 >= 0 ;
+2 x26605 +2 x26606 +2 x26607 +2 x26608 -1 x26393 -1 x26394 -1 x26395 -1 x26396 -1 x26397 -1 x26398 -1 x26399 -1 x26400 >= 0 ;
+2 x26609 +2 x26610 +2 x26611 +2 x26612 -1 x26397 -1 x26398 -1 x26399 -1 x26400 -1 x26401 -1 x26402 -1 x26403 -1 x26404 >= 0 ;
+2 x26613 +2 x26614 +2 x26615 +2 x26616 -1 x26401 -1 x26402 -1 x26403 -1 x26404 -1 x26405 -1 x26406 -1 x26407 -1 x26408 >= 0 ;
+2 x26617 +2 x26618 +2 x26619 +2 x26620 -1 x26405 -1 x26406 -1 x26407 -1 x26408 -1 x26409 -1 x26410 -1 x26411 -1 x26412 >= 0 ;
+2 x26621 +2 x26622 +2 x26623 +2 x26624 -1 x26409 -1 x26410 -1 x26411 -1 x26412 -1 x26413 -1 x26414 -1 x26415 -1 x26416 >= 0 ;
+2 x26625 +2 x26626 +2 x26627 +2 x26628 -1 x26413 -1 x26414 -1 x26415 -1 x26416 -1 x26417 -1 x26418 -1 x26419 -1 x26420 >= 0 ;
+2 x26629 +2 x26630 +2 x26631 +2 x26632 -1 x26417 -1 x26418 -1 x26419 -1 x26420 -1 x26421 -1 x26422 -1 x26423 -1 x26424 >= 0 ;
+2 x26633 +2 x26634 +2 x26635 +2 x26636 -1 x26421 -1 x26422 -1 x26423 -1 x26424 -1 x26425 -1 x26426 -1 x26427 -1 x26428 >= 0 ;
+2 x26637 +2 x26638 +2 x26639 +2 x26640 -1 x26425 -1 x26426 -1 x26427 -1 x26428 -1 x26429 -1 x26430 -1 x26431 -1 x26432 >= 0 ;
+2 x26641 +2 x26642 +2 x26643 +2 x26644 -1 x26429 -1 x26430 -1 x26431 -1 x26432 -1 x26433 -1 x26434 -1 x26435 -1 x26436 >= 0 ;
+2 x26645 +2 x26646 +2 x26647 +2 x26648 -1 x26433 -1 x26434 -1 x26435 -1 x26436 -1 x26437 -1 x26438 -1 x26439 -1 x26440 >= 0 ;
+2 x26649 +2 x26650 +2 x26651 +2 x26652 -1 x26437 -1 x26438 -1 x26439 -1 x26440 -1 x26441 -1 x26442 -1 x26443 -1 x26444 >= 0 ;
+2 x26653 +2 x26654 +2 x26655 +2 x26656 -1 x26441 -1 x26442 -1 x26443 -1 x26444 -1 x26445 -1 x26446 -1 x26447 -1 x26448 >= 0 ;
+2 x26657 +2 x26658 +2 x26659 +2 x26660 -1 x26445 -1 x26446 -1 x26447 -1 x26448 -1 x26449 -1 x26450 -1 x26451 -1 x26452 >= 0 ;
+2 x26661 +2 x26662 +2 x26663 +2 x26664 -1 x26449 -1 x26450 -1 x26451 -1 x26452 -1 x26453 -1 x26454 -1 x26455 -1 x26456 >= 0 ;
+2 x26665 +2 x26666 +2 x26667 +2 x26668 -1 x26453 -1 x26454 -1 x26455 -1 x26456 -1 x26457 -1 x26458 -1 x26459 -1 x26460 >= 0 ;
+2 x26669 +2 x26670 +2 x26671 +2 x26672 -1 x26457 -1 x26458 -1 x26459 -1 x26460 -1 x26461 -1 x26462 -1 x26463 -1 x26464 >= 0 ;
+2 x26673 +2 x26674 +2 x26675 +2 x26676 -1 x26461 -1 x26462 -1 x26463 -1 x26464 -1 x26465 -1 x26466 -1 x26467 -1 x26468 >= 0 ;
+2 x26677 +2 x26678 +2 x26679 +2 x26680 -1 x26465 -1 x26466 -1 x26467 -1 x26468 -1 x26469 -1 x26470 -1 x26471 -1 x26472 >= 0 ;
+2 x26681 +2 x26682 +2 x26683 +2 x26684 -1 x26469 -1 x26470 -1 x26471 -1 x26472 -1 x26473 -1 x26474 -1 x26475 -1 x26476 >= 0 ;
+2 x26685 +2 x26686 +2 x26687 +2 x26688 -1 x26473 -1 x26474 -1 x26475 -1 x26476 -1 x26477 -1 x26478 -1 x26479 -1 x26480 >= 0 ;
+2 x26689 +2 x26690 +2 x26691 +2 x26692 -1 x26477 -1 x26478 -1 x26479 -1 x26480 -1 x26481 -1 x26482 -1 x26483 -1 x26484 >= 0 ;
+2 x26693 +2 x26694 +2 x26695 +2 x26696 -1 x26481 -1 x26482 -1 x26483 -1 x26484 -1 x26485 -1 x26486 -1 x26487 -1 x26488 >= 0 ;
+2 x26697 +2 x26698 +2 x26699 +2 x26700 -1 x26485 -1 x26486 -1 x26487 -1 x26488 -1 x26489 -1 x26490 -1 x26491 -1 x26492 >= 0 ;
+2 x26701 +2 x26702 +2 x26703 +2 x26704 -1 x26493 -1 x26494 -1 x26495 -1 x26496 -1 x26497 -1 x26498 -1 x26499 -1 x26500 >= 0 ;
+2 x26705 +2 x26706 +2 x26707 +2 x26708 -1 x26497 -1 x26498 -1 x26499 -1 x26500 -1 x26501 -1 x26502 -1 x26503 -1 x26504 >= 0 ;
+2 x26709 +2 x26710 +2 x26711 +2 x26712 -1 x26501 -1 x26502 -1 x26503 -1 x26504 -1 x26505 -1 x26506 -1 x26507 -1 x26508 >= 0 ;
+2 x26713 +2 x26714 +2 x26715 +2 x26716 -1 x26505 -1 x26506 -1 x26507 -1 x26508 -1 x26509 -1 x26510 -1 x26511 -1 x26512 >= 0 ;
+2 x26717 +2 x26718 +2 x26719 +2 x26720 -1 x26509 -1 x26510 -1 x26511 -1 x26512 -1 x26513 -1 x26514 -1 x26515 -1 x26516 >= 0 ;
+2 x26721 +2 x26722 +2 x26723 +2 x26724 -1 x26513 -1 x26514 -1 x26515 -1 x26516 -1 x26517 -1 x26518 -1 x26519 -1 x26520 >= 0 ;
+2 x26725 +2 x26726 +2 x26727 +2 x26728 -1 x26517 -1 x26518 -1 x26519 -1 x26520 -1 x26521 -1 x26522 -1 x26523 -1 x26524 >= 0 ;
+2 x26729 +2 x26730 +2 x26731 +2 x26732 -1 x26521 -1 x26522 -1 x26523 -1 x26524 -1 x26525 -1 x26526 -1 x26527 -1 x26528 >= 0 ;
+2 x26733 +2 x26734 +2 x26735 +2 x26736 -1 x26525 -1 x26526 -1 x26527 -1 x26528 -1 x26529 -1 x26530 -1 x26531 -1 x26532 >= 0 ;
+2 x26737 +2 x26738 +2 x26739 +2 x26740 -1 x26529 -1 x26530 -1 x26531 -1 x26532 -1 x26533 -1 x26534 -1 x26535 -1 x26536 >= 0 ;
+2 x26741 +2 x26742 +2 x26743 +2 x26744 -1 x26533 -1 x26534 -1 x26535 -1 x26536 -1 x26537 -1 x26538 -1 x26539 -1 x26540 >= 0 ;
+2 x26745 +2 x26746 +2 x26747 +2 x26748 -1 x26537 -1 x26538 -1 x26539 -1 x26540 -1 x26541 -1 x26542 -1 x26543 -1 x26544 >= 0 ;
+2 x26749 +2 x26750 +2 x26751 +2 x26752 -1 x26541 -1 x26542 -1 x26543 -1 x26544 -1 x26545 -1 x26546 -1 x26547 -1 x26548 >= 0 ;
+2 x26753 +2 x26754 +2 x26755 +2 x26756 -1 x26545 -1 x26546 -1 x26547 -1 x26548 -1 x26549 -1 x26550 -1 x26551 -1 x26552 >= 0 ;
+2 x26757 +2 x26758 +2 x26759 +2 x26760 -1 x26549 -1 x26550 -1 x26551 -1 x26552 -1 x26553 -1 x26554 -1 x26555 -1 x26556 >= 0 ;
+2 x26761 +2 x26762 +2 x26763 +2 x26764 -1 x26553 -1 x26554 -1 x26555 -1 x26556 -1 x26557 -1 x26558 -1 x26559 -1 x26560 >= 0 ;
+2 x26765 +2 x26766 +2 x26767 +2 x26768 -1 x26557 -1 x26558 -1 x26559 -1 x26560 -1 x26561 -1 x26562 -1 x26563 -1 x26564 >= 0 ;
+2 x26769 +2 x26770 +2 x26771 +2 x26772 -1 x26561 -1 x26562 -1 x26563 -1 x26564 -1 x26565 -1 x26566 -1 x26567 -1 x26568 >= 0 ;
+2 x26773 +2 x26774 +2 x26775 +2 x26776 -1 x26565 -1 x26566 -1 x26567 -1 x26568 -1 x26569 -1 x26570 -1 x26571 -1 x26572 >= 0 ;
+2 x26777 +2 x26778 +2 x26779 +2 x26780 -1 x26569 -1 x26570 -1 x26571 -1 x26572 -1 x26573 -1 x26574 -1 x26575 -1 x26576 >= 0 ;
+2 x26781 +2 x26782 +2 x26783 +2 x26784 -1 x26573 -1 x26574 -1 x26575 -1 x26576 -1 x26577 -1 x26578 -1 x26579 -1 x26580 >= 0 ;
+2 x26785 +2 x26786 +2 x26787 +2 x26788 -1 x26577 -1 x26578 -1 x26579 -1 x26580 -1 x26581 -1 x26582 -1 x26583 -1 x26584 >= 0 ;
+2 x26789 +2 x26790 +2 x26791 +2 x26792 -1 x26581 -1 x26582 -1 x26583 -1 x26584 -1 x26585 -1 x26586 -1 x26587 -1 x26588 >= 0 ;
+2 x26793 +2 x26794 +2 x26795 +2 x26796 -1 x26585 -1 x26586 -1 x26587 -1 x26588 -1 x26589 -1 x26590 -1 x26591 -1 x26592 >= 0 ;
+2 x26797 +2 x26798 +2 x26799 +2 x26800 -1 x26589 -1 x26590 -1 x26591 -1 x26592 -1 x26593 -1 x26594 -1 x26595 -1 x26596 >= 0 ;
+2 x26801 +2 x26802 +2 x26803 +2 x26804 -1 x26593 -1 x26594 -1 x26595 -1 x26596 -1 x26597 -1 x26598 -1 x26599 -1 x26600 >= 0 ;
+2 x26805 +2 x26806 +2 x26807 +2 x26808 -1 x26597 -1 x26598 -1 x26599 -1 x26600 -1 x26601 -1 x26602 -1 x26603 -1 x26604 >= 0 ;
+2 x26809 +2 x26810 +2 x26811 +2 x26812 -1 x26601 -1 x26602 -1 x26603 -1 x26604 -1 x26605 -1 x26606 -1 x26607 -1 x26608 >= 0 ;
+2 x26813 +2 x26814 +2 x26815 +2 x26816 -1 x26605 -1 x26606 -1 x26607 -1 x26608 -1 x26609 -1 x26610 -1 x26611 -1 x26612 >= 0 ;
+2 x26817 +2 x26818 +2 x26819 +2 x26820 -1 x26609 -1 x26610 -1 x26611 -1 x26612 -1 x26613 -1 x26614 -1 x26615 -1 x26616 >= 0 ;
+2 x26821 +2 x26822 +2 x26823 +2 x26824 -1 x26613 -1 x26614 -1 x26615 -1 x26616 -1 x26617 -1 x26618 -1 x26619 -1 x26620 >= 0 ;
+2 x26825 +2 x26826 +2 x26827 +2 x26828 -1 x26617 -1 x26618 -1 x26619 -1 x26620 -1 x26621 -1 x26622 -1 x26623 -1 x26624 >= 0 ;
+2 x26829 +2 x26830 +2 x26831 +2 x26832 -1 x26621 -1 x26622 -1 x26623 -1 x26624 -1 x26625 -1 x26626 -1 x26627 -1 x26628 >= 0 ;
+2 x26833 +2 x26834 +2 x26835 +2 x26836 -1 x26625 -1 x26626 -1 x26627 -1 x26628 -1 x26629 -1 x26630 -1 x26631 -1 x26632 >= 0 ;
+2 x26837 +2 x26838 +2 x26839 +2 x26840 -1 x26629 -1 x26630 -1 x26631 -1 x26632 -1 x26633 -1 x26634 -1 x26635 -1 x26636 >= 0 ;
+2 x26841 +2 x26842 +2 x26843 +2 x26844 -1 x26633 -1 x26634 -1 x26635 -1 x26636 -1 x26637 -1 x26638 -1 x26639 -1 x26640 >= 0 ;
+2 x26845 +2 x26846 +2 x26847 +2 x26848 -1 x26637 -1 x26638 -1 x26639 -1 x26640 -1 x26641 -1 x26642 -1 x26643 -1 x26644 >= 0 ;
+2 x26849 +2 x26850 +2 x26851 +2 x26852 -1 x26641 -1 x26642 -1 x26643 -1 x26644 -1 x26645 -1 x26646 -1 x26647 -1 x26648 >= 0 ;
+2 x26853 +2 x26854 +2 x26855 +2 x26856 -1 x26645 -1 x26646 -1 x26647 -1 x26648 -1 x26649 -1 x26650 -1 x26651 -1 x26652 >= 0 ;
+2 x26857 +2 x26858 +2 x26859 +2 x26860 -1 x26649 -1 x26650 -1 x26651 -1 x26652 -1 x26653 -1 x26654 -1 x26655 -1 x26656 >= 0 ;
+2 x26861 +2 x26862 +2 x26863 +2 x26864 -1 x26653 -1 x26654 -1 x26655 -1 x26656 -1 x26657 -1 x26658 -1 x26659 -1 x26660 >= 0 ;
+2 x26865 +2 x26866 +2 x26867 +2 x26868 -1 x26657 -1 x26658 -1 x26659 -1 x26660 -1 x26661 -1 x26662 -1 x26663 -1 x26664 >= 0 ;
+2 x26869 +2 x26870 +2 x26871 +2 x26872 -1 x26661 -1 x26662 -1 x26663 -1 x26664 -1 x26665 -1 x26666 -1 x26667 -1 x26668 >= 0 ;
+2 x26873 +2 x26874 +2 x26875 +2 x26876 -1 x26665 -1 x26666 -1 x26667 -1 x26668 -1 x26669 -1 x26670 -1 x26671 -1 x26672 >= 0 ;
+2 x26877 +2 x26878 +2 x26879 +2 x26880 -1 x26669 -1 x26670 -1 x26671 -1 x26672 -1 x26673 -1 x26674 -1 x26675 -1 x26676 >= 0 ;
+2 x26881 +2 x26882 +2 x26883 +2 x26884 -1 x26673 -1 x26674 -1 x26675 -1 x26676 -1 x26677 -1 x26678 -1 x26679 -1 x26680 >= 0 ;
+2 x26885 +2 x26886 +2 x26887 +2 x26888 -1 x26677 -1 x26678 -1 x26679 -1 x26680 -1 x26681 -1 x26682 -1 x26683 -1 x26684 >= 0 ;
+2 x26889 +2 x26890 +2 x26891 +2 x26892 -1 x26681 -1 x26682 -1 x26683 -1 x26684 -1 x26685 -1 x26686 -1 x26687 -1 x26688 >= 0 ;
+2 x26893 +2 x26894 +2 x26895 +2 x26896 -1 x26685 -1 x26686 -1 x26687 -1 x26688 -1 x26689 -1 x26690 -1 x26691 -1 x26692 >= 0 ;
+2 x26897 +2 x26898 +2 x26899 +2 x26900 -1 x26689 -1 x26690 -1 x26691 -1 x26692 -1 x26693 -1 x26694 -1 x26695 -1 x26696 >= 0 ;
+2 x26901 +2 x26902 +2 x26903 +2 x26904 -1 x26693 -1 x26694 -1 x26695 -1 x26696 -1 x26697 -1 x26698 -1 x26699 -1 x26700 >= 0 ;
+2 x26905 +2 x26906 +2 x26907 +2 x26908 -1 x26701 -1 x26702 -1 x26703 -1 x26704 -1 x26705 -1 x26706 -1 x26707 -1 x26708 >= 0 ;
+2 x26909 +2 x26910 +2 x26911 +2 x26912 -1 x26705 -1 x26706 -1 x26707 -1 x26708 -1 x26709 -1 x26710 -1 x26711 -1 x26712 >= 0 ;
+2 x26913 +2 x26914 +2 x26915 +2 x26916 -1 x26709 -1 x26710 -1 x26711 -1 x26712 -1 x26713 -1 x26714 -1 x26715 -1 x26716 >= 0 ;
+2 x26917 +2 x26918 +2 x26919 +2 x26920 -1 x26713 -1 x26714 -1 x26715 -1 x26716 -1 x26717 -1 x26718 -1 x26719 -1 x26720 >= 0 ;
+2 x26921 +2 x26922 +2 x26923 +2 x26924 -1 x26717 -1 x26718 -1 x26719 -1 x26720 -1 x26721 -1 x26722 -1 x26723 -1 x26724 >= 0 ;
+2 x26925 +2 x26926 +2 x26927 +2 x26928 -1 x26721 -1 x26722 -1 x26723 -1 x26724 -1 x26725 -1 x26726 -1 x26727 -1 x26728 >= 0 ;
+2 x26929 +2 x26930 +2 x26931 +2 x26932 -1 x26725 -1 x26726 -1 x26727 -1 x26728 -1 x26729 -1 x26730 -1 x26731 -1 x26732 >= 0 ;
+2 x26933 +2 x26934 +2 x26935 +2 x26936 -1 x26729 -1 x26730 -1 x26731 -1 x26732 -1 x26733 -1 x26734 -1 x26735 -1 x26736 >= 0 ;
+2 x26937 +2 x26938 +2 x26939 +2 x26940 -1 x26733 -1 x26734 -1 x26735 -1 x26736 -1 x26737 -1 x26738 -1 x26739 -1 x26740 >= 0 ;
+2 x26941 +2 x26942 +2 x26943 +2 x26944 -1 x26737 -1 x26738 -1 x26739 -1 x26740 -1 x26741 -1 x26742 -1 x26743 -1 x26744 >= 0 ;
+2 x26945 +2 x26946 +2 x26947 +2 x26948 -1 x26741 -1 x26742 -1 x26743 -1 x26744 -1 x26745 -1 x26746 -1 x26747 -1 x26748 >= 0 ;
+2 x26949 +2 x26950 +2 x26951 +2 x26952 -1 x26745 -1 x26746 -1 x26747 -1 x26748 -1 x26749 -1 x26750 -1 x26751 -1 x26752 >= 0 ;
+2 x26953 +2 x26954 +2 x26955 +2 x26956 -1 x26749 -1 x26750 -1 x26751 -1 x26752 -1 x26753 -1 x26754 -1 x26755 -1 x26756 >= 0 ;
+2 x26957 +2 x26958 +2 x26959 +2 x26960 -1 x26753 -1 x26754 -1 x26755 -1 x26756 -1 x26757 -1 x26758 -1 x26759 -1 x26760 >= 0 ;
+2 x26961 +2 x26962 +2 x26963 +2 x26964 -1 x26757 -1 x26758 -1 x26759 -1 x26760 -1 x26761 -1 x26762 -1 x26763 -1 x26764 >= 0 ;
+2 x26965 +2 x26966 +2 x26967 +2 x26968 -1 x26761 -1 x26762 -1 x26763 -1 x26764 -1 x26765 -1 x26766 -1 x26767 -1 x26768 >= 0 ;
+2 x26969 +2 x26970 +2 x26971 +2 x26972 -1 x26765 -1 x26766 -1 x26767 -1 x26768 -1 x26769 -1 x26770 -1 x26771 -1 x26772 >= 0 ;
+2 x26973 +2 x26974 +2 x26975 +2 x26976 -1 x26769 -1 x26770 -1 x26771 -1 x26772 -1 x26773 -1 x26774 -1 x26775 -1 x26776 >= 0 ;
+2 x26977 +2 x26978 +2 x26979 +2 x26980 -1 x26773 -1 x26774 -1 x26775 -1 x26776 -1 x26777 -1 x26778 -1 x26779 -1 x26780 >= 0 ;
+2 x26981 +2 x26982 +2 x26983 +2 x26984 -1 x26777 -1 x26778 -1 x26779 -1 x26780 -1 x26781 -1 x26782 -1 x26783 -1 x26784 >= 0 ;
+2 x26985 +2 x26986 +2 x26987 +2 x26988 -1 x26781 -1 x26782 -1 x26783 -1 x26784 -1 x26785 -1 x26786 -1 x26787 -1 x26788 >= 0 ;
+2 x26989 +2 x26990 +2 x26991 +2 x26992 -1 x26785 -1 x26786 -1 x26787 -1 x26788 -1 x26789 -1 x26790 -1 x26791 -1 x26792 >= 0 ;
+2 x26993 +2 x26994 +2 x26995 +2 x26996 -1 x26789 -1 x26790 -1 x26791 -1 x26792 -1 x26793 -1 x26794 -1 x26795 -1 x26796 >= 0 ;
+2 x26997 +2 x26998 +2 x26999 +2 x27000 -1 x26793 -1 x26794 -1 x26795 -1 x26796 -1 x26797 -1 x26798 -1 x26799 -1 x26800 >= 0 ;
+2 x27001 +2 x27002 +2 x27003 +2 x27004 -1 x26797 -1 x26798 -1 x26799 -1 x26800 -1 x26801 -1 x26802 -1 x26803 -1 x26804 >= 0 ;
+2 x27005 +2 x27006 +2 x27007 +2 x27008 -1 x26801 -1 x26802 -1 x26803 -1 x26804 -1 x26805 -1 x26806 -1 x26807 -1 x26808 >= 0 ;
+2 x27009 +2 x27010 +2 x27011 +2 x27012 -1 x26805 -1 x26806 -1 x26807 -1 x26808 -1 x26809 -1 x26810 -1 x26811 -1 x26812 >= 0 ;
+2 x27013 +2 x27014 +2 x27015 +2 x27016 -1 x26809 -1 x26810 -1 x26811 -1 x26812 -1 x26813 -1 x26814 -1 x26815 -1 x26816 >= 0 ;
+2 x27017 +2 x27018 +2 x27019 +2 x27020 -1 x26813 -1 x26814 -1 x26815 -1 x26816 -1 x26817 -1 x26818 -1 x26819 -1 x26820 >= 0 ;
+2 x27021 +2 x27022 +2 x27023 +2 x27024 -1 x26817 -1 x26818 -1 x26819 -1 x26820 -1 x26821 -1 x26822 -1 x26823 -1 x26824 >= 0 ;
+2 x27025 +2 x27026 +2 x27027 +2 x27028 -1 x26821 -1 x26822 -1 x26823 -1 x26824 -1 x26825 -1 x26826 -1 x26827 -1 x26828 >= 0 ;
+2 x27029 +2 x27030 +2 x27031 +2 x27032 -1 x26825 -1 x26826 -1 x26827 -1 x26828 -1 x26829 -1 x26830 -1 x26831 -1 x26832 >= 0 ;
+2 x27033 +2 x27034 +2 x27035 +2 x27036 -1 x26829 -1 x26830 -1 x26831 -1 x26832 -1 x26833 -1 x26834 -1 x26835 -1 x26836 >= 0 ;
+2 x27037 +2 x27038 +2 x27039 +2 x27040 -1 x26833 -1 x26834 -1 x26835 -1 x26836 -1 x26837 -1 x26838 -1 x26839 -1 x26840 >= 0 ;
+2 x27041 +2 x27042 +2 x27043 +2 x27044 -1 x26837 -1 x26838 -1 x26839 -1 x26840 -1 x26841 -1 x26842 -1 x26843 -1 x26844 >= 0 ;
+2 x27045 +2 x27046 +2 x27047 +2 x27048 -1 x26841 -1 x26842 -1 x26843 -1 x26844 -1 x26845 -1 x26846 -1 x26847 -1 x26848 >= 0 ;
+2 x27049 +2 x27050 +2 x27051 +2 x27052 -1 x26845 -1 x26846 -1 x26847 -1 x26848 -1 x26849 -1 x26850 -1 x26851 -1 x26852 >= 0 ;
+2 x27053 +2 x27054 +2 x27055 +2 x27056 -1 x26849 -1 x26850 -1 x26851 -1 x26852 -1 x26853 -1 x26854 -1 x26855 -1 x26856 >= 0 ;
+2 x27057 +2 x27058 +2 x27059 +2 x27060 -1 x26853 -1 x26854 -1 x26855 -1 x26856 -1 x26857 -1 x26858 -1 x26859 -1 x26860 >= 0 ;
+2 x27061 +2 x27062 +2 x27063 +2 x27064 -1 x26857 -1 x26858 -1 x26859 -1 x26860 -1 x26861 -1 x26862 -1 x26863 -1 x26864 >= 0 ;
+2 x27065 +2 x27066 +2 x27067 +2 x27068 -1 x26861 -1 x26862 -1 x26863 -1 x26864 -1 x26865 -1 x26866 -1 x26867 -1 x26868 >= 0 ;
+2 x27069 +2 x27070 +2 x27071 +2 x27072 -1 x26865 -1 x26866 -1 x26867 -1 x26868 -1 x26869 -1 x26870 -1 x26871 -1 x26872 >= 0 ;
+2 x27073 +2 x27074 +2 x27075 +2 x27076 -1 x26869 -1 x26870 -1 x26871 -1 x26872 -1 x26873 -1 x26874 -1 x26875 -1 x26876 >= 0 ;
+2 x27077 +2 x27078 +2 x27079 +2 x27080 -1 x26873 -1 x26874 -1 x26875 -1 x26876 -1 x26877 -1 x26878 -1 x26879 -1 x26880 >= 0 ;
+2 x27081 +2 x27082 +2 x27083 +2 x27084 -1 x26877 -1 x26878 -1 x26879 -1 x26880 -1 x26881 -1 x26882 -1 x26883 -1 x26884 >= 0 ;
+2 x27085 +2 x27086 +2 x27087 +2 x27088 -1 x26881 -1 x26882 -1 x26883 -1 x26884 -1 x26885 -1 x26886 -1 x26887 -1 x26888 >= 0 ;
+2 x27089 +2 x27090 +2 x27091 +2 x27092 -1 x26885 -1 x26886 -1 x26887 -1 x26888 -1 x26889 -1 x26890 -1 x26891 -1 x26892 >= 0 ;
+2 x27093 +2 x27094 +2 x27095 +2 x27096 -1 x26889 -1 x26890 -1 x26891 -1 x26892 -1 x26893 -1 x26894 -1 x26895 -1 x26896 >= 0 ;
+2 x27097 +2 x27098 +2 x27099 +2 x27100 -1 x26893 -1 x26894 -1 x26895 -1 x26896 -1 x26897 -1 x26898 -1 x26899 -1 x26900 >= 0 ;
+2 x27101 +2 x27102 +2 x27103 +2 x27104 -1 x26897 -1 x26898 -1 x26899 -1 x26900 -1 x26901 -1 x26902 -1 x26903 -1 x26904 >= 0 ;
+2 x27105 +2 x27106 +2 x27107 +2 x27108 -1 x26905 -1 x26906 -1 x26907 -1 x26908 -1 x26909 -1 x26910 -1 x26911 -1 x26912 >= 0 ;
+2 x27109 +2 x27110 +2 x27111 +2 x27112 -1 x26909 -1 x26910 -1 x26911 -1 x26912 -1 x26913 -1 x26914 -1 x26915 -1 x26916 >= 0 ;
+2 x27113 +2 x27114 +2 x27115 +2 x27116 -1 x26913 -1 x26914 -1 x26915 -1 x26916 -1 x26917 -1 x26918 -1 x26919 -1 x26920 >= 0 ;
+2 x27117 +2 x27118 +2 x27119 +2 x27120 -1 x26917 -1 x26918 -1 x26919 -1 x26920 -1 x26921 -1 x26922 -1 x26923 -1 x26924 >= 0 ;
+2 x27121 +2 x27122 +2 x27123 +2 x27124 -1 x26921 -1 x26922 -1 x26923 -1 x26924 -1 x26925 -1 x26926 -1 x26927 -1 x26928 >= 0 ;
+2 x27125 +2 x27126 +2 x27127 +2 x27128 -1 x26925 -1 x26926 -1 x26927 -1 x26928 -1 x26929 -1 x26930 -1 x26931 -1 x26932 >= 0 ;
+2 x27129 +2 x27130 +2 x27131 +2 x27132 -1 x26929 -1 x26930 -1 x26931 -1 x26932 -1 x26933 -1 x26934 -1 x26935 -1 x26936 >= 0 ;
+2 x27133 +2 x27134 +2 x27135 +2 x27136 -1 x26933 -1 x26934 -1 x26935 -1 x26936 -1 x26937 -1 x26938 -1 x26939 -1 x26940 >= 0 ;
+2 x27137 +2 x27138 +2 x27139 +2 x27140 -1 x26937 -1 x26938 -1 x26939 -1 x26940 -1 x26941 -1 x26942 -1 x26943 -1 x26944 >= 0 ;
+2 x27141 +2 x27142 +2 x27143 +2 x27144 -1 x26941 -1 x26942 -1 x26943 -1 x26944 -1 x26945 -1 x26946 -1 x26947 -1 x26948 >= 0 ;
+2 x27145 +2 x27146 +2 x27147 +2 x27148 -1 x26945 -1 x26946 -1 x26947 -1 x26948 -1 x26949 -1 x26950 -1 x26951 -1 x26952 >= 0 ;
+2 x27149 +2 x27150 +2 x27151 +2 x27152 -1 x26949 -1 x26950 -1 x26951 -1 x26952 -1 x26953 -1 x26954 -1 x26955 -1 x26956 >= 0 ;
+2 x27153 +2 x27154 +2 x27155 +2 x27156 -1 x26953 -1 x26954 -1 x26955 -1 x26956 -1 x26957 -1 x26958 -1 x26959 -1 x26960 >= 0 ;
+2 x27157 +2 x27158 +2 x27159 +2 x27160 -1 x26957 -1 x26958 -1 x26959 -1 x26960 -1 x26961 -1 x26962 -1 x26963 -1 x26964 >= 0 ;
+2 x27161 +2 x27162 +2 x27163 +2 x27164 -1 x26961 -1 x26962 -1 x26963 -1 x26964 -1 x26965 -1 x26966 -1 x26967 -1 x26968 >= 0 ;
+2 x27165 +2 x27166 +2 x27167 +2 x27168 -1 x26965 -1 x26966 -1 x26967 -1 x26968 -1 x26969 -1 x26970 -1 x26971 -1 x26972 >= 0 ;
+2 x27169 +2 x27170 +2 x27171 +2 x27172 -1 x26969 -1 x26970 -1 x26971 -1 x26972 -1 x26973 -1 x26974 -1 x26975 -1 x26976 >= 0 ;
+2 x27173 +2 x27174 +2 x27175 +2 x27176 -1 x26973 -1 x26974 -1 x26975 -1 x26976 -1 x26977 -1 x26978 -1 x26979 -1 x26980 >= 0 ;
+2 x27177 +2 x27178 +2 x27179 +2 x27180 -1 x26977 -1 x26978 -1 x26979 -1 x26980 -1 x26981 -1 x26982 -1 x26983 -1 x26984 >= 0 ;
+2 x27181 +2 x27182 +2 x27183 +2 x27184 -1 x26981 -1 x26982 -1 x26983 -1 x26984 -1 x26985 -1 x26986 -1 x26987 -1 x26988 >= 0 ;
+2 x27185 +2 x27186 +2 x27187 +2 x27188 -1 x26985 -1 x26986 -1 x26987 -1 x26988 -1 x26989 -1 x26990 -1 x26991 -1 x26992 >= 0 ;
+2 x27189 +2 x27190 +2 x27191 +2 x27192 -1 x26989 -1 x26990 -1 x26991 -1 x26992 -1 x26993 -1 x26994 -1 x26995 -1 x26996 >= 0 ;
+2 x27193 +2 x27194 +2 x27195 +2 x27196 -1 x26993 -1 x26994 -1 x26995 -1 x26996 -1 x26997 -1 x26998 -1 x26999 -1 x27000 >= 0 ;
+2 x27197 +2 x27198 +2 x27199 +2 x27200 -1 x26997 -1 x26998 -1 x26999 -1 x27000 -1 x27001 -1 x27002 -1 x27003 -1 x27004 >= 0 ;
+2 x27201 +2 x27202 +2 x27203 +2 x27204 -1 x27001 -1 x27002 -1 x27003 -1 x27004 -1 x27005 -1 x27006 -1 x27007 -1 x27008 >= 0 ;
+2 x27205 +2 x27206 +2 x27207 +2 x27208 -1 x27005 -1 x27006 -1 x27007 -1 x27008 -1 x27009 -1 x27010 -1 x27011 -1 x27012 >= 0 ;
+2 x27209 +2 x27210 +2 x27211 +2 x27212 -1 x27009 -1 x27010 -1 x27011 -1 x27012 -1 x27013 -1 x27014 -1 x27015 -1 x27016 >= 0 ;
+2 x27213 +2 x27214 +2 x27215 +2 x27216 -1 x27013 -1 x27014 -1 x27015 -1 x27016 -1 x27017 -1 x27018 -1 x27019 -1 x27020 >= 0 ;
+2 x27217 +2 x27218 +2 x27219 +2 x27220 -1 x27017 -1 x27018 -1 x27019 -1 x27020 -1 x27021 -1 x27022 -1 x27023 -1 x27024 >= 0 ;
+2 x27221 +2 x27222 +2 x27223 +2 x27224 -1 x27021 -1 x27022 -1 x27023 -1 x27024 -1 x27025 -1 x27026 -1 x27027 -1 x27028 >= 0 ;
+2 x27225 +2 x27226 +2 x27227 +2 x27228 -1 x27025 -1 x27026 -1 x27027 -1 x27028 -1 x27029 -1 x27030 -1 x27031 -1 x27032 >= 0 ;
+2 x27229 +2 x27230 +2 x27231 +2 x27232 -1 x27029 -1 x27030 -1 x27031 -1 x27032 -1 x27033 -1 x27034 -1 x27035 -1 x27036 >= 0 ;
+2 x27233 +2 x27234 +2 x27235 +2 x27236 -1 x27033 -1 x27034 -1 x27035 -1 x27036 -1 x27037 -1 x27038 -1 x27039 -1 x27040 >= 0 ;
+2 x27237 +2 x27238 +2 x27239 +2 x27240 -1 x27037 -1 x27038 -1 x27039 -1 x27040 -1 x27041 -1 x27042 -1 x27043 -1 x27044 >= 0 ;
+2 x27241 +2 x27242 +2 x27243 +2 x27244 -1 x27041 -1 x27042 -1 x27043 -1 x27044 -1 x27045 -1 x27046 -1 x27047 -1 x27048 >= 0 ;
+2 x27245 +2 x27246 +2 x27247 +2 x27248 -1 x27045 -1 x27046 -1 x27047 -1 x27048 -1 x27049 -1 x27050 -1 x27051 -1 x27052 >= 0 ;
+2 x27249 +2 x27250 +2 x27251 +2 x27252 -1 x27049 -1 x27050 -1 x27051 -1 x27052 -1 x27053 -1 x27054 -1 x27055 -1 x27056 >= 0 ;
+2 x27253 +2 x27254 +2 x27255 +2 x27256 -1 x27053 -1 x27054 -1 x27055 -1 x27056 -1 x27057 -1 x27058 -1 x27059 -1 x27060 >= 0 ;
+2 x27257 +2 x27258 +2 x27259 +2 x27260 -1 x27057 -1 x27058 -1 x27059 -1 x27060 -1 x27061 -1 x27062 -1 x27063 -1 x27064 >= 0 ;
+2 x27261 +2 x27262 +2 x27263 +2 x27264 -1 x27061 -1 x27062 -1 x27063 -1 x27064 -1 x27065 -1 x27066 -1 x27067 -1 x27068 >= 0 ;
+2 x27265 +2 x27266 +2 x27267 +2 x27268 -1 x27065 -1 x27066 -1 x27067 -1 x27068 -1 x27069 -1 x27070 -1 x27071 -1 x27072 >= 0 ;
+2 x27269 +2 x27270 +2 x27271 +2 x27272 -1 x27069 -1 x27070 -1 x27071 -1 x27072 -1 x27073 -1 x27074 -1 x27075 -1 x27076 >= 0 ;
+2 x27273 +2 x27274 +2 x27275 +2 x27276 -1 x27073 -1 x27074 -1 x27075 -1 x27076 -1 x27077 -1 x27078 -1 x27079 -1 x27080 >= 0 ;
+2 x27277 +2 x27278 +2 x27279 +2 x27280 -1 x27077 -1 x27078 -1 x27079 -1 x27080 -1 x27081 -1 x27082 -1 x27083 -1 x27084 >= 0 ;
+2 x27281 +2 x27282 +2 x27283 +2 x27284 -1 x27081 -1 x27082 -1 x27083 -1 x27084 -1 x27085 -1 x27086 -1 x27087 -1 x27088 >= 0 ;
+2 x27285 +2 x27286 +2 x27287 +2 x27288 -1 x27085 -1 x27086 -1 x27087 -1 x27088 -1 x27089 -1 x27090 -1 x27091 -1 x27092 >= 0 ;
+2 x27289 +2 x27290 +2 x27291 +2 x27292 -1 x27089 -1 x27090 -1 x27091 -1 x27092 -1 x27093 -1 x27094 -1 x27095 -1 x27096 >= 0 ;
+2 x27293 +2 x27294 +2 x27295 +2 x27296 -1 x27093 -1 x27094 -1 x27095 -1 x27096 -1 x27097 -1 x27098 -1 x27099 -1 x27100 >= 0 ;
+2 x27297 +2 x27298 +2 x27299 +2 x27300 -1 x27097 -1 x27098 -1 x27099 -1 x27100 -1 x27101 -1 x27102 -1 x27103 -1 x27104 >= 0 ;
+2 x27301 +2 x27302 +2 x27303 +2 x27304 -1 x27105 -1 x27106 -1 x27107 -1 x27108 -1 x27109 -1 x27110 -1 x27111 -1 x27112 >= 0 ;
+2 x27305 +2 x27306 +2 x27307 +2 x27308 -1 x27109 -1 x27110 -1 x27111 -1 x27112 -1 x27113 -1 x27114 -1 x27115 -1 x27116 >= 0 ;
+2 x27309 +2 x27310 +2 x27311 +2 x27312 -1 x27113 -1 x27114 -1 x27115 -1 x27116 -1 x27117 -1 x27118 -1 x27119 -1 x27120 >= 0 ;
+2 x27313 +2 x27314 +2 x27315 +2 x27316 -1 x27117 -1 x27118 -1 x27119 -1 x27120 -1 x27121 -1 x27122 -1 x27123 -1 x27124 >= 0 ;
+2 x27317 +2 x27318 +2 x27319 +2 x27320 -1 x27121 -1 x27122 -1 x27123 -1 x27124 -1 x27125 -1 x27126 -1 x27127 -1 x27128 >= 0 ;
+2 x27321 +2 x27322 +2 x27323 +2 x27324 -1 x27125 -1 x27126 -1 x27127 -1 x27128 -1 x27129 -1 x27130 -1 x27131 -1 x27132 >= 0 ;
+2 x27325 +2 x27326 +2 x27327 +2 x27328 -1 x27129 -1 x27130 -1 x27131 -1 x27132 -1 x27133 -1 x27134 -1 x27135 -1 x27136 >= 0 ;
+2 x27329 +2 x27330 +2 x27331 +2 x27332 -1 x27133 -1 x27134 -1 x27135 -1 x27136 -1 x27137 -1 x27138 -1 x27139 -1 x27140 >= 0 ;
+2 x27333 +2 x27334 +2 x27335 +2 x27336 -1 x27137 -1 x27138 -1 x27139 -1 x27140 -1 x27141 -1 x27142 -1 x27143 -1 x27144 >= 0 ;
+2 x27337 +2 x27338 +2 x27339 +2 x27340 -1 x27141 -1 x27142 -1 x27143 -1 x27144 -1 x27145 -1 x27146 -1 x27147 -1 x27148 >= 0 ;
+2 x27341 +2 x27342 +2 x27343 +2 x27344 -1 x27145 -1 x27146 -1 x27147 -1 x27148 -1 x27149 -1 x27150 -1 x27151 -1 x27152 >= 0 ;
+2 x27345 +2 x27346 +2 x27347 +2 x27348 -1 x27149 -1 x27150 -1 x27151 -1 x27152 -1 x27153 -1 x27154 -1 x27155 -1 x27156 >= 0 ;
+2 x27349 +2 x27350 +2 x27351 +2 x27352 -1 x27153 -1 x27154 -1 x27155 -1 x27156 -1 x27157 -1 x27158 -1 x27159 -1 x27160 >= 0 ;
+2 x27353 +2 x27354 +2 x27355 +2 x27356 -1 x27157 -1 x27158 -1 x27159 -1 x27160 -1 x27161 -1 x27162 -1 x27163 -1 x27164 >= 0 ;
+2 x27357 +2 x27358 +2 x27359 +2 x27360 -1 x27161 -1 x27162 -1 x27163 -1 x27164 -1 x27165 -1 x27166 -1 x27167 -1 x27168 >= 0 ;
+2 x27361 +2 x27362 +2 x27363 +2 x27364 -1 x27165 -1 x27166 -1 x27167 -1 x27168 -1 x27169 -1 x27170 -1 x27171 -1 x27172 >= 0 ;
+2 x27365 +2 x27366 +2 x27367 +2 x27368 -1 x27169 -1 x27170 -1 x27171 -1 x27172 -1 x27173 -1 x27174 -1 x27175 -1 x27176 >= 0 ;
+2 x27369 +2 x27370 +2 x27371 +2 x27372 -1 x27173 -1 x27174 -1 x27175 -1 x27176 -1 x27177 -1 x27178 -1 x27179 -1 x27180 >= 0 ;
+2 x27373 +2 x27374 +2 x27375 +2 x27376 -1 x27177 -1 x27178 -1 x27179 -1 x27180 -1 x27181 -1 x27182 -1 x27183 -1 x27184 >= 0 ;
+2 x27377 +2 x27378 +2 x27379 +2 x27380 -1 x27181 -1 x27182 -1 x27183 -1 x27184 -1 x27185 -1 x27186 -1 x27187 -1 x27188 >= 0 ;
+2 x27381 +2 x27382 +2 x27383 +2 x27384 -1 x27185 -1 x27186 -1 x27187 -1 x27188 -1 x27189 -1 x27190 -1 x27191 -1 x27192 >= 0 ;
+2 x27385 +2 x27386 +2 x27387 +2 x27388 -1 x27189 -1 x27190 -1 x27191 -1 x27192 -1 x27193 -1 x27194 -1 x27195 -1 x27196 >= 0 ;
+2 x27389 +2 x27390 +2 x27391 +2 x27392 -1 x27193 -1 x27194 -1 x27195 -1 x27196 -1 x27197 -1 x27198 -1 x27199 -1 x27200 >= 0 ;
+2 x27393 +2 x27394 +2 x27395 +2 x27396 -1 x27197 -1 x27198 -1 x27199 -1 x27200 -1 x27201 -1 x27202 -1 x27203 -1 x27204 >= 0 ;
+2 x27397 +2 x27398 +2 x27399 +2 x27400 -1 x27201 -1 x27202 -1 x27203 -1 x27204 -1 x27205 -1 x27206 -1 x27207 -1 x27208 >= 0 ;
+2 x27401 +2 x27402 +2 x27403 +2 x27404 -1 x27205 -1 x27206 -1 x27207 -1 x27208 -1 x27209 -1 x27210 -1 x27211 -1 x27212 >= 0 ;
+2 x27405 +2 x27406 +2 x27407 +2 x27408 -1 x27209 -1 x27210 -1 x27211 -1 x27212 -1 x27213 -1 x27214 -1 x27215 -1 x27216 >= 0 ;
+2 x27409 +2 x27410 +2 x27411 +2 x27412 -1 x27213 -1 x27214 -1 x27215 -1 x27216 -1 x27217 -1 x27218 -1 x27219 -1 x27220 >= 0 ;
+2 x27413 +2 x27414 +2 x27415 +2 x27416 -1 x27217 -1 x27218 -1 x27219 -1 x27220 -1 x27221 -1 x27222 -1 x27223 -1 x27224 >= 0 ;
+2 x27417 +2 x27418 +2 x27419 +2 x27420 -1 x27221 -1 x27222 -1 x27223 -1 x27224 -1 x27225 -1 x27226 -1 x27227 -1 x27228 >= 0 ;
+2 x27421 +2 x27422 +2 x27423 +2 x27424 -1 x27225 -1 x27226 -1 x27227 -1 x27228 -1 x27229 -1 x27230 -1 x27231 -1 x27232 >= 0 ;
+2 x27425 +2 x27426 +2 x27427 +2 x27428 -1 x27229 -1 x27230 -1 x27231 -1 x27232 -1 x27233 -1 x27234 -1 x27235 -1 x27236 >= 0 ;
+2 x27429 +2 x27430 +2 x27431 +2 x27432 -1 x27233 -1 x27234 -1 x27235 -1 x27236 -1 x27237 -1 x27238 -1 x27239 -1 x27240 >= 0 ;
+2 x27433 +2 x27434 +2 x27435 +2 x27436 -1 x27237 -1 x27238 -1 x27239 -1 x27240 -1 x27241 -1 x27242 -1 x27243 -1 x27244 >= 0 ;
+2 x27437 +2 x27438 +2 x27439 +2 x27440 -1 x27241 -1 x27242 -1 x27243 -1 x27244 -1 x27245 -1 x27246 -1 x27247 -1 x27248 >= 0 ;
+2 x27441 +2 x27442 +2 x27443 +2 x27444 -1 x27245 -1 x27246 -1 x27247 -1 x27248 -1 x27249 -1 x27250 -1 x27251 -1 x27252 >= 0 ;
+2 x27445 +2 x27446 +2 x27447 +2 x27448 -1 x27249 -1 x27250 -1 x27251 -1 x27252 -1 x27253 -1 x27254 -1 x27255 -1 x27256 >= 0 ;
+2 x27449 +2 x27450 +2 x27451 +2 x27452 -1 x27253 -1 x27254 -1 x27255 -1 x27256 -1 x27257 -1 x27258 -1 x27259 -1 x27260 >= 0 ;
+2 x27453 +2 x27454 +2 x27455 +2 x27456 -1 x27257 -1 x27258 -1 x27259 -1 x27260 -1 x27261 -1 x27262 -1 x27263 -1 x27264 >= 0 ;
+2 x27457 +2 x27458 +2 x27459 +2 x27460 -1 x27261 -1 x27262 -1 x27263 -1 x27264 -1 x27265 -1 x27266 -1 x27267 -1 x27268 >= 0 ;
+2 x27461 +2 x27462 +2 x27463 +2 x27464 -1 x27265 -1 x27266 -1 x27267 -1 x27268 -1 x27269 -1 x27270 -1 x27271 -1 x27272 >= 0 ;
+2 x27465 +2 x27466 +2 x27467 +2 x27468 -1 x27269 -1 x27270 -1 x27271 -1 x27272 -1 x27273 -1 x27274 -1 x27275 -1 x27276 >= 0 ;
+2 x27469 +2 x27470 +2 x27471 +2 x27472 -1 x27273 -1 x27274 -1 x27275 -1 x27276 -1 x27277 -1 x27278 -1 x27279 -1 x27280 >= 0 ;
+2 x27473 +2 x27474 +2 x27475 +2 x27476 -1 x27277 -1 x27278 -1 x27279 -1 x27280 -1 x27281 -1 x27282 -1 x27283 -1 x27284 >= 0 ;
+2 x27477 +2 x27478 +2 x27479 +2 x27480 -1 x27281 -1 x27282 -1 x27283 -1 x27284 -1 x27285 -1 x27286 -1 x27287 -1 x27288 >= 0 ;
+2 x27481 +2 x27482 +2 x27483 +2 x27484 -1 x27285 -1 x27286 -1 x27287 -1 x27288 -1 x27289 -1 x27290 -1 x27291 -1 x27292 >= 0 ;
+2 x27485 +2 x27486 +2 x27487 +2 x27488 -1 x27289 -1 x27290 -1 x27291 -1 x27292 -1 x27293 -1 x27294 -1 x27295 -1 x27296 >= 0 ;
+2 x27489 +2 x27490 +2 x27491 +2 x27492 -1 x27293 -1 x27294 -1 x27295 -1 x27296 -1 x27297 -1 x27298 -1 x27299 -1 x27300 >= 0 ;
+2 x27493 +2 x27494 +2 x27495 +2 x27496 -1 x27301 -1 x27302 -1 x27303 -1 x27304 -1 x27305 -1 x27306 -1 x27307 -1 x27308 >= 0 ;
+2 x27497 +2 x27498 +2 x27499 +2 x27500 -1 x27305 -1 x27306 -1 x27307 -1 x27308 -1 x27309 -1 x27310 -1 x27311 -1 x27312 >= 0 ;
+2 x27501 +2 x27502 +2 x27503 +2 x27504 -1 x27309 -1 x27310 -1 x27311 -1 x27312 -1 x27313 -1 x27314 -1 x27315 -1 x27316 >= 0 ;
+2 x27505 +2 x27506 +2 x27507 +2 x27508 -1 x27313 -1 x27314 -1 x27315 -1 x27316 -1 x27317 -1 x27318 -1 x27319 -1 x27320 >= 0 ;
+2 x27509 +2 x27510 +2 x27511 +2 x27512 -1 x27317 -1 x27318 -1 x27319 -1 x27320 -1 x27321 -1 x27322 -1 x27323 -1 x27324 >= 0 ;
+2 x27513 +2 x27514 +2 x27515 +2 x27516 -1 x27321 -1 x27322 -1 x27323 -1 x27324 -1 x27325 -1 x27326 -1 x27327 -1 x27328 >= 0 ;
+2 x27517 +2 x27518 +2 x27519 +2 x27520 -1 x27325 -1 x27326 -1 x27327 -1 x27328 -1 x27329 -1 x27330 -1 x27331 -1 x27332 >= 0 ;
+2 x27521 +2 x27522 +2 x27523 +2 x27524 -1 x27329 -1 x27330 -1 x27331 -1 x27332 -1 x27333 -1 x27334 -1 x27335 -1 x27336 >= 0 ;
+2 x27525 +2 x27526 +2 x27527 +2 x27528 -1 x27333 -1 x27334 -1 x27335 -1 x27336 -1 x27337 -1 x27338 -1 x27339 -1 x27340 >= 0 ;
+2 x27529 +2 x27530 +2 x27531 +2 x27532 -1 x27337 -1 x27338 -1 x27339 -1 x27340 -1 x27341 -1 x27342 -1 x27343 -1 x27344 >= 0 ;
+2 x27533 +2 x27534 +2 x27535 +2 x27536 -1 x27341 -1 x27342 -1 x27343 -1 x27344 -1 x27345 -1 x27346 -1 x27347 -1 x27348 >= 0 ;
+2 x27537 +2 x27538 +2 x27539 +2 x27540 -1 x27345 -1 x27346 -1 x27347 -1 x27348 -1 x27349 -1 x27350 -1 x27351 -1 x27352 >= 0 ;
+2 x27541 +2 x27542 +2 x27543 +2 x27544 -1 x27349 -1 x27350 -1 x27351 -1 x27352 -1 x27353 -1 x27354 -1 x27355 -1 x27356 >= 0 ;
+2 x27545 +2 x27546 +2 x27547 +2 x27548 -1 x27353 -1 x27354 -1 x27355 -1 x27356 -1 x27357 -1 x27358 -1 x27359 -1 x27360 >= 0 ;
+2 x27549 +2 x27550 +2 x27551 +2 x27552 -1 x27357 -1 x27358 -1 x27359 -1 x27360 -1 x27361 -1 x27362 -1 x27363 -1 x27364 >= 0 ;
+2 x27553 +2 x27554 +2 x27555 +2 x27556 -1 x27361 -1 x27362 -1 x27363 -1 x27364 -1 x27365 -1 x27366 -1 x27367 -1 x27368 >= 0 ;
+2 x27557 +2 x27558 +2 x27559 +2 x27560 -1 x27365 -1 x27366 -1 x27367 -1 x27368 -1 x27369 -1 x27370 -1 x27371 -1 x27372 >= 0 ;
+2 x27561 +2 x27562 +2 x27563 +2 x27564 -1 x27369 -1 x27370 -1 x27371 -1 x27372 -1 x27373 -1 x27374 -1 x27375 -1 x27376 >= 0 ;
+2 x27565 +2 x27566 +2 x27567 +2 x27568 -1 x27373 -1 x27374 -1 x27375 -1 x27376 -1 x27377 -1 x27378 -1 x27379 -1 x27380 >= 0 ;
+2 x27569 +2 x27570 +2 x27571 +2 x27572 -1 x27377 -1 x27378 -1 x27379 -1 x27380 -1 x27381 -1 x27382 -1 x27383 -1 x27384 >= 0 ;
+2 x27573 +2 x27574 +2 x27575 +2 x27576 -1 x27381 -1 x27382 -1 x27383 -1 x27384 -1 x27385 -1 x27386 -1 x27387 -1 x27388 >= 0 ;
+2 x27577 +2 x27578 +2 x27579 +2 x27580 -1 x27385 -1 x27386 -1 x27387 -1 x27388 -1 x27389 -1 x27390 -1 x27391 -1 x27392 >= 0 ;
+2 x27581 +2 x27582 +2 x27583 +2 x27584 -1 x27389 -1 x27390 -1 x27391 -1 x27392 -1 x27393 -1 x27394 -1 x27395 -1 x27396 >= 0 ;
+2 x27585 +2 x27586 +2 x27587 +2 x27588 -1 x27393 -1 x27394 -1 x27395 -1 x27396 -1 x27397 -1 x27398 -1 x27399 -1 x27400 >= 0 ;
+2 x27589 +2 x27590 +2 x27591 +2 x27592 -1 x27397 -1 x27398 -1 x27399 -1 x27400 -1 x27401 -1 x27402 -1 x27403 -1 x27404 >= 0 ;
+2 x27593 +2 x27594 +2 x27595 +2 x27596 -1 x27401 -1 x27402 -1 x27403 -1 x27404 -1 x27405 -1 x27406 -1 x27407 -1 x27408 >= 0 ;
+2 x27597 +2 x27598 +2 x27599 +2 x27600 -1 x27405 -1 x27406 -1 x27407 -1 x27408 -1 x27409 -1 x27410 -1 x27411 -1 x27412 >= 0 ;
+2 x27601 +2 x27602 +2 x27603 +2 x27604 -1 x27409 -1 x27410 -1 x27411 -1 x27412 -1 x27413 -1 x27414 -1 x27415 -1 x27416 >= 0 ;
+2 x27605 +2 x27606 +2 x27607 +2 x27608 -1 x27413 -1 x27414 -1 x27415 -1 x27416 -1 x27417 -1 x27418 -1 x27419 -1 x27420 >= 0 ;
+2 x27609 +2 x27610 +2 x27611 +2 x27612 -1 x27417 -1 x27418 -1 x27419 -1 x27420 -1 x27421 -1 x27422 -1 x27423 -1 x27424 >= 0 ;
+2 x27613 +2 x27614 +2 x27615 +2 x27616 -1 x27421 -1 x27422 -1 x27423 -1 x27424 -1 x27425 -1 x27426 -1 x27427 -1 x27428 >= 0 ;
+2 x27617 +2 x27618 +2 x27619 +2 x27620 -1 x27425 -1 x27426 -1 x27427 -1 x27428 -1 x27429 -1 x27430 -1 x27431 -1 x27432 >= 0 ;
+2 x27621 +2 x27622 +2 x27623 +2 x27624 -1 x27429 -1 x27430 -1 x27431 -1 x27432 -1 x27433 -1 x27434 -1 x27435 -1 x27436 >= 0 ;
+2 x27625 +2 x27626 +2 x27627 +2 x27628 -1 x27433 -1 x27434 -1 x27435 -1 x27436 -1 x27437 -1 x27438 -1 x27439 -1 x27440 >= 0 ;
+2 x27629 +2 x27630 +2 x27631 +2 x27632 -1 x27437 -1 x27438 -1 x27439 -1 x27440 -1 x27441 -1 x27442 -1 x27443 -1 x27444 >= 0 ;
+2 x27633 +2 x27634 +2 x27635 +2 x27636 -1 x27441 -1 x27442 -1 x27443 -1 x27444 -1 x27445 -1 x27446 -1 x27447 -1 x27448 >= 0 ;
+2 x27637 +2 x27638 +2 x27639 +2 x27640 -1 x27445 -1 x27446 -1 x27447 -1 x27448 -1 x27449 -1 x27450 -1 x27451 -1 x27452 >= 0 ;
+2 x27641 +2 x27642 +2 x27643 +2 x27644 -1 x27449 -1 x27450 -1 x27451 -1 x27452 -1 x27453 -1 x27454 -1 x27455 -1 x27456 >= 0 ;
+2 x27645 +2 x27646 +2 x27647 +2 x27648 -1 x27453 -1 x27454 -1 x27455 -1 x27456 -1 x27457 -1 x27458 -1 x27459 -1 x27460 >= 0 ;
+2 x27649 +2 x27650 +2 x27651 +2 x27652 -1 x27457 -1 x27458 -1 x27459 -1 x27460 -1 x27461 -1 x27462 -1 x27463 -1 x27464 >= 0 ;
+2 x27653 +2 x27654 +2 x27655 +2 x27656 -1 x27461 -1 x27462 -1 x27463 -1 x27464 -1 x27465 -1 x27466 -1 x27467 -1 x27468 >= 0 ;
+2 x27657 +2 x27658 +2 x27659 +2 x27660 -1 x27465 -1 x27466 -1 x27467 -1 x27468 -1 x27469 -1 x27470 -1 x27471 -1 x27472 >= 0 ;
+2 x27661 +2 x27662 +2 x27663 +2 x27664 -1 x27469 -1 x27470 -1 x27471 -1 x27472 -1 x27473 -1 x27474 -1 x27475 -1 x27476 >= 0 ;
+2 x27665 +2 x27666 +2 x27667 +2 x27668 -1 x27473 -1 x27474 -1 x27475 -1 x27476 -1 x27477 -1 x27478 -1 x27479 -1 x27480 >= 0 ;
+2 x27669 +2 x27670 +2 x27671 +2 x27672 -1 x27477 -1 x27478 -1 x27479 -1 x27480 -1 x27481 -1 x27482 -1 x27483 -1 x27484 >= 0 ;
+2 x27673 +2 x27674 +2 x27675 +2 x27676 -1 x27481 -1 x27482 -1 x27483 -1 x27484 -1 x27485 -1 x27486 -1 x27487 -1 x27488 >= 0 ;
+2 x27677 +2 x27678 +2 x27679 +2 x27680 -1 x27485 -1 x27486 -1 x27487 -1 x27488 -1 x27489 -1 x27490 -1 x27491 -1 x27492 >= 0 ;
+2 x27681 +2 x27682 +2 x27683 +2 x27684 -1 x27493 -1 x27494 -1 x27495 -1 x27496 -1 x27497 -1 x27498 -1 x27499 -1 x27500 >= 0 ;
+2 x27685 +2 x27686 +2 x27687 +2 x27688 -1 x27497 -1 x27498 -1 x27499 -1 x27500 -1 x27501 -1 x27502 -1 x27503 -1 x27504 >= 0 ;
+2 x27689 +2 x27690 +2 x27691 +2 x27692 -1 x27501 -1 x27502 -1 x27503 -1 x27504 -1 x27505 -1 x27506 -1 x27507 -1 x27508 >= 0 ;
+2 x27693 +2 x27694 +2 x27695 +2 x27696 -1 x27505 -1 x27506 -1 x27507 -1 x27508 -1 x27509 -1 x27510 -1 x27511 -1 x27512 >= 0 ;
+2 x27697 +2 x27698 +2 x27699 +2 x27700 -1 x27509 -1 x27510 -1 x27511 -1 x27512 -1 x27513 -1 x27514 -1 x27515 -1 x27516 >= 0 ;
+2 x27701 +2 x27702 +2 x27703 +2 x27704 -1 x27513 -1 x27514 -1 x27515 -1 x27516 -1 x27517 -1 x27518 -1 x27519 -1 x27520 >= 0 ;
+2 x27705 +2 x27706 +2 x27707 +2 x27708 -1 x27517 -1 x27518 -1 x27519 -1 x27520 -1 x27521 -1 x27522 -1 x27523 -1 x27524 >= 0 ;
+2 x27709 +2 x27710 +2 x27711 +2 x27712 -1 x27521 -1 x27522 -1 x27523 -1 x27524 -1 x27525 -1 x27526 -1 x27527 -1 x27528 >= 0 ;
+2 x27713 +2 x27714 +2 x27715 +2 x27716 -1 x27525 -1 x27526 -1 x27527 -1 x27528 -1 x27529 -1 x27530 -1 x27531 -1 x27532 >= 0 ;
+2 x27717 +2 x27718 +2 x27719 +2 x27720 -1 x27529 -1 x27530 -1 x27531 -1 x27532 -1 x27533 -1 x27534 -1 x27535 -1 x27536 >= 0 ;
+2 x27721 +2 x27722 +2 x27723 +2 x27724 -1 x27533 -1 x27534 -1 x27535 -1 x27536 -1 x27537 -1 x27538 -1 x27539 -1 x27540 >= 0 ;
+2 x27725 +2 x27726 +2 x27727 +2 x27728 -1 x27537 -1 x27538 -1 x27539 -1 x27540 -1 x27541 -1 x27542 -1 x27543 -1 x27544 >= 0 ;
+2 x27729 +2 x27730 +2 x27731 +2 x27732 -1 x27541 -1 x27542 -1 x27543 -1 x27544 -1 x27545 -1 x27546 -1 x27547 -1 x27548 >= 0 ;
+2 x27733 +2 x27734 +2 x27735 +2 x27736 -1 x27545 -1 x27546 -1 x27547 -1 x27548 -1 x27549 -1 x27550 -1 x27551 -1 x27552 >= 0 ;
+2 x27737 +2 x27738 +2 x27739 +2 x27740 -1 x27549 -1 x27550 -1 x27551 -1 x27552 -1 x27553 -1 x27554 -1 x27555 -1 x27556 >= 0 ;
+2 x27741 +2 x27742 +2 x27743 +2 x27744 -1 x27553 -1 x27554 -1 x27555 -1 x27556 -1 x27557 -1 x27558 -1 x27559 -1 x27560 >= 0 ;
+2 x27745 +2 x27746 +2 x27747 +2 x27748 -1 x27557 -1 x27558 -1 x27559 -1 x27560 -1 x27561 -1 x27562 -1 x27563 -1 x27564 >= 0 ;
+2 x27749 +2 x27750 +2 x27751 +2 x27752 -1 x27561 -1 x27562 -1 x27563 -1 x27564 -1 x27565 -1 x27566 -1 x27567 -1 x27568 >= 0 ;
+2 x27753 +2 x27754 +2 x27755 +2 x27756 -1 x27565 -1 x27566 -1 x27567 -1 x27568 -1 x27569 -1 x27570 -1 x27571 -1 x27572 >= 0 ;
+2 x27757 +2 x27758 +2 x27759 +2 x27760 -1 x27569 -1 x27570 -1 x27571 -1 x27572 -1 x27573 -1 x27574 -1 x27575 -1 x27576 >= 0 ;
+2 x27761 +2 x27762 +2 x27763 +2 x27764 -1 x27573 -1 x27574 -1 x27575 -1 x27576 -1 x27577 -1 x27578 -1 x27579 -1 x27580 >= 0 ;
+2 x27765 +2 x27766 +2 x27767 +2 x27768 -1 x27577 -1 x27578 -1 x27579 -1 x27580 -1 x27581 -1 x27582 -1 x27583 -1 x27584 >= 0 ;
+2 x27769 +2 x27770 +2 x27771 +2 x27772 -1 x27581 -1 x27582 -1 x27583 -1 x27584 -1 x27585 -1 x27586 -1 x27587 -1 x27588 >= 0 ;
+2 x27773 +2 x27774 +2 x27775 +2 x27776 -1 x27585 -1 x27586 -1 x27587 -1 x27588 -1 x27589 -1 x27590 -1 x27591 -1 x27592 >= 0 ;
+2 x27777 +2 x27778 +2 x27779 +2 x27780 -1 x27589 -1 x27590 -1 x27591 -1 x27592 -1 x27593 -1 x27594 -1 x27595 -1 x27596 >= 0 ;
+2 x27781 +2 x27782 +2 x27783 +2 x27784 -1 x27593 -1 x27594 -1 x27595 -1 x27596 -1 x27597 -1 x27598 -1 x27599 -1 x27600 >= 0 ;
+2 x27785 +2 x27786 +2 x27787 +2 x27788 -1 x27597 -1 x27598 -1 x27599 -1 x27600 -1 x27601 -1 x27602 -1 x27603 -1 x27604 >= 0 ;
+2 x27789 +2 x27790 +2 x27791 +2 x27792 -1 x27601 -1 x27602 -1 x27603 -1 x27604 -1 x27605 -1 x27606 -1 x27607 -1 x27608 >= 0 ;
+2 x27793 +2 x27794 +2 x27795 +2 x27796 -1 x27605 -1 x27606 -1 x27607 -1 x27608 -1 x27609 -1 x27610 -1 x27611 -1 x27612 >= 0 ;
+2 x27797 +2 x27798 +2 x27799 +2 x27800 -1 x27609 -1 x27610 -1 x27611 -1 x27612 -1 x27613 -1 x27614 -1 x27615 -1 x27616 >= 0 ;
+2 x27801 +2 x27802 +2 x27803 +2 x27804 -1 x27613 -1 x27614 -1 x27615 -1 x27616 -1 x27617 -1 x27618 -1 x27619 -1 x27620 >= 0 ;
+2 x27805 +2 x27806 +2 x27807 +2 x27808 -1 x27617 -1 x27618 -1 x27619 -1 x27620 -1 x27621 -1 x27622 -1 x27623 -1 x27624 >= 0 ;
+2 x27809 +2 x27810 +2 x27811 +2 x27812 -1 x27621 -1 x27622 -1 x27623 -1 x27624 -1 x27625 -1 x27626 -1 x27627 -1 x27628 >= 0 ;
+2 x27813 +2 x27814 +2 x27815 +2 x27816 -1 x27625 -1 x27626 -1 x27627 -1 x27628 -1 x27629 -1 x27630 -1 x27631 -1 x27632 >= 0 ;
+2 x27817 +2 x27818 +2 x27819 +2 x27820 -1 x27629 -1 x27630 -1 x27631 -1 x27632 -1 x27633 -1 x27634 -1 x27635 -1 x27636 >= 0 ;
+2 x27821 +2 x27822 +2 x27823 +2 x27824 -1 x27633 -1 x27634 -1 x27635 -1 x27636 -1 x27637 -1 x27638 -1 x27639 -1 x27640 >= 0 ;
+2 x27825 +2 x27826 +2 x27827 +2 x27828 -1 x27637 -1 x27638 -1 x27639 -1 x27640 -1 x27641 -1 x27642 -1 x27643 -1 x27644 >= 0 ;
+2 x27829 +2 x27830 +2 x27831 +2 x27832 -1 x27641 -1 x27642 -1 x27643 -1 x27644 -1 x27645 -1 x27646 -1 x27647 -1 x27648 >= 0 ;
+2 x27833 +2 x27834 +2 x27835 +2 x27836 -1 x27645 -1 x27646 -1 x27647 -1 x27648 -1 x27649 -1 x27650 -1 x27651 -1 x27652 >= 0 ;
+2 x27837 +2 x27838 +2 x27839 +2 x27840 -1 x27649 -1 x27650 -1 x27651 -1 x27652 -1 x27653 -1 x27654 -1 x27655 -1 x27656 >= 0 ;
+2 x27841 +2 x27842 +2 x27843 +2 x27844 -1 x27653 -1 x27654 -1 x27655 -1 x27656 -1 x27657 -1 x27658 -1 x27659 -1 x27660 >= 0 ;
+2 x27845 +2 x27846 +2 x27847 +2 x27848 -1 x27657 -1 x27658 -1 x27659 -1 x27660 -1 x27661 -1 x27662 -1 x27663 -1 x27664 >= 0 ;
+2 x27849 +2 x27850 +2 x27851 +2 x27852 -1 x27661 -1 x27662 -1 x27663 -1 x27664 -1 x27665 -1 x27666 -1 x27667 -1 x27668 >= 0 ;
+2 x27853 +2 x27854 +2 x27855 +2 x27856 -1 x27665 -1 x27666 -1 x27667 -1 x27668 -1 x27669 -1 x27670 -1 x27671 -1 x27672 >= 0 ;
+2 x27857 +2 x27858 +2 x27859 +2 x27860 -1 x27669 -1 x27670 -1 x27671 -1 x27672 -1 x27673 -1 x27674 -1 x27675 -1 x27676 >= 0 ;
+2 x27861 +2 x27862 +2 x27863 +2 x27864 -1 x27673 -1 x27674 -1 x27675 -1 x27676 -1 x27677 -1 x27678 -1 x27679 -1 x27680 >= 0 ;
+2 x27865 +2 x27866 +2 x27867 +2 x27868 -1 x27681 -1 x27682 -1 x27683 -1 x27684 -1 x27685 -1 x27686 -1 x27687 -1 x27688 >= 0 ;
+2 x27869 +2 x27870 +2 x27871 +2 x27872 -1 x27685 -1 x27686 -1 x27687 -1 x27688 -1 x27689 -1 x27690 -1 x27691 -1 x27692 >= 0 ;
+2 x27873 +2 x27874 +2 x27875 +2 x27876 -1 x27689 -1 x27690 -1 x27691 -1 x27692 -1 x27693 -1 x27694 -1 x27695 -1 x27696 >= 0 ;
+2 x27877 +2 x27878 +2 x27879 +2 x27880 -1 x27693 -1 x27694 -1 x27695 -1 x27696 -1 x27697 -1 x27698 -1 x27699 -1 x27700 >= 0 ;
+2 x27881 +2 x27882 +2 x27883 +2 x27884 -1 x27697 -1 x27698 -1 x27699 -1 x27700 -1 x27701 -1 x27702 -1 x27703 -1 x27704 >= 0 ;
+2 x27885 +2 x27886 +2 x27887 +2 x27888 -1 x27701 -1 x27702 -1 x27703 -1 x27704 -1 x27705 -1 x27706 -1 x27707 -1 x27708 >= 0 ;
+2 x27889 +2 x27890 +2 x27891 +2 x27892 -1 x27705 -1 x27706 -1 x27707 -1 x27708 -1 x27709 -1 x27710 -1 x27711 -1 x27712 >= 0 ;
+2 x27893 +2 x27894 +2 x27895 +2 x27896 -1 x27709 -1 x27710 -1 x27711 -1 x27712 -1 x27713 -1 x27714 -1 x27715 -1 x27716 >= 0 ;
+2 x27897 +2 x27898 +2 x27899 +2 x27900 -1 x27713 -1 x27714 -1 x27715 -1 x27716 -1 x27717 -1 x27718 -1 x27719 -1 x27720 >= 0 ;
+2 x27901 +2 x27902 +2 x27903 +2 x27904 -1 x27717 -1 x27718 -1 x27719 -1 x27720 -1 x27721 -1 x27722 -1 x27723 -1 x27724 >= 0 ;
+2 x27905 +2 x27906 +2 x27907 +2 x27908 -1 x27721 -1 x27722 -1 x27723 -1 x27724 -1 x27725 -1 x27726 -1 x27727 -1 x27728 >= 0 ;
+2 x27909 +2 x27910 +2 x27911 +2 x27912 -1 x27725 -1 x27726 -1 x27727 -1 x27728 -1 x27729 -1 x27730 -1 x27731 -1 x27732 >= 0 ;
+2 x27913 +2 x27914 +2 x27915 +2 x27916 -1 x27729 -1 x27730 -1 x27731 -1 x27732 -1 x27733 -1 x27734 -1 x27735 -1 x27736 >= 0 ;
+2 x27917 +2 x27918 +2 x27919 +2 x27920 -1 x27733 -1 x27734 -1 x27735 -1 x27736 -1 x27737 -1 x27738 -1 x27739 -1 x27740 >= 0 ;
+2 x27921 +2 x27922 +2 x27923 +2 x27924 -1 x27737 -1 x27738 -1 x27739 -1 x27740 -1 x27741 -1 x27742 -1 x27743 -1 x27744 >= 0 ;
+2 x27925 +2 x27926 +2 x27927 +2 x27928 -1 x27741 -1 x27742 -1 x27743 -1 x27744 -1 x27745 -1 x27746 -1 x27747 -1 x27748 >= 0 ;
+2 x27929 +2 x27930 +2 x27931 +2 x27932 -1 x27745 -1 x27746 -1 x27747 -1 x27748 -1 x27749 -1 x27750 -1 x27751 -1 x27752 >= 0 ;
+2 x27933 +2 x27934 +2 x27935 +2 x27936 -1 x27749 -1 x27750 -1 x27751 -1 x27752 -1 x27753 -1 x27754 -1 x27755 -1 x27756 >= 0 ;
+2 x27937 +2 x27938 +2 x27939 +2 x27940 -1 x27753 -1 x27754 -1 x27755 -1 x27756 -1 x27757 -1 x27758 -1 x27759 -1 x27760 >= 0 ;
+2 x27941 +2 x27942 +2 x27943 +2 x27944 -1 x27757 -1 x27758 -1 x27759 -1 x27760 -1 x27761 -1 x27762 -1 x27763 -1 x27764 >= 0 ;
+2 x27945 +2 x27946 +2 x27947 +2 x27948 -1 x27761 -1 x27762 -1 x27763 -1 x27764 -1 x27765 -1 x27766 -1 x27767 -1 x27768 >= 0 ;
+2 x27949 +2 x27950 +2 x27951 +2 x27952 -1 x27765 -1 x27766 -1 x27767 -1 x27768 -1 x27769 -1 x27770 -1 x27771 -1 x27772 >= 0 ;
+2 x27953 +2 x27954 +2 x27955 +2 x27956 -1 x27769 -1 x27770 -1 x27771 -1 x27772 -1 x27773 -1 x27774 -1 x27775 -1 x27776 >= 0 ;
+2 x27957 +2 x27958 +2 x27959 +2 x27960 -1 x27773 -1 x27774 -1 x27775 -1 x27776 -1 x27777 -1 x27778 -1 x27779 -1 x27780 >= 0 ;
+2 x27961 +2 x27962 +2 x27963 +2 x27964 -1 x27777 -1 x27778 -1 x27779 -1 x27780 -1 x27781 -1 x27782 -1 x27783 -1 x27784 >= 0 ;
+2 x27965 +2 x27966 +2 x27967 +2 x27968 -1 x27781 -1 x27782 -1 x27783 -1 x27784 -1 x27785 -1 x27786 -1 x27787 -1 x27788 >= 0 ;
+2 x27969 +2 x27970 +2 x27971 +2 x27972 -1 x27785 -1 x27786 -1 x27787 -1 x27788 -1 x27789 -1 x27790 -1 x27791 -1 x27792 >= 0 ;
+2 x27973 +2 x27974 +2 x27975 +2 x27976 -1 x27789 -1 x27790 -1 x27791 -1 x27792 -1 x27793 -1 x27794 -1 x27795 -1 x27796 >= 0 ;
+2 x27977 +2 x27978 +2 x27979 +2 x27980 -1 x27793 -1 x27794 -1 x27795 -1 x27796 -1 x27797 -1 x27798 -1 x27799 -1 x27800 >= 0 ;
+2 x27981 +2 x27982 +2 x27983 +2 x27984 -1 x27797 -1 x27798 -1 x27799 -1 x27800 -1 x27801 -1 x27802 -1 x27803 -1 x27804 >= 0 ;
+2 x27985 +2 x27986 +2 x27987 +2 x27988 -1 x27801 -1 x27802 -1 x27803 -1 x27804 -1 x27805 -1 x27806 -1 x27807 -1 x27808 >= 0 ;
+2 x27989 +2 x27990 +2 x27991 +2 x27992 -1 x27805 -1 x27806 -1 x27807 -1 x27808 -1 x27809 -1 x27810 -1 x27811 -1 x27812 >= 0 ;
+2 x27993 +2 x27994 +2 x27995 +2 x27996 -1 x27809 -1 x27810 -1 x27811 -1 x27812 -1 x27813 -1 x27814 -1 x27815 -1 x27816 >= 0 ;
+2 x27997 +2 x27998 +2 x27999 +2 x28000 -1 x27813 -1 x27814 -1 x27815 -1 x27816 -1 x27817 -1 x27818 -1 x27819 -1 x27820 >= 0 ;
+2 x28001 +2 x28002 +2 x28003 +2 x28004 -1 x27817 -1 x27818 -1 x27819 -1 x27820 -1 x27821 -1 x27822 -1 x27823 -1 x27824 >= 0 ;
+2 x28005 +2 x28006 +2 x28007 +2 x28008 -1 x27821 -1 x27822 -1 x27823 -1 x27824 -1 x27825 -1 x27826 -1 x27827 -1 x27828 >= 0 ;
+2 x28009 +2 x28010 +2 x28011 +2 x28012 -1 x27825 -1 x27826 -1 x27827 -1 x27828 -1 x27829 -1 x27830 -1 x27831 -1 x27832 >= 0 ;
+2 x28013 +2 x28014 +2 x28015 +2 x28016 -1 x27829 -1 x27830 -1 x27831 -1 x27832 -1 x27833 -1 x27834 -1 x27835 -1 x27836 >= 0 ;
+2 x28017 +2 x28018 +2 x28019 +2 x28020 -1 x27833 -1 x27834 -1 x27835 -1 x27836 -1 x27837 -1 x27838 -1 x27839 -1 x27840 >= 0 ;
+2 x28021 +2 x28022 +2 x28023 +2 x28024 -1 x27837 -1 x27838 -1 x27839 -1 x27840 -1 x27841 -1 x27842 -1 x27843 -1 x27844 >= 0 ;
+2 x28025 +2 x28026 +2 x28027 +2 x28028 -1 x27841 -1 x27842 -1 x27843 -1 x27844 -1 x27845 -1 x27846 -1 x27847 -1 x27848 >= 0 ;
+2 x28029 +2 x28030 +2 x28031 +2 x28032 -1 x27845 -1 x27846 -1 x27847 -1 x27848 -1 x27849 -1 x27850 -1 x27851 -1 x27852 >= 0 ;
+2 x28033 +2 x28034 +2 x28035 +2 x28036 -1 x27849 -1 x27850 -1 x27851 -1 x27852 -1 x27853 -1 x27854 -1 x27855 -1 x27856 >= 0 ;
+2 x28037 +2 x28038 +2 x28039 +2 x28040 -1 x27853 -1 x27854 -1 x27855 -1 x27856 -1 x27857 -1 x27858 -1 x27859 -1 x27860 >= 0 ;
+2 x28041 +2 x28042 +2 x28043 +2 x28044 -1 x27857 -1 x27858 -1 x27859 -1 x27860 -1 x27861 -1 x27862 -1 x27863 -1 x27864 >= 0 ;
+2 x28045 +2 x28046 +2 x28047 +2 x28048 -1 x27865 -1 x27866 -1 x27867 -1 x27868 -1 x27869 -1 x27870 -1 x27871 -1 x27872 >= 0 ;
+2 x28049 +2 x28050 +2 x28051 +2 x28052 -1 x27869 -1 x27870 -1 x27871 -1 x27872 -1 x27873 -1 x27874 -1 x27875 -1 x27876 >= 0 ;
+2 x28053 +2 x28054 +2 x28055 +2 x28056 -1 x27873 -1 x27874 -1 x27875 -1 x27876 -1 x27877 -1 x27878 -1 x27879 -1 x27880 >= 0 ;
+2 x28057 +2 x28058 +2 x28059 +2 x28060 -1 x27877 -1 x27878 -1 x27879 -1 x27880 -1 x27881 -1 x27882 -1 x27883 -1 x27884 >= 0 ;
+2 x28061 +2 x28062 +2 x28063 +2 x28064 -1 x27881 -1 x27882 -1 x27883 -1 x27884 -1 x27885 -1 x27886 -1 x27887 -1 x27888 >= 0 ;
+2 x28065 +2 x28066 +2 x28067 +2 x28068 -1 x27885 -1 x27886 -1 x27887 -1 x27888 -1 x27889 -1 x27890 -1 x27891 -1 x27892 >= 0 ;
+2 x28069 +2 x28070 +2 x28071 +2 x28072 -1 x27889 -1 x27890 -1 x27891 -1 x27892 -1 x27893 -1 x27894 -1 x27895 -1 x27896 >= 0 ;
+2 x28073 +2 x28074 +2 x28075 +2 x28076 -1 x27893 -1 x27894 -1 x27895 -1 x27896 -1 x27897 -1 x27898 -1 x27899 -1 x27900 >= 0 ;
+2 x28077 +2 x28078 +2 x28079 +2 x28080 -1 x27897 -1 x27898 -1 x27899 -1 x27900 -1 x27901 -1 x27902 -1 x27903 -1 x27904 >= 0 ;
+2 x28081 +2 x28082 +2 x28083 +2 x28084 -1 x27901 -1 x27902 -1 x27903 -1 x27904 -1 x27905 -1 x27906 -1 x27907 -1 x27908 >= 0 ;
+2 x28085 +2 x28086 +2 x28087 +2 x28088 -1 x27905 -1 x27906 -1 x27907 -1 x27908 -1 x27909 -1 x27910 -1 x27911 -1 x27912 >= 0 ;
+2 x28089 +2 x28090 +2 x28091 +2 x28092 -1 x27909 -1 x27910 -1 x27911 -1 x27912 -1 x27913 -1 x27914 -1 x27915 -1 x27916 >= 0 ;
+2 x28093 +2 x28094 +2 x28095 +2 x28096 -1 x27913 -1 x27914 -1 x27915 -1 x27916 -1 x27917 -1 x27918 -1 x27919 -1 x27920 >= 0 ;
+2 x28097 +2 x28098 +2 x28099 +2 x28100 -1 x27917 -1 x27918 -1 x27919 -1 x27920 -1 x27921 -1 x27922 -1 x27923 -1 x27924 >= 0 ;
+2 x28101 +2 x28102 +2 x28103 +2 x28104 -1 x27921 -1 x27922 -1 x27923 -1 x27924 -1 x27925 -1 x27926 -1 x27927 -1 x27928 >= 0 ;
+2 x28105 +2 x28106 +2 x28107 +2 x28108 -1 x27925 -1 x27926 -1 x27927 -1 x27928 -1 x27929 -1 x27930 -1 x27931 -1 x27932 >= 0 ;
+2 x28109 +2 x28110 +2 x28111 +2 x28112 -1 x27929 -1 x27930 -1 x27931 -1 x27932 -1 x27933 -1 x27934 -1 x27935 -1 x27936 >= 0 ;
+2 x28113 +2 x28114 +2 x28115 +2 x28116 -1 x27933 -1 x27934 -1 x27935 -1 x27936 -1 x27937 -1 x27938 -1 x27939 -1 x27940 >= 0 ;
+2 x28117 +2 x28118 +2 x28119 +2 x28120 -1 x27937 -1 x27938 -1 x27939 -1 x27940 -1 x27941 -1 x27942 -1 x27943 -1 x27944 >= 0 ;
+2 x28121 +2 x28122 +2 x28123 +2 x28124 -1 x27941 -1 x27942 -1 x27943 -1 x27944 -1 x27945 -1 x27946 -1 x27947 -1 x27948 >= 0 ;
+2 x28125 +2 x28126 +2 x28127 +2 x28128 -1 x27945 -1 x27946 -1 x27947 -1 x27948 -1 x27949 -1 x27950 -1 x27951 -1 x27952 >= 0 ;
+2 x28129 +2 x28130 +2 x28131 +2 x28132 -1 x27949 -1 x27950 -1 x27951 -1 x27952 -1 x27953 -1 x27954 -1 x27955 -1 x27956 >= 0 ;
+2 x28133 +2 x28134 +2 x28135 +2 x28136 -1 x27953 -1 x27954 -1 x27955 -1 x27956 -1 x27957 -1 x27958 -1 x27959 -1 x27960 >= 0 ;
+2 x28137 +2 x28138 +2 x28139 +2 x28140 -1 x27957 -1 x27958 -1 x27959 -1 x27960 -1 x27961 -1 x27962 -1 x27963 -1 x27964 >= 0 ;
+2 x28141 +2 x28142 +2 x28143 +2 x28144 -1 x27961 -1 x27962 -1 x27963 -1 x27964 -1 x27965 -1 x27966 -1 x27967 -1 x27968 >= 0 ;
+2 x28145 +2 x28146 +2 x28147 +2 x28148 -1 x27965 -1 x27966 -1 x27967 -1 x27968 -1 x27969 -1 x27970 -1 x27971 -1 x27972 >= 0 ;
+2 x28149 +2 x28150 +2 x28151 +2 x28152 -1 x27969 -1 x27970 -1 x27971 -1 x27972 -1 x27973 -1 x27974 -1 x27975 -1 x27976 >= 0 ;
+2 x28153 +2 x28154 +2 x28155 +2 x28156 -1 x27973 -1 x27974 -1 x27975 -1 x27976 -1 x27977 -1 x27978 -1 x27979 -1 x27980 >= 0 ;
+2 x28157 +2 x28158 +2 x28159 +2 x28160 -1 x27977 -1 x27978 -1 x27979 -1 x27980 -1 x27981 -1 x27982 -1 x27983 -1 x27984 >= 0 ;
+2 x28161 +2 x28162 +2 x28163 +2 x28164 -1 x27981 -1 x27982 -1 x27983 -1 x27984 -1 x27985 -1 x27986 -1 x27987 -1 x27988 >= 0 ;
+2 x28165 +2 x28166 +2 x28167 +2 x28168 -1 x27985 -1 x27986 -1 x27987 -1 x27988 -1 x27989 -1 x27990 -1 x27991 -1 x27992 >= 0 ;
+2 x28169 +2 x28170 +2 x28171 +2 x28172 -1 x27989 -1 x27990 -1 x27991 -1 x27992 -1 x27993 -1 x27994 -1 x27995 -1 x27996 >= 0 ;
+2 x28173 +2 x28174 +2 x28175 +2 x28176 -1 x27993 -1 x27994 -1 x27995 -1 x27996 -1 x27997 -1 x27998 -1 x27999 -1 x28000 >= 0 ;
+2 x28177 +2 x28178 +2 x28179 +2 x28180 -1 x27997 -1 x27998 -1 x27999 -1 x28000 -1 x28001 -1 x28002 -1 x28003 -1 x28004 >= 0 ;
+2 x28181 +2 x28182 +2 x28183 +2 x28184 -1 x28001 -1 x28002 -1 x28003 -1 x28004 -1 x28005 -1 x28006 -1 x28007 -1 x28008 >= 0 ;
+2 x28185 +2 x28186 +2 x28187 +2 x28188 -1 x28005 -1 x28006 -1 x28007 -1 x28008 -1 x28009 -1 x28010 -1 x28011 -1 x28012 >= 0 ;
+2 x28189 +2 x28190 +2 x28191 +2 x28192 -1 x28009 -1 x28010 -1 x28011 -1 x28012 -1 x28013 -1 x28014 -1 x28015 -1 x28016 >= 0 ;
+2 x28193 +2 x28194 +2 x28195 +2 x28196 -1 x28013 -1 x28014 -1 x28015 -1 x28016 -1 x28017 -1 x28018 -1 x28019 -1 x28020 >= 0 ;
+2 x28197 +2 x28198 +2 x28199 +2 x28200 -1 x28017 -1 x28018 -1 x28019 -1 x28020 -1 x28021 -1 x28022 -1 x28023 -1 x28024 >= 0 ;
+2 x28201 +2 x28202 +2 x28203 +2 x28204 -1 x28021 -1 x28022 -1 x28023 -1 x28024 -1 x28025 -1 x28026 -1 x28027 -1 x28028 >= 0 ;
+2 x28205 +2 x28206 +2 x28207 +2 x28208 -1 x28025 -1 x28026 -1 x28027 -1 x28028 -1 x28029 -1 x28030 -1 x28031 -1 x28032 >= 0 ;
+2 x28209 +2 x28210 +2 x28211 +2 x28212 -1 x28029 -1 x28030 -1 x28031 -1 x28032 -1 x28033 -1 x28034 -1 x28035 -1 x28036 >= 0 ;
+2 x28213 +2 x28214 +2 x28215 +2 x28216 -1 x28033 -1 x28034 -1 x28035 -1 x28036 -1 x28037 -1 x28038 -1 x28039 -1 x28040 >= 0 ;
+2 x28217 +2 x28218 +2 x28219 +2 x28220 -1 x28037 -1 x28038 -1 x28039 -1 x28040 -1 x28041 -1 x28042 -1 x28043 -1 x28044 >= 0 ;
+2 x28221 +2 x28222 +2 x28223 +2 x28224 -1 x28045 -1 x28046 -1 x28047 -1 x28048 -1 x28049 -1 x28050 -1 x28051 -1 x28052 >= 0 ;
+2 x28225 +2 x28226 +2 x28227 +2 x28228 -1 x28049 -1 x28050 -1 x28051 -1 x28052 -1 x28053 -1 x28054 -1 x28055 -1 x28056 >= 0 ;
+2 x28229 +2 x28230 +2 x28231 +2 x28232 -1 x28053 -1 x28054 -1 x28055 -1 x28056 -1 x28057 -1 x28058 -1 x28059 -1 x28060 >= 0 ;
+2 x28233 +2 x28234 +2 x28235 +2 x28236 -1 x28057 -1 x28058 -1 x28059 -1 x28060 -1 x28061 -1 x28062 -1 x28063 -1 x28064 >= 0 ;
+2 x28237 +2 x28238 +2 x28239 +2 x28240 -1 x28061 -1 x28062 -1 x28063 -1 x28064 -1 x28065 -1 x28066 -1 x28067 -1 x28068 >= 0 ;
+2 x28241 +2 x28242 +2 x28243 +2 x28244 -1 x28065 -1 x28066 -1 x28067 -1 x28068 -1 x28069 -1 x28070 -1 x28071 -1 x28072 >= 0 ;
+2 x28245 +2 x28246 +2 x28247 +2 x28248 -1 x28069 -1 x28070 -1 x28071 -1 x28072 -1 x28073 -1 x28074 -1 x28075 -1 x28076 >= 0 ;
+2 x28249 +2 x28250 +2 x28251 +2 x28252 -1 x28073 -1 x28074 -1 x28075 -1 x28076 -1 x28077 -1 x28078 -1 x28079 -1 x28080 >= 0 ;
+2 x28253 +2 x28254 +2 x28255 +2 x28256 -1 x28077 -1 x28078 -1 x28079 -1 x28080 -1 x28081 -1 x28082 -1 x28083 -1 x28084 >= 0 ;
+2 x28257 +2 x28258 +2 x28259 +2 x28260 -1 x28081 -1 x28082 -1 x28083 -1 x28084 -1 x28085 -1 x28086 -1 x28087 -1 x28088 >= 0 ;
+2 x28261 +2 x28262 +2 x28263 +2 x28264 -1 x28085 -1 x28086 -1 x28087 -1 x28088 -1 x28089 -1 x28090 -1 x28091 -1 x28092 >= 0 ;
+2 x28265 +2 x28266 +2 x28267 +2 x28268 -1 x28089 -1 x28090 -1 x28091 -1 x28092 -1 x28093 -1 x28094 -1 x28095 -1 x28096 >= 0 ;
+2 x28269 +2 x28270 +2 x28271 +2 x28272 -1 x28093 -1 x28094 -1 x28095 -1 x28096 -1 x28097 -1 x28098 -1 x28099 -1 x28100 >= 0 ;
+2 x28273 +2 x28274 +2 x28275 +2 x28276 -1 x28097 -1 x28098 -1 x28099 -1 x28100 -1 x28101 -1 x28102 -1 x28103 -1 x28104 >= 0 ;
+2 x28277 +2 x28278 +2 x28279 +2 x28280 -1 x28101 -1 x28102 -1 x28103 -1 x28104 -1 x28105 -1 x28106 -1 x28107 -1 x28108 >= 0 ;
+2 x28281 +2 x28282 +2 x28283 +2 x28284 -1 x28105 -1 x28106 -1 x28107 -1 x28108 -1 x28109 -1 x28110 -1 x28111 -1 x28112 >= 0 ;
+2 x28285 +2 x28286 +2 x28287 +2 x28288 -1 x28109 -1 x28110 -1 x28111 -1 x28112 -1 x28113 -1 x28114 -1 x28115 -1 x28116 >= 0 ;
+2 x28289 +2 x28290 +2 x28291 +2 x28292 -1 x28113 -1 x28114 -1 x28115 -1 x28116 -1 x28117 -1 x28118 -1 x28119 -1 x28120 >= 0 ;
+2 x28293 +2 x28294 +2 x28295 +2 x28296 -1 x28117 -1 x28118 -1 x28119 -1 x28120 -1 x28121 -1 x28122 -1 x28123 -1 x28124 >= 0 ;
+2 x28297 +2 x28298 +2 x28299 +2 x28300 -1 x28121 -1 x28122 -1 x28123 -1 x28124 -1 x28125 -1 x28126 -1 x28127 -1 x28128 >= 0 ;
+2 x28301 +2 x28302 +2 x28303 +2 x28304 -1 x28125 -1 x28126 -1 x28127 -1 x28128 -1 x28129 -1 x28130 -1 x28131 -1 x28132 >= 0 ;
+2 x28305 +2 x28306 +2 x28307 +2 x28308 -1 x28129 -1 x28130 -1 x28131 -1 x28132 -1 x28133 -1 x28134 -1 x28135 -1 x28136 >= 0 ;
+2 x28309 +2 x28310 +2 x28311 +2 x28312 -1 x28133 -1 x28134 -1 x28135 -1 x28136 -1 x28137 -1 x28138 -1 x28139 -1 x28140 >= 0 ;
+2 x28313 +2 x28314 +2 x28315 +2 x28316 -1 x28137 -1 x28138 -1 x28139 -1 x28140 -1 x28141 -1 x28142 -1 x28143 -1 x28144 >= 0 ;
+2 x28317 +2 x28318 +2 x28319 +2 x28320 -1 x28141 -1 x28142 -1 x28143 -1 x28144 -1 x28145 -1 x28146 -1 x28147 -1 x28148 >= 0 ;
+2 x28321 +2 x28322 +2 x28323 +2 x28324 -1 x28145 -1 x28146 -1 x28147 -1 x28148 -1 x28149 -1 x28150 -1 x28151 -1 x28152 >= 0 ;
+2 x28325 +2 x28326 +2 x28327 +2 x28328 -1 x28149 -1 x28150 -1 x28151 -1 x28152 -1 x28153 -1 x28154 -1 x28155 -1 x28156 >= 0 ;
+2 x28329 +2 x28330 +2 x28331 +2 x28332 -1 x28153 -1 x28154 -1 x28155 -1 x28156 -1 x28157 -1 x28158 -1 x28159 -1 x28160 >= 0 ;
+2 x28333 +2 x28334 +2 x28335 +2 x28336 -1 x28157 -1 x28158 -1 x28159 -1 x28160 -1 x28161 -1 x28162 -1 x28163 -1 x28164 >= 0 ;
+2 x28337 +2 x28338 +2 x28339 +2 x28340 -1 x28161 -1 x28162 -1 x28163 -1 x28164 -1 x28165 -1 x28166 -1 x28167 -1 x28168 >= 0 ;
+2 x28341 +2 x28342 +2 x28343 +2 x28344 -1 x28165 -1 x28166 -1 x28167 -1 x28168 -1 x28169 -1 x28170 -1 x28171 -1 x28172 >= 0 ;
+2 x28345 +2 x28346 +2 x28347 +2 x28348 -1 x28169 -1 x28170 -1 x28171 -1 x28172 -1 x28173 -1 x28174 -1 x28175 -1 x28176 >= 0 ;
+2 x28349 +2 x28350 +2 x28351 +2 x28352 -1 x28173 -1 x28174 -1 x28175 -1 x28176 -1 x28177 -1 x28178 -1 x28179 -1 x28180 >= 0 ;
+2 x28353 +2 x28354 +2 x28355 +2 x28356 -1 x28177 -1 x28178 -1 x28179 -1 x28180 -1 x28181 -1 x28182 -1 x28183 -1 x28184 >= 0 ;
+2 x28357 +2 x28358 +2 x28359 +2 x28360 -1 x28181 -1 x28182 -1 x28183 -1 x28184 -1 x28185 -1 x28186 -1 x28187 -1 x28188 >= 0 ;
+2 x28361 +2 x28362 +2 x28363 +2 x28364 -1 x28185 -1 x28186 -1 x28187 -1 x28188 -1 x28189 -1 x28190 -1 x28191 -1 x28192 >= 0 ;
+2 x28365 +2 x28366 +2 x28367 +2 x28368 -1 x28189 -1 x28190 -1 x28191 -1 x28192 -1 x28193 -1 x28194 -1 x28195 -1 x28196 >= 0 ;
+2 x28369 +2 x28370 +2 x28371 +2 x28372 -1 x28193 -1 x28194 -1 x28195 -1 x28196 -1 x28197 -1 x28198 -1 x28199 -1 x28200 >= 0 ;
+2 x28373 +2 x28374 +2 x28375 +2 x28376 -1 x28197 -1 x28198 -1 x28199 -1 x28200 -1 x28201 -1 x28202 -1 x28203 -1 x28204 >= 0 ;
+2 x28377 +2 x28378 +2 x28379 +2 x28380 -1 x28201 -1 x28202 -1 x28203 -1 x28204 -1 x28205 -1 x28206 -1 x28207 -1 x28208 >= 0 ;
+2 x28381 +2 x28382 +2 x28383 +2 x28384 -1 x28205 -1 x28206 -1 x28207 -1 x28208 -1 x28209 -1 x28210 -1 x28211 -1 x28212 >= 0 ;
+2 x28385 +2 x28386 +2 x28387 +2 x28388 -1 x28209 -1 x28210 -1 x28211 -1 x28212 -1 x28213 -1 x28214 -1 x28215 -1 x28216 >= 0 ;
+2 x28389 +2 x28390 +2 x28391 +2 x28392 -1 x28213 -1 x28214 -1 x28215 -1 x28216 -1 x28217 -1 x28218 -1 x28219 -1 x28220 >= 0 ;
+2 x28393 +2 x28394 +2 x28395 +2 x28396 -1 x28221 -1 x28222 -1 x28223 -1 x28224 -1 x28225 -1 x28226 -1 x28227 -1 x28228 >= 0 ;
+2 x28397 +2 x28398 +2 x28399 +2 x28400 -1 x28225 -1 x28226 -1 x28227 -1 x28228 -1 x28229 -1 x28230 -1 x28231 -1 x28232 >= 0 ;
+2 x28401 +2 x28402 +2 x28403 +2 x28404 -1 x28229 -1 x28230 -1 x28231 -1 x28232 -1 x28233 -1 x28234 -1 x28235 -1 x28236 >= 0 ;
+2 x28405 +2 x28406 +2 x28407 +2 x28408 -1 x28233 -1 x28234 -1 x28235 -1 x28236 -1 x28237 -1 x28238 -1 x28239 -1 x28240 >= 0 ;
+2 x28409 +2 x28410 +2 x28411 +2 x28412 -1 x28237 -1 x28238 -1 x28239 -1 x28240 -1 x28241 -1 x28242 -1 x28243 -1 x28244 >= 0 ;
+2 x28413 +2 x28414 +2 x28415 +2 x28416 -1 x28241 -1 x28242 -1 x28243 -1 x28244 -1 x28245 -1 x28246 -1 x28247 -1 x28248 >= 0 ;
+2 x28417 +2 x28418 +2 x28419 +2 x28420 -1 x28245 -1 x28246 -1 x28247 -1 x28248 -1 x28249 -1 x28250 -1 x28251 -1 x28252 >= 0 ;
+2 x28421 +2 x28422 +2 x28423 +2 x28424 -1 x28249 -1 x28250 -1 x28251 -1 x28252 -1 x28253 -1 x28254 -1 x28255 -1 x28256 >= 0 ;
+2 x28425 +2 x28426 +2 x28427 +2 x28428 -1 x28253 -1 x28254 -1 x28255 -1 x28256 -1 x28257 -1 x28258 -1 x28259 -1 x28260 >= 0 ;
+2 x28429 +2 x28430 +2 x28431 +2 x28432 -1 x28257 -1 x28258 -1 x28259 -1 x28260 -1 x28261 -1 x28262 -1 x28263 -1 x28264 >= 0 ;
+2 x28433 +2 x28434 +2 x28435 +2 x28436 -1 x28261 -1 x28262 -1 x28263 -1 x28264 -1 x28265 -1 x28266 -1 x28267 -1 x28268 >= 0 ;
+2 x28437 +2 x28438 +2 x28439 +2 x28440 -1 x28265 -1 x28266 -1 x28267 -1 x28268 -1 x28269 -1 x28270 -1 x28271 -1 x28272 >= 0 ;
+2 x28441 +2 x28442 +2 x28443 +2 x28444 -1 x28269 -1 x28270 -1 x28271 -1 x28272 -1 x28273 -1 x28274 -1 x28275 -1 x28276 >= 0 ;
+2 x28445 +2 x28446 +2 x28447 +2 x28448 -1 x28273 -1 x28274 -1 x28275 -1 x28276 -1 x28277 -1 x28278 -1 x28279 -1 x28280 >= 0 ;
+2 x28449 +2 x28450 +2 x28451 +2 x28452 -1 x28277 -1 x28278 -1 x28279 -1 x28280 -1 x28281 -1 x28282 -1 x28283 -1 x28284 >= 0 ;
+2 x28453 +2 x28454 +2 x28455 +2 x28456 -1 x28281 -1 x28282 -1 x28283 -1 x28284 -1 x28285 -1 x28286 -1 x28287 -1 x28288 >= 0 ;
+2 x28457 +2 x28458 +2 x28459 +2 x28460 -1 x28285 -1 x28286 -1 x28287 -1 x28288 -1 x28289 -1 x28290 -1 x28291 -1 x28292 >= 0 ;
+2 x28461 +2 x28462 +2 x28463 +2 x28464 -1 x28289 -1 x28290 -1 x28291 -1 x28292 -1 x28293 -1 x28294 -1 x28295 -1 x28296 >= 0 ;
+2 x28465 +2 x28466 +2 x28467 +2 x28468 -1 x28293 -1 x28294 -1 x28295 -1 x28296 -1 x28297 -1 x28298 -1 x28299 -1 x28300 >= 0 ;
+2 x28469 +2 x28470 +2 x28471 +2 x28472 -1 x28297 -1 x28298 -1 x28299 -1 x28300 -1 x28301 -1 x28302 -1 x28303 -1 x28304 >= 0 ;
+2 x28473 +2 x28474 +2 x28475 +2 x28476 -1 x28301 -1 x28302 -1 x28303 -1 x28304 -1 x28305 -1 x28306 -1 x28307 -1 x28308 >= 0 ;
+2 x28477 +2 x28478 +2 x28479 +2 x28480 -1 x28305 -1 x28306 -1 x28307 -1 x28308 -1 x28309 -1 x28310 -1 x28311 -1 x28312 >= 0 ;
+2 x28481 +2 x28482 +2 x28483 +2 x28484 -1 x28309 -1 x28310 -1 x28311 -1 x28312 -1 x28313 -1 x28314 -1 x28315 -1 x28316 >= 0 ;
+2 x28485 +2 x28486 +2 x28487 +2 x28488 -1 x28313 -1 x28314 -1 x28315 -1 x28316 -1 x28317 -1 x28318 -1 x28319 -1 x28320 >= 0 ;
+2 x28489 +2 x28490 +2 x28491 +2 x28492 -1 x28317 -1 x28318 -1 x28319 -1 x28320 -1 x28321 -1 x28322 -1 x28323 -1 x28324 >= 0 ;
+2 x28493 +2 x28494 +2 x28495 +2 x28496 -1 x28321 -1 x28322 -1 x28323 -1 x28324 -1 x28325 -1 x28326 -1 x28327 -1 x28328 >= 0 ;
+2 x28497 +2 x28498 +2 x28499 +2 x28500 -1 x28325 -1 x28326 -1 x28327 -1 x28328 -1 x28329 -1 x28330 -1 x28331 -1 x28332 >= 0 ;
+2 x28501 +2 x28502 +2 x28503 +2 x28504 -1 x28329 -1 x28330 -1 x28331 -1 x28332 -1 x28333 -1 x28334 -1 x28335 -1 x28336 >= 0 ;
+2 x28505 +2 x28506 +2 x28507 +2 x28508 -1 x28333 -1 x28334 -1 x28335 -1 x28336 -1 x28337 -1 x28338 -1 x28339 -1 x28340 >= 0 ;
+2 x28509 +2 x28510 +2 x28511 +2 x28512 -1 x28337 -1 x28338 -1 x28339 -1 x28340 -1 x28341 -1 x28342 -1 x28343 -1 x28344 >= 0 ;
+2 x28513 +2 x28514 +2 x28515 +2 x28516 -1 x28341 -1 x28342 -1 x28343 -1 x28344 -1 x28345 -1 x28346 -1 x28347 -1 x28348 >= 0 ;
+2 x28517 +2 x28518 +2 x28519 +2 x28520 -1 x28345 -1 x28346 -1 x28347 -1 x28348 -1 x28349 -1 x28350 -1 x28351 -1 x28352 >= 0 ;
+2 x28521 +2 x28522 +2 x28523 +2 x28524 -1 x28349 -1 x28350 -1 x28351 -1 x28352 -1 x28353 -1 x28354 -1 x28355 -1 x28356 >= 0 ;
+2 x28525 +2 x28526 +2 x28527 +2 x28528 -1 x28353 -1 x28354 -1 x28355 -1 x28356 -1 x28357 -1 x28358 -1 x28359 -1 x28360 >= 0 ;
+2 x28529 +2 x28530 +2 x28531 +2 x28532 -1 x28357 -1 x28358 -1 x28359 -1 x28360 -1 x28361 -1 x28362 -1 x28363 -1 x28364 >= 0 ;
+2 x28533 +2 x28534 +2 x28535 +2 x28536 -1 x28361 -1 x28362 -1 x28363 -1 x28364 -1 x28365 -1 x28366 -1 x28367 -1 x28368 >= 0 ;
+2 x28537 +2 x28538 +2 x28539 +2 x28540 -1 x28365 -1 x28366 -1 x28367 -1 x28368 -1 x28369 -1 x28370 -1 x28371 -1 x28372 >= 0 ;
+2 x28541 +2 x28542 +2 x28543 +2 x28544 -1 x28369 -1 x28370 -1 x28371 -1 x28372 -1 x28373 -1 x28374 -1 x28375 -1 x28376 >= 0 ;
+2 x28545 +2 x28546 +2 x28547 +2 x28548 -1 x28373 -1 x28374 -1 x28375 -1 x28376 -1 x28377 -1 x28378 -1 x28379 -1 x28380 >= 0 ;
+2 x28549 +2 x28550 +2 x28551 +2 x28552 -1 x28377 -1 x28378 -1 x28379 -1 x28380 -1 x28381 -1 x28382 -1 x28383 -1 x28384 >= 0 ;
+2 x28553 +2 x28554 +2 x28555 +2 x28556 -1 x28381 -1 x28382 -1 x28383 -1 x28384 -1 x28385 -1 x28386 -1 x28387 -1 x28388 >= 0 ;
+2 x28557 +2 x28558 +2 x28559 +2 x28560 -1 x28385 -1 x28386 -1 x28387 -1 x28388 -1 x28389 -1 x28390 -1 x28391 -1 x28392 >= 0 ;
+2 x28561 +2 x28562 +2 x28563 +2 x28564 -1 x28393 -1 x28394 -1 x28395 -1 x28396 -1 x28397 -1 x28398 -1 x28399 -1 x28400 >= 0 ;
+2 x28565 +2 x28566 +2 x28567 +2 x28568 -1 x28397 -1 x28398 -1 x28399 -1 x28400 -1 x28401 -1 x28402 -1 x28403 -1 x28404 >= 0 ;
+2 x28569 +2 x28570 +2 x28571 +2 x28572 -1 x28401 -1 x28402 -1 x28403 -1 x28404 -1 x28405 -1 x28406 -1 x28407 -1 x28408 >= 0 ;
+2 x28573 +2 x28574 +2 x28575 +2 x28576 -1 x28405 -1 x28406 -1 x28407 -1 x28408 -1 x28409 -1 x28410 -1 x28411 -1 x28412 >= 0 ;
+2 x28577 +2 x28578 +2 x28579 +2 x28580 -1 x28409 -1 x28410 -1 x28411 -1 x28412 -1 x28413 -1 x28414 -1 x28415 -1 x28416 >= 0 ;
+2 x28581 +2 x28582 +2 x28583 +2 x28584 -1 x28413 -1 x28414 -1 x28415 -1 x28416 -1 x28417 -1 x28418 -1 x28419 -1 x28420 >= 0 ;
+2 x28585 +2 x28586 +2 x28587 +2 x28588 -1 x28417 -1 x28418 -1 x28419 -1 x28420 -1 x28421 -1 x28422 -1 x28423 -1 x28424 >= 0 ;
+2 x28589 +2 x28590 +2 x28591 +2 x28592 -1 x28421 -1 x28422 -1 x28423 -1 x28424 -1 x28425 -1 x28426 -1 x28427 -1 x28428 >= 0 ;
+2 x28593 +2 x28594 +2 x28595 +2 x28596 -1 x28425 -1 x28426 -1 x28427 -1 x28428 -1 x28429 -1 x28430 -1 x28431 -1 x28432 >= 0 ;
+2 x28597 +2 x28598 +2 x28599 +2 x28600 -1 x28429 -1 x28430 -1 x28431 -1 x28432 -1 x28433 -1 x28434 -1 x28435 -1 x28436 >= 0 ;
+2 x28601 +2 x28602 +2 x28603 +2 x28604 -1 x28433 -1 x28434 -1 x28435 -1 x28436 -1 x28437 -1 x28438 -1 x28439 -1 x28440 >= 0 ;
+2 x28605 +2 x28606 +2 x28607 +2 x28608 -1 x28437 -1 x28438 -1 x28439 -1 x28440 -1 x28441 -1 x28442 -1 x28443 -1 x28444 >= 0 ;
+2 x28609 +2 x28610 +2 x28611 +2 x28612 -1 x28441 -1 x28442 -1 x28443 -1 x28444 -1 x28445 -1 x28446 -1 x28447 -1 x28448 >= 0 ;
+2 x28613 +2 x28614 +2 x28615 +2 x28616 -1 x28445 -1 x28446 -1 x28447 -1 x28448 -1 x28449 -1 x28450 -1 x28451 -1 x28452 >= 0 ;
+2 x28617 +2 x28618 +2 x28619 +2 x28620 -1 x28449 -1 x28450 -1 x28451 -1 x28452 -1 x28453 -1 x28454 -1 x28455 -1 x28456 >= 0 ;
+2 x28621 +2 x28622 +2 x28623 +2 x28624 -1 x28453 -1 x28454 -1 x28455 -1 x28456 -1 x28457 -1 x28458 -1 x28459 -1 x28460 >= 0 ;
+2 x28625 +2 x28626 +2 x28627 +2 x28628 -1 x28457 -1 x28458 -1 x28459 -1 x28460 -1 x28461 -1 x28462 -1 x28463 -1 x28464 >= 0 ;
+2 x28629 +2 x28630 +2 x28631 +2 x28632 -1 x28461 -1 x28462 -1 x28463 -1 x28464 -1 x28465 -1 x28466 -1 x28467 -1 x28468 >= 0 ;
+2 x28633 +2 x28634 +2 x28635 +2 x28636 -1 x28465 -1 x28466 -1 x28467 -1 x28468 -1 x28469 -1 x28470 -1 x28471 -1 x28472 >= 0 ;
+2 x28637 +2 x28638 +2 x28639 +2 x28640 -1 x28469 -1 x28470 -1 x28471 -1 x28472 -1 x28473 -1 x28474 -1 x28475 -1 x28476 >= 0 ;
+2 x28641 +2 x28642 +2 x28643 +2 x28644 -1 x28473 -1 x28474 -1 x28475 -1 x28476 -1 x28477 -1 x28478 -1 x28479 -1 x28480 >= 0 ;
+2 x28645 +2 x28646 +2 x28647 +2 x28648 -1 x28477 -1 x28478 -1 x28479 -1 x28480 -1 x28481 -1 x28482 -1 x28483 -1 x28484 >= 0 ;
+2 x28649 +2 x28650 +2 x28651 +2 x28652 -1 x28481 -1 x28482 -1 x28483 -1 x28484 -1 x28485 -1 x28486 -1 x28487 -1 x28488 >= 0 ;
+2 x28653 +2 x28654 +2 x28655 +2 x28656 -1 x28485 -1 x28486 -1 x28487 -1 x28488 -1 x28489 -1 x28490 -1 x28491 -1 x28492 >= 0 ;
+2 x28657 +2 x28658 +2 x28659 +2 x28660 -1 x28489 -1 x28490 -1 x28491 -1 x28492 -1 x28493 -1 x28494 -1 x28495 -1 x28496 >= 0 ;
+2 x28661 +2 x28662 +2 x28663 +2 x28664 -1 x28493 -1 x28494 -1 x28495 -1 x28496 -1 x28497 -1 x28498 -1 x28499 -1 x28500 >= 0 ;
+2 x28665 +2 x28666 +2 x28667 +2 x28668 -1 x28497 -1 x28498 -1 x28499 -1 x28500 -1 x28501 -1 x28502 -1 x28503 -1 x28504 >= 0 ;
+2 x28669 +2 x28670 +2 x28671 +2 x28672 -1 x28501 -1 x28502 -1 x28503 -1 x28504 -1 x28505 -1 x28506 -1 x28507 -1 x28508 >= 0 ;
+2 x28673 +2 x28674 +2 x28675 +2 x28676 -1 x28505 -1 x28506 -1 x28507 -1 x28508 -1 x28509 -1 x28510 -1 x28511 -1 x28512 >= 0 ;
+2 x28677 +2 x28678 +2 x28679 +2 x28680 -1 x28509 -1 x28510 -1 x28511 -1 x28512 -1 x28513 -1 x28514 -1 x28515 -1 x28516 >= 0 ;
+2 x28681 +2 x28682 +2 x28683 +2 x28684 -1 x28513 -1 x28514 -1 x28515 -1 x28516 -1 x28517 -1 x28518 -1 x28519 -1 x28520 >= 0 ;
+2 x28685 +2 x28686 +2 x28687 +2 x28688 -1 x28517 -1 x28518 -1 x28519 -1 x28520 -1 x28521 -1 x28522 -1 x28523 -1 x28524 >= 0 ;
+2 x28689 +2 x28690 +2 x28691 +2 x28692 -1 x28521 -1 x28522 -1 x28523 -1 x28524 -1 x28525 -1 x28526 -1 x28527 -1 x28528 >= 0 ;
+2 x28693 +2 x28694 +2 x28695 +2 x28696 -1 x28525 -1 x28526 -1 x28527 -1 x28528 -1 x28529 -1 x28530 -1 x28531 -1 x28532 >= 0 ;
+2 x28697 +2 x28698 +2 x28699 +2 x28700 -1 x28529 -1 x28530 -1 x28531 -1 x28532 -1 x28533 -1 x28534 -1 x28535 -1 x28536 >= 0 ;
+2 x28701 +2 x28702 +2 x28703 +2 x28704 -1 x28533 -1 x28534 -1 x28535 -1 x28536 -1 x28537 -1 x28538 -1 x28539 -1 x28540 >= 0 ;
+2 x28705 +2 x28706 +2 x28707 +2 x28708 -1 x28537 -1 x28538 -1 x28539 -1 x28540 -1 x28541 -1 x28542 -1 x28543 -1 x28544 >= 0 ;
+2 x28709 +2 x28710 +2 x28711 +2 x28712 -1 x28541 -1 x28542 -1 x28543 -1 x28544 -1 x28545 -1 x28546 -1 x28547 -1 x28548 >= 0 ;
+2 x28713 +2 x28714 +2 x28715 +2 x28716 -1 x28545 -1 x28546 -1 x28547 -1 x28548 -1 x28549 -1 x28550 -1 x28551 -1 x28552 >= 0 ;
+2 x28717 +2 x28718 +2 x28719 +2 x28720 -1 x28549 -1 x28550 -1 x28551 -1 x28552 -1 x28553 -1 x28554 -1 x28555 -1 x28556 >= 0 ;
+2 x28721 +2 x28722 +2 x28723 +2 x28724 -1 x28553 -1 x28554 -1 x28555 -1 x28556 -1 x28557 -1 x28558 -1 x28559 -1 x28560 >= 0 ;
+2 x28725 +2 x28726 +2 x28727 +2 x28728 -1 x28561 -1 x28562 -1 x28563 -1 x28564 -1 x28565 -1 x28566 -1 x28567 -1 x28568 >= 0 ;
+2 x28729 +2 x28730 +2 x28731 +2 x28732 -1 x28565 -1 x28566 -1 x28567 -1 x28568 -1 x28569 -1 x28570 -1 x28571 -1 x28572 >= 0 ;
+2 x28733 +2 x28734 +2 x28735 +2 x28736 -1 x28569 -1 x28570 -1 x28571 -1 x28572 -1 x28573 -1 x28574 -1 x28575 -1 x28576 >= 0 ;
+2 x28737 +2 x28738 +2 x28739 +2 x28740 -1 x28573 -1 x28574 -1 x28575 -1 x28576 -1 x28577 -1 x28578 -1 x28579 -1 x28580 >= 0 ;
+2 x28741 +2 x28742 +2 x28743 +2 x28744 -1 x28577 -1 x28578 -1 x28579 -1 x28580 -1 x28581 -1 x28582 -1 x28583 -1 x28584 >= 0 ;
+2 x28745 +2 x28746 +2 x28747 +2 x28748 -1 x28581 -1 x28582 -1 x28583 -1 x28584 -1 x28585 -1 x28586 -1 x28587 -1 x28588 >= 0 ;
+2 x28749 +2 x28750 +2 x28751 +2 x28752 -1 x28585 -1 x28586 -1 x28587 -1 x28588 -1 x28589 -1 x28590 -1 x28591 -1 x28592 >= 0 ;
+2 x28753 +2 x28754 +2 x28755 +2 x28756 -1 x28589 -1 x28590 -1 x28591 -1 x28592 -1 x28593 -1 x28594 -1 x28595 -1 x28596 >= 0 ;
+2 x28757 +2 x28758 +2 x28759 +2 x28760 -1 x28593 -1 x28594 -1 x28595 -1 x28596 -1 x28597 -1 x28598 -1 x28599 -1 x28600 >= 0 ;
+2 x28761 +2 x28762 +2 x28763 +2 x28764 -1 x28597 -1 x28598 -1 x28599 -1 x28600 -1 x28601 -1 x28602 -1 x28603 -1 x28604 >= 0 ;
+2 x28765 +2 x28766 +2 x28767 +2 x28768 -1 x28601 -1 x28602 -1 x28603 -1 x28604 -1 x28605 -1 x28606 -1 x28607 -1 x28608 >= 0 ;
+2 x28769 +2 x28770 +2 x28771 +2 x28772 -1 x28605 -1 x28606 -1 x28607 -1 x28608 -1 x28609 -1 x28610 -1 x28611 -1 x28612 >= 0 ;
+2 x28773 +2 x28774 +2 x28775 +2 x28776 -1 x28609 -1 x28610 -1 x28611 -1 x28612 -1 x28613 -1 x28614 -1 x28615 -1 x28616 >= 0 ;
+2 x28777 +2 x28778 +2 x28779 +2 x28780 -1 x28613 -1 x28614 -1 x28615 -1 x28616 -1 x28617 -1 x28618 -1 x28619 -1 x28620 >= 0 ;
+2 x28781 +2 x28782 +2 x28783 +2 x28784 -1 x28617 -1 x28618 -1 x28619 -1 x28620 -1 x28621 -1 x28622 -1 x28623 -1 x28624 >= 0 ;
+2 x28785 +2 x28786 +2 x28787 +2 x28788 -1 x28621 -1 x28622 -1 x28623 -1 x28624 -1 x28625 -1 x28626 -1 x28627 -1 x28628 >= 0 ;
+2 x28789 +2 x28790 +2 x28791 +2 x28792 -1 x28625 -1 x28626 -1 x28627 -1 x28628 -1 x28629 -1 x28630 -1 x28631 -1 x28632 >= 0 ;
+2 x28793 +2 x28794 +2 x28795 +2 x28796 -1 x28629 -1 x28630 -1 x28631 -1 x28632 -1 x28633 -1 x28634 -1 x28635 -1 x28636 >= 0 ;
+2 x28797 +2 x28798 +2 x28799 +2 x28800 -1 x28633 -1 x28634 -1 x28635 -1 x28636 -1 x28637 -1 x28638 -1 x28639 -1 x28640 >= 0 ;
+2 x28801 +2 x28802 +2 x28803 +2 x28804 -1 x28637 -1 x28638 -1 x28639 -1 x28640 -1 x28641 -1 x28642 -1 x28643 -1 x28644 >= 0 ;
+2 x28805 +2 x28806 +2 x28807 +2 x28808 -1 x28641 -1 x28642 -1 x28643 -1 x28644 -1 x28645 -1 x28646 -1 x28647 -1 x28648 >= 0 ;
+2 x28809 +2 x28810 +2 x28811 +2 x28812 -1 x28645 -1 x28646 -1 x28647 -1 x28648 -1 x28649 -1 x28650 -1 x28651 -1 x28652 >= 0 ;
+2 x28813 +2 x28814 +2 x28815 +2 x28816 -1 x28649 -1 x28650 -1 x28651 -1 x28652 -1 x28653 -1 x28654 -1 x28655 -1 x28656 >= 0 ;
+2 x28817 +2 x28818 +2 x28819 +2 x28820 -1 x28653 -1 x28654 -1 x28655 -1 x28656 -1 x28657 -1 x28658 -1 x28659 -1 x28660 >= 0 ;
+2 x28821 +2 x28822 +2 x28823 +2 x28824 -1 x28657 -1 x28658 -1 x28659 -1 x28660 -1 x28661 -1 x28662 -1 x28663 -1 x28664 >= 0 ;
+2 x28825 +2 x28826 +2 x28827 +2 x28828 -1 x28661 -1 x28662 -1 x28663 -1 x28664 -1 x28665 -1 x28666 -1 x28667 -1 x28668 >= 0 ;
+2 x28829 +2 x28830 +2 x28831 +2 x28832 -1 x28665 -1 x28666 -1 x28667 -1 x28668 -1 x28669 -1 x28670 -1 x28671 -1 x28672 >= 0 ;
+2 x28833 +2 x28834 +2 x28835 +2 x28836 -1 x28669 -1 x28670 -1 x28671 -1 x28672 -1 x28673 -1 x28674 -1 x28675 -1 x28676 >= 0 ;
+2 x28837 +2 x28838 +2 x28839 +2 x28840 -1 x28673 -1 x28674 -1 x28675 -1 x28676 -1 x28677 -1 x28678 -1 x28679 -1 x28680 >= 0 ;
+2 x28841 +2 x28842 +2 x28843 +2 x28844 -1 x28677 -1 x28678 -1 x28679 -1 x28680 -1 x28681 -1 x28682 -1 x28683 -1 x28684 >= 0 ;
+2 x28845 +2 x28846 +2 x28847 +2 x28848 -1 x28681 -1 x28682 -1 x28683 -1 x28684 -1 x28685 -1 x28686 -1 x28687 -1 x28688 >= 0 ;
+2 x28849 +2 x28850 +2 x28851 +2 x28852 -1 x28685 -1 x28686 -1 x28687 -1 x28688 -1 x28689 -1 x28690 -1 x28691 -1 x28692 >= 0 ;
+2 x28853 +2 x28854 +2 x28855 +2 x28856 -1 x28689 -1 x28690 -1 x28691 -1 x28692 -1 x28693 -1 x28694 -1 x28695 -1 x28696 >= 0 ;
+2 x28857 +2 x28858 +2 x28859 +2 x28860 -1 x28693 -1 x28694 -1 x28695 -1 x28696 -1 x28697 -1 x28698 -1 x28699 -1 x28700 >= 0 ;
+2 x28861 +2 x28862 +2 x28863 +2 x28864 -1 x28697 -1 x28698 -1 x28699 -1 x28700 -1 x28701 -1 x28702 -1 x28703 -1 x28704 >= 0 ;
+2 x28865 +2 x28866 +2 x28867 +2 x28868 -1 x28701 -1 x28702 -1 x28703 -1 x28704 -1 x28705 -1 x28706 -1 x28707 -1 x28708 >= 0 ;
+2 x28869 +2 x28870 +2 x28871 +2 x28872 -1 x28705 -1 x28706 -1 x28707 -1 x28708 -1 x28709 -1 x28710 -1 x28711 -1 x28712 >= 0 ;
+2 x28873 +2 x28874 +2 x28875 +2 x28876 -1 x28709 -1 x28710 -1 x28711 -1 x28712 -1 x28713 -1 x28714 -1 x28715 -1 x28716 >= 0 ;
+2 x28877 +2 x28878 +2 x28879 +2 x28880 -1 x28713 -1 x28714 -1 x28715 -1 x28716 -1 x28717 -1 x28718 -1 x28719 -1 x28720 >= 0 ;
+2 x28881 +2 x28882 +2 x28883 +2 x28884 -1 x28717 -1 x28718 -1 x28719 -1 x28720 -1 x28721 -1 x28722 -1 x28723 -1 x28724 >= 0 ;
+2 x28885 +2 x28886 +2 x28887 +2 x28888 -1 x28725 -1 x28726 -1 x28727 -1 x28728 -1 x28729 -1 x28730 -1 x28731 -1 x28732 >= 0 ;
+2 x28889 +2 x28890 +2 x28891 +2 x28892 -1 x28729 -1 x28730 -1 x28731 -1 x28732 -1 x28733 -1 x28734 -1 x28735 -1 x28736 >= 0 ;
+2 x28893 +2 x28894 +2 x28895 +2 x28896 -1 x28733 -1 x28734 -1 x28735 -1 x28736 -1 x28737 -1 x28738 -1 x28739 -1 x28740 >= 0 ;
+2 x28897 +2 x28898 +2 x28899 +2 x28900 -1 x28737 -1 x28738 -1 x28739 -1 x28740 -1 x28741 -1 x28742 -1 x28743 -1 x28744 >= 0 ;
+2 x28901 +2 x28902 +2 x28903 +2 x28904 -1 x28741 -1 x28742 -1 x28743 -1 x28744 -1 x28745 -1 x28746 -1 x28747 -1 x28748 >= 0 ;
+2 x28905 +2 x28906 +2 x28907 +2 x28908 -1 x28745 -1 x28746 -1 x28747 -1 x28748 -1 x28749 -1 x28750 -1 x28751 -1 x28752 >= 0 ;
+2 x28909 +2 x28910 +2 x28911 +2 x28912 -1 x28749 -1 x28750 -1 x28751 -1 x28752 -1 x28753 -1 x28754 -1 x28755 -1 x28756 >= 0 ;
+2 x28913 +2 x28914 +2 x28915 +2 x28916 -1 x28753 -1 x28754 -1 x28755 -1 x28756 -1 x28757 -1 x28758 -1 x28759 -1 x28760 >= 0 ;
+2 x28917 +2 x28918 +2 x28919 +2 x28920 -1 x28757 -1 x28758 -1 x28759 -1 x28760 -1 x28761 -1 x28762 -1 x28763 -1 x28764 >= 0 ;
+2 x28921 +2 x28922 +2 x28923 +2 x28924 -1 x28761 -1 x28762 -1 x28763 -1 x28764 -1 x28765 -1 x28766 -1 x28767 -1 x28768 >= 0 ;
+2 x28925 +2 x28926 +2 x28927 +2 x28928 -1 x28765 -1 x28766 -1 x28767 -1 x28768 -1 x28769 -1 x28770 -1 x28771 -1 x28772 >= 0 ;
+2 x28929 +2 x28930 +2 x28931 +2 x28932 -1 x28769 -1 x28770 -1 x28771 -1 x28772 -1 x28773 -1 x28774 -1 x28775 -1 x28776 >= 0 ;
+2 x28933 +2 x28934 +2 x28935 +2 x28936 -1 x28773 -1 x28774 -1 x28775 -1 x28776 -1 x28777 -1 x28778 -1 x28779 -1 x28780 >= 0 ;
+2 x28937 +2 x28938 +2 x28939 +2 x28940 -1 x28777 -1 x28778 -1 x28779 -1 x28780 -1 x28781 -1 x28782 -1 x28783 -1 x28784 >= 0 ;
+2 x28941 +2 x28942 +2 x28943 +2 x28944 -1 x28781 -1 x28782 -1 x28783 -1 x28784 -1 x28785 -1 x28786 -1 x28787 -1 x28788 >= 0 ;
+2 x28945 +2 x28946 +2 x28947 +2 x28948 -1 x28785 -1 x28786 -1 x28787 -1 x28788 -1 x28789 -1 x28790 -1 x28791 -1 x28792 >= 0 ;
+2 x28949 +2 x28950 +2 x28951 +2 x28952 -1 x28789 -1 x28790 -1 x28791 -1 x28792 -1 x28793 -1 x28794 -1 x28795 -1 x28796 >= 0 ;
+2 x28953 +2 x28954 +2 x28955 +2 x28956 -1 x28793 -1 x28794 -1 x28795 -1 x28796 -1 x28797 -1 x28798 -1 x28799 -1 x28800 >= 0 ;
+2 x28957 +2 x28958 +2 x28959 +2 x28960 -1 x28797 -1 x28798 -1 x28799 -1 x28800 -1 x28801 -1 x28802 -1 x28803 -1 x28804 >= 0 ;
+2 x28961 +2 x28962 +2 x28963 +2 x28964 -1 x28801 -1 x28802 -1 x28803 -1 x28804 -1 x28805 -1 x28806 -1 x28807 -1 x28808 >= 0 ;
+2 x28965 +2 x28966 +2 x28967 +2 x28968 -1 x28805 -1 x28806 -1 x28807 -1 x28808 -1 x28809 -1 x28810 -1 x28811 -1 x28812 >= 0 ;
+2 x28969 +2 x28970 +2 x28971 +2 x28972 -1 x28809 -1 x28810 -1 x28811 -1 x28812 -1 x28813 -1 x28814 -1 x28815 -1 x28816 >= 0 ;
+2 x28973 +2 x28974 +2 x28975 +2 x28976 -1 x28813 -1 x28814 -1 x28815 -1 x28816 -1 x28817 -1 x28818 -1 x28819 -1 x28820 >= 0 ;
+2 x28977 +2 x28978 +2 x28979 +2 x28980 -1 x28817 -1 x28818 -1 x28819 -1 x28820 -1 x28821 -1 x28822 -1 x28823 -1 x28824 >= 0 ;
+2 x28981 +2 x28982 +2 x28983 +2 x28984 -1 x28821 -1 x28822 -1 x28823 -1 x28824 -1 x28825 -1 x28826 -1 x28827 -1 x28828 >= 0 ;
+2 x28985 +2 x28986 +2 x28987 +2 x28988 -1 x28825 -1 x28826 -1 x28827 -1 x28828 -1 x28829 -1 x28830 -1 x28831 -1 x28832 >= 0 ;
+2 x28989 +2 x28990 +2 x28991 +2 x28992 -1 x28829 -1 x28830 -1 x28831 -1 x28832 -1 x28833 -1 x28834 -1 x28835 -1 x28836 >= 0 ;
+2 x28993 +2 x28994 +2 x28995 +2 x28996 -1 x28833 -1 x28834 -1 x28835 -1 x28836 -1 x28837 -1 x28838 -1 x28839 -1 x28840 >= 0 ;
+2 x28997 +2 x28998 +2 x28999 +2 x29000 -1 x28837 -1 x28838 -1 x28839 -1 x28840 -1 x28841 -1 x28842 -1 x28843 -1 x28844 >= 0 ;
+2 x29001 +2 x29002 +2 x29003 +2 x29004 -1 x28841 -1 x28842 -1 x28843 -1 x28844 -1 x28845 -1 x28846 -1 x28847 -1 x28848 >= 0 ;
+2 x29005 +2 x29006 +2 x29007 +2 x29008 -1 x28845 -1 x28846 -1 x28847 -1 x28848 -1 x28849 -1 x28850 -1 x28851 -1 x28852 >= 0 ;
+2 x29009 +2 x29010 +2 x29011 +2 x29012 -1 x28849 -1 x28850 -1 x28851 -1 x28852 -1 x28853 -1 x28854 -1 x28855 -1 x28856 >= 0 ;
+2 x29013 +2 x29014 +2 x29015 +2 x29016 -1 x28853 -1 x28854 -1 x28855 -1 x28856 -1 x28857 -1 x28858 -1 x28859 -1 x28860 >= 0 ;
+2 x29017 +2 x29018 +2 x29019 +2 x29020 -1 x28857 -1 x28858 -1 x28859 -1 x28860 -1 x28861 -1 x28862 -1 x28863 -1 x28864 >= 0 ;
+2 x29021 +2 x29022 +2 x29023 +2 x29024 -1 x28861 -1 x28862 -1 x28863 -1 x28864 -1 x28865 -1 x28866 -1 x28867 -1 x28868 >= 0 ;
+2 x29025 +2 x29026 +2 x29027 +2 x29028 -1 x28865 -1 x28866 -1 x28867 -1 x28868 -1 x28869 -1 x28870 -1 x28871 -1 x28872 >= 0 ;
+2 x29029 +2 x29030 +2 x29031 +2 x29032 -1 x28869 -1 x28870 -1 x28871 -1 x28872 -1 x28873 -1 x28874 -1 x28875 -1 x28876 >= 0 ;
+2 x29033 +2 x29034 +2 x29035 +2 x29036 -1 x28873 -1 x28874 -1 x28875 -1 x28876 -1 x28877 -1 x28878 -1 x28879 -1 x28880 >= 0 ;
+2 x29037 +2 x29038 +2 x29039 +2 x29040 -1 x28877 -1 x28878 -1 x28879 -1 x28880 -1 x28881 -1 x28882 -1 x28883 -1 x28884 >= 0 ;
+2 x29041 +2 x29042 +2 x29043 +2 x29044 -1 x28885 -1 x28886 -1 x28887 -1 x28888 -1 x28889 -1 x28890 -1 x28891 -1 x28892 >= 0 ;
+2 x29045 +2 x29046 +2 x29047 +2 x29048 -1 x28889 -1 x28890 -1 x28891 -1 x28892 -1 x28893 -1 x28894 -1 x28895 -1 x28896 >= 0 ;
+2 x29049 +2 x29050 +2 x29051 +2 x29052 -1 x28893 -1 x28894 -1 x28895 -1 x28896 -1 x28897 -1 x28898 -1 x28899 -1 x28900 >= 0 ;
+2 x29053 +2 x29054 +2 x29055 +2 x29056 -1 x28897 -1 x28898 -1 x28899 -1 x28900 -1 x28901 -1 x28902 -1 x28903 -1 x28904 >= 0 ;
+2 x29057 +2 x29058 +2 x29059 +2 x29060 -1 x28901 -1 x28902 -1 x28903 -1 x28904 -1 x28905 -1 x28906 -1 x28907 -1 x28908 >= 0 ;
+2 x29061 +2 x29062 +2 x29063 +2 x29064 -1 x28905 -1 x28906 -1 x28907 -1 x28908 -1 x28909 -1 x28910 -1 x28911 -1 x28912 >= 0 ;
+2 x29065 +2 x29066 +2 x29067 +2 x29068 -1 x28909 -1 x28910 -1 x28911 -1 x28912 -1 x28913 -1 x28914 -1 x28915 -1 x28916 >= 0 ;
+2 x29069 +2 x29070 +2 x29071 +2 x29072 -1 x28913 -1 x28914 -1 x28915 -1 x28916 -1 x28917 -1 x28918 -1 x28919 -1 x28920 >= 0 ;
+2 x29073 +2 x29074 +2 x29075 +2 x29076 -1 x28917 -1 x28918 -1 x28919 -1 x28920 -1 x28921 -1 x28922 -1 x28923 -1 x28924 >= 0 ;
+2 x29077 +2 x29078 +2 x29079 +2 x29080 -1 x28921 -1 x28922 -1 x28923 -1 x28924 -1 x28925 -1 x28926 -1 x28927 -1 x28928 >= 0 ;
+2 x29081 +2 x29082 +2 x29083 +2 x29084 -1 x28925 -1 x28926 -1 x28927 -1 x28928 -1 x28929 -1 x28930 -1 x28931 -1 x28932 >= 0 ;
+2 x29085 +2 x29086 +2 x29087 +2 x29088 -1 x28929 -1 x28930 -1 x28931 -1 x28932 -1 x28933 -1 x28934 -1 x28935 -1 x28936 >= 0 ;
+2 x29089 +2 x29090 +2 x29091 +2 x29092 -1 x28933 -1 x28934 -1 x28935 -1 x28936 -1 x28937 -1 x28938 -1 x28939 -1 x28940 >= 0 ;
+2 x29093 +2 x29094 +2 x29095 +2 x29096 -1 x28937 -1 x28938 -1 x28939 -1 x28940 -1 x28941 -1 x28942 -1 x28943 -1 x28944 >= 0 ;
+2 x29097 +2 x29098 +2 x29099 +2 x29100 -1 x28941 -1 x28942 -1 x28943 -1 x28944 -1 x28945 -1 x28946 -1 x28947 -1 x28948 >= 0 ;
+2 x29101 +2 x29102 +2 x29103 +2 x29104 -1 x28945 -1 x28946 -1 x28947 -1 x28948 -1 x28949 -1 x28950 -1 x28951 -1 x28952 >= 0 ;
+2 x29105 +2 x29106 +2 x29107 +2 x29108 -1 x28949 -1 x28950 -1 x28951 -1 x28952 -1 x28953 -1 x28954 -1 x28955 -1 x28956 >= 0 ;
+2 x29109 +2 x29110 +2 x29111 +2 x29112 -1 x28953 -1 x28954 -1 x28955 -1 x28956 -1 x28957 -1 x28958 -1 x28959 -1 x28960 >= 0 ;
+2 x29113 +2 x29114 +2 x29115 +2 x29116 -1 x28957 -1 x28958 -1 x28959 -1 x28960 -1 x28961 -1 x28962 -1 x28963 -1 x28964 >= 0 ;
+2 x29117 +2 x29118 +2 x29119 +2 x29120 -1 x28961 -1 x28962 -1 x28963 -1 x28964 -1 x28965 -1 x28966 -1 x28967 -1 x28968 >= 0 ;
+2 x29121 +2 x29122 +2 x29123 +2 x29124 -1 x28965 -1 x28966 -1 x28967 -1 x28968 -1 x28969 -1 x28970 -1 x28971 -1 x28972 >= 0 ;
+2 x29125 +2 x29126 +2 x29127 +2 x29128 -1 x28969 -1 x28970 -1 x28971 -1 x28972 -1 x28973 -1 x28974 -1 x28975 -1 x28976 >= 0 ;
+2 x29129 +2 x29130 +2 x29131 +2 x29132 -1 x28973 -1 x28974 -1 x28975 -1 x28976 -1 x28977 -1 x28978 -1 x28979 -1 x28980 >= 0 ;
+2 x29133 +2 x29134 +2 x29135 +2 x29136 -1 x28977 -1 x28978 -1 x28979 -1 x28980 -1 x28981 -1 x28982 -1 x28983 -1 x28984 >= 0 ;
+2 x29137 +2 x29138 +2 x29139 +2 x29140 -1 x28981 -1 x28982 -1 x28983 -1 x28984 -1 x28985 -1 x28986 -1 x28987 -1 x28988 >= 0 ;
+2 x29141 +2 x29142 +2 x29143 +2 x29144 -1 x28985 -1 x28986 -1 x28987 -1 x28988 -1 x28989 -1 x28990 -1 x28991 -1 x28992 >= 0 ;
+2 x29145 +2 x29146 +2 x29147 +2 x29148 -1 x28989 -1 x28990 -1 x28991 -1 x28992 -1 x28993 -1 x28994 -1 x28995 -1 x28996 >= 0 ;
+2 x29149 +2 x29150 +2 x29151 +2 x29152 -1 x28993 -1 x28994 -1 x28995 -1 x28996 -1 x28997 -1 x28998 -1 x28999 -1 x29000 >= 0 ;
+2 x29153 +2 x29154 +2 x29155 +2 x29156 -1 x28997 -1 x28998 -1 x28999 -1 x29000 -1 x29001 -1 x29002 -1 x29003 -1 x29004 >= 0 ;
+2 x29157 +2 x29158 +2 x29159 +2 x29160 -1 x29001 -1 x29002 -1 x29003 -1 x29004 -1 x29005 -1 x29006 -1 x29007 -1 x29008 >= 0 ;
+2 x29161 +2 x29162 +2 x29163 +2 x29164 -1 x29005 -1 x29006 -1 x29007 -1 x29008 -1 x29009 -1 x29010 -1 x29011 -1 x29012 >= 0 ;
+2 x29165 +2 x29166 +2 x29167 +2 x29168 -1 x29009 -1 x29010 -1 x29011 -1 x29012 -1 x29013 -1 x29014 -1 x29015 -1 x29016 >= 0 ;
+2 x29169 +2 x29170 +2 x29171 +2 x29172 -1 x29013 -1 x29014 -1 x29015 -1 x29016 -1 x29017 -1 x29018 -1 x29019 -1 x29020 >= 0 ;
+2 x29173 +2 x29174 +2 x29175 +2 x29176 -1 x29017 -1 x29018 -1 x29019 -1 x29020 -1 x29021 -1 x29022 -1 x29023 -1 x29024 >= 0 ;
+2 x29177 +2 x29178 +2 x29179 +2 x29180 -1 x29021 -1 x29022 -1 x29023 -1 x29024 -1 x29025 -1 x29026 -1 x29027 -1 x29028 >= 0 ;
+2 x29181 +2 x29182 +2 x29183 +2 x29184 -1 x29025 -1 x29026 -1 x29027 -1 x29028 -1 x29029 -1 x29030 -1 x29031 -1 x29032 >= 0 ;
+2 x29185 +2 x29186 +2 x29187 +2 x29188 -1 x29029 -1 x29030 -1 x29031 -1 x29032 -1 x29033 -1 x29034 -1 x29035 -1 x29036 >= 0 ;
+2 x29189 +2 x29190 +2 x29191 +2 x29192 -1 x29033 -1 x29034 -1 x29035 -1 x29036 -1 x29037 -1 x29038 -1 x29039 -1 x29040 >= 0 ;
+2 x29193 +2 x29194 +2 x29195 +2 x29196 -1 x29041 -1 x29042 -1 x29043 -1 x29044 -1 x29045 -1 x29046 -1 x29047 -1 x29048 >= 0 ;
+2 x29197 +2 x29198 +2 x29199 +2 x29200 -1 x29045 -1 x29046 -1 x29047 -1 x29048 -1 x29049 -1 x29050 -1 x29051 -1 x29052 >= 0 ;
+2 x29201 +2 x29202 +2 x29203 +2 x29204 -1 x29049 -1 x29050 -1 x29051 -1 x29052 -1 x29053 -1 x29054 -1 x29055 -1 x29056 >= 0 ;
+2 x29205 +2 x29206 +2 x29207 +2 x29208 -1 x29053 -1 x29054 -1 x29055 -1 x29056 -1 x29057 -1 x29058 -1 x29059 -1 x29060 >= 0 ;
+2 x29209 +2 x29210 +2 x29211 +2 x29212 -1 x29057 -1 x29058 -1 x29059 -1 x29060 -1 x29061 -1 x29062 -1 x29063 -1 x29064 >= 0 ;
+2 x29213 +2 x29214 +2 x29215 +2 x29216 -1 x29061 -1 x29062 -1 x29063 -1 x29064 -1 x29065 -1 x29066 -1 x29067 -1 x29068 >= 0 ;
+2 x29217 +2 x29218 +2 x29219 +2 x29220 -1 x29065 -1 x29066 -1 x29067 -1 x29068 -1 x29069 -1 x29070 -1 x29071 -1 x29072 >= 0 ;
+2 x29221 +2 x29222 +2 x29223 +2 x29224 -1 x29069 -1 x29070 -1 x29071 -1 x29072 -1 x29073 -1 x29074 -1 x29075 -1 x29076 >= 0 ;
+2 x29225 +2 x29226 +2 x29227 +2 x29228 -1 x29073 -1 x29074 -1 x29075 -1 x29076 -1 x29077 -1 x29078 -1 x29079 -1 x29080 >= 0 ;
+2 x29229 +2 x29230 +2 x29231 +2 x29232 -1 x29077 -1 x29078 -1 x29079 -1 x29080 -1 x29081 -1 x29082 -1 x29083 -1 x29084 >= 0 ;
+2 x29233 +2 x29234 +2 x29235 +2 x29236 -1 x29081 -1 x29082 -1 x29083 -1 x29084 -1 x29085 -1 x29086 -1 x29087 -1 x29088 >= 0 ;
+2 x29237 +2 x29238 +2 x29239 +2 x29240 -1 x29085 -1 x29086 -1 x29087 -1 x29088 -1 x29089 -1 x29090 -1 x29091 -1 x29092 >= 0 ;
+2 x29241 +2 x29242 +2 x29243 +2 x29244 -1 x29089 -1 x29090 -1 x29091 -1 x29092 -1 x29093 -1 x29094 -1 x29095 -1 x29096 >= 0 ;
+2 x29245 +2 x29246 +2 x29247 +2 x29248 -1 x29093 -1 x29094 -1 x29095 -1 x29096 -1 x29097 -1 x29098 -1 x29099 -1 x29100 >= 0 ;
+2 x29249 +2 x29250 +2 x29251 +2 x29252 -1 x29097 -1 x29098 -1 x29099 -1 x29100 -1 x29101 -1 x29102 -1 x29103 -1 x29104 >= 0 ;
+2 x29253 +2 x29254 +2 x29255 +2 x29256 -1 x29101 -1 x29102 -1 x29103 -1 x29104 -1 x29105 -1 x29106 -1 x29107 -1 x29108 >= 0 ;
+2 x29257 +2 x29258 +2 x29259 +2 x29260 -1 x29105 -1 x29106 -1 x29107 -1 x29108 -1 x29109 -1 x29110 -1 x29111 -1 x29112 >= 0 ;
+2 x29261 +2 x29262 +2 x29263 +2 x29264 -1 x29109 -1 x29110 -1 x29111 -1 x29112 -1 x29113 -1 x29114 -1 x29115 -1 x29116 >= 0 ;
+2 x29265 +2 x29266 +2 x29267 +2 x29268 -1 x29113 -1 x29114 -1 x29115 -1 x29116 -1 x29117 -1 x29118 -1 x29119 -1 x29120 >= 0 ;
+2 x29269 +2 x29270 +2 x29271 +2 x29272 -1 x29117 -1 x29118 -1 x29119 -1 x29120 -1 x29121 -1 x29122 -1 x29123 -1 x29124 >= 0 ;
+2 x29273 +2 x29274 +2 x29275 +2 x29276 -1 x29121 -1 x29122 -1 x29123 -1 x29124 -1 x29125 -1 x29126 -1 x29127 -1 x29128 >= 0 ;
+2 x29277 +2 x29278 +2 x29279 +2 x29280 -1 x29125 -1 x29126 -1 x29127 -1 x29128 -1 x29129 -1 x29130 -1 x29131 -1 x29132 >= 0 ;
+2 x29281 +2 x29282 +2 x29283 +2 x29284 -1 x29129 -1 x29130 -1 x29131 -1 x29132 -1 x29133 -1 x29134 -1 x29135 -1 x29136 >= 0 ;
+2 x29285 +2 x29286 +2 x29287 +2 x29288 -1 x29133 -1 x29134 -1 x29135 -1 x29136 -1 x29137 -1 x29138 -1 x29139 -1 x29140 >= 0 ;
+2 x29289 +2 x29290 +2 x29291 +2 x29292 -1 x29137 -1 x29138 -1 x29139 -1 x29140 -1 x29141 -1 x29142 -1 x29143 -1 x29144 >= 0 ;
+2 x29293 +2 x29294 +2 x29295 +2 x29296 -1 x29141 -1 x29142 -1 x29143 -1 x29144 -1 x29145 -1 x29146 -1 x29147 -1 x29148 >= 0 ;
+2 x29297 +2 x29298 +2 x29299 +2 x29300 -1 x29145 -1 x29146 -1 x29147 -1 x29148 -1 x29149 -1 x29150 -1 x29151 -1 x29152 >= 0 ;
+2 x29301 +2 x29302 +2 x29303 +2 x29304 -1 x29149 -1 x29150 -1 x29151 -1 x29152 -1 x29153 -1 x29154 -1 x29155 -1 x29156 >= 0 ;
+2 x29305 +2 x29306 +2 x29307 +2 x29308 -1 x29153 -1 x29154 -1 x29155 -1 x29156 -1 x29157 -1 x29158 -1 x29159 -1 x29160 >= 0 ;
+2 x29309 +2 x29310 +2 x29311 +2 x29312 -1 x29157 -1 x29158 -1 x29159 -1 x29160 -1 x29161 -1 x29162 -1 x29163 -1 x29164 >= 0 ;
+2 x29313 +2 x29314 +2 x29315 +2 x29316 -1 x29161 -1 x29162 -1 x29163 -1 x29164 -1 x29165 -1 x29166 -1 x29167 -1 x29168 >= 0 ;
+2 x29317 +2 x29318 +2 x29319 +2 x29320 -1 x29165 -1 x29166 -1 x29167 -1 x29168 -1 x29169 -1 x29170 -1 x29171 -1 x29172 >= 0 ;
+2 x29321 +2 x29322 +2 x29323 +2 x29324 -1 x29169 -1 x29170 -1 x29171 -1 x29172 -1 x29173 -1 x29174 -1 x29175 -1 x29176 >= 0 ;
+2 x29325 +2 x29326 +2 x29327 +2 x29328 -1 x29173 -1 x29174 -1 x29175 -1 x29176 -1 x29177 -1 x29178 -1 x29179 -1 x29180 >= 0 ;
+2 x29329 +2 x29330 +2 x29331 +2 x29332 -1 x29177 -1 x29178 -1 x29179 -1 x29180 -1 x29181 -1 x29182 -1 x29183 -1 x29184 >= 0 ;
+2 x29333 +2 x29334 +2 x29335 +2 x29336 -1 x29181 -1 x29182 -1 x29183 -1 x29184 -1 x29185 -1 x29186 -1 x29187 -1 x29188 >= 0 ;
+2 x29337 +2 x29338 +2 x29339 +2 x29340 -1 x29185 -1 x29186 -1 x29187 -1 x29188 -1 x29189 -1 x29190 -1 x29191 -1 x29192 >= 0 ;
+2 x29341 +2 x29342 +2 x29343 +2 x29344 -1 x29193 -1 x29194 -1 x29195 -1 x29196 -1 x29197 -1 x29198 -1 x29199 -1 x29200 >= 0 ;
+2 x29345 +2 x29346 +2 x29347 +2 x29348 -1 x29197 -1 x29198 -1 x29199 -1 x29200 -1 x29201 -1 x29202 -1 x29203 -1 x29204 >= 0 ;
+2 x29349 +2 x29350 +2 x29351 +2 x29352 -1 x29201 -1 x29202 -1 x29203 -1 x29204 -1 x29205 -1 x29206 -1 x29207 -1 x29208 >= 0 ;
+2 x29353 +2 x29354 +2 x29355 +2 x29356 -1 x29205 -1 x29206 -1 x29207 -1 x29208 -1 x29209 -1 x29210 -1 x29211 -1 x29212 >= 0 ;
+2 x29357 +2 x29358 +2 x29359 +2 x29360 -1 x29209 -1 x29210 -1 x29211 -1 x29212 -1 x29213 -1 x29214 -1 x29215 -1 x29216 >= 0 ;
+2 x29361 +2 x29362 +2 x29363 +2 x29364 -1 x29213 -1 x29214 -1 x29215 -1 x29216 -1 x29217 -1 x29218 -1 x29219 -1 x29220 >= 0 ;
+2 x29365 +2 x29366 +2 x29367 +2 x29368 -1 x29217 -1 x29218 -1 x29219 -1 x29220 -1 x29221 -1 x29222 -1 x29223 -1 x29224 >= 0 ;
+2 x29369 +2 x29370 +2 x29371 +2 x29372 -1 x29221 -1 x29222 -1 x29223 -1 x29224 -1 x29225 -1 x29226 -1 x29227 -1 x29228 >= 0 ;
+2 x29373 +2 x29374 +2 x29375 +2 x29376 -1 x29225 -1 x29226 -1 x29227 -1 x29228 -1 x29229 -1 x29230 -1 x29231 -1 x29232 >= 0 ;
+2 x29377 +2 x29378 +2 x29379 +2 x29380 -1 x29229 -1 x29230 -1 x29231 -1 x29232 -1 x29233 -1 x29234 -1 x29235 -1 x29236 >= 0 ;
+2 x29381 +2 x29382 +2 x29383 +2 x29384 -1 x29233 -1 x29234 -1 x29235 -1 x29236 -1 x29237 -1 x29238 -1 x29239 -1 x29240 >= 0 ;
+2 x29385 +2 x29386 +2 x29387 +2 x29388 -1 x29237 -1 x29238 -1 x29239 -1 x29240 -1 x29241 -1 x29242 -1 x29243 -1 x29244 >= 0 ;
+2 x29389 +2 x29390 +2 x29391 +2 x29392 -1 x29241 -1 x29242 -1 x29243 -1 x29244 -1 x29245 -1 x29246 -1 x29247 -1 x29248 >= 0 ;
+2 x29393 +2 x29394 +2 x29395 +2 x29396 -1 x29245 -1 x29246 -1 x29247 -1 x29248 -1 x29249 -1 x29250 -1 x29251 -1 x29252 >= 0 ;
+2 x29397 +2 x29398 +2 x29399 +2 x29400 -1 x29249 -1 x29250 -1 x29251 -1 x29252 -1 x29253 -1 x29254 -1 x29255 -1 x29256 >= 0 ;
+2 x29401 +2 x29402 +2 x29403 +2 x29404 -1 x29253 -1 x29254 -1 x29255 -1 x29256 -1 x29257 -1 x29258 -1 x29259 -1 x29260 >= 0 ;
+2 x29405 +2 x29406 +2 x29407 +2 x29408 -1 x29257 -1 x29258 -1 x29259 -1 x29260 -1 x29261 -1 x29262 -1 x29263 -1 x29264 >= 0 ;
+2 x29409 +2 x29410 +2 x29411 +2 x29412 -1 x29261 -1 x29262 -1 x29263 -1 x29264 -1 x29265 -1 x29266 -1 x29267 -1 x29268 >= 0 ;
+2 x29413 +2 x29414 +2 x29415 +2 x29416 -1 x29265 -1 x29266 -1 x29267 -1 x29268 -1 x29269 -1 x29270 -1 x29271 -1 x29272 >= 0 ;
+2 x29417 +2 x29418 +2 x29419 +2 x29420 -1 x29269 -1 x29270 -1 x29271 -1 x29272 -1 x29273 -1 x29274 -1 x29275 -1 x29276 >= 0 ;
+2 x29421 +2 x29422 +2 x29423 +2 x29424 -1 x29273 -1 x29274 -1 x29275 -1 x29276 -1 x29277 -1 x29278 -1 x29279 -1 x29280 >= 0 ;
+2 x29425 +2 x29426 +2 x29427 +2 x29428 -1 x29277 -1 x29278 -1 x29279 -1 x29280 -1 x29281 -1 x29282 -1 x29283 -1 x29284 >= 0 ;
+2 x29429 +2 x29430 +2 x29431 +2 x29432 -1 x29281 -1 x29282 -1 x29283 -1 x29284 -1 x29285 -1 x29286 -1 x29287 -1 x29288 >= 0 ;
+2 x29433 +2 x29434 +2 x29435 +2 x29436 -1 x29285 -1 x29286 -1 x29287 -1 x29288 -1 x29289 -1 x29290 -1 x29291 -1 x29292 >= 0 ;
+2 x29437 +2 x29438 +2 x29439 +2 x29440 -1 x29289 -1 x29290 -1 x29291 -1 x29292 -1 x29293 -1 x29294 -1 x29295 -1 x29296 >= 0 ;
+2 x29441 +2 x29442 +2 x29443 +2 x29444 -1 x29293 -1 x29294 -1 x29295 -1 x29296 -1 x29297 -1 x29298 -1 x29299 -1 x29300 >= 0 ;
+2 x29445 +2 x29446 +2 x29447 +2 x29448 -1 x29297 -1 x29298 -1 x29299 -1 x29300 -1 x29301 -1 x29302 -1 x29303 -1 x29304 >= 0 ;
+2 x29449 +2 x29450 +2 x29451 +2 x29452 -1 x29301 -1 x29302 -1 x29303 -1 x29304 -1 x29305 -1 x29306 -1 x29307 -1 x29308 >= 0 ;
+2 x29453 +2 x29454 +2 x29455 +2 x29456 -1 x29305 -1 x29306 -1 x29307 -1 x29308 -1 x29309 -1 x29310 -1 x29311 -1 x29312 >= 0 ;
+2 x29457 +2 x29458 +2 x29459 +2 x29460 -1 x29309 -1 x29310 -1 x29311 -1 x29312 -1 x29313 -1 x29314 -1 x29315 -1 x29316 >= 0 ;
+2 x29461 +2 x29462 +2 x29463 +2 x29464 -1 x29313 -1 x29314 -1 x29315 -1 x29316 -1 x29317 -1 x29318 -1 x29319 -1 x29320 >= 0 ;
+2 x29465 +2 x29466 +2 x29467 +2 x29468 -1 x29317 -1 x29318 -1 x29319 -1 x29320 -1 x29321 -1 x29322 -1 x29323 -1 x29324 >= 0 ;
+2 x29469 +2 x29470 +2 x29471 +2 x29472 -1 x29321 -1 x29322 -1 x29323 -1 x29324 -1 x29325 -1 x29326 -1 x29327 -1 x29328 >= 0 ;
+2 x29473 +2 x29474 +2 x29475 +2 x29476 -1 x29325 -1 x29326 -1 x29327 -1 x29328 -1 x29329 -1 x29330 -1 x29331 -1 x29332 >= 0 ;
+2 x29477 +2 x29478 +2 x29479 +2 x29480 -1 x29329 -1 x29330 -1 x29331 -1 x29332 -1 x29333 -1 x29334 -1 x29335 -1 x29336 >= 0 ;
+2 x29481 +2 x29482 +2 x29483 +2 x29484 -1 x29333 -1 x29334 -1 x29335 -1 x29336 -1 x29337 -1 x29338 -1 x29339 -1 x29340 >= 0 ;
+2 x29485 +2 x29486 +2 x29487 +2 x29488 -1 x29341 -1 x29342 -1 x29343 -1 x29344 -1 x29345 -1 x29346 -1 x29347 -1 x29348 >= 0 ;
+2 x29489 +2 x29490 +2 x29491 +2 x29492 -1 x29345 -1 x29346 -1 x29347 -1 x29348 -1 x29349 -1 x29350 -1 x29351 -1 x29352 >= 0 ;
+2 x29493 +2 x29494 +2 x29495 +2 x29496 -1 x29349 -1 x29350 -1 x29351 -1 x29352 -1 x29353 -1 x29354 -1 x29355 -1 x29356 >= 0 ;
+2 x29497 +2 x29498 +2 x29499 +2 x29500 -1 x29353 -1 x29354 -1 x29355 -1 x29356 -1 x29357 -1 x29358 -1 x29359 -1 x29360 >= 0 ;
+2 x29501 +2 x29502 +2 x29503 +2 x29504 -1 x29357 -1 x29358 -1 x29359 -1 x29360 -1 x29361 -1 x29362 -1 x29363 -1 x29364 >= 0 ;
+2 x29505 +2 x29506 +2 x29507 +2 x29508 -1 x29361 -1 x29362 -1 x29363 -1 x29364 -1 x29365 -1 x29366 -1 x29367 -1 x29368 >= 0 ;
+2 x29509 +2 x29510 +2 x29511 +2 x29512 -1 x29365 -1 x29366 -1 x29367 -1 x29368 -1 x29369 -1 x29370 -1 x29371 -1 x29372 >= 0 ;
+2 x29513 +2 x29514 +2 x29515 +2 x29516 -1 x29369 -1 x29370 -1 x29371 -1 x29372 -1 x29373 -1 x29374 -1 x29375 -1 x29376 >= 0 ;
+2 x29517 +2 x29518 +2 x29519 +2 x29520 -1 x29373 -1 x29374 -1 x29375 -1 x29376 -1 x29377 -1 x29378 -1 x29379 -1 x29380 >= 0 ;
+2 x29521 +2 x29522 +2 x29523 +2 x29524 -1 x29377 -1 x29378 -1 x29379 -1 x29380 -1 x29381 -1 x29382 -1 x29383 -1 x29384 >= 0 ;
+2 x29525 +2 x29526 +2 x29527 +2 x29528 -1 x29381 -1 x29382 -1 x29383 -1 x29384 -1 x29385 -1 x29386 -1 x29387 -1 x29388 >= 0 ;
+2 x29529 +2 x29530 +2 x29531 +2 x29532 -1 x29385 -1 x29386 -1 x29387 -1 x29388 -1 x29389 -1 x29390 -1 x29391 -1 x29392 >= 0 ;
+2 x29533 +2 x29534 +2 x29535 +2 x29536 -1 x29389 -1 x29390 -1 x29391 -1 x29392 -1 x29393 -1 x29394 -1 x29395 -1 x29396 >= 0 ;
+2 x29537 +2 x29538 +2 x29539 +2 x29540 -1 x29393 -1 x29394 -1 x29395 -1 x29396 -1 x29397 -1 x29398 -1 x29399 -1 x29400 >= 0 ;
+2 x29541 +2 x29542 +2 x29543 +2 x29544 -1 x29397 -1 x29398 -1 x29399 -1 x29400 -1 x29401 -1 x29402 -1 x29403 -1 x29404 >= 0 ;
+2 x29545 +2 x29546 +2 x29547 +2 x29548 -1 x29401 -1 x29402 -1 x29403 -1 x29404 -1 x29405 -1 x29406 -1 x29407 -1 x29408 >= 0 ;
+2 x29549 +2 x29550 +2 x29551 +2 x29552 -1 x29405 -1 x29406 -1 x29407 -1 x29408 -1 x29409 -1 x29410 -1 x29411 -1 x29412 >= 0 ;
+2 x29553 +2 x29554 +2 x29555 +2 x29556 -1 x29409 -1 x29410 -1 x29411 -1 x29412 -1 x29413 -1 x29414 -1 x29415 -1 x29416 >= 0 ;
+2 x29557 +2 x29558 +2 x29559 +2 x29560 -1 x29413 -1 x29414 -1 x29415 -1 x29416 -1 x29417 -1 x29418 -1 x29419 -1 x29420 >= 0 ;
+2 x29561 +2 x29562 +2 x29563 +2 x29564 -1 x29417 -1 x29418 -1 x29419 -1 x29420 -1 x29421 -1 x29422 -1 x29423 -1 x29424 >= 0 ;
+2 x29565 +2 x29566 +2 x29567 +2 x29568 -1 x29421 -1 x29422 -1 x29423 -1 x29424 -1 x29425 -1 x29426 -1 x29427 -1 x29428 >= 0 ;
+2 x29569 +2 x29570 +2 x29571 +2 x29572 -1 x29425 -1 x29426 -1 x29427 -1 x29428 -1 x29429 -1 x29430 -1 x29431 -1 x29432 >= 0 ;
+2 x29573 +2 x29574 +2 x29575 +2 x29576 -1 x29429 -1 x29430 -1 x29431 -1 x29432 -1 x29433 -1 x29434 -1 x29435 -1 x29436 >= 0 ;
+2 x29577 +2 x29578 +2 x29579 +2 x29580 -1 x29433 -1 x29434 -1 x29435 -1 x29436 -1 x29437 -1 x29438 -1 x29439 -1 x29440 >= 0 ;
+2 x29581 +2 x29582 +2 x29583 +2 x29584 -1 x29437 -1 x29438 -1 x29439 -1 x29440 -1 x29441 -1 x29442 -1 x29443 -1 x29444 >= 0 ;
+2 x29585 +2 x29586 +2 x29587 +2 x29588 -1 x29441 -1 x29442 -1 x29443 -1 x29444 -1 x29445 -1 x29446 -1 x29447 -1 x29448 >= 0 ;
+2 x29589 +2 x29590 +2 x29591 +2 x29592 -1 x29445 -1 x29446 -1 x29447 -1 x29448 -1 x29449 -1 x29450 -1 x29451 -1 x29452 >= 0 ;
+2 x29593 +2 x29594 +2 x29595 +2 x29596 -1 x29449 -1 x29450 -1 x29451 -1 x29452 -1 x29453 -1 x29454 -1 x29455 -1 x29456 >= 0 ;
+2 x29597 +2 x29598 +2 x29599 +2 x29600 -1 x29453 -1 x29454 -1 x29455 -1 x29456 -1 x29457 -1 x29458 -1 x29459 -1 x29460 >= 0 ;
+2 x29601 +2 x29602 +2 x29603 +2 x29604 -1 x29457 -1 x29458 -1 x29459 -1 x29460 -1 x29461 -1 x29462 -1 x29463 -1 x29464 >= 0 ;
+2 x29605 +2 x29606 +2 x29607 +2 x29608 -1 x29461 -1 x29462 -1 x29463 -1 x29464 -1 x29465 -1 x29466 -1 x29467 -1 x29468 >= 0 ;
+2 x29609 +2 x29610 +2 x29611 +2 x29612 -1 x29465 -1 x29466 -1 x29467 -1 x29468 -1 x29469 -1 x29470 -1 x29471 -1 x29472 >= 0 ;
+2 x29613 +2 x29614 +2 x29615 +2 x29616 -1 x29469 -1 x29470 -1 x29471 -1 x29472 -1 x29473 -1 x29474 -1 x29475 -1 x29476 >= 0 ;
+2 x29617 +2 x29618 +2 x29619 +2 x29620 -1 x29473 -1 x29474 -1 x29475 -1 x29476 -1 x29477 -1 x29478 -1 x29479 -1 x29480 >= 0 ;
+2 x29621 +2 x29622 +2 x29623 +2 x29624 -1 x29477 -1 x29478 -1 x29479 -1 x29480 -1 x29481 -1 x29482 -1 x29483 -1 x29484 >= 0 ;
+2 x29625 +2 x29626 +2 x29627 +2 x29628 -1 x29485 -1 x29486 -1 x29487 -1 x29488 -1 x29489 -1 x29490 -1 x29491 -1 x29492 >= 0 ;
+2 x29629 +2 x29630 +2 x29631 +2 x29632 -1 x29489 -1 x29490 -1 x29491 -1 x29492 -1 x29493 -1 x29494 -1 x29495 -1 x29496 >= 0 ;
+2 x29633 +2 x29634 +2 x29635 +2 x29636 -1 x29493 -1 x29494 -1 x29495 -1 x29496 -1 x29497 -1 x29498 -1 x29499 -1 x29500 >= 0 ;
+2 x29637 +2 x29638 +2 x29639 +2 x29640 -1 x29497 -1 x29498 -1 x29499 -1 x29500 -1 x29501 -1 x29502 -1 x29503 -1 x29504 >= 0 ;
+2 x29641 +2 x29642 +2 x29643 +2 x29644 -1 x29501 -1 x29502 -1 x29503 -1 x29504 -1 x29505 -1 x29506 -1 x29507 -1 x29508 >= 0 ;
+2 x29645 +2 x29646 +2 x29647 +2 x29648 -1 x29505 -1 x29506 -1 x29507 -1 x29508 -1 x29509 -1 x29510 -1 x29511 -1 x29512 >= 0 ;
+2 x29649 +2 x29650 +2 x29651 +2 x29652 -1 x29509 -1 x29510 -1 x29511 -1 x29512 -1 x29513 -1 x29514 -1 x29515 -1 x29516 >= 0 ;
+2 x29653 +2 x29654 +2 x29655 +2 x29656 -1 x29513 -1 x29514 -1 x29515 -1 x29516 -1 x29517 -1 x29518 -1 x29519 -1 x29520 >= 0 ;
+2 x29657 +2 x29658 +2 x29659 +2 x29660 -1 x29517 -1 x29518 -1 x29519 -1 x29520 -1 x29521 -1 x29522 -1 x29523 -1 x29524 >= 0 ;
+2 x29661 +2 x29662 +2 x29663 +2 x29664 -1 x29521 -1 x29522 -1 x29523 -1 x29524 -1 x29525 -1 x29526 -1 x29527 -1 x29528 >= 0 ;
+2 x29665 +2 x29666 +2 x29667 +2 x29668 -1 x29525 -1 x29526 -1 x29527 -1 x29528 -1 x29529 -1 x29530 -1 x29531 -1 x29532 >= 0 ;
+2 x29669 +2 x29670 +2 x29671 +2 x29672 -1 x29529 -1 x29530 -1 x29531 -1 x29532 -1 x29533 -1 x29534 -1 x29535 -1 x29536 >= 0 ;
+2 x29673 +2 x29674 +2 x29675 +2 x29676 -1 x29533 -1 x29534 -1 x29535 -1 x29536 -1 x29537 -1 x29538 -1 x29539 -1 x29540 >= 0 ;
+2 x29677 +2 x29678 +2 x29679 +2 x29680 -1 x29537 -1 x29538 -1 x29539 -1 x29540 -1 x29541 -1 x29542 -1 x29543 -1 x29544 >= 0 ;
+2 x29681 +2 x29682 +2 x29683 +2 x29684 -1 x29541 -1 x29542 -1 x29543 -1 x29544 -1 x29545 -1 x29546 -1 x29547 -1 x29548 >= 0 ;
+2 x29685 +2 x29686 +2 x29687 +2 x29688 -1 x29545 -1 x29546 -1 x29547 -1 x29548 -1 x29549 -1 x29550 -1 x29551 -1 x29552 >= 0 ;
+2 x29689 +2 x29690 +2 x29691 +2 x29692 -1 x29549 -1 x29550 -1 x29551 -1 x29552 -1 x29553 -1 x29554 -1 x29555 -1 x29556 >= 0 ;
+2 x29693 +2 x29694 +2 x29695 +2 x29696 -1 x29553 -1 x29554 -1 x29555 -1 x29556 -1 x29557 -1 x29558 -1 x29559 -1 x29560 >= 0 ;
+2 x29697 +2 x29698 +2 x29699 +2 x29700 -1 x29557 -1 x29558 -1 x29559 -1 x29560 -1 x29561 -1 x29562 -1 x29563 -1 x29564 >= 0 ;
+2 x29701 +2 x29702 +2 x29703 +2 x29704 -1 x29561 -1 x29562 -1 x29563 -1 x29564 -1 x29565 -1 x29566 -1 x29567 -1 x29568 >= 0 ;
+2 x29705 +2 x29706 +2 x29707 +2 x29708 -1 x29565 -1 x29566 -1 x29567 -1 x29568 -1 x29569 -1 x29570 -1 x29571 -1 x29572 >= 0 ;
+2 x29709 +2 x29710 +2 x29711 +2 x29712 -1 x29569 -1 x29570 -1 x29571 -1 x29572 -1 x29573 -1 x29574 -1 x29575 -1 x29576 >= 0 ;
+2 x29713 +2 x29714 +2 x29715 +2 x29716 -1 x29573 -1 x29574 -1 x29575 -1 x29576 -1 x29577 -1 x29578 -1 x29579 -1 x29580 >= 0 ;
+2 x29717 +2 x29718 +2 x29719 +2 x29720 -1 x29577 -1 x29578 -1 x29579 -1 x29580 -1 x29581 -1 x29582 -1 x29583 -1 x29584 >= 0 ;
+2 x29721 +2 x29722 +2 x29723 +2 x29724 -1 x29581 -1 x29582 -1 x29583 -1 x29584 -1 x29585 -1 x29586 -1 x29587 -1 x29588 >= 0 ;
+2 x29725 +2 x29726 +2 x29727 +2 x29728 -1 x29585 -1 x29586 -1 x29587 -1 x29588 -1 x29589 -1 x29590 -1 x29591 -1 x29592 >= 0 ;
+2 x29729 +2 x29730 +2 x29731 +2 x29732 -1 x29589 -1 x29590 -1 x29591 -1 x29592 -1 x29593 -1 x29594 -1 x29595 -1 x29596 >= 0 ;
+2 x29733 +2 x29734 +2 x29735 +2 x29736 -1 x29593 -1 x29594 -1 x29595 -1 x29596 -1 x29597 -1 x29598 -1 x29599 -1 x29600 >= 0 ;
+2 x29737 +2 x29738 +2 x29739 +2 x29740 -1 x29597 -1 x29598 -1 x29599 -1 x29600 -1 x29601 -1 x29602 -1 x29603 -1 x29604 >= 0 ;
+2 x29741 +2 x29742 +2 x29743 +2 x29744 -1 x29601 -1 x29602 -1 x29603 -1 x29604 -1 x29605 -1 x29606 -1 x29607 -1 x29608 >= 0 ;
+2 x29745 +2 x29746 +2 x29747 +2 x29748 -1 x29605 -1 x29606 -1 x29607 -1 x29608 -1 x29609 -1 x29610 -1 x29611 -1 x29612 >= 0 ;
+2 x29749 +2 x29750 +2 x29751 +2 x29752 -1 x29609 -1 x29610 -1 x29611 -1 x29612 -1 x29613 -1 x29614 -1 x29615 -1 x29616 >= 0 ;
+2 x29753 +2 x29754 +2 x29755 +2 x29756 -1 x29613 -1 x29614 -1 x29615 -1 x29616 -1 x29617 -1 x29618 -1 x29619 -1 x29620 >= 0 ;
+2 x29757 +2 x29758 +2 x29759 +2 x29760 -1 x29617 -1 x29618 -1 x29619 -1 x29620 -1 x29621 -1 x29622 -1 x29623 -1 x29624 >= 0 ;
+2 x29761 +2 x29762 +2 x29763 +2 x29764 -1 x29625 -1 x29626 -1 x29627 -1 x29628 -1 x29629 -1 x29630 -1 x29631 -1 x29632 >= 0 ;
+2 x29765 +2 x29766 +2 x29767 +2 x29768 -1 x29629 -1 x29630 -1 x29631 -1 x29632 -1 x29633 -1 x29634 -1 x29635 -1 x29636 >= 0 ;
+2 x29769 +2 x29770 +2 x29771 +2 x29772 -1 x29633 -1 x29634 -1 x29635 -1 x29636 -1 x29637 -1 x29638 -1 x29639 -1 x29640 >= 0 ;
+2 x29773 +2 x29774 +2 x29775 +2 x29776 -1 x29637 -1 x29638 -1 x29639 -1 x29640 -1 x29641 -1 x29642 -1 x29643 -1 x29644 >= 0 ;
+2 x29777 +2 x29778 +2 x29779 +2 x29780 -1 x29641 -1 x29642 -1 x29643 -1 x29644 -1 x29645 -1 x29646 -1 x29647 -1 x29648 >= 0 ;
+2 x29781 +2 x29782 +2 x29783 +2 x29784 -1 x29645 -1 x29646 -1 x29647 -1 x29648 -1 x29649 -1 x29650 -1 x29651 -1 x29652 >= 0 ;
+2 x29785 +2 x29786 +2 x29787 +2 x29788 -1 x29649 -1 x29650 -1 x29651 -1 x29652 -1 x29653 -1 x29654 -1 x29655 -1 x29656 >= 0 ;
+2 x29789 +2 x29790 +2 x29791 +2 x29792 -1 x29653 -1 x29654 -1 x29655 -1 x29656 -1 x29657 -1 x29658 -1 x29659 -1 x29660 >= 0 ;
+2 x29793 +2 x29794 +2 x29795 +2 x29796 -1 x29657 -1 x29658 -1 x29659 -1 x29660 -1 x29661 -1 x29662 -1 x29663 -1 x29664 >= 0 ;
+2 x29797 +2 x29798 +2 x29799 +2 x29800 -1 x29661 -1 x29662 -1 x29663 -1 x29664 -1 x29665 -1 x29666 -1 x29667 -1 x29668 >= 0 ;
+2 x29801 +2 x29802 +2 x29803 +2 x29804 -1 x29665 -1 x29666 -1 x29667 -1 x29668 -1 x29669 -1 x29670 -1 x29671 -1 x29672 >= 0 ;
+2 x29805 +2 x29806 +2 x29807 +2 x29808 -1 x29669 -1 x29670 -1 x29671 -1 x29672 -1 x29673 -1 x29674 -1 x29675 -1 x29676 >= 0 ;
+2 x29809 +2 x29810 +2 x29811 +2 x29812 -1 x29673 -1 x29674 -1 x29675 -1 x29676 -1 x29677 -1 x29678 -1 x29679 -1 x29680 >= 0 ;
+2 x29813 +2 x29814 +2 x29815 +2 x29816 -1 x29677 -1 x29678 -1 x29679 -1 x29680 -1 x29681 -1 x29682 -1 x29683 -1 x29684 >= 0 ;
+2 x29817 +2 x29818 +2 x29819 +2 x29820 -1 x29681 -1 x29682 -1 x29683 -1 x29684 -1 x29685 -1 x29686 -1 x29687 -1 x29688 >= 0 ;
+2 x29821 +2 x29822 +2 x29823 +2 x29824 -1 x29685 -1 x29686 -1 x29687 -1 x29688 -1 x29689 -1 x29690 -1 x29691 -1 x29692 >= 0 ;
+2 x29825 +2 x29826 +2 x29827 +2 x29828 -1 x29689 -1 x29690 -1 x29691 -1 x29692 -1 x29693 -1 x29694 -1 x29695 -1 x29696 >= 0 ;
+2 x29829 +2 x29830 +2 x29831 +2 x29832 -1 x29693 -1 x29694 -1 x29695 -1 x29696 -1 x29697 -1 x29698 -1 x29699 -1 x29700 >= 0 ;
+2 x29833 +2 x29834 +2 x29835 +2 x29836 -1 x29697 -1 x29698 -1 x29699 -1 x29700 -1 x29701 -1 x29702 -1 x29703 -1 x29704 >= 0 ;
+2 x29837 +2 x29838 +2 x29839 +2 x29840 -1 x29701 -1 x29702 -1 x29703 -1 x29704 -1 x29705 -1 x29706 -1 x29707 -1 x29708 >= 0 ;
+2 x29841 +2 x29842 +2 x29843 +2 x29844 -1 x29705 -1 x29706 -1 x29707 -1 x29708 -1 x29709 -1 x29710 -1 x29711 -1 x29712 >= 0 ;
+2 x29845 +2 x29846 +2 x29847 +2 x29848 -1 x29709 -1 x29710 -1 x29711 -1 x29712 -1 x29713 -1 x29714 -1 x29715 -1 x29716 >= 0 ;
+2 x29849 +2 x29850 +2 x29851 +2 x29852 -1 x29713 -1 x29714 -1 x29715 -1 x29716 -1 x29717 -1 x29718 -1 x29719 -1 x29720 >= 0 ;
+2 x29853 +2 x29854 +2 x29855 +2 x29856 -1 x29717 -1 x29718 -1 x29719 -1 x29720 -1 x29721 -1 x29722 -1 x29723 -1 x29724 >= 0 ;
+2 x29857 +2 x29858 +2 x29859 +2 x29860 -1 x29721 -1 x29722 -1 x29723 -1 x29724 -1 x29725 -1 x29726 -1 x29727 -1 x29728 >= 0 ;
+2 x29861 +2 x29862 +2 x29863 +2 x29864 -1 x29725 -1 x29726 -1 x29727 -1 x29728 -1 x29729 -1 x29730 -1 x29731 -1 x29732 >= 0 ;
+2 x29865 +2 x29866 +2 x29867 +2 x29868 -1 x29729 -1 x29730 -1 x29731 -1 x29732 -1 x29733 -1 x29734 -1 x29735 -1 x29736 >= 0 ;
+2 x29869 +2 x29870 +2 x29871 +2 x29872 -1 x29733 -1 x29734 -1 x29735 -1 x29736 -1 x29737 -1 x29738 -1 x29739 -1 x29740 >= 0 ;
+2 x29873 +2 x29874 +2 x29875 +2 x29876 -1 x29737 -1 x29738 -1 x29739 -1 x29740 -1 x29741 -1 x29742 -1 x29743 -1 x29744 >= 0 ;
+2 x29877 +2 x29878 +2 x29879 +2 x29880 -1 x29741 -1 x29742 -1 x29743 -1 x29744 -1 x29745 -1 x29746 -1 x29747 -1 x29748 >= 0 ;
+2 x29881 +2 x29882 +2 x29883 +2 x29884 -1 x29745 -1 x29746 -1 x29747 -1 x29748 -1 x29749 -1 x29750 -1 x29751 -1 x29752 >= 0 ;
+2 x29885 +2 x29886 +2 x29887 +2 x29888 -1 x29749 -1 x29750 -1 x29751 -1 x29752 -1 x29753 -1 x29754 -1 x29755 -1 x29756 >= 0 ;
+2 x29889 +2 x29890 +2 x29891 +2 x29892 -1 x29753 -1 x29754 -1 x29755 -1 x29756 -1 x29757 -1 x29758 -1 x29759 -1 x29760 >= 0 ;
+2 x29893 +2 x29894 +2 x29895 +2 x29896 -1 x29761 -1 x29762 -1 x29763 -1 x29764 -1 x29765 -1 x29766 -1 x29767 -1 x29768 >= 0 ;
+2 x29897 +2 x29898 +2 x29899 +2 x29900 -1 x29765 -1 x29766 -1 x29767 -1 x29768 -1 x29769 -1 x29770 -1 x29771 -1 x29772 >= 0 ;
+2 x29901 +2 x29902 +2 x29903 +2 x29904 -1 x29769 -1 x29770 -1 x29771 -1 x29772 -1 x29773 -1 x29774 -1 x29775 -1 x29776 >= 0 ;
+2 x29905 +2 x29906 +2 x29907 +2 x29908 -1 x29773 -1 x29774 -1 x29775 -1 x29776 -1 x29777 -1 x29778 -1 x29779 -1 x29780 >= 0 ;
+2 x29909 +2 x29910 +2 x29911 +2 x29912 -1 x29777 -1 x29778 -1 x29779 -1 x29780 -1 x29781 -1 x29782 -1 x29783 -1 x29784 >= 0 ;
+2 x29913 +2 x29914 +2 x29915 +2 x29916 -1 x29781 -1 x29782 -1 x29783 -1 x29784 -1 x29785 -1 x29786 -1 x29787 -1 x29788 >= 0 ;
+2 x29917 +2 x29918 +2 x29919 +2 x29920 -1 x29785 -1 x29786 -1 x29787 -1 x29788 -1 x29789 -1 x29790 -1 x29791 -1 x29792 >= 0 ;
+2 x29921 +2 x29922 +2 x29923 +2 x29924 -1 x29789 -1 x29790 -1 x29791 -1 x29792 -1 x29793 -1 x29794 -1 x29795 -1 x29796 >= 0 ;
+2 x29925 +2 x29926 +2 x29927 +2 x29928 -1 x29793 -1 x29794 -1 x29795 -1 x29796 -1 x29797 -1 x29798 -1 x29799 -1 x29800 >= 0 ;
+2 x29929 +2 x29930 +2 x29931 +2 x29932 -1 x29797 -1 x29798 -1 x29799 -1 x29800 -1 x29801 -1 x29802 -1 x29803 -1 x29804 >= 0 ;
+2 x29933 +2 x29934 +2 x29935 +2 x29936 -1 x29801 -1 x29802 -1 x29803 -1 x29804 -1 x29805 -1 x29806 -1 x29807 -1 x29808 >= 0 ;
+2 x29937 +2 x29938 +2 x29939 +2 x29940 -1 x29805 -1 x29806 -1 x29807 -1 x29808 -1 x29809 -1 x29810 -1 x29811 -1 x29812 >= 0 ;
+2 x29941 +2 x29942 +2 x29943 +2 x29944 -1 x29809 -1 x29810 -1 x29811 -1 x29812 -1 x29813 -1 x29814 -1 x29815 -1 x29816 >= 0 ;
+2 x29945 +2 x29946 +2 x29947 +2 x29948 -1 x29813 -1 x29814 -1 x29815 -1 x29816 -1 x29817 -1 x29818 -1 x29819 -1 x29820 >= 0 ;
+2 x29949 +2 x29950 +2 x29951 +2 x29952 -1 x29817 -1 x29818 -1 x29819 -1 x29820 -1 x29821 -1 x29822 -1 x29823 -1 x29824 >= 0 ;
+2 x29953 +2 x29954 +2 x29955 +2 x29956 -1 x29821 -1 x29822 -1 x29823 -1 x29824 -1 x29825 -1 x29826 -1 x29827 -1 x29828 >= 0 ;
+2 x29957 +2 x29958 +2 x29959 +2 x29960 -1 x29825 -1 x29826 -1 x29827 -1 x29828 -1 x29829 -1 x29830 -1 x29831 -1 x29832 >= 0 ;
+2 x29961 +2 x29962 +2 x29963 +2 x29964 -1 x29829 -1 x29830 -1 x29831 -1 x29832 -1 x29833 -1 x29834 -1 x29835 -1 x29836 >= 0 ;
+2 x29965 +2 x29966 +2 x29967 +2 x29968 -1 x29833 -1 x29834 -1 x29835 -1 x29836 -1 x29837 -1 x29838 -1 x29839 -1 x29840 >= 0 ;
+2 x29969 +2 x29970 +2 x29971 +2 x29972 -1 x29837 -1 x29838 -1 x29839 -1 x29840 -1 x29841 -1 x29842 -1 x29843 -1 x29844 >= 0 ;
+2 x29973 +2 x29974 +2 x29975 +2 x29976 -1 x29841 -1 x29842 -1 x29843 -1 x29844 -1 x29845 -1 x29846 -1 x29847 -1 x29848 >= 0 ;
+2 x29977 +2 x29978 +2 x29979 +2 x29980 -1 x29845 -1 x29846 -1 x29847 -1 x29848 -1 x29849 -1 x29850 -1 x29851 -1 x29852 >= 0 ;
+2 x29981 +2 x29982 +2 x29983 +2 x29984 -1 x29849 -1 x29850 -1 x29851 -1 x29852 -1 x29853 -1 x29854 -1 x29855 -1 x29856 >= 0 ;
+2 x29985 +2 x29986 +2 x29987 +2 x29988 -1 x29853 -1 x29854 -1 x29855 -1 x29856 -1 x29857 -1 x29858 -1 x29859 -1 x29860 >= 0 ;
+2 x29989 +2 x29990 +2 x29991 +2 x29992 -1 x29857 -1 x29858 -1 x29859 -1 x29860 -1 x29861 -1 x29862 -1 x29863 -1 x29864 >= 0 ;
+2 x29993 +2 x29994 +2 x29995 +2 x29996 -1 x29861 -1 x29862 -1 x29863 -1 x29864 -1 x29865 -1 x29866 -1 x29867 -1 x29868 >= 0 ;
+2 x29997 +2 x29998 +2 x29999 +2 x30000 -1 x29865 -1 x29866 -1 x29867 -1 x29868 -1 x29869 -1 x29870 -1 x29871 -1 x29872 >= 0 ;
+2 x30001 +2 x30002 +2 x30003 +2 x30004 -1 x29869 -1 x29870 -1 x29871 -1 x29872 -1 x29873 -1 x29874 -1 x29875 -1 x29876 >= 0 ;
+2 x30005 +2 x30006 +2 x30007 +2 x30008 -1 x29873 -1 x29874 -1 x29875 -1 x29876 -1 x29877 -1 x29878 -1 x29879 -1 x29880 >= 0 ;
+2 x30009 +2 x30010 +2 x30011 +2 x30012 -1 x29877 -1 x29878 -1 x29879 -1 x29880 -1 x29881 -1 x29882 -1 x29883 -1 x29884 >= 0 ;
+2 x30013 +2 x30014 +2 x30015 +2 x30016 -1 x29881 -1 x29882 -1 x29883 -1 x29884 -1 x29885 -1 x29886 -1 x29887 -1 x29888 >= 0 ;
+2 x30017 +2 x30018 +2 x30019 +2 x30020 -1 x29885 -1 x29886 -1 x29887 -1 x29888 -1 x29889 -1 x29890 -1 x29891 -1 x29892 >= 0 ;
+2 x30021 +2 x30022 +2 x30023 +2 x30024 -1 x29893 -1 x29894 -1 x29895 -1 x29896 -1 x29897 -1 x29898 -1 x29899 -1 x29900 >= 0 ;
+2 x30025 +2 x30026 +2 x30027 +2 x30028 -1 x29897 -1 x29898 -1 x29899 -1 x29900 -1 x29901 -1 x29902 -1 x29903 -1 x29904 >= 0 ;
+2 x30029 +2 x30030 +2 x30031 +2 x30032 -1 x29901 -1 x29902 -1 x29903 -1 x29904 -1 x29905 -1 x29906 -1 x29907 -1 x29908 >= 0 ;
+2 x30033 +2 x30034 +2 x30035 +2 x30036 -1 x29905 -1 x29906 -1 x29907 -1 x29908 -1 x29909 -1 x29910 -1 x29911 -1 x29912 >= 0 ;
+2 x30037 +2 x30038 +2 x30039 +2 x30040 -1 x29909 -1 x29910 -1 x29911 -1 x29912 -1 x29913 -1 x29914 -1 x29915 -1 x29916 >= 0 ;
+2 x30041 +2 x30042 +2 x30043 +2 x30044 -1 x29913 -1 x29914 -1 x29915 -1 x29916 -1 x29917 -1 x29918 -1 x29919 -1 x29920 >= 0 ;
+2 x30045 +2 x30046 +2 x30047 +2 x30048 -1 x29917 -1 x29918 -1 x29919 -1 x29920 -1 x29921 -1 x29922 -1 x29923 -1 x29924 >= 0 ;
+2 x30049 +2 x30050 +2 x30051 +2 x30052 -1 x29921 -1 x29922 -1 x29923 -1 x29924 -1 x29925 -1 x29926 -1 x29927 -1 x29928 >= 0 ;
+2 x30053 +2 x30054 +2 x30055 +2 x30056 -1 x29925 -1 x29926 -1 x29927 -1 x29928 -1 x29929 -1 x29930 -1 x29931 -1 x29932 >= 0 ;
+2 x30057 +2 x30058 +2 x30059 +2 x30060 -1 x29929 -1 x29930 -1 x29931 -1 x29932 -1 x29933 -1 x29934 -1 x29935 -1 x29936 >= 0 ;
+2 x30061 +2 x30062 +2 x30063 +2 x30064 -1 x29933 -1 x29934 -1 x29935 -1 x29936 -1 x29937 -1 x29938 -1 x29939 -1 x29940 >= 0 ;
+2 x30065 +2 x30066 +2 x30067 +2 x30068 -1 x29937 -1 x29938 -1 x29939 -1 x29940 -1 x29941 -1 x29942 -1 x29943 -1 x29944 >= 0 ;
+2 x30069 +2 x30070 +2 x30071 +2 x30072 -1 x29941 -1 x29942 -1 x29943 -1 x29944 -1 x29945 -1 x29946 -1 x29947 -1 x29948 >= 0 ;
+2 x30073 +2 x30074 +2 x30075 +2 x30076 -1 x29945 -1 x29946 -1 x29947 -1 x29948 -1 x29949 -1 x29950 -1 x29951 -1 x29952 >= 0 ;
+2 x30077 +2 x30078 +2 x30079 +2 x30080 -1 x29949 -1 x29950 -1 x29951 -1 x29952 -1 x29953 -1 x29954 -1 x29955 -1 x29956 >= 0 ;
+2 x30081 +2 x30082 +2 x30083 +2 x30084 -1 x29953 -1 x29954 -1 x29955 -1 x29956 -1 x29957 -1 x29958 -1 x29959 -1 x29960 >= 0 ;
+2 x30085 +2 x30086 +2 x30087 +2 x30088 -1 x29957 -1 x29958 -1 x29959 -1 x29960 -1 x29961 -1 x29962 -1 x29963 -1 x29964 >= 0 ;
+2 x30089 +2 x30090 +2 x30091 +2 x30092 -1 x29961 -1 x29962 -1 x29963 -1 x29964 -1 x29965 -1 x29966 -1 x29967 -1 x29968 >= 0 ;
+2 x30093 +2 x30094 +2 x30095 +2 x30096 -1 x29965 -1 x29966 -1 x29967 -1 x29968 -1 x29969 -1 x29970 -1 x29971 -1 x29972 >= 0 ;
+2 x30097 +2 x30098 +2 x30099 +2 x30100 -1 x29969 -1 x29970 -1 x29971 -1 x29972 -1 x29973 -1 x29974 -1 x29975 -1 x29976 >= 0 ;
+2 x30101 +2 x30102 +2 x30103 +2 x30104 -1 x29973 -1 x29974 -1 x29975 -1 x29976 -1 x29977 -1 x29978 -1 x29979 -1 x29980 >= 0 ;
+2 x30105 +2 x30106 +2 x30107 +2 x30108 -1 x29977 -1 x29978 -1 x29979 -1 x29980 -1 x29981 -1 x29982 -1 x29983 -1 x29984 >= 0 ;
+2 x30109 +2 x30110 +2 x30111 +2 x30112 -1 x29981 -1 x29982 -1 x29983 -1 x29984 -1 x29985 -1 x29986 -1 x29987 -1 x29988 >= 0 ;
+2 x30113 +2 x30114 +2 x30115 +2 x30116 -1 x29985 -1 x29986 -1 x29987 -1 x29988 -1 x29989 -1 x29990 -1 x29991 -1 x29992 >= 0 ;
+2 x30117 +2 x30118 +2 x30119 +2 x30120 -1 x29989 -1 x29990 -1 x29991 -1 x29992 -1 x29993 -1 x29994 -1 x29995 -1 x29996 >= 0 ;
+2 x30121 +2 x30122 +2 x30123 +2 x30124 -1 x29993 -1 x29994 -1 x29995 -1 x29996 -1 x29997 -1 x29998 -1 x29999 -1 x30000 >= 0 ;
+2 x30125 +2 x30126 +2 x30127 +2 x30128 -1 x29997 -1 x29998 -1 x29999 -1 x30000 -1 x30001 -1 x30002 -1 x30003 -1 x30004 >= 0 ;
+2 x30129 +2 x30130 +2 x30131 +2 x30132 -1 x30001 -1 x30002 -1 x30003 -1 x30004 -1 x30005 -1 x30006 -1 x30007 -1 x30008 >= 0 ;
+2 x30133 +2 x30134 +2 x30135 +2 x30136 -1 x30005 -1 x30006 -1 x30007 -1 x30008 -1 x30009 -1 x30010 -1 x30011 -1 x30012 >= 0 ;
+2 x30137 +2 x30138 +2 x30139 +2 x30140 -1 x30009 -1 x30010 -1 x30011 -1 x30012 -1 x30013 -1 x30014 -1 x30015 -1 x30016 >= 0 ;
+2 x30141 +2 x30142 +2 x30143 +2 x30144 -1 x30013 -1 x30014 -1 x30015 -1 x30016 -1 x30017 -1 x30018 -1 x30019 -1 x30020 >= 0 ;
+2 x30145 +2 x30146 +2 x30147 +2 x30148 -1 x30021 -1 x30022 -1 x30023 -1 x30024 -1 x30025 -1 x30026 -1 x30027 -1 x30028 >= 0 ;
+2 x30149 +2 x30150 +2 x30151 +2 x30152 -1 x30025 -1 x30026 -1 x30027 -1 x30028 -1 x30029 -1 x30030 -1 x30031 -1 x30032 >= 0 ;
+2 x30153 +2 x30154 +2 x30155 +2 x30156 -1 x30029 -1 x30030 -1 x30031 -1 x30032 -1 x30033 -1 x30034 -1 x30035 -1 x30036 >= 0 ;
+2 x30157 +2 x30158 +2 x30159 +2 x30160 -1 x30033 -1 x30034 -1 x30035 -1 x30036 -1 x30037 -1 x30038 -1 x30039 -1 x30040 >= 0 ;
+2 x30161 +2 x30162 +2 x30163 +2 x30164 -1 x30037 -1 x30038 -1 x30039 -1 x30040 -1 x30041 -1 x30042 -1 x30043 -1 x30044 >= 0 ;
+2 x30165 +2 x30166 +2 x30167 +2 x30168 -1 x30041 -1 x30042 -1 x30043 -1 x30044 -1 x30045 -1 x30046 -1 x30047 -1 x30048 >= 0 ;
+2 x30169 +2 x30170 +2 x30171 +2 x30172 -1 x30045 -1 x30046 -1 x30047 -1 x30048 -1 x30049 -1 x30050 -1 x30051 -1 x30052 >= 0 ;
+2 x30173 +2 x30174 +2 x30175 +2 x30176 -1 x30049 -1 x30050 -1 x30051 -1 x30052 -1 x30053 -1 x30054 -1 x30055 -1 x30056 >= 0 ;
+2 x30177 +2 x30178 +2 x30179 +2 x30180 -1 x30053 -1 x30054 -1 x30055 -1 x30056 -1 x30057 -1 x30058 -1 x30059 -1 x30060 >= 0 ;
+2 x30181 +2 x30182 +2 x30183 +2 x30184 -1 x30057 -1 x30058 -1 x30059 -1 x30060 -1 x30061 -1 x30062 -1 x30063 -1 x30064 >= 0 ;
+2 x30185 +2 x30186 +2 x30187 +2 x30188 -1 x30061 -1 x30062 -1 x30063 -1 x30064 -1 x30065 -1 x30066 -1 x30067 -1 x30068 >= 0 ;
+2 x30189 +2 x30190 +2 x30191 +2 x30192 -1 x30065 -1 x30066 -1 x30067 -1 x30068 -1 x30069 -1 x30070 -1 x30071 -1 x30072 >= 0 ;
+2 x30193 +2 x30194 +2 x30195 +2 x30196 -1 x30069 -1 x30070 -1 x30071 -1 x30072 -1 x30073 -1 x30074 -1 x30075 -1 x30076 >= 0 ;
+2 x30197 +2 x30198 +2 x30199 +2 x30200 -1 x30073 -1 x30074 -1 x30075 -1 x30076 -1 x30077 -1 x30078 -1 x30079 -1 x30080 >= 0 ;
+2 x30201 +2 x30202 +2 x30203 +2 x30204 -1 x30077 -1 x30078 -1 x30079 -1 x30080 -1 x30081 -1 x30082 -1 x30083 -1 x30084 >= 0 ;
+2 x30205 +2 x30206 +2 x30207 +2 x30208 -1 x30081 -1 x30082 -1 x30083 -1 x30084 -1 x30085 -1 x30086 -1 x30087 -1 x30088 >= 0 ;
+2 x30209 +2 x30210 +2 x30211 +2 x30212 -1 x30085 -1 x30086 -1 x30087 -1 x30088 -1 x30089 -1 x30090 -1 x30091 -1 x30092 >= 0 ;
+2 x30213 +2 x30214 +2 x30215 +2 x30216 -1 x30089 -1 x30090 -1 x30091 -1 x30092 -1 x30093 -1 x30094 -1 x30095 -1 x30096 >= 0 ;
+2 x30217 +2 x30218 +2 x30219 +2 x30220 -1 x30093 -1 x30094 -1 x30095 -1 x30096 -1 x30097 -1 x30098 -1 x30099 -1 x30100 >= 0 ;
+2 x30221 +2 x30222 +2 x30223 +2 x30224 -1 x30097 -1 x30098 -1 x30099 -1 x30100 -1 x30101 -1 x30102 -1 x30103 -1 x30104 >= 0 ;
+2 x30225 +2 x30226 +2 x30227 +2 x30228 -1 x30101 -1 x30102 -1 x30103 -1 x30104 -1 x30105 -1 x30106 -1 x30107 -1 x30108 >= 0 ;
+2 x30229 +2 x30230 +2 x30231 +2 x30232 -1 x30105 -1 x30106 -1 x30107 -1 x30108 -1 x30109 -1 x30110 -1 x30111 -1 x30112 >= 0 ;
+2 x30233 +2 x30234 +2 x30235 +2 x30236 -1 x30109 -1 x30110 -1 x30111 -1 x30112 -1 x30113 -1 x30114 -1 x30115 -1 x30116 >= 0 ;
+2 x30237 +2 x30238 +2 x30239 +2 x30240 -1 x30113 -1 x30114 -1 x30115 -1 x30116 -1 x30117 -1 x30118 -1 x30119 -1 x30120 >= 0 ;
+2 x30241 +2 x30242 +2 x30243 +2 x30244 -1 x30117 -1 x30118 -1 x30119 -1 x30120 -1 x30121 -1 x30122 -1 x30123 -1 x30124 >= 0 ;
+2 x30245 +2 x30246 +2 x30247 +2 x30248 -1 x30121 -1 x30122 -1 x30123 -1 x30124 -1 x30125 -1 x30126 -1 x30127 -1 x30128 >= 0 ;
+2 x30249 +2 x30250 +2 x30251 +2 x30252 -1 x30125 -1 x30126 -1 x30127 -1 x30128 -1 x30129 -1 x30130 -1 x30131 -1 x30132 >= 0 ;
+2 x30253 +2 x30254 +2 x30255 +2 x30256 -1 x30129 -1 x30130 -1 x30131 -1 x30132 -1 x30133 -1 x30134 -1 x30135 -1 x30136 >= 0 ;
+2 x30257 +2 x30258 +2 x30259 +2 x30260 -1 x30133 -1 x30134 -1 x30135 -1 x30136 -1 x30137 -1 x30138 -1 x30139 -1 x30140 >= 0 ;
+2 x30261 +2 x30262 +2 x30263 +2 x30264 -1 x30137 -1 x30138 -1 x30139 -1 x30140 -1 x30141 -1 x30142 -1 x30143 -1 x30144 >= 0 ;
+2 x30265 +2 x30266 +2 x30267 +2 x30268 -1 x30145 -1 x30146 -1 x30147 -1 x30148 -1 x30149 -1 x30150 -1 x30151 -1 x30152 >= 0 ;
+2 x30269 +2 x30270 +2 x30271 +2 x30272 -1 x30149 -1 x30150 -1 x30151 -1 x30152 -1 x30153 -1 x30154 -1 x30155 -1 x30156 >= 0 ;
+2 x30273 +2 x30274 +2 x30275 +2 x30276 -1 x30153 -1 x30154 -1 x30155 -1 x30156 -1 x30157 -1 x30158 -1 x30159 -1 x30160 >= 0 ;
+2 x30277 +2 x30278 +2 x30279 +2 x30280 -1 x30157 -1 x30158 -1 x30159 -1 x30160 -1 x30161 -1 x30162 -1 x30163 -1 x30164 >= 0 ;
+2 x30281 +2 x30282 +2 x30283 +2 x30284 -1 x30161 -1 x30162 -1 x30163 -1 x30164 -1 x30165 -1 x30166 -1 x30167 -1 x30168 >= 0 ;
+2 x30285 +2 x30286 +2 x30287 +2 x30288 -1 x30165 -1 x30166 -1 x30167 -1 x30168 -1 x30169 -1 x30170 -1 x30171 -1 x30172 >= 0 ;
+2 x30289 +2 x30290 +2 x30291 +2 x30292 -1 x30169 -1 x30170 -1 x30171 -1 x30172 -1 x30173 -1 x30174 -1 x30175 -1 x30176 >= 0 ;
+2 x30293 +2 x30294 +2 x30295 +2 x30296 -1 x30173 -1 x30174 -1 x30175 -1 x30176 -1 x30177 -1 x30178 -1 x30179 -1 x30180 >= 0 ;
+2 x30297 +2 x30298 +2 x30299 +2 x30300 -1 x30177 -1 x30178 -1 x30179 -1 x30180 -1 x30181 -1 x30182 -1 x30183 -1 x30184 >= 0 ;
+2 x30301 +2 x30302 +2 x30303 +2 x30304 -1 x30181 -1 x30182 -1 x30183 -1 x30184 -1 x30185 -1 x30186 -1 x30187 -1 x30188 >= 0 ;
+2 x30305 +2 x30306 +2 x30307 +2 x30308 -1 x30185 -1 x30186 -1 x30187 -1 x30188 -1 x30189 -1 x30190 -1 x30191 -1 x30192 >= 0 ;
+2 x30309 +2 x30310 +2 x30311 +2 x30312 -1 x30189 -1 x30190 -1 x30191 -1 x30192 -1 x30193 -1 x30194 -1 x30195 -1 x30196 >= 0 ;
+2 x30313 +2 x30314 +2 x30315 +2 x30316 -1 x30193 -1 x30194 -1 x30195 -1 x30196 -1 x30197 -1 x30198 -1 x30199 -1 x30200 >= 0 ;
+2 x30317 +2 x30318 +2 x30319 +2 x30320 -1 x30197 -1 x30198 -1 x30199 -1 x30200 -1 x30201 -1 x30202 -1 x30203 -1 x30204 >= 0 ;
+2 x30321 +2 x30322 +2 x30323 +2 x30324 -1 x30201 -1 x30202 -1 x30203 -1 x30204 -1 x30205 -1 x30206 -1 x30207 -1 x30208 >= 0 ;
+2 x30325 +2 x30326 +2 x30327 +2 x30328 -1 x30205 -1 x30206 -1 x30207 -1 x30208 -1 x30209 -1 x30210 -1 x30211 -1 x30212 >= 0 ;
+2 x30329 +2 x30330 +2 x30331 +2 x30332 -1 x30209 -1 x30210 -1 x30211 -1 x30212 -1 x30213 -1 x30214 -1 x30215 -1 x30216 >= 0 ;
+2 x30333 +2 x30334 +2 x30335 +2 x30336 -1 x30213 -1 x30214 -1 x30215 -1 x30216 -1 x30217 -1 x30218 -1 x30219 -1 x30220 >= 0 ;
+2 x30337 +2 x30338 +2 x30339 +2 x30340 -1 x30217 -1 x30218 -1 x30219 -1 x30220 -1 x30221 -1 x30222 -1 x30223 -1 x30224 >= 0 ;
+2 x30341 +2 x30342 +2 x30343 +2 x30344 -1 x30221 -1 x30222 -1 x30223 -1 x30224 -1 x30225 -1 x30226 -1 x30227 -1 x30228 >= 0 ;
+2 x30345 +2 x30346 +2 x30347 +2 x30348 -1 x30225 -1 x30226 -1 x30227 -1 x30228 -1 x30229 -1 x30230 -1 x30231 -1 x30232 >= 0 ;
+2 x30349 +2 x30350 +2 x30351 +2 x30352 -1 x30229 -1 x30230 -1 x30231 -1 x30232 -1 x30233 -1 x30234 -1 x30235 -1 x30236 >= 0 ;
+2 x30353 +2 x30354 +2 x30355 +2 x30356 -1 x30233 -1 x30234 -1 x30235 -1 x30236 -1 x30237 -1 x30238 -1 x30239 -1 x30240 >= 0 ;
+2 x30357 +2 x30358 +2 x30359 +2 x30360 -1 x30237 -1 x30238 -1 x30239 -1 x30240 -1 x30241 -1 x30242 -1 x30243 -1 x30244 >= 0 ;
+2 x30361 +2 x30362 +2 x30363 +2 x30364 -1 x30241 -1 x30242 -1 x30243 -1 x30244 -1 x30245 -1 x30246 -1 x30247 -1 x30248 >= 0 ;
+2 x30365 +2 x30366 +2 x30367 +2 x30368 -1 x30245 -1 x30246 -1 x30247 -1 x30248 -1 x30249 -1 x30250 -1 x30251 -1 x30252 >= 0 ;
+2 x30369 +2 x30370 +2 x30371 +2 x30372 -1 x30249 -1 x30250 -1 x30251 -1 x30252 -1 x30253 -1 x30254 -1 x30255 -1 x30256 >= 0 ;
+2 x30373 +2 x30374 +2 x30375 +2 x30376 -1 x30253 -1 x30254 -1 x30255 -1 x30256 -1 x30257 -1 x30258 -1 x30259 -1 x30260 >= 0 ;
+2 x30377 +2 x30378 +2 x30379 +2 x30380 -1 x30257 -1 x30258 -1 x30259 -1 x30260 -1 x30261 -1 x30262 -1 x30263 -1 x30264 >= 0 ;
+2 x30381 +2 x30382 +2 x30383 +2 x30384 -1 x30265 -1 x30266 -1 x30267 -1 x30268 -1 x30269 -1 x30270 -1 x30271 -1 x30272 >= 0 ;
+2 x30385 +2 x30386 +2 x30387 +2 x30388 -1 x30269 -1 x30270 -1 x30271 -1 x30272 -1 x30273 -1 x30274 -1 x30275 -1 x30276 >= 0 ;
+2 x30389 +2 x30390 +2 x30391 +2 x30392 -1 x30273 -1 x30274 -1 x30275 -1 x30276 -1 x30277 -1 x30278 -1 x30279 -1 x30280 >= 0 ;
+2 x30393 +2 x30394 +2 x30395 +2 x30396 -1 x30277 -1 x30278 -1 x30279 -1 x30280 -1 x30281 -1 x30282 -1 x30283 -1 x30284 >= 0 ;
+2 x30397 +2 x30398 +2 x30399 +2 x30400 -1 x30281 -1 x30282 -1 x30283 -1 x30284 -1 x30285 -1 x30286 -1 x30287 -1 x30288 >= 0 ;
+2 x30401 +2 x30402 +2 x30403 +2 x30404 -1 x30285 -1 x30286 -1 x30287 -1 x30288 -1 x30289 -1 x30290 -1 x30291 -1 x30292 >= 0 ;
+2 x30405 +2 x30406 +2 x30407 +2 x30408 -1 x30289 -1 x30290 -1 x30291 -1 x30292 -1 x30293 -1 x30294 -1 x30295 -1 x30296 >= 0 ;
+2 x30409 +2 x30410 +2 x30411 +2 x30412 -1 x30293 -1 x30294 -1 x30295 -1 x30296 -1 x30297 -1 x30298 -1 x30299 -1 x30300 >= 0 ;
+2 x30413 +2 x30414 +2 x30415 +2 x30416 -1 x30297 -1 x30298 -1 x30299 -1 x30300 -1 x30301 -1 x30302 -1 x30303 -1 x30304 >= 0 ;
+2 x30417 +2 x30418 +2 x30419 +2 x30420 -1 x30301 -1 x30302 -1 x30303 -1 x30304 -1 x30305 -1 x30306 -1 x30307 -1 x30308 >= 0 ;
+2 x30421 +2 x30422 +2 x30423 +2 x30424 -1 x30305 -1 x30306 -1 x30307 -1 x30308 -1 x30309 -1 x30310 -1 x30311 -1 x30312 >= 0 ;
+2 x30425 +2 x30426 +2 x30427 +2 x30428 -1 x30309 -1 x30310 -1 x30311 -1 x30312 -1 x30313 -1 x30314 -1 x30315 -1 x30316 >= 0 ;
+2 x30429 +2 x30430 +2 x30431 +2 x30432 -1 x30313 -1 x30314 -1 x30315 -1 x30316 -1 x30317 -1 x30318 -1 x30319 -1 x30320 >= 0 ;
+2 x30433 +2 x30434 +2 x30435 +2 x30436 -1 x30317 -1 x30318 -1 x30319 -1 x30320 -1 x30321 -1 x30322 -1 x30323 -1 x30324 >= 0 ;
+2 x30437 +2 x30438 +2 x30439 +2 x30440 -1 x30321 -1 x30322 -1 x30323 -1 x30324 -1 x30325 -1 x30326 -1 x30327 -1 x30328 >= 0 ;
+2 x30441 +2 x30442 +2 x30443 +2 x30444 -1 x30325 -1 x30326 -1 x30327 -1 x30328 -1 x30329 -1 x30330 -1 x30331 -1 x30332 >= 0 ;
+2 x30445 +2 x30446 +2 x30447 +2 x30448 -1 x30329 -1 x30330 -1 x30331 -1 x30332 -1 x30333 -1 x30334 -1 x30335 -1 x30336 >= 0 ;
+2 x30449 +2 x30450 +2 x30451 +2 x30452 -1 x30333 -1 x30334 -1 x30335 -1 x30336 -1 x30337 -1 x30338 -1 x30339 -1 x30340 >= 0 ;
+2 x30453 +2 x30454 +2 x30455 +2 x30456 -1 x30337 -1 x30338 -1 x30339 -1 x30340 -1 x30341 -1 x30342 -1 x30343 -1 x30344 >= 0 ;
+2 x30457 +2 x30458 +2 x30459 +2 x30460 -1 x30341 -1 x30342 -1 x30343 -1 x30344 -1 x30345 -1 x30346 -1 x30347 -1 x30348 >= 0 ;
+2 x30461 +2 x30462 +2 x30463 +2 x30464 -1 x30345 -1 x30346 -1 x30347 -1 x30348 -1 x30349 -1 x30350 -1 x30351 -1 x30352 >= 0 ;
+2 x30465 +2 x30466 +2 x30467 +2 x30468 -1 x30349 -1 x30350 -1 x30351 -1 x30352 -1 x30353 -1 x30354 -1 x30355 -1 x30356 >= 0 ;
+2 x30469 +2 x30470 +2 x30471 +2 x30472 -1 x30353 -1 x30354 -1 x30355 -1 x30356 -1 x30357 -1 x30358 -1 x30359 -1 x30360 >= 0 ;
+2 x30473 +2 x30474 +2 x30475 +2 x30476 -1 x30357 -1 x30358 -1 x30359 -1 x30360 -1 x30361 -1 x30362 -1 x30363 -1 x30364 >= 0 ;
+2 x30477 +2 x30478 +2 x30479 +2 x30480 -1 x30361 -1 x30362 -1 x30363 -1 x30364 -1 x30365 -1 x30366 -1 x30367 -1 x30368 >= 0 ;
+2 x30481 +2 x30482 +2 x30483 +2 x30484 -1 x30365 -1 x30366 -1 x30367 -1 x30368 -1 x30369 -1 x30370 -1 x30371 -1 x30372 >= 0 ;
+2 x30485 +2 x30486 +2 x30487 +2 x30488 -1 x30369 -1 x30370 -1 x30371 -1 x30372 -1 x30373 -1 x30374 -1 x30375 -1 x30376 >= 0 ;
+2 x30489 +2 x30490 +2 x30491 +2 x30492 -1 x30373 -1 x30374 -1 x30375 -1 x30376 -1 x30377 -1 x30378 -1 x30379 -1 x30380 >= 0 ;
+2 x30493 +2 x30494 +2 x30495 +2 x30496 -1 x30381 -1 x30382 -1 x30383 -1 x30384 -1 x30385 -1 x30386 -1 x30387 -1 x30388 >= 0 ;
+2 x30497 +2 x30498 +2 x30499 +2 x30500 -1 x30385 -1 x30386 -1 x30387 -1 x30388 -1 x30389 -1 x30390 -1 x30391 -1 x30392 >= 0 ;
+2 x30501 +2 x30502 +2 x30503 +2 x30504 -1 x30389 -1 x30390 -1 x30391 -1 x30392 -1 x30393 -1 x30394 -1 x30395 -1 x30396 >= 0 ;
+2 x30505 +2 x30506 +2 x30507 +2 x30508 -1 x30393 -1 x30394 -1 x30395 -1 x30396 -1 x30397 -1 x30398 -1 x30399 -1 x30400 >= 0 ;
+2 x30509 +2 x30510 +2 x30511 +2 x30512 -1 x30397 -1 x30398 -1 x30399 -1 x30400 -1 x30401 -1 x30402 -1 x30403 -1 x30404 >= 0 ;
+2 x30513 +2 x30514 +2 x30515 +2 x30516 -1 x30401 -1 x30402 -1 x30403 -1 x30404 -1 x30405 -1 x30406 -1 x30407 -1 x30408 >= 0 ;
+2 x30517 +2 x30518 +2 x30519 +2 x30520 -1 x30405 -1 x30406 -1 x30407 -1 x30408 -1 x30409 -1 x30410 -1 x30411 -1 x30412 >= 0 ;
+2 x30521 +2 x30522 +2 x30523 +2 x30524 -1 x30409 -1 x30410 -1 x30411 -1 x30412 -1 x30413 -1 x30414 -1 x30415 -1 x30416 >= 0 ;
+2 x30525 +2 x30526 +2 x30527 +2 x30528 -1 x30413 -1 x30414 -1 x30415 -1 x30416 -1 x30417 -1 x30418 -1 x30419 -1 x30420 >= 0 ;
+2 x30529 +2 x30530 +2 x30531 +2 x30532 -1 x30417 -1 x30418 -1 x30419 -1 x30420 -1 x30421 -1 x30422 -1 x30423 -1 x30424 >= 0 ;
+2 x30533 +2 x30534 +2 x30535 +2 x30536 -1 x30421 -1 x30422 -1 x30423 -1 x30424 -1 x30425 -1 x30426 -1 x30427 -1 x30428 >= 0 ;
+2 x30537 +2 x30538 +2 x30539 +2 x30540 -1 x30425 -1 x30426 -1 x30427 -1 x30428 -1 x30429 -1 x30430 -1 x30431 -1 x30432 >= 0 ;
+2 x30541 +2 x30542 +2 x30543 +2 x30544 -1 x30429 -1 x30430 -1 x30431 -1 x30432 -1 x30433 -1 x30434 -1 x30435 -1 x30436 >= 0 ;
+2 x30545 +2 x30546 +2 x30547 +2 x30548 -1 x30433 -1 x30434 -1 x30435 -1 x30436 -1 x30437 -1 x30438 -1 x30439 -1 x30440 >= 0 ;
+2 x30549 +2 x30550 +2 x30551 +2 x30552 -1 x30437 -1 x30438 -1 x30439 -1 x30440 -1 x30441 -1 x30442 -1 x30443 -1 x30444 >= 0 ;
+2 x30553 +2 x30554 +2 x30555 +2 x30556 -1 x30441 -1 x30442 -1 x30443 -1 x30444 -1 x30445 -1 x30446 -1 x30447 -1 x30448 >= 0 ;
+2 x30557 +2 x30558 +2 x30559 +2 x30560 -1 x30445 -1 x30446 -1 x30447 -1 x30448 -1 x30449 -1 x30450 -1 x30451 -1 x30452 >= 0 ;
+2 x30561 +2 x30562 +2 x30563 +2 x30564 -1 x30449 -1 x30450 -1 x30451 -1 x30452 -1 x30453 -1 x30454 -1 x30455 -1 x30456 >= 0 ;
+2 x30565 +2 x30566 +2 x30567 +2 x30568 -1 x30453 -1 x30454 -1 x30455 -1 x30456 -1 x30457 -1 x30458 -1 x30459 -1 x30460 >= 0 ;
+2 x30569 +2 x30570 +2 x30571 +2 x30572 -1 x30457 -1 x30458 -1 x30459 -1 x30460 -1 x30461 -1 x30462 -1 x30463 -1 x30464 >= 0 ;
+2 x30573 +2 x30574 +2 x30575 +2 x30576 -1 x30461 -1 x30462 -1 x30463 -1 x30464 -1 x30465 -1 x30466 -1 x30467 -1 x30468 >= 0 ;
+2 x30577 +2 x30578 +2 x30579 +2 x30580 -1 x30465 -1 x30466 -1 x30467 -1 x30468 -1 x30469 -1 x30470 -1 x30471 -1 x30472 >= 0 ;
+2 x30581 +2 x30582 +2 x30583 +2 x30584 -1 x30469 -1 x30470 -1 x30471 -1 x30472 -1 x30473 -1 x30474 -1 x30475 -1 x30476 >= 0 ;
+2 x30585 +2 x30586 +2 x30587 +2 x30588 -1 x30473 -1 x30474 -1 x30475 -1 x30476 -1 x30477 -1 x30478 -1 x30479 -1 x30480 >= 0 ;
+2 x30589 +2 x30590 +2 x30591 +2 x30592 -1 x30477 -1 x30478 -1 x30479 -1 x30480 -1 x30481 -1 x30482 -1 x30483 -1 x30484 >= 0 ;
+2 x30593 +2 x30594 +2 x30595 +2 x30596 -1 x30481 -1 x30482 -1 x30483 -1 x30484 -1 x30485 -1 x30486 -1 x30487 -1 x30488 >= 0 ;
+2 x30597 +2 x30598 +2 x30599 +2 x30600 -1 x30485 -1 x30486 -1 x30487 -1 x30488 -1 x30489 -1 x30490 -1 x30491 -1 x30492 >= 0 ;
+2 x30601 +2 x30602 +2 x30603 +2 x30604 -1 x30493 -1 x30494 -1 x30495 -1 x30496 -1 x30497 -1 x30498 -1 x30499 -1 x30500 >= 0 ;
+2 x30605 +2 x30606 +2 x30607 +2 x30608 -1 x30497 -1 x30498 -1 x30499 -1 x30500 -1 x30501 -1 x30502 -1 x30503 -1 x30504 >= 0 ;
+2 x30609 +2 x30610 +2 x30611 +2 x30612 -1 x30501 -1 x30502 -1 x30503 -1 x30504 -1 x30505 -1 x30506 -1 x30507 -1 x30508 >= 0 ;
+2 x30613 +2 x30614 +2 x30615 +2 x30616 -1 x30505 -1 x30506 -1 x30507 -1 x30508 -1 x30509 -1 x30510 -1 x30511 -1 x30512 >= 0 ;
+2 x30617 +2 x30618 +2 x30619 +2 x30620 -1 x30509 -1 x30510 -1 x30511 -1 x30512 -1 x30513 -1 x30514 -1 x30515 -1 x30516 >= 0 ;
+2 x30621 +2 x30622 +2 x30623 +2 x30624 -1 x30513 -1 x30514 -1 x30515 -1 x30516 -1 x30517 -1 x30518 -1 x30519 -1 x30520 >= 0 ;
+2 x30625 +2 x30626 +2 x30627 +2 x30628 -1 x30517 -1 x30518 -1 x30519 -1 x30520 -1 x30521 -1 x30522 -1 x30523 -1 x30524 >= 0 ;
+2 x30629 +2 x30630 +2 x30631 +2 x30632 -1 x30521 -1 x30522 -1 x30523 -1 x30524 -1 x30525 -1 x30526 -1 x30527 -1 x30528 >= 0 ;
+2 x30633 +2 x30634 +2 x30635 +2 x30636 -1 x30525 -1 x30526 -1 x30527 -1 x30528 -1 x30529 -1 x30530 -1 x30531 -1 x30532 >= 0 ;
+2 x30637 +2 x30638 +2 x30639 +2 x30640 -1 x30529 -1 x30530 -1 x30531 -1 x30532 -1 x30533 -1 x30534 -1 x30535 -1 x30536 >= 0 ;
+2 x30641 +2 x30642 +2 x30643 +2 x30644 -1 x30533 -1 x30534 -1 x30535 -1 x30536 -1 x30537 -1 x30538 -1 x30539 -1 x30540 >= 0 ;
+2 x30645 +2 x30646 +2 x30647 +2 x30648 -1 x30537 -1 x30538 -1 x30539 -1 x30540 -1 x30541 -1 x30542 -1 x30543 -1 x30544 >= 0 ;
+2 x30649 +2 x30650 +2 x30651 +2 x30652 -1 x30541 -1 x30542 -1 x30543 -1 x30544 -1 x30545 -1 x30546 -1 x30547 -1 x30548 >= 0 ;
+2 x30653 +2 x30654 +2 x30655 +2 x30656 -1 x30545 -1 x30546 -1 x30547 -1 x30548 -1 x30549 -1 x30550 -1 x30551 -1 x30552 >= 0 ;
+2 x30657 +2 x30658 +2 x30659 +2 x30660 -1 x30549 -1 x30550 -1 x30551 -1 x30552 -1 x30553 -1 x30554 -1 x30555 -1 x30556 >= 0 ;
+2 x30661 +2 x30662 +2 x30663 +2 x30664 -1 x30553 -1 x30554 -1 x30555 -1 x30556 -1 x30557 -1 x30558 -1 x30559 -1 x30560 >= 0 ;
+2 x30665 +2 x30666 +2 x30667 +2 x30668 -1 x30557 -1 x30558 -1 x30559 -1 x30560 -1 x30561 -1 x30562 -1 x30563 -1 x30564 >= 0 ;
+2 x30669 +2 x30670 +2 x30671 +2 x30672 -1 x30561 -1 x30562 -1 x30563 -1 x30564 -1 x30565 -1 x30566 -1 x30567 -1 x30568 >= 0 ;
+2 x30673 +2 x30674 +2 x30675 +2 x30676 -1 x30565 -1 x30566 -1 x30567 -1 x30568 -1 x30569 -1 x30570 -1 x30571 -1 x30572 >= 0 ;
+2 x30677 +2 x30678 +2 x30679 +2 x30680 -1 x30569 -1 x30570 -1 x30571 -1 x30572 -1 x30573 -1 x30574 -1 x30575 -1 x30576 >= 0 ;
+2 x30681 +2 x30682 +2 x30683 +2 x30684 -1 x30573 -1 x30574 -1 x30575 -1 x30576 -1 x30577 -1 x30578 -1 x30579 -1 x30580 >= 0 ;
+2 x30685 +2 x30686 +2 x30687 +2 x30688 -1 x30577 -1 x30578 -1 x30579 -1 x30580 -1 x30581 -1 x30582 -1 x30583 -1 x30584 >= 0 ;
+2 x30689 +2 x30690 +2 x30691 +2 x30692 -1 x30581 -1 x30582 -1 x30583 -1 x30584 -1 x30585 -1 x30586 -1 x30587 -1 x30588 >= 0 ;
+2 x30693 +2 x30694 +2 x30695 +2 x30696 -1 x30585 -1 x30586 -1 x30587 -1 x30588 -1 x30589 -1 x30590 -1 x30591 -1 x30592 >= 0 ;
+2 x30697 +2 x30698 +2 x30699 +2 x30700 -1 x30589 -1 x30590 -1 x30591 -1 x30592 -1 x30593 -1 x30594 -1 x30595 -1 x30596 >= 0 ;
+2 x30701 +2 x30702 +2 x30703 +2 x30704 -1 x30593 -1 x30594 -1 x30595 -1 x30596 -1 x30597 -1 x30598 -1 x30599 -1 x30600 >= 0 ;
+2 x30705 +2 x30706 +2 x30707 +2 x30708 -1 x30601 -1 x30602 -1 x30603 -1 x30604 -1 x30605 -1 x30606 -1 x30607 -1 x30608 >= 0 ;
+2 x30709 +2 x30710 +2 x30711 +2 x30712 -1 x30605 -1 x30606 -1 x30607 -1 x30608 -1 x30609 -1 x30610 -1 x30611 -1 x30612 >= 0 ;
+2 x30713 +2 x30714 +2 x30715 +2 x30716 -1 x30609 -1 x30610 -1 x30611 -1 x30612 -1 x30613 -1 x30614 -1 x30615 -1 x30616 >= 0 ;
+2 x30717 +2 x30718 +2 x30719 +2 x30720 -1 x30613 -1 x30614 -1 x30615 -1 x30616 -1 x30617 -1 x30618 -1 x30619 -1 x30620 >= 0 ;
+2 x30721 +2 x30722 +2 x30723 +2 x30724 -1 x30617 -1 x30618 -1 x30619 -1 x30620 -1 x30621 -1 x30622 -1 x30623 -1 x30624 >= 0 ;
+2 x30725 +2 x30726 +2 x30727 +2 x30728 -1 x30621 -1 x30622 -1 x30623 -1 x30624 -1 x30625 -1 x30626 -1 x30627 -1 x30628 >= 0 ;
+2 x30729 +2 x30730 +2 x30731 +2 x30732 -1 x30625 -1 x30626 -1 x30627 -1 x30628 -1 x30629 -1 x30630 -1 x30631 -1 x30632 >= 0 ;
+2 x30733 +2 x30734 +2 x30735 +2 x30736 -1 x30629 -1 x30630 -1 x30631 -1 x30632 -1 x30633 -1 x30634 -1 x30635 -1 x30636 >= 0 ;
+2 x30737 +2 x30738 +2 x30739 +2 x30740 -1 x30633 -1 x30634 -1 x30635 -1 x30636 -1 x30637 -1 x30638 -1 x30639 -1 x30640 >= 0 ;
+2 x30741 +2 x30742 +2 x30743 +2 x30744 -1 x30637 -1 x30638 -1 x30639 -1 x30640 -1 x30641 -1 x30642 -1 x30643 -1 x30644 >= 0 ;
+2 x30745 +2 x30746 +2 x30747 +2 x30748 -1 x30641 -1 x30642 -1 x30643 -1 x30644 -1 x30645 -1 x30646 -1 x30647 -1 x30648 >= 0 ;
+2 x30749 +2 x30750 +2 x30751 +2 x30752 -1 x30645 -1 x30646 -1 x30647 -1 x30648 -1 x30649 -1 x30650 -1 x30651 -1 x30652 >= 0 ;
+2 x30753 +2 x30754 +2 x30755 +2 x30756 -1 x30649 -1 x30650 -1 x30651 -1 x30652 -1 x30653 -1 x30654 -1 x30655 -1 x30656 >= 0 ;
+2 x30757 +2 x30758 +2 x30759 +2 x30760 -1 x30653 -1 x30654 -1 x30655 -1 x30656 -1 x30657 -1 x30658 -1 x30659 -1 x30660 >= 0 ;
+2 x30761 +2 x30762 +2 x30763 +2 x30764 -1 x30657 -1 x30658 -1 x30659 -1 x30660 -1 x30661 -1 x30662 -1 x30663 -1 x30664 >= 0 ;
+2 x30765 +2 x30766 +2 x30767 +2 x30768 -1 x30661 -1 x30662 -1 x30663 -1 x30664 -1 x30665 -1 x30666 -1 x30667 -1 x30668 >= 0 ;
+2 x30769 +2 x30770 +2 x30771 +2 x30772 -1 x30665 -1 x30666 -1 x30667 -1 x30668 -1 x30669 -1 x30670 -1 x30671 -1 x30672 >= 0 ;
+2 x30773 +2 x30774 +2 x30775 +2 x30776 -1 x30669 -1 x30670 -1 x30671 -1 x30672 -1 x30673 -1 x30674 -1 x30675 -1 x30676 >= 0 ;
+2 x30777 +2 x30778 +2 x30779 +2 x30780 -1 x30673 -1 x30674 -1 x30675 -1 x30676 -1 x30677 -1 x30678 -1 x30679 -1 x30680 >= 0 ;
+2 x30781 +2 x30782 +2 x30783 +2 x30784 -1 x30677 -1 x30678 -1 x30679 -1 x30680 -1 x30681 -1 x30682 -1 x30683 -1 x30684 >= 0 ;
+2 x30785 +2 x30786 +2 x30787 +2 x30788 -1 x30681 -1 x30682 -1 x30683 -1 x30684 -1 x30685 -1 x30686 -1 x30687 -1 x30688 >= 0 ;
+2 x30789 +2 x30790 +2 x30791 +2 x30792 -1 x30685 -1 x30686 -1 x30687 -1 x30688 -1 x30689 -1 x30690 -1 x30691 -1 x30692 >= 0 ;
+2 x30793 +2 x30794 +2 x30795 +2 x30796 -1 x30689 -1 x30690 -1 x30691 -1 x30692 -1 x30693 -1 x30694 -1 x30695 -1 x30696 >= 0 ;
+2 x30797 +2 x30798 +2 x30799 +2 x30800 -1 x30693 -1 x30694 -1 x30695 -1 x30696 -1 x30697 -1 x30698 -1 x30699 -1 x30700 >= 0 ;
+2 x30801 +2 x30802 +2 x30803 +2 x30804 -1 x30697 -1 x30698 -1 x30699 -1 x30700 -1 x30701 -1 x30702 -1 x30703 -1 x30704 >= 0 ;
+2 x30805 +2 x30806 +2 x30807 +2 x30808 -1 x30705 -1 x30706 -1 x30707 -1 x30708 -1 x30709 -1 x30710 -1 x30711 -1 x30712 >= 0 ;
+2 x30809 +2 x30810 +2 x30811 +2 x30812 -1 x30709 -1 x30710 -1 x30711 -1 x30712 -1 x30713 -1 x30714 -1 x30715 -1 x30716 >= 0 ;
+2 x30813 +2 x30814 +2 x30815 +2 x30816 -1 x30713 -1 x30714 -1 x30715 -1 x30716 -1 x30717 -1 x30718 -1 x30719 -1 x30720 >= 0 ;
+2 x30817 +2 x30818 +2 x30819 +2 x30820 -1 x30717 -1 x30718 -1 x30719 -1 x30720 -1 x30721 -1 x30722 -1 x30723 -1 x30724 >= 0 ;
+2 x30821 +2 x30822 +2 x30823 +2 x30824 -1 x30721 -1 x30722 -1 x30723 -1 x30724 -1 x30725 -1 x30726 -1 x30727 -1 x30728 >= 0 ;
+2 x30825 +2 x30826 +2 x30827 +2 x30828 -1 x30725 -1 x30726 -1 x30727 -1 x30728 -1 x30729 -1 x30730 -1 x30731 -1 x30732 >= 0 ;
+2 x30829 +2 x30830 +2 x30831 +2 x30832 -1 x30729 -1 x30730 -1 x30731 -1 x30732 -1 x30733 -1 x30734 -1 x30735 -1 x30736 >= 0 ;
+2 x30833 +2 x30834 +2 x30835 +2 x30836 -1 x30733 -1 x30734 -1 x30735 -1 x30736 -1 x30737 -1 x30738 -1 x30739 -1 x30740 >= 0 ;
+2 x30837 +2 x30838 +2 x30839 +2 x30840 -1 x30737 -1 x30738 -1 x30739 -1 x30740 -1 x30741 -1 x30742 -1 x30743 -1 x30744 >= 0 ;
+2 x30841 +2 x30842 +2 x30843 +2 x30844 -1 x30741 -1 x30742 -1 x30743 -1 x30744 -1 x30745 -1 x30746 -1 x30747 -1 x30748 >= 0 ;
+2 x30845 +2 x30846 +2 x30847 +2 x30848 -1 x30745 -1 x30746 -1 x30747 -1 x30748 -1 x30749 -1 x30750 -1 x30751 -1 x30752 >= 0 ;
+2 x30849 +2 x30850 +2 x30851 +2 x30852 -1 x30749 -1 x30750 -1 x30751 -1 x30752 -1 x30753 -1 x30754 -1 x30755 -1 x30756 >= 0 ;
+2 x30853 +2 x30854 +2 x30855 +2 x30856 -1 x30753 -1 x30754 -1 x30755 -1 x30756 -1 x30757 -1 x30758 -1 x30759 -1 x30760 >= 0 ;
+2 x30857 +2 x30858 +2 x30859 +2 x30860 -1 x30757 -1 x30758 -1 x30759 -1 x30760 -1 x30761 -1 x30762 -1 x30763 -1 x30764 >= 0 ;
+2 x30861 +2 x30862 +2 x30863 +2 x30864 -1 x30761 -1 x30762 -1 x30763 -1 x30764 -1 x30765 -1 x30766 -1 x30767 -1 x30768 >= 0 ;
+2 x30865 +2 x30866 +2 x30867 +2 x30868 -1 x30765 -1 x30766 -1 x30767 -1 x30768 -1 x30769 -1 x30770 -1 x30771 -1 x30772 >= 0 ;
+2 x30869 +2 x30870 +2 x30871 +2 x30872 -1 x30769 -1 x30770 -1 x30771 -1 x30772 -1 x30773 -1 x30774 -1 x30775 -1 x30776 >= 0 ;
+2 x30873 +2 x30874 +2 x30875 +2 x30876 -1 x30773 -1 x30774 -1 x30775 -1 x30776 -1 x30777 -1 x30778 -1 x30779 -1 x30780 >= 0 ;
+2 x30877 +2 x30878 +2 x30879 +2 x30880 -1 x30777 -1 x30778 -1 x30779 -1 x30780 -1 x30781 -1 x30782 -1 x30783 -1 x30784 >= 0 ;
+2 x30881 +2 x30882 +2 x30883 +2 x30884 -1 x30781 -1 x30782 -1 x30783 -1 x30784 -1 x30785 -1 x30786 -1 x30787 -1 x30788 >= 0 ;
+2 x30885 +2 x30886 +2 x30887 +2 x30888 -1 x30785 -1 x30786 -1 x30787 -1 x30788 -1 x30789 -1 x30790 -1 x30791 -1 x30792 >= 0 ;
+2 x30889 +2 x30890 +2 x30891 +2 x30892 -1 x30789 -1 x30790 -1 x30791 -1 x30792 -1 x30793 -1 x30794 -1 x30795 -1 x30796 >= 0 ;
+2 x30893 +2 x30894 +2 x30895 +2 x30896 -1 x30793 -1 x30794 -1 x30795 -1 x30796 -1 x30797 -1 x30798 -1 x30799 -1 x30800 >= 0 ;
+2 x30897 +2 x30898 +2 x30899 +2 x30900 -1 x30797 -1 x30798 -1 x30799 -1 x30800 -1 x30801 -1 x30802 -1 x30803 -1 x30804 >= 0 ;
+2 x30901 +2 x30902 +2 x30903 +2 x30904 -1 x30805 -1 x30806 -1 x30807 -1 x30808 -1 x30809 -1 x30810 -1 x30811 -1 x30812 >= 0 ;
+2 x30905 +2 x30906 +2 x30907 +2 x30908 -1 x30809 -1 x30810 -1 x30811 -1 x30812 -1 x30813 -1 x30814 -1 x30815 -1 x30816 >= 0 ;
+2 x30909 +2 x30910 +2 x30911 +2 x30912 -1 x30813 -1 x30814 -1 x30815 -1 x30816 -1 x30817 -1 x30818 -1 x30819 -1 x30820 >= 0 ;
+2 x30913 +2 x30914 +2 x30915 +2 x30916 -1 x30817 -1 x30818 -1 x30819 -1 x30820 -1 x30821 -1 x30822 -1 x30823 -1 x30824 >= 0 ;
+2 x30917 +2 x30918 +2 x30919 +2 x30920 -1 x30821 -1 x30822 -1 x30823 -1 x30824 -1 x30825 -1 x30826 -1 x30827 -1 x30828 >= 0 ;
+2 x30921 +2 x30922 +2 x30923 +2 x30924 -1 x30825 -1 x30826 -1 x30827 -1 x30828 -1 x30829 -1 x30830 -1 x30831 -1 x30832 >= 0 ;
+2 x30925 +2 x30926 +2 x30927 +2 x30928 -1 x30829 -1 x30830 -1 x30831 -1 x30832 -1 x30833 -1 x30834 -1 x30835 -1 x30836 >= 0 ;
+2 x30929 +2 x30930 +2 x30931 +2 x30932 -1 x30833 -1 x30834 -1 x30835 -1 x30836 -1 x30837 -1 x30838 -1 x30839 -1 x30840 >= 0 ;
+2 x30933 +2 x30934 +2 x30935 +2 x30936 -1 x30837 -1 x30838 -1 x30839 -1 x30840 -1 x30841 -1 x30842 -1 x30843 -1 x30844 >= 0 ;
+2 x30937 +2 x30938 +2 x30939 +2 x30940 -1 x30841 -1 x30842 -1 x30843 -1 x30844 -1 x30845 -1 x30846 -1 x30847 -1 x30848 >= 0 ;
+2 x30941 +2 x30942 +2 x30943 +2 x30944 -1 x30845 -1 x30846 -1 x30847 -1 x30848 -1 x30849 -1 x30850 -1 x30851 -1 x30852 >= 0 ;
+2 x30945 +2 x30946 +2 x30947 +2 x30948 -1 x30849 -1 x30850 -1 x30851 -1 x30852 -1 x30853 -1 x30854 -1 x30855 -1 x30856 >= 0 ;
+2 x30949 +2 x30950 +2 x30951 +2 x30952 -1 x30853 -1 x30854 -1 x30855 -1 x30856 -1 x30857 -1 x30858 -1 x30859 -1 x30860 >= 0 ;
+2 x30953 +2 x30954 +2 x30955 +2 x30956 -1 x30857 -1 x30858 -1 x30859 -1 x30860 -1 x30861 -1 x30862 -1 x30863 -1 x30864 >= 0 ;
+2 x30957 +2 x30958 +2 x30959 +2 x30960 -1 x30861 -1 x30862 -1 x30863 -1 x30864 -1 x30865 -1 x30866 -1 x30867 -1 x30868 >= 0 ;
+2 x30961 +2 x30962 +2 x30963 +2 x30964 -1 x30865 -1 x30866 -1 x30867 -1 x30868 -1 x30869 -1 x30870 -1 x30871 -1 x30872 >= 0 ;
+2 x30965 +2 x30966 +2 x30967 +2 x30968 -1 x30869 -1 x30870 -1 x30871 -1 x30872 -1 x30873 -1 x30874 -1 x30875 -1 x30876 >= 0 ;
+2 x30969 +2 x30970 +2 x30971 +2 x30972 -1 x30873 -1 x30874 -1 x30875 -1 x30876 -1 x30877 -1 x30878 -1 x30879 -1 x30880 >= 0 ;
+2 x30973 +2 x30974 +2 x30975 +2 x30976 -1 x30877 -1 x30878 -1 x30879 -1 x30880 -1 x30881 -1 x30882 -1 x30883 -1 x30884 >= 0 ;
+2 x30977 +2 x30978 +2 x30979 +2 x30980 -1 x30881 -1 x30882 -1 x30883 -1 x30884 -1 x30885 -1 x30886 -1 x30887 -1 x30888 >= 0 ;
+2 x30981 +2 x30982 +2 x30983 +2 x30984 -1 x30885 -1 x30886 -1 x30887 -1 x30888 -1 x30889 -1 x30890 -1 x30891 -1 x30892 >= 0 ;
+2 x30985 +2 x30986 +2 x30987 +2 x30988 -1 x30889 -1 x30890 -1 x30891 -1 x30892 -1 x30893 -1 x30894 -1 x30895 -1 x30896 >= 0 ;
+2 x30989 +2 x30990 +2 x30991 +2 x30992 -1 x30893 -1 x30894 -1 x30895 -1 x30896 -1 x30897 -1 x30898 -1 x30899 -1 x30900 >= 0 ;
+2 x30993 +2 x30994 +2 x30995 +2 x30996 -1 x30901 -1 x30902 -1 x30903 -1 x30904 -1 x30905 -1 x30906 -1 x30907 -1 x30908 >= 0 ;
+2 x30997 +2 x30998 +2 x30999 +2 x31000 -1 x30905 -1 x30906 -1 x30907 -1 x30908 -1 x30909 -1 x30910 -1 x30911 -1 x30912 >= 0 ;
+2 x31001 +2 x31002 +2 x31003 +2 x31004 -1 x30909 -1 x30910 -1 x30911 -1 x30912 -1 x30913 -1 x30914 -1 x30915 -1 x30916 >= 0 ;
+2 x31005 +2 x31006 +2 x31007 +2 x31008 -1 x30913 -1 x30914 -1 x30915 -1 x30916 -1 x30917 -1 x30918 -1 x30919 -1 x30920 >= 0 ;
+2 x31009 +2 x31010 +2 x31011 +2 x31012 -1 x30917 -1 x30918 -1 x30919 -1 x30920 -1 x30921 -1 x30922 -1 x30923 -1 x30924 >= 0 ;
+2 x31013 +2 x31014 +2 x31015 +2 x31016 -1 x30921 -1 x30922 -1 x30923 -1 x30924 -1 x30925 -1 x30926 -1 x30927 -1 x30928 >= 0 ;
+2 x31017 +2 x31018 +2 x31019 +2 x31020 -1 x30925 -1 x30926 -1 x30927 -1 x30928 -1 x30929 -1 x30930 -1 x30931 -1 x30932 >= 0 ;
+2 x31021 +2 x31022 +2 x31023 +2 x31024 -1 x30929 -1 x30930 -1 x30931 -1 x30932 -1 x30933 -1 x30934 -1 x30935 -1 x30936 >= 0 ;
+2 x31025 +2 x31026 +2 x31027 +2 x31028 -1 x30933 -1 x30934 -1 x30935 -1 x30936 -1 x30937 -1 x30938 -1 x30939 -1 x30940 >= 0 ;
+2 x31029 +2 x31030 +2 x31031 +2 x31032 -1 x30937 -1 x30938 -1 x30939 -1 x30940 -1 x30941 -1 x30942 -1 x30943 -1 x30944 >= 0 ;
+2 x31033 +2 x31034 +2 x31035 +2 x31036 -1 x30941 -1 x30942 -1 x30943 -1 x30944 -1 x30945 -1 x30946 -1 x30947 -1 x30948 >= 0 ;
+2 x31037 +2 x31038 +2 x31039 +2 x31040 -1 x30945 -1 x30946 -1 x30947 -1 x30948 -1 x30949 -1 x30950 -1 x30951 -1 x30952 >= 0 ;
+2 x31041 +2 x31042 +2 x31043 +2 x31044 -1 x30949 -1 x30950 -1 x30951 -1 x30952 -1 x30953 -1 x30954 -1 x30955 -1 x30956 >= 0 ;
+2 x31045 +2 x31046 +2 x31047 +2 x31048 -1 x30953 -1 x30954 -1 x30955 -1 x30956 -1 x30957 -1 x30958 -1 x30959 -1 x30960 >= 0 ;
+2 x31049 +2 x31050 +2 x31051 +2 x31052 -1 x30957 -1 x30958 -1 x30959 -1 x30960 -1 x30961 -1 x30962 -1 x30963 -1 x30964 >= 0 ;
+2 x31053 +2 x31054 +2 x31055 +2 x31056 -1 x30961 -1 x30962 -1 x30963 -1 x30964 -1 x30965 -1 x30966 -1 x30967 -1 x30968 >= 0 ;
+2 x31057 +2 x31058 +2 x31059 +2 x31060 -1 x30965 -1 x30966 -1 x30967 -1 x30968 -1 x30969 -1 x30970 -1 x30971 -1 x30972 >= 0 ;
+2 x31061 +2 x31062 +2 x31063 +2 x31064 -1 x30969 -1 x30970 -1 x30971 -1 x30972 -1 x30973 -1 x30974 -1 x30975 -1 x30976 >= 0 ;
+2 x31065 +2 x31066 +2 x31067 +2 x31068 -1 x30973 -1 x30974 -1 x30975 -1 x30976 -1 x30977 -1 x30978 -1 x30979 -1 x30980 >= 0 ;
+2 x31069 +2 x31070 +2 x31071 +2 x31072 -1 x30977 -1 x30978 -1 x30979 -1 x30980 -1 x30981 -1 x30982 -1 x30983 -1 x30984 >= 0 ;
+2 x31073 +2 x31074 +2 x31075 +2 x31076 -1 x30981 -1 x30982 -1 x30983 -1 x30984 -1 x30985 -1 x30986 -1 x30987 -1 x30988 >= 0 ;
+2 x31077 +2 x31078 +2 x31079 +2 x31080 -1 x30985 -1 x30986 -1 x30987 -1 x30988 -1 x30989 -1 x30990 -1 x30991 -1 x30992 >= 0 ;
+2 x31081 +2 x31082 +2 x31083 +2 x31084 -1 x30993 -1 x30994 -1 x30995 -1 x30996 -1 x30997 -1 x30998 -1 x30999 -1 x31000 >= 0 ;
+2 x31085 +2 x31086 +2 x31087 +2 x31088 -1 x30997 -1 x30998 -1 x30999 -1 x31000 -1 x31001 -1 x31002 -1 x31003 -1 x31004 >= 0 ;
+2 x31089 +2 x31090 +2 x31091 +2 x31092 -1 x31001 -1 x31002 -1 x31003 -1 x31004 -1 x31005 -1 x31006 -1 x31007 -1 x31008 >= 0 ;
+2 x31093 +2 x31094 +2 x31095 +2 x31096 -1 x31005 -1 x31006 -1 x31007 -1 x31008 -1 x31009 -1 x31010 -1 x31011 -1 x31012 >= 0 ;
+2 x31097 +2 x31098 +2 x31099 +2 x31100 -1 x31009 -1 x31010 -1 x31011 -1 x31012 -1 x31013 -1 x31014 -1 x31015 -1 x31016 >= 0 ;
+2 x31101 +2 x31102 +2 x31103 +2 x31104 -1 x31013 -1 x31014 -1 x31015 -1 x31016 -1 x31017 -1 x31018 -1 x31019 -1 x31020 >= 0 ;
+2 x31105 +2 x31106 +2 x31107 +2 x31108 -1 x31017 -1 x31018 -1 x31019 -1 x31020 -1 x31021 -1 x31022 -1 x31023 -1 x31024 >= 0 ;
+2 x31109 +2 x31110 +2 x31111 +2 x31112 -1 x31021 -1 x31022 -1 x31023 -1 x31024 -1 x31025 -1 x31026 -1 x31027 -1 x31028 >= 0 ;
+2 x31113 +2 x31114 +2 x31115 +2 x31116 -1 x31025 -1 x31026 -1 x31027 -1 x31028 -1 x31029 -1 x31030 -1 x31031 -1 x31032 >= 0 ;
+2 x31117 +2 x31118 +2 x31119 +2 x31120 -1 x31029 -1 x31030 -1 x31031 -1 x31032 -1 x31033 -1 x31034 -1 x31035 -1 x31036 >= 0 ;
+2 x31121 +2 x31122 +2 x31123 +2 x31124 -1 x31033 -1 x31034 -1 x31035 -1 x31036 -1 x31037 -1 x31038 -1 x31039 -1 x31040 >= 0 ;
+2 x31125 +2 x31126 +2 x31127 +2 x31128 -1 x31037 -1 x31038 -1 x31039 -1 x31040 -1 x31041 -1 x31042 -1 x31043 -1 x31044 >= 0 ;
+2 x31129 +2 x31130 +2 x31131 +2 x31132 -1 x31041 -1 x31042 -1 x31043 -1 x31044 -1 x31045 -1 x31046 -1 x31047 -1 x31048 >= 0 ;
+2 x31133 +2 x31134 +2 x31135 +2 x31136 -1 x31045 -1 x31046 -1 x31047 -1 x31048 -1 x31049 -1 x31050 -1 x31051 -1 x31052 >= 0 ;
+2 x31137 +2 x31138 +2 x31139 +2 x31140 -1 x31049 -1 x31050 -1 x31051 -1 x31052 -1 x31053 -1 x31054 -1 x31055 -1 x31056 >= 0 ;
+2 x31141 +2 x31142 +2 x31143 +2 x31144 -1 x31053 -1 x31054 -1 x31055 -1 x31056 -1 x31057 -1 x31058 -1 x31059 -1 x31060 >= 0 ;
+2 x31145 +2 x31146 +2 x31147 +2 x31148 -1 x31057 -1 x31058 -1 x31059 -1 x31060 -1 x31061 -1 x31062 -1 x31063 -1 x31064 >= 0 ;
+2 x31149 +2 x31150 +2 x31151 +2 x31152 -1 x31061 -1 x31062 -1 x31063 -1 x31064 -1 x31065 -1 x31066 -1 x31067 -1 x31068 >= 0 ;
+2 x31153 +2 x31154 +2 x31155 +2 x31156 -1 x31065 -1 x31066 -1 x31067 -1 x31068 -1 x31069 -1 x31070 -1 x31071 -1 x31072 >= 0 ;
+2 x31157 +2 x31158 +2 x31159 +2 x31160 -1 x31069 -1 x31070 -1 x31071 -1 x31072 -1 x31073 -1 x31074 -1 x31075 -1 x31076 >= 0 ;
+2 x31161 +2 x31162 +2 x31163 +2 x31164 -1 x31073 -1 x31074 -1 x31075 -1 x31076 -1 x31077 -1 x31078 -1 x31079 -1 x31080 >= 0 ;
+2 x31165 +2 x31166 +2 x31167 +2 x31168 -1 x31081 -1 x31082 -1 x31083 -1 x31084 -1 x31085 -1 x31086 -1 x31087 -1 x31088 >= 0 ;
+2 x31169 +2 x31170 +2 x31171 +2 x31172 -1 x31085 -1 x31086 -1 x31087 -1 x31088 -1 x31089 -1 x31090 -1 x31091 -1 x31092 >= 0 ;
+2 x31173 +2 x31174 +2 x31175 +2 x31176 -1 x31089 -1 x31090 -1 x31091 -1 x31092 -1 x31093 -1 x31094 -1 x31095 -1 x31096 >= 0 ;
+2 x31177 +2 x31178 +2 x31179 +2 x31180 -1 x31093 -1 x31094 -1 x31095 -1 x31096 -1 x31097 -1 x31098 -1 x31099 -1 x31100 >= 0 ;
+2 x31181 +2 x31182 +2 x31183 +2 x31184 -1 x31097 -1 x31098 -1 x31099 -1 x31100 -1 x31101 -1 x31102 -1 x31103 -1 x31104 >= 0 ;
+2 x31185 +2 x31186 +2 x31187 +2 x31188 -1 x31101 -1 x31102 -1 x31103 -1 x31104 -1 x31105 -1 x31106 -1 x31107 -1 x31108 >= 0 ;
+2 x31189 +2 x31190 +2 x31191 +2 x31192 -1 x31105 -1 x31106 -1 x31107 -1 x31108 -1 x31109 -1 x31110 -1 x31111 -1 x31112 >= 0 ;
+2 x31193 +2 x31194 +2 x31195 +2 x31196 -1 x31109 -1 x31110 -1 x31111 -1 x31112 -1 x31113 -1 x31114 -1 x31115 -1 x31116 >= 0 ;
+2 x31197 +2 x31198 +2 x31199 +2 x31200 -1 x31113 -1 x31114 -1 x31115 -1 x31116 -1 x31117 -1 x31118 -1 x31119 -1 x31120 >= 0 ;
+2 x31201 +2 x31202 +2 x31203 +2 x31204 -1 x31117 -1 x31118 -1 x31119 -1 x31120 -1 x31121 -1 x31122 -1 x31123 -1 x31124 >= 0 ;
+2 x31205 +2 x31206 +2 x31207 +2 x31208 -1 x31121 -1 x31122 -1 x31123 -1 x31124 -1 x31125 -1 x31126 -1 x31127 -1 x31128 >= 0 ;
+2 x31209 +2 x31210 +2 x31211 +2 x31212 -1 x31125 -1 x31126 -1 x31127 -1 x31128 -1 x31129 -1 x31130 -1 x31131 -1 x31132 >= 0 ;
+2 x31213 +2 x31214 +2 x31215 +2 x31216 -1 x31129 -1 x31130 -1 x31131 -1 x31132 -1 x31133 -1 x31134 -1 x31135 -1 x31136 >= 0 ;
+2 x31217 +2 x31218 +2 x31219 +2 x31220 -1 x31133 -1 x31134 -1 x31135 -1 x31136 -1 x31137 -1 x31138 -1 x31139 -1 x31140 >= 0 ;
+2 x31221 +2 x31222 +2 x31223 +2 x31224 -1 x31137 -1 x31138 -1 x31139 -1 x31140 -1 x31141 -1 x31142 -1 x31143 -1 x31144 >= 0 ;
+2 x31225 +2 x31226 +2 x31227 +2 x31228 -1 x31141 -1 x31142 -1 x31143 -1 x31144 -1 x31145 -1 x31146 -1 x31147 -1 x31148 >= 0 ;
+2 x31229 +2 x31230 +2 x31231 +2 x31232 -1 x31145 -1 x31146 -1 x31147 -1 x31148 -1 x31149 -1 x31150 -1 x31151 -1 x31152 >= 0 ;
+2 x31233 +2 x31234 +2 x31235 +2 x31236 -1 x31149 -1 x31150 -1 x31151 -1 x31152 -1 x31153 -1 x31154 -1 x31155 -1 x31156 >= 0 ;
+2 x31237 +2 x31238 +2 x31239 +2 x31240 -1 x31153 -1 x31154 -1 x31155 -1 x31156 -1 x31157 -1 x31158 -1 x31159 -1 x31160 >= 0 ;
+2 x31241 +2 x31242 +2 x31243 +2 x31244 -1 x31157 -1 x31158 -1 x31159 -1 x31160 -1 x31161 -1 x31162 -1 x31163 -1 x31164 >= 0 ;
+2 x31245 +2 x31246 +2 x31247 +2 x31248 -1 x31165 -1 x31166 -1 x31167 -1 x31168 -1 x31169 -1 x31170 -1 x31171 -1 x31172 >= 0 ;
+2 x31249 +2 x31250 +2 x31251 +2 x31252 -1 x31169 -1 x31170 -1 x31171 -1 x31172 -1 x31173 -1 x31174 -1 x31175 -1 x31176 >= 0 ;
+2 x31253 +2 x31254 +2 x31255 +2 x31256 -1 x31173 -1 x31174 -1 x31175 -1 x31176 -1 x31177 -1 x31178 -1 x31179 -1 x31180 >= 0 ;
+2 x31257 +2 x31258 +2 x31259 +2 x31260 -1 x31177 -1 x31178 -1 x31179 -1 x31180 -1 x31181 -1 x31182 -1 x31183 -1 x31184 >= 0 ;
+2 x31261 +2 x31262 +2 x31263 +2 x31264 -1 x31181 -1 x31182 -1 x31183 -1 x31184 -1 x31185 -1 x31186 -1 x31187 -1 x31188 >= 0 ;
+2 x31265 +2 x31266 +2 x31267 +2 x31268 -1 x31185 -1 x31186 -1 x31187 -1 x31188 -1 x31189 -1 x31190 -1 x31191 -1 x31192 >= 0 ;
+2 x31269 +2 x31270 +2 x31271 +2 x31272 -1 x31189 -1 x31190 -1 x31191 -1 x31192 -1 x31193 -1 x31194 -1 x31195 -1 x31196 >= 0 ;
+2 x31273 +2 x31274 +2 x31275 +2 x31276 -1 x31193 -1 x31194 -1 x31195 -1 x31196 -1 x31197 -1 x31198 -1 x31199 -1 x31200 >= 0 ;
+2 x31277 +2 x31278 +2 x31279 +2 x31280 -1 x31197 -1 x31198 -1 x31199 -1 x31200 -1 x31201 -1 x31202 -1 x31203 -1 x31204 >= 0 ;
+2 x31281 +2 x31282 +2 x31283 +2 x31284 -1 x31201 -1 x31202 -1 x31203 -1 x31204 -1 x31205 -1 x31206 -1 x31207 -1 x31208 >= 0 ;
+2 x31285 +2 x31286 +2 x31287 +2 x31288 -1 x31205 -1 x31206 -1 x31207 -1 x31208 -1 x31209 -1 x31210 -1 x31211 -1 x31212 >= 0 ;
+2 x31289 +2 x31290 +2 x31291 +2 x31292 -1 x31209 -1 x31210 -1 x31211 -1 x31212 -1 x31213 -1 x31214 -1 x31215 -1 x31216 >= 0 ;
+2 x31293 +2 x31294 +2 x31295 +2 x31296 -1 x31213 -1 x31214 -1 x31215 -1 x31216 -1 x31217 -1 x31218 -1 x31219 -1 x31220 >= 0 ;
+2 x31297 +2 x31298 +2 x31299 +2 x31300 -1 x31217 -1 x31218 -1 x31219 -1 x31220 -1 x31221 -1 x31222 -1 x31223 -1 x31224 >= 0 ;
+2 x31301 +2 x31302 +2 x31303 +2 x31304 -1 x31221 -1 x31222 -1 x31223 -1 x31224 -1 x31225 -1 x31226 -1 x31227 -1 x31228 >= 0 ;
+2 x31305 +2 x31306 +2 x31307 +2 x31308 -1 x31225 -1 x31226 -1 x31227 -1 x31228 -1 x31229 -1 x31230 -1 x31231 -1 x31232 >= 0 ;
+2 x31309 +2 x31310 +2 x31311 +2 x31312 -1 x31229 -1 x31230 -1 x31231 -1 x31232 -1 x31233 -1 x31234 -1 x31235 -1 x31236 >= 0 ;
+2 x31313 +2 x31314 +2 x31315 +2 x31316 -1 x31233 -1 x31234 -1 x31235 -1 x31236 -1 x31237 -1 x31238 -1 x31239 -1 x31240 >= 0 ;
+2 x31317 +2 x31318 +2 x31319 +2 x31320 -1 x31237 -1 x31238 -1 x31239 -1 x31240 -1 x31241 -1 x31242 -1 x31243 -1 x31244 >= 0 ;
+2 x31321 +2 x31322 +2 x31323 +2 x31324 -1 x31245 -1 x31246 -1 x31247 -1 x31248 -1 x31249 -1 x31250 -1 x31251 -1 x31252 >= 0 ;
+2 x31325 +2 x31326 +2 x31327 +2 x31328 -1 x31249 -1 x31250 -1 x31251 -1 x31252 -1 x31253 -1 x31254 -1 x31255 -1 x31256 >= 0 ;
+2 x31329 +2 x31330 +2 x31331 +2 x31332 -1 x31253 -1 x31254 -1 x31255 -1 x31256 -1 x31257 -1 x31258 -1 x31259 -1 x31260 >= 0 ;
+2 x31333 +2 x31334 +2 x31335 +2 x31336 -1 x31257 -1 x31258 -1 x31259 -1 x31260 -1 x31261 -1 x31262 -1 x31263 -1 x31264 >= 0 ;
+2 x31337 +2 x31338 +2 x31339 +2 x31340 -1 x31261 -1 x31262 -1 x31263 -1 x31264 -1 x31265 -1 x31266 -1 x31267 -1 x31268 >= 0 ;
+2 x31341 +2 x31342 +2 x31343 +2 x31344 -1 x31265 -1 x31266 -1 x31267 -1 x31268 -1 x31269 -1 x31270 -1 x31271 -1 x31272 >= 0 ;
+2 x31345 +2 x31346 +2 x31347 +2 x31348 -1 x31269 -1 x31270 -1 x31271 -1 x31272 -1 x31273 -1 x31274 -1 x31275 -1 x31276 >= 0 ;
+2 x31349 +2 x31350 +2 x31351 +2 x31352 -1 x31273 -1 x31274 -1 x31275 -1 x31276 -1 x31277 -1 x31278 -1 x31279 -1 x31280 >= 0 ;
+2 x31353 +2 x31354 +2 x31355 +2 x31356 -1 x31277 -1 x31278 -1 x31279 -1 x31280 -1 x31281 -1 x31282 -1 x31283 -1 x31284 >= 0 ;
+2 x31357 +2 x31358 +2 x31359 +2 x31360 -1 x31281 -1 x31282 -1 x31283 -1 x31284 -1 x31285 -1 x31286 -1 x31287 -1 x31288 >= 0 ;
+2 x31361 +2 x31362 +2 x31363 +2 x31364 -1 x31285 -1 x31286 -1 x31287 -1 x31288 -1 x31289 -1 x31290 -1 x31291 -1 x31292 >= 0 ;
+2 x31365 +2 x31366 +2 x31367 +2 x31368 -1 x31289 -1 x31290 -1 x31291 -1 x31292 -1 x31293 -1 x31294 -1 x31295 -1 x31296 >= 0 ;
+2 x31369 +2 x31370 +2 x31371 +2 x31372 -1 x31293 -1 x31294 -1 x31295 -1 x31296 -1 x31297 -1 x31298 -1 x31299 -1 x31300 >= 0 ;
+2 x31373 +2 x31374 +2 x31375 +2 x31376 -1 x31297 -1 x31298 -1 x31299 -1 x31300 -1 x31301 -1 x31302 -1 x31303 -1 x31304 >= 0 ;
+2 x31377 +2 x31378 +2 x31379 +2 x31380 -1 x31301 -1 x31302 -1 x31303 -1 x31304 -1 x31305 -1 x31306 -1 x31307 -1 x31308 >= 0 ;
+2 x31381 +2 x31382 +2 x31383 +2 x31384 -1 x31305 -1 x31306 -1 x31307 -1 x31308 -1 x31309 -1 x31310 -1 x31311 -1 x31312 >= 0 ;
+2 x31385 +2 x31386 +2 x31387 +2 x31388 -1 x31309 -1 x31310 -1 x31311 -1 x31312 -1 x31313 -1 x31314 -1 x31315 -1 x31316 >= 0 ;
+2 x31389 +2 x31390 +2 x31391 +2 x31392 -1 x31313 -1 x31314 -1 x31315 -1 x31316 -1 x31317 -1 x31318 -1 x31319 -1 x31320 >= 0 ;
+2 x31393 +2 x31394 +2 x31395 +2 x31396 -1 x31321 -1 x31322 -1 x31323 -1 x31324 -1 x31325 -1 x31326 -1 x31327 -1 x31328 >= 0 ;
+2 x31397 +2 x31398 +2 x31399 +2 x31400 -1 x31325 -1 x31326 -1 x31327 -1 x31328 -1 x31329 -1 x31330 -1 x31331 -1 x31332 >= 0 ;
+2 x31401 +2 x31402 +2 x31403 +2 x31404 -1 x31329 -1 x31330 -1 x31331 -1 x31332 -1 x31333 -1 x31334 -1 x31335 -1 x31336 >= 0 ;
+2 x31405 +2 x31406 +2 x31407 +2 x31408 -1 x31333 -1 x31334 -1 x31335 -1 x31336 -1 x31337 -1 x31338 -1 x31339 -1 x31340 >= 0 ;
+2 x31409 +2 x31410 +2 x31411 +2 x31412 -1 x31337 -1 x31338 -1 x31339 -1 x31340 -1 x31341 -1 x31342 -1 x31343 -1 x31344 >= 0 ;
+2 x31413 +2 x31414 +2 x31415 +2 x31416 -1 x31341 -1 x31342 -1 x31343 -1 x31344 -1 x31345 -1 x31346 -1 x31347 -1 x31348 >= 0 ;
+2 x31417 +2 x31418 +2 x31419 +2 x31420 -1 x31345 -1 x31346 -1 x31347 -1 x31348 -1 x31349 -1 x31350 -1 x31351 -1 x31352 >= 0 ;
+2 x31421 +2 x31422 +2 x31423 +2 x31424 -1 x31349 -1 x31350 -1 x31351 -1 x31352 -1 x31353 -1 x31354 -1 x31355 -1 x31356 >= 0 ;
+2 x31425 +2 x31426 +2 x31427 +2 x31428 -1 x31353 -1 x31354 -1 x31355 -1 x31356 -1 x31357 -1 x31358 -1 x31359 -1 x31360 >= 0 ;
+2 x31429 +2 x31430 +2 x31431 +2 x31432 -1 x31357 -1 x31358 -1 x31359 -1 x31360 -1 x31361 -1 x31362 -1 x31363 -1 x31364 >= 0 ;
+2 x31433 +2 x31434 +2 x31435 +2 x31436 -1 x31361 -1 x31362 -1 x31363 -1 x31364 -1 x31365 -1 x31366 -1 x31367 -1 x31368 >= 0 ;
+2 x31437 +2 x31438 +2 x31439 +2 x31440 -1 x31365 -1 x31366 -1 x31367 -1 x31368 -1 x31369 -1 x31370 -1 x31371 -1 x31372 >= 0 ;
+2 x31441 +2 x31442 +2 x31443 +2 x31444 -1 x31369 -1 x31370 -1 x31371 -1 x31372 -1 x31373 -1 x31374 -1 x31375 -1 x31376 >= 0 ;
+2 x31445 +2 x31446 +2 x31447 +2 x31448 -1 x31373 -1 x31374 -1 x31375 -1 x31376 -1 x31377 -1 x31378 -1 x31379 -1 x31380 >= 0 ;
+2 x31449 +2 x31450 +2 x31451 +2 x31452 -1 x31377 -1 x31378 -1 x31379 -1 x31380 -1 x31381 -1 x31382 -1 x31383 -1 x31384 >= 0 ;
+2 x31453 +2 x31454 +2 x31455 +2 x31456 -1 x31381 -1 x31382 -1 x31383 -1 x31384 -1 x31385 -1 x31386 -1 x31387 -1 x31388 >= 0 ;
+2 x31457 +2 x31458 +2 x31459 +2 x31460 -1 x31385 -1 x31386 -1 x31387 -1 x31388 -1 x31389 -1 x31390 -1 x31391 -1 x31392 >= 0 ;
+2 x31461 +2 x31462 +2 x31463 +2 x31464 -1 x31393 -1 x31394 -1 x31395 -1 x31396 -1 x31397 -1 x31398 -1 x31399 -1 x31400 >= 0 ;
+2 x31465 +2 x31466 +2 x31467 +2 x31468 -1 x31397 -1 x31398 -1 x31399 -1 x31400 -1 x31401 -1 x31402 -1 x31403 -1 x31404 >= 0 ;
+2 x31469 +2 x31470 +2 x31471 +2 x31472 -1 x31401 -1 x31402 -1 x31403 -1 x31404 -1 x31405 -1 x31406 -1 x31407 -1 x31408 >= 0 ;
+2 x31473 +2 x31474 +2 x31475 +2 x31476 -1 x31405 -1 x31406 -1 x31407 -1 x31408 -1 x31409 -1 x31410 -1 x31411 -1 x31412 >= 0 ;
+2 x31477 +2 x31478 +2 x31479 +2 x31480 -1 x31409 -1 x31410 -1 x31411 -1 x31412 -1 x31413 -1 x31414 -1 x31415 -1 x31416 >= 0 ;
+2 x31481 +2 x31482 +2 x31483 +2 x31484 -1 x31413 -1 x31414 -1 x31415 -1 x31416 -1 x31417 -1 x31418 -1 x31419 -1 x31420 >= 0 ;
+2 x31485 +2 x31486 +2 x31487 +2 x31488 -1 x31417 -1 x31418 -1 x31419 -1 x31420 -1 x31421 -1 x31422 -1 x31423 -1 x31424 >= 0 ;
+2 x31489 +2 x31490 +2 x31491 +2 x31492 -1 x31421 -1 x31422 -1 x31423 -1 x31424 -1 x31425 -1 x31426 -1 x31427 -1 x31428 >= 0 ;
+2 x31493 +2 x31494 +2 x31495 +2 x31496 -1 x31425 -1 x31426 -1 x31427 -1 x31428 -1 x31429 -1 x31430 -1 x31431 -1 x31432 >= 0 ;
+2 x31497 +2 x31498 +2 x31499 +2 x31500 -1 x31429 -1 x31430 -1 x31431 -1 x31432 -1 x31433 -1 x31434 -1 x31435 -1 x31436 >= 0 ;
+2 x31501 +2 x31502 +2 x31503 +2 x31504 -1 x31433 -1 x31434 -1 x31435 -1 x31436 -1 x31437 -1 x31438 -1 x31439 -1 x31440 >= 0 ;
+2 x31505 +2 x31506 +2 x31507 +2 x31508 -1 x31437 -1 x31438 -1 x31439 -1 x31440 -1 x31441 -1 x31442 -1 x31443 -1 x31444 >= 0 ;
+2 x31509 +2 x31510 +2 x31511 +2 x31512 -1 x31441 -1 x31442 -1 x31443 -1 x31444 -1 x31445 -1 x31446 -1 x31447 -1 x31448 >= 0 ;
+2 x31513 +2 x31514 +2 x31515 +2 x31516 -1 x31445 -1 x31446 -1 x31447 -1 x31448 -1 x31449 -1 x31450 -1 x31451 -1 x31452 >= 0 ;
+2 x31517 +2 x31518 +2 x31519 +2 x31520 -1 x31449 -1 x31450 -1 x31451 -1 x31452 -1 x31453 -1 x31454 -1 x31455 -1 x31456 >= 0 ;
+2 x31521 +2 x31522 +2 x31523 +2 x31524 -1 x31453 -1 x31454 -1 x31455 -1 x31456 -1 x31457 -1 x31458 -1 x31459 -1 x31460 >= 0 ;
+2 x31525 +2 x31526 +2 x31527 +2 x31528 -1 x31461 -1 x31462 -1 x31463 -1 x31464 -1 x31465 -1 x31466 -1 x31467 -1 x31468 >= 0 ;
+2 x31529 +2 x31530 +2 x31531 +2 x31532 -1 x31465 -1 x31466 -1 x31467 -1 x31468 -1 x31469 -1 x31470 -1 x31471 -1 x31472 >= 0 ;
+2 x31533 +2 x31534 +2 x31535 +2 x31536 -1 x31469 -1 x31470 -1 x31471 -1 x31472 -1 x31473 -1 x31474 -1 x31475 -1 x31476 >= 0 ;
+2 x31537 +2 x31538 +2 x31539 +2 x31540 -1 x31473 -1 x31474 -1 x31475 -1 x31476 -1 x31477 -1 x31478 -1 x31479 -1 x31480 >= 0 ;
+2 x31541 +2 x31542 +2 x31543 +2 x31544 -1 x31477 -1 x31478 -1 x31479 -1 x31480 -1 x31481 -1 x31482 -1 x31483 -1 x31484 >= 0 ;
+2 x31545 +2 x31546 +2 x31547 +2 x31548 -1 x31481 -1 x31482 -1 x31483 -1 x31484 -1 x31485 -1 x31486 -1 x31487 -1 x31488 >= 0 ;
+2 x31549 +2 x31550 +2 x31551 +2 x31552 -1 x31485 -1 x31486 -1 x31487 -1 x31488 -1 x31489 -1 x31490 -1 x31491 -1 x31492 >= 0 ;
+2 x31553 +2 x31554 +2 x31555 +2 x31556 -1 x31489 -1 x31490 -1 x31491 -1 x31492 -1 x31493 -1 x31494 -1 x31495 -1 x31496 >= 0 ;
+2 x31557 +2 x31558 +2 x31559 +2 x31560 -1 x31493 -1 x31494 -1 x31495 -1 x31496 -1 x31497 -1 x31498 -1 x31499 -1 x31500 >= 0 ;
+2 x31561 +2 x31562 +2 x31563 +2 x31564 -1 x31497 -1 x31498 -1 x31499 -1 x31500 -1 x31501 -1 x31502 -1 x31503 -1 x31504 >= 0 ;
+2 x31565 +2 x31566 +2 x31567 +2 x31568 -1 x31501 -1 x31502 -1 x31503 -1 x31504 -1 x31505 -1 x31506 -1 x31507 -1 x31508 >= 0 ;
+2 x31569 +2 x31570 +2 x31571 +2 x31572 -1 x31505 -1 x31506 -1 x31507 -1 x31508 -1 x31509 -1 x31510 -1 x31511 -1 x31512 >= 0 ;
+2 x31573 +2 x31574 +2 x31575 +2 x31576 -1 x31509 -1 x31510 -1 x31511 -1 x31512 -1 x31513 -1 x31514 -1 x31515 -1 x31516 >= 0 ;
+2 x31577 +2 x31578 +2 x31579 +2 x31580 -1 x31513 -1 x31514 -1 x31515 -1 x31516 -1 x31517 -1 x31518 -1 x31519 -1 x31520 >= 0 ;
+2 x31581 +2 x31582 +2 x31583 +2 x31584 -1 x31517 -1 x31518 -1 x31519 -1 x31520 -1 x31521 -1 x31522 -1 x31523 -1 x31524 >= 0 ;
+2 x31585 +2 x31586 +2 x31587 +2 x31588 -1 x31525 -1 x31526 -1 x31527 -1 x31528 -1 x31529 -1 x31530 -1 x31531 -1 x31532 >= 0 ;
+2 x31589 +2 x31590 +2 x31591 +2 x31592 -1 x31529 -1 x31530 -1 x31531 -1 x31532 -1 x31533 -1 x31534 -1 x31535 -1 x31536 >= 0 ;
+2 x31593 +2 x31594 +2 x31595 +2 x31596 -1 x31533 -1 x31534 -1 x31535 -1 x31536 -1 x31537 -1 x31538 -1 x31539 -1 x31540 >= 0 ;
+2 x31597 +2 x31598 +2 x31599 +2 x31600 -1 x31537 -1 x31538 -1 x31539 -1 x31540 -1 x31541 -1 x31542 -1 x31543 -1 x31544 >= 0 ;
+2 x31601 +2 x31602 +2 x31603 +2 x31604 -1 x31541 -1 x31542 -1 x31543 -1 x31544 -1 x31545 -1 x31546 -1 x31547 -1 x31548 >= 0 ;
+2 x31605 +2 x31606 +2 x31607 +2 x31608 -1 x31545 -1 x31546 -1 x31547 -1 x31548 -1 x31549 -1 x31550 -1 x31551 -1 x31552 >= 0 ;
+2 x31609 +2 x31610 +2 x31611 +2 x31612 -1 x31549 -1 x31550 -1 x31551 -1 x31552 -1 x31553 -1 x31554 -1 x31555 -1 x31556 >= 0 ;
+2 x31613 +2 x31614 +2 x31615 +2 x31616 -1 x31553 -1 x31554 -1 x31555 -1 x31556 -1 x31557 -1 x31558 -1 x31559 -1 x31560 >= 0 ;
+2 x31617 +2 x31618 +2 x31619 +2 x31620 -1 x31557 -1 x31558 -1 x31559 -1 x31560 -1 x31561 -1 x31562 -1 x31563 -1 x31564 >= 0 ;
+2 x31621 +2 x31622 +2 x31623 +2 x31624 -1 x31561 -1 x31562 -1 x31563 -1 x31564 -1 x31565 -1 x31566 -1 x31567 -1 x31568 >= 0 ;
+2 x31625 +2 x31626 +2 x31627 +2 x31628 -1 x31565 -1 x31566 -1 x31567 -1 x31568 -1 x31569 -1 x31570 -1 x31571 -1 x31572 >= 0 ;
+2 x31629 +2 x31630 +2 x31631 +2 x31632 -1 x31569 -1 x31570 -1 x31571 -1 x31572 -1 x31573 -1 x31574 -1 x31575 -1 x31576 >= 0 ;
+2 x31633 +2 x31634 +2 x31635 +2 x31636 -1 x31573 -1 x31574 -1 x31575 -1 x31576 -1 x31577 -1 x31578 -1 x31579 -1 x31580 >= 0 ;
+2 x31637 +2 x31638 +2 x31639 +2 x31640 -1 x31577 -1 x31578 -1 x31579 -1 x31580 -1 x31581 -1 x31582 -1 x31583 -1 x31584 >= 0 ;
+2 x31641 +2 x31642 +2 x31643 +2 x31644 -1 x31585 -1 x31586 -1 x31587 -1 x31588 -1 x31589 -1 x31590 -1 x31591 -1 x31592 >= 0 ;
+2 x31645 +2 x31646 +2 x31647 +2 x31648 -1 x31589 -1 x31590 -1 x31591 -1 x31592 -1 x31593 -1 x31594 -1 x31595 -1 x31596 >= 0 ;
+2 x31649 +2 x31650 +2 x31651 +2 x31652 -1 x31593 -1 x31594 -1 x31595 -1 x31596 -1 x31597 -1 x31598 -1 x31599 -1 x31600 >= 0 ;
+2 x31653 +2 x31654 +2 x31655 +2 x31656 -1 x31597 -1 x31598 -1 x31599 -1 x31600 -1 x31601 -1 x31602 -1 x31603 -1 x31604 >= 0 ;
+2 x31657 +2 x31658 +2 x31659 +2 x31660 -1 x31601 -1 x31602 -1 x31603 -1 x31604 -1 x31605 -1 x31606 -1 x31607 -1 x31608 >= 0 ;
+2 x31661 +2 x31662 +2 x31663 +2 x31664 -1 x31605 -1 x31606 -1 x31607 -1 x31608 -1 x31609 -1 x31610 -1 x31611 -1 x31612 >= 0 ;
+2 x31665 +2 x31666 +2 x31667 +2 x31668 -1 x31609 -1 x31610 -1 x31611 -1 x31612 -1 x31613 -1 x31614 -1 x31615 -1 x31616 >= 0 ;
+2 x31669 +2 x31670 +2 x31671 +2 x31672 -1 x31613 -1 x31614 -1 x31615 -1 x31616 -1 x31617 -1 x31618 -1 x31619 -1 x31620 >= 0 ;
+2 x31673 +2 x31674 +2 x31675 +2 x31676 -1 x31617 -1 x31618 -1 x31619 -1 x31620 -1 x31621 -1 x31622 -1 x31623 -1 x31624 >= 0 ;
+2 x31677 +2 x31678 +2 x31679 +2 x31680 -1 x31621 -1 x31622 -1 x31623 -1 x31624 -1 x31625 -1 x31626 -1 x31627 -1 x31628 >= 0 ;
+2 x31681 +2 x31682 +2 x31683 +2 x31684 -1 x31625 -1 x31626 -1 x31627 -1 x31628 -1 x31629 -1 x31630 -1 x31631 -1 x31632 >= 0 ;
+2 x31685 +2 x31686 +2 x31687 +2 x31688 -1 x31629 -1 x31630 -1 x31631 -1 x31632 -1 x31633 -1 x31634 -1 x31635 -1 x31636 >= 0 ;
+2 x31689 +2 x31690 +2 x31691 +2 x31692 -1 x31633 -1 x31634 -1 x31635 -1 x31636 -1 x31637 -1 x31638 -1 x31639 -1 x31640 >= 0 ;
+2 x31693 +2 x31694 +2 x31695 +2 x31696 -1 x31641 -1 x31642 -1 x31643 -1 x31644 -1 x31645 -1 x31646 -1 x31647 -1 x31648 >= 0 ;
+2 x31697 +2 x31698 +2 x31699 +2 x31700 -1 x31645 -1 x31646 -1 x31647 -1 x31648 -1 x31649 -1 x31650 -1 x31651 -1 x31652 >= 0 ;
+2 x31701 +2 x31702 +2 x31703 +2 x31704 -1 x31649 -1 x31650 -1 x31651 -1 x31652 -1 x31653 -1 x31654 -1 x31655 -1 x31656 >= 0 ;
+2 x31705 +2 x31706 +2 x31707 +2 x31708 -1 x31653 -1 x31654 -1 x31655 -1 x31656 -1 x31657 -1 x31658 -1 x31659 -1 x31660 >= 0 ;
+2 x31709 +2 x31710 +2 x31711 +2 x31712 -1 x31657 -1 x31658 -1 x31659 -1 x31660 -1 x31661 -1 x31662 -1 x31663 -1 x31664 >= 0 ;
+2 x31713 +2 x31714 +2 x31715 +2 x31716 -1 x31661 -1 x31662 -1 x31663 -1 x31664 -1 x31665 -1 x31666 -1 x31667 -1 x31668 >= 0 ;
+2 x31717 +2 x31718 +2 x31719 +2 x31720 -1 x31665 -1 x31666 -1 x31667 -1 x31668 -1 x31669 -1 x31670 -1 x31671 -1 x31672 >= 0 ;
+2 x31721 +2 x31722 +2 x31723 +2 x31724 -1 x31669 -1 x31670 -1 x31671 -1 x31672 -1 x31673 -1 x31674 -1 x31675 -1 x31676 >= 0 ;
+2 x31725 +2 x31726 +2 x31727 +2 x31728 -1 x31673 -1 x31674 -1 x31675 -1 x31676 -1 x31677 -1 x31678 -1 x31679 -1 x31680 >= 0 ;
+2 x31729 +2 x31730 +2 x31731 +2 x31732 -1 x31677 -1 x31678 -1 x31679 -1 x31680 -1 x31681 -1 x31682 -1 x31683 -1 x31684 >= 0 ;
+2 x31733 +2 x31734 +2 x31735 +2 x31736 -1 x31681 -1 x31682 -1 x31683 -1 x31684 -1 x31685 -1 x31686 -1 x31687 -1 x31688 >= 0 ;
+2 x31737 +2 x31738 +2 x31739 +2 x31740 -1 x31685 -1 x31686 -1 x31687 -1 x31688 -1 x31689 -1 x31690 -1 x31691 -1 x31692 >= 0 ;
+2 x31741 +2 x31742 +2 x31743 +2 x31744 -1 x31693 -1 x31694 -1 x31695 -1 x31696 -1 x31697 -1 x31698 -1 x31699 -1 x31700 >= 0 ;
+2 x31745 +2 x31746 +2 x31747 +2 x31748 -1 x31697 -1 x31698 -1 x31699 -1 x31700 -1 x31701 -1 x31702 -1 x31703 -1 x31704 >= 0 ;
+2 x31749 +2 x31750 +2 x31751 +2 x31752 -1 x31701 -1 x31702 -1 x31703 -1 x31704 -1 x31705 -1 x31706 -1 x31707 -1 x31708 >= 0 ;
+2 x31753 +2 x31754 +2 x31755 +2 x31756 -1 x31705 -1 x31706 -1 x31707 -1 x31708 -1 x31709 -1 x31710 -1 x31711 -1 x31712 >= 0 ;
+2 x31757 +2 x31758 +2 x31759 +2 x31760 -1 x31709 -1 x31710 -1 x31711 -1 x31712 -1 x31713 -1 x31714 -1 x31715 -1 x31716 >= 0 ;
+2 x31761 +2 x31762 +2 x31763 +2 x31764 -1 x31713 -1 x31714 -1 x31715 -1 x31716 -1 x31717 -1 x31718 -1 x31719 -1 x31720 >= 0 ;
+2 x31765 +2 x31766 +2 x31767 +2 x31768 -1 x31717 -1 x31718 -1 x31719 -1 x31720 -1 x31721 -1 x31722 -1 x31723 -1 x31724 >= 0 ;
+2 x31769 +2 x31770 +2 x31771 +2 x31772 -1 x31721 -1 x31722 -1 x31723 -1 x31724 -1 x31725 -1 x31726 -1 x31727 -1 x31728 >= 0 ;
+2 x31773 +2 x31774 +2 x31775 +2 x31776 -1 x31725 -1 x31726 -1 x31727 -1 x31728 -1 x31729 -1 x31730 -1 x31731 -1 x31732 >= 0 ;
+2 x31777 +2 x31778 +2 x31779 +2 x31780 -1 x31729 -1 x31730 -1 x31731 -1 x31732 -1 x31733 -1 x31734 -1 x31735 -1 x31736 >= 0 ;
+2 x31781 +2 x31782 +2 x31783 +2 x31784 -1 x31733 -1 x31734 -1 x31735 -1 x31736 -1 x31737 -1 x31738 -1 x31739 -1 x31740 >= 0 ;
+2 x31785 +2 x31786 +2 x31787 +2 x31788 -1 x31741 -1 x31742 -1 x31743 -1 x31744 -1 x31745 -1 x31746 -1 x31747 -1 x31748 >= 0 ;
+2 x31789 +2 x31790 +2 x31791 +2 x31792 -1 x31745 -1 x31746 -1 x31747 -1 x31748 -1 x31749 -1 x31750 -1 x31751 -1 x31752 >= 0 ;
+2 x31793 +2 x31794 +2 x31795 +2 x31796 -1 x31749 -1 x31750 -1 x31751 -1 x31752 -1 x31753 -1 x31754 -1 x31755 -1 x31756 >= 0 ;
+2 x31797 +2 x31798 +2 x31799 +2 x31800 -1 x31753 -1 x31754 -1 x31755 -1 x31756 -1 x31757 -1 x31758 -1 x31759 -1 x31760 >= 0 ;
+2 x31801 +2 x31802 +2 x31803 +2 x31804 -1 x31757 -1 x31758 -1 x31759 -1 x31760 -1 x31761 -1 x31762 -1 x31763 -1 x31764 >= 0 ;
+2 x31805 +2 x31806 +2 x31807 +2 x31808 -1 x31761 -1 x31762 -1 x31763 -1 x31764 -1 x31765 -1 x31766 -1 x31767 -1 x31768 >= 0 ;
+2 x31809 +2 x31810 +2 x31811 +2 x31812 -1 x31765 -1 x31766 -1 x31767 -1 x31768 -1 x31769 -1 x31770 -1 x31771 -1 x31772 >= 0 ;
+2 x31813 +2 x31814 +2 x31815 +2 x31816 -1 x31769 -1 x31770 -1 x31771 -1 x31772 -1 x31773 -1 x31774 -1 x31775 -1 x31776 >= 0 ;
+2 x31817 +2 x31818 +2 x31819 +2 x31820 -1 x31773 -1 x31774 -1 x31775 -1 x31776 -1 x31777 -1 x31778 -1 x31779 -1 x31780 >= 0 ;
+2 x31821 +2 x31822 +2 x31823 +2 x31824 -1 x31777 -1 x31778 -1 x31779 -1 x31780 -1 x31781 -1 x31782 -1 x31783 -1 x31784 >= 0 ;
+2 x31825 +2 x31826 +2 x31827 +2 x31828 -1 x31785 -1 x31786 -1 x31787 -1 x31788 -1 x31789 -1 x31790 -1 x31791 -1 x31792 >= 0 ;
+2 x31829 +2 x31830 +2 x31831 +2 x31832 -1 x31789 -1 x31790 -1 x31791 -1 x31792 -1 x31793 -1 x31794 -1 x31795 -1 x31796 >= 0 ;
+2 x31833 +2 x31834 +2 x31835 +2 x31836 -1 x31793 -1 x31794 -1 x31795 -1 x31796 -1 x31797 -1 x31798 -1 x31799 -1 x31800 >= 0 ;
+2 x31837 +2 x31838 +2 x31839 +2 x31840 -1 x31797 -1 x31798 -1 x31799 -1 x31800 -1 x31801 -1 x31802 -1 x31803 -1 x31804 >= 0 ;
+2 x31841 +2 x31842 +2 x31843 +2 x31844 -1 x31801 -1 x31802 -1 x31803 -1 x31804 -1 x31805 -1 x31806 -1 x31807 -1 x31808 >= 0 ;
+2 x31845 +2 x31846 +2 x31847 +2 x31848 -1 x31805 -1 x31806 -1 x31807 -1 x31808 -1 x31809 -1 x31810 -1 x31811 -1 x31812 >= 0 ;
+2 x31849 +2 x31850 +2 x31851 +2 x31852 -1 x31809 -1 x31810 -1 x31811 -1 x31812 -1 x31813 -1 x31814 -1 x31815 -1 x31816 >= 0 ;
+2 x31853 +2 x31854 +2 x31855 +2 x31856 -1 x31813 -1 x31814 -1 x31815 -1 x31816 -1 x31817 -1 x31818 -1 x31819 -1 x31820 >= 0 ;
+2 x31857 +2 x31858 +2 x31859 +2 x31860 -1 x31817 -1 x31818 -1 x31819 -1 x31820 -1 x31821 -1 x31822 -1 x31823 -1 x31824 >= 0 ;
+2 x31861 +2 x31862 +2 x31863 +2 x31864 -1 x31825 -1 x31826 -1 x31827 -1 x31828 -1 x31829 -1 x31830 -1 x31831 -1 x31832 >= 0 ;
+2 x31865 +2 x31866 +2 x31867 +2 x31868 -1 x31829 -1 x31830 -1 x31831 -1 x31832 -1 x31833 -1 x31834 -1 x31835 -1 x31836 >= 0 ;
+2 x31869 +2 x31870 +2 x31871 +2 x31872 -1 x31833 -1 x31834 -1 x31835 -1 x31836 -1 x31837 -1 x31838 -1 x31839 -1 x31840 >= 0 ;
+2 x31873 +2 x31874 +2 x31875 +2 x31876 -1 x31837 -1 x31838 -1 x31839 -1 x31840 -1 x31841 -1 x31842 -1 x31843 -1 x31844 >= 0 ;
+2 x31877 +2 x31878 +2 x31879 +2 x31880 -1 x31841 -1 x31842 -1 x31843 -1 x31844 -1 x31845 -1 x31846 -1 x31847 -1 x31848 >= 0 ;
+2 x31881 +2 x31882 +2 x31883 +2 x31884 -1 x31845 -1 x31846 -1 x31847 -1 x31848 -1 x31849 -1 x31850 -1 x31851 -1 x31852 >= 0 ;
+2 x31885 +2 x31886 +2 x31887 +2 x31888 -1 x31849 -1 x31850 -1 x31851 -1 x31852 -1 x31853 -1 x31854 -1 x31855 -1 x31856 >= 0 ;
+2 x31889 +2 x31890 +2 x31891 +2 x31892 -1 x31853 -1 x31854 -1 x31855 -1 x31856 -1 x31857 -1 x31858 -1 x31859 -1 x31860 >= 0 ;
+2 x31893 +2 x31894 +2 x31895 +2 x31896 -1 x31861 -1 x31862 -1 x31863 -1 x31864 -1 x31865 -1 x31866 -1 x31867 -1 x31868 >= 0 ;
+2 x31897 +2 x31898 +2 x31899 +2 x31900 -1 x31865 -1 x31866 -1 x31867 -1 x31868 -1 x31869 -1 x31870 -1 x31871 -1 x31872 >= 0 ;
+2 x31901 +2 x31902 +2 x31903 +2 x31904 -1 x31869 -1 x31870 -1 x31871 -1 x31872 -1 x31873 -1 x31874 -1 x31875 -1 x31876 >= 0 ;
+2 x31905 +2 x31906 +2 x31907 +2 x31908 -1 x31873 -1 x31874 -1 x31875 -1 x31876 -1 x31877 -1 x31878 -1 x31879 -1 x31880 >= 0 ;
+2 x31909 +2 x31910 +2 x31911 +2 x31912 -1 x31877 -1 x31878 -1 x31879 -1 x31880 -1 x31881 -1 x31882 -1 x31883 -1 x31884 >= 0 ;
+2 x31913 +2 x31914 +2 x31915 +2 x31916 -1 x31881 -1 x31882 -1 x31883 -1 x31884 -1 x31885 -1 x31886 -1 x31887 -1 x31888 >= 0 ;
+2 x31917 +2 x31918 +2 x31919 +2 x31920 -1 x31885 -1 x31886 -1 x31887 -1 x31888 -1 x31889 -1 x31890 -1 x31891 -1 x31892 >= 0 ;
+2 x31921 +2 x31922 +2 x31923 +2 x31924 -1 x31893 -1 x31894 -1 x31895 -1 x31896 -1 x31897 -1 x31898 -1 x31899 -1 x31900 >= 0 ;
+2 x31925 +2 x31926 +2 x31927 +2 x31928 -1 x31897 -1 x31898 -1 x31899 -1 x31900 -1 x31901 -1 x31902 -1 x31903 -1 x31904 >= 0 ;
+2 x31929 +2 x31930 +2 x31931 +2 x31932 -1 x31901 -1 x31902 -1 x31903 -1 x31904 -1 x31905 -1 x31906 -1 x31907 -1 x31908 >= 0 ;
+2 x31933 +2 x31934 +2 x31935 +2 x31936 -1 x31905 -1 x31906 -1 x31907 -1 x31908 -1 x31909 -1 x31910 -1 x31911 -1 x31912 >= 0 ;
+2 x31937 +2 x31938 +2 x31939 +2 x31940 -1 x31909 -1 x31910 -1 x31911 -1 x31912 -1 x31913 -1 x31914 -1 x31915 -1 x31916 >= 0 ;
+2 x31941 +2 x31942 +2 x31943 +2 x31944 -1 x31913 -1 x31914 -1 x31915 -1 x31916 -1 x31917 -1 x31918 -1 x31919 -1 x31920 >= 0 ;
+2 x31945 +2 x31946 +2 x31947 +2 x31948 -1 x31921 -1 x31922 -1 x31923 -1 x31924 -1 x31925 -1 x31926 -1 x31927 -1 x31928 >= 0 ;
+2 x31949 +2 x31950 +2 x31951 +2 x31952 -1 x31925 -1 x31926 -1 x31927 -1 x31928 -1 x31929 -1 x31930 -1 x31931 -1 x31932 >= 0 ;
+2 x31953 +2 x31954 +2 x31955 +2 x31956 -1 x31929 -1 x31930 -1 x31931 -1 x31932 -1 x31933 -1 x31934 -1 x31935 -1 x31936 >= 0 ;
+2 x31957 +2 x31958 +2 x31959 +2 x31960 -1 x31933 -1 x31934 -1 x31935 -1 x31936 -1 x31937 -1 x31938 -1 x31939 -1 x31940 >= 0 ;
+2 x31961 +2 x31962 +2 x31963 +2 x31964 -1 x31937 -1 x31938 -1 x31939 -1 x31940 -1 x31941 -1 x31942 -1 x31943 -1 x31944 >= 0 ;
+2 x31965 +2 x31966 +2 x31967 +2 x31968 -1 x31945 -1 x31946 -1 x31947 -1 x31948 -1 x31949 -1 x31950 -1 x31951 -1 x31952 >= 0 ;
+2 x31969 +2 x31970 +2 x31971 +2 x31972 -1 x31949 -1 x31950 -1 x31951 -1 x31952 -1 x31953 -1 x31954 -1 x31955 -1 x31956 >= 0 ;
+2 x31973 +2 x31974 +2 x31975 +2 x31976 -1 x31953 -1 x31954 -1 x31955 -1 x31956 -1 x31957 -1 x31958 -1 x31959 -1 x31960 >= 0 ;
+2 x31977 +2 x31978 +2 x31979 +2 x31980 -1 x31957 -1 x31958 -1 x31959 -1 x31960 -1 x31961 -1 x31962 -1 x31963 -1 x31964 >= 0 ;
+2 x31981 +2 x31982 +2 x31983 +2 x31984 -1 x31965 -1 x31966 -1 x31967 -1 x31968 -1 x31969 -1 x31970 -1 x31971 -1 x31972 >= 0 ;
+2 x31985 +2 x31986 +2 x31987 +2 x31988 -1 x31969 -1 x31970 -1 x31971 -1 x31972 -1 x31973 -1 x31974 -1 x31975 -1 x31976 >= 0 ;
+2 x31989 +2 x31990 +2 x31991 +2 x31992 -1 x31973 -1 x31974 -1 x31975 -1 x31976 -1 x31977 -1 x31978 -1 x31979 -1 x31980 >= 0 ;
+2 x31993 +2 x31994 +2 x31995 +2 x31996 -1 x31981 -1 x31982 -1 x31983 -1 x31984 -1 x31985 -1 x31986 -1 x31987 -1 x31988 >= 0 ;
+2 x31997 +2 x31998 +2 x31999 +2 x32000 -1 x31985 -1 x31986 -1 x31987 -1 x31988 -1 x31989 -1 x31990 -1 x31991 -1 x31992 >= 0 ;
+2 x32001 +2 x32002 +2 x32003 +2 x32004 -1 x31993 -1 x31994 -1 x31995 -1 x31996 -1 x31997 -1 x31998 -1 x31999 -1 x32000 >= 0 ;
-2 x32001 -2 x32002 -2 x32003 -2 x32004 >= -3 ;
