* #variable= 39 #constraint= 742
****************************************
* begin normalizer comments
* category= DEC-SMALLINT-LIN
* end normalizer comments
****************************************
+1 x2 +1 x1 >= 1 ;
+1 x3 +1 x1 >= 1 ;
+1 x3 +1 x2 >= 1 ;
+1 x4 +1 x1 >= 1 ;
+1 x4 +1 x2 >= 1 ;
+1 x4 +1 x3 >= 1 ;
+1 x5 +1 x1 >= 1 ;
+1 x5 +1 x2 >= 1 ;
+1 x5 +1 x3 >= 1 ;
+1 x5 +1 x4 >= 1 ;
+1 x6 +1 x1 >= 1 ;
+1 x6 +1 x2 >= 1 ;
+1 x6 +1 x3 >= 1 ;
+1 x6 +1 x4 >= 1 ;
+1 x6 +1 x5 >= 1 ;
+1 x7 +1 x1 >= 1 ;
+1 x7 +1 x2 >= 1 ;
+1 x7 +1 x3 >= 1 ;
+1 x7 +1 x4 >= 1 ;
+1 x7 +1 x5 >= 1 ;
+1 x7 +1 x6 >= 1 ;
+1 x8 +1 x1 >= 1 ;
+1 x8 +1 x2 >= 1 ;
+1 x8 +1 x3 >= 1 ;
+1 x8 +1 x4 >= 1 ;
+1 x8 +1 x5 >= 1 ;
+1 x8 +1 x6 >= 1 ;
+1 x8 +1 x7 >= 1 ;
+1 x9 +1 x1 >= 1 ;
+1 x9 +1 x2 >= 1 ;
+1 x9 +1 x3 >= 1 ;
+1 x9 +1 x4 >= 1 ;
+1 x9 +1 x5 >= 1 ;
+1 x9 +1 x6 >= 1 ;
+1 x9 +1 x7 >= 1 ;
+1 x9 +1 x8 >= 1 ;
+1 x10 +1 x1 >= 1 ;
+1 x10 +1 x2 >= 1 ;
+1 x10 +1 x3 >= 1 ;
+1 x10 +1 x4 >= 1 ;
+1 x10 +1 x5 >= 1 ;
+1 x10 +1 x6 >= 1 ;
+1 x10 +1 x7 >= 1 ;
+1 x10 +1 x8 >= 1 ;
+1 x10 +1 x9 >= 1 ;
+1 x11 +1 x1 >= 1 ;
+1 x11 +1 x2 >= 1 ;
+1 x11 +1 x3 >= 1 ;
+1 x11 +1 x4 >= 1 ;
+1 x11 +1 x5 >= 1 ;
+1 x11 +1 x6 >= 1 ;
+1 x11 +1 x7 >= 1 ;
+1 x11 +1 x8 >= 1 ;
+1 x11 +1 x9 >= 1 ;
+1 x11 +1 x10 >= 1 ;
+1 x12 +1 x1 >= 1 ;
+1 x12 +1 x2 >= 1 ;
+1 x12 +1 x3 >= 1 ;
+1 x12 +1 x4 >= 1 ;
+1 x12 +1 x5 >= 1 ;
+1 x12 +1 x6 >= 1 ;
+1 x12 +1 x7 >= 1 ;
+1 x12 +1 x8 >= 1 ;
+1 x12 +1 x9 >= 1 ;
+1 x12 +1 x10 >= 1 ;
+1 x12 +1 x11 >= 1 ;
+1 x13 +1 x1 >= 1 ;
+1 x13 +1 x2 >= 1 ;
+1 x13 +1 x3 >= 1 ;
+1 x13 +1 x4 >= 1 ;
+1 x13 +1 x5 >= 1 ;
+1 x13 +1 x6 >= 1 ;
+1 x13 +1 x7 >= 1 ;
+1 x13 +1 x8 >= 1 ;
+1 x13 +1 x9 >= 1 ;
+1 x13 +1 x10 >= 1 ;
+1 x13 +1 x11 >= 1 ;
+1 x13 +1 x12 >= 1 ;
+1 x14 +1 x1 >= 1 ;
+1 x14 +1 x2 >= 1 ;
+1 x14 +1 x3 >= 1 ;
+1 x14 +1 x4 >= 1 ;
+1 x14 +1 x5 >= 1 ;
+1 x14 +1 x6 >= 1 ;
+1 x14 +1 x7 >= 1 ;
+1 x14 +1 x8 >= 1 ;
+1 x14 +1 x9 >= 1 ;
+1 x14 +1 x10 >= 1 ;
+1 x14 +1 x11 >= 1 ;
+1 x14 +1 x12 >= 1 ;
+1 x14 +1 x13 >= 1 ;
+1 x15 +1 x1 >= 1 ;
+1 x15 +1 x2 >= 1 ;
+1 x15 +1 x3 >= 1 ;
+1 x15 +1 x4 >= 1 ;
+1 x15 +1 x5 >= 1 ;
+1 x15 +1 x6 >= 1 ;
+1 x15 +1 x7 >= 1 ;
+1 x15 +1 x8 >= 1 ;
+1 x15 +1 x9 >= 1 ;
+1 x15 +1 x10 >= 1 ;
+1 x15 +1 x11 >= 1 ;
+1 x15 +1 x12 >= 1 ;
+1 x15 +1 x13 >= 1 ;
+1 x15 +1 x14 >= 1 ;
+1 x16 +1 x1 >= 1 ;
+1 x16 +1 x2 >= 1 ;
+1 x16 +1 x3 >= 1 ;
+1 x16 +1 x4 >= 1 ;
+1 x16 +1 x5 >= 1 ;
+1 x16 +1 x6 >= 1 ;
+1 x16 +1 x7 >= 1 ;
+1 x16 +1 x8 >= 1 ;
+1 x16 +1 x9 >= 1 ;
+1 x16 +1 x10 >= 1 ;
+1 x16 +1 x11 >= 1 ;
+1 x16 +1 x12 >= 1 ;
+1 x16 +1 x13 >= 1 ;
+1 x16 +1 x14 >= 1 ;
+1 x16 +1 x15 >= 1 ;
+1 x17 +1 x1 >= 1 ;
+1 x17 +1 x2 >= 1 ;
+1 x17 +1 x3 >= 1 ;
+1 x17 +1 x4 >= 1 ;
+1 x17 +1 x5 >= 1 ;
+1 x17 +1 x6 >= 1 ;
+1 x17 +1 x7 >= 1 ;
+1 x17 +1 x8 >= 1 ;
+1 x17 +1 x9 >= 1 ;
+1 x17 +1 x10 >= 1 ;
+1 x17 +1 x11 >= 1 ;
+1 x17 +1 x12 >= 1 ;
+1 x17 +1 x13 >= 1 ;
+1 x17 +1 x14 >= 1 ;
+1 x17 +1 x15 >= 1 ;
+1 x17 +1 x16 >= 1 ;
+1 x18 +1 x1 >= 1 ;
+1 x18 +1 x2 >= 1 ;
+1 x18 +1 x3 >= 1 ;
+1 x18 +1 x4 >= 1 ;
+1 x18 +1 x5 >= 1 ;
+1 x18 +1 x6 >= 1 ;
+1 x18 +1 x7 >= 1 ;
+1 x18 +1 x8 >= 1 ;
+1 x18 +1 x9 >= 1 ;
+1 x18 +1 x10 >= 1 ;
+1 x18 +1 x11 >= 1 ;
+1 x18 +1 x12 >= 1 ;
+1 x18 +1 x13 >= 1 ;
+1 x18 +1 x14 >= 1 ;
+1 x18 +1 x15 >= 1 ;
+1 x18 +1 x16 >= 1 ;
+1 x18 +1 x17 >= 1 ;
+1 x19 +1 x1 >= 1 ;
+1 x19 +1 x2 >= 1 ;
+1 x19 +1 x3 >= 1 ;
+1 x19 +1 x4 >= 1 ;
+1 x19 +1 x5 >= 1 ;
+1 x19 +1 x6 >= 1 ;
+1 x19 +1 x7 >= 1 ;
+1 x19 +1 x8 >= 1 ;
+1 x19 +1 x9 >= 1 ;
+1 x19 +1 x10 >= 1 ;
+1 x19 +1 x11 >= 1 ;
+1 x19 +1 x12 >= 1 ;
+1 x19 +1 x13 >= 1 ;
+1 x19 +1 x14 >= 1 ;
+1 x19 +1 x15 >= 1 ;
+1 x19 +1 x16 >= 1 ;
+1 x19 +1 x17 >= 1 ;
+1 x19 +1 x18 >= 1 ;
+1 x20 +1 x1 >= 1 ;
+1 x20 +1 x2 >= 1 ;
+1 x20 +1 x3 >= 1 ;
+1 x20 +1 x4 >= 1 ;
+1 x20 +1 x5 >= 1 ;
+1 x20 +1 x6 >= 1 ;
+1 x20 +1 x7 >= 1 ;
+1 x20 +1 x8 >= 1 ;
+1 x20 +1 x9 >= 1 ;
+1 x20 +1 x10 >= 1 ;
+1 x20 +1 x11 >= 1 ;
+1 x20 +1 x12 >= 1 ;
+1 x20 +1 x13 >= 1 ;
+1 x20 +1 x14 >= 1 ;
+1 x20 +1 x15 >= 1 ;
+1 x20 +1 x16 >= 1 ;
+1 x20 +1 x17 >= 1 ;
+1 x20 +1 x18 >= 1 ;
+1 x20 +1 x19 >= 1 ;
+1 x21 +1 x1 >= 1 ;
+1 x21 +1 x2 >= 1 ;
+1 x21 +1 x3 >= 1 ;
+1 x21 +1 x4 >= 1 ;
+1 x21 +1 x5 >= 1 ;
+1 x21 +1 x6 >= 1 ;
+1 x21 +1 x7 >= 1 ;
+1 x21 +1 x8 >= 1 ;
+1 x21 +1 x9 >= 1 ;
+1 x21 +1 x10 >= 1 ;
+1 x21 +1 x11 >= 1 ;
+1 x21 +1 x12 >= 1 ;
+1 x21 +1 x13 >= 1 ;
+1 x21 +1 x14 >= 1 ;
+1 x21 +1 x15 >= 1 ;
+1 x21 +1 x16 >= 1 ;
+1 x21 +1 x17 >= 1 ;
+1 x21 +1 x18 >= 1 ;
+1 x21 +1 x19 >= 1 ;
+1 x21 +1 x20 >= 1 ;
+1 x22 +1 x1 >= 1 ;
+1 x22 +1 x2 >= 1 ;
+1 x22 +1 x3 >= 1 ;
+1 x22 +1 x4 >= 1 ;
+1 x22 +1 x5 >= 1 ;
+1 x22 +1 x6 >= 1 ;
+1 x22 +1 x7 >= 1 ;
+1 x22 +1 x8 >= 1 ;
+1 x22 +1 x9 >= 1 ;
+1 x22 +1 x10 >= 1 ;
+1 x22 +1 x11 >= 1 ;
+1 x22 +1 x12 >= 1 ;
+1 x22 +1 x13 >= 1 ;
+1 x22 +1 x14 >= 1 ;
+1 x22 +1 x15 >= 1 ;
+1 x22 +1 x16 >= 1 ;
+1 x22 +1 x17 >= 1 ;
+1 x22 +1 x18 >= 1 ;
+1 x22 +1 x19 >= 1 ;
+1 x22 +1 x20 >= 1 ;
+1 x22 +1 x21 >= 1 ;
+1 x23 +1 x1 >= 1 ;
+1 x23 +1 x2 >= 1 ;
+1 x23 +1 x3 >= 1 ;
+1 x23 +1 x4 >= 1 ;
+1 x23 +1 x5 >= 1 ;
+1 x23 +1 x6 >= 1 ;
+1 x23 +1 x7 >= 1 ;
+1 x23 +1 x8 >= 1 ;
+1 x23 +1 x9 >= 1 ;
+1 x23 +1 x10 >= 1 ;
+1 x23 +1 x11 >= 1 ;
+1 x23 +1 x12 >= 1 ;
+1 x23 +1 x13 >= 1 ;
+1 x23 +1 x14 >= 1 ;
+1 x23 +1 x15 >= 1 ;
+1 x23 +1 x16 >= 1 ;
+1 x23 +1 x17 >= 1 ;
+1 x23 +1 x18 >= 1 ;
+1 x23 +1 x19 >= 1 ;
+1 x23 +1 x20 >= 1 ;
+1 x23 +1 x21 >= 1 ;
+1 x23 +1 x22 >= 1 ;
+1 x24 +1 x1 >= 1 ;
+1 x24 +1 x2 >= 1 ;
+1 x24 +1 x3 >= 1 ;
+1 x24 +1 x4 >= 1 ;
+1 x24 +1 x5 >= 1 ;
+1 x24 +1 x6 >= 1 ;
+1 x24 +1 x7 >= 1 ;
+1 x24 +1 x8 >= 1 ;
+1 x24 +1 x9 >= 1 ;
+1 x24 +1 x10 >= 1 ;
+1 x24 +1 x11 >= 1 ;
+1 x24 +1 x12 >= 1 ;
+1 x24 +1 x13 >= 1 ;
+1 x24 +1 x14 >= 1 ;
+1 x24 +1 x15 >= 1 ;
+1 x24 +1 x16 >= 1 ;
+1 x24 +1 x17 >= 1 ;
+1 x24 +1 x18 >= 1 ;
+1 x24 +1 x19 >= 1 ;
+1 x24 +1 x20 >= 1 ;
+1 x24 +1 x21 >= 1 ;
+1 x24 +1 x22 >= 1 ;
+1 x24 +1 x23 >= 1 ;
+1 x25 +1 x1 >= 1 ;
+1 x25 +1 x2 >= 1 ;
+1 x25 +1 x3 >= 1 ;
+1 x25 +1 x4 >= 1 ;
+1 x25 +1 x5 >= 1 ;
+1 x25 +1 x6 >= 1 ;
+1 x25 +1 x7 >= 1 ;
+1 x25 +1 x8 >= 1 ;
+1 x25 +1 x9 >= 1 ;
+1 x25 +1 x10 >= 1 ;
+1 x25 +1 x11 >= 1 ;
+1 x25 +1 x12 >= 1 ;
+1 x25 +1 x13 >= 1 ;
+1 x25 +1 x14 >= 1 ;
+1 x25 +1 x15 >= 1 ;
+1 x25 +1 x16 >= 1 ;
+1 x25 +1 x17 >= 1 ;
+1 x25 +1 x18 >= 1 ;
+1 x25 +1 x19 >= 1 ;
+1 x25 +1 x20 >= 1 ;
+1 x25 +1 x21 >= 1 ;
+1 x25 +1 x22 >= 1 ;
+1 x25 +1 x23 >= 1 ;
+1 x25 +1 x24 >= 1 ;
+1 x26 +1 x1 >= 1 ;
+1 x26 +1 x2 >= 1 ;
+1 x26 +1 x3 >= 1 ;
+1 x26 +1 x4 >= 1 ;
+1 x26 +1 x5 >= 1 ;
+1 x26 +1 x6 >= 1 ;
+1 x26 +1 x7 >= 1 ;
+1 x26 +1 x8 >= 1 ;
+1 x26 +1 x9 >= 1 ;
+1 x26 +1 x10 >= 1 ;
+1 x26 +1 x11 >= 1 ;
+1 x26 +1 x12 >= 1 ;
+1 x26 +1 x13 >= 1 ;
+1 x26 +1 x14 >= 1 ;
+1 x26 +1 x15 >= 1 ;
+1 x26 +1 x16 >= 1 ;
+1 x26 +1 x17 >= 1 ;
+1 x26 +1 x18 >= 1 ;
+1 x26 +1 x19 >= 1 ;
+1 x26 +1 x20 >= 1 ;
+1 x26 +1 x21 >= 1 ;
+1 x26 +1 x22 >= 1 ;
+1 x26 +1 x23 >= 1 ;
+1 x26 +1 x24 >= 1 ;
+1 x26 +1 x25 >= 1 ;
+1 x27 +1 x1 >= 1 ;
+1 x27 +1 x2 >= 1 ;
+1 x27 +1 x3 >= 1 ;
+1 x27 +1 x4 >= 1 ;
+1 x27 +1 x5 >= 1 ;
+1 x27 +1 x6 >= 1 ;
+1 x27 +1 x7 >= 1 ;
+1 x27 +1 x8 >= 1 ;
+1 x27 +1 x9 >= 1 ;
+1 x27 +1 x10 >= 1 ;
+1 x27 +1 x11 >= 1 ;
+1 x27 +1 x12 >= 1 ;
+1 x27 +1 x13 >= 1 ;
+1 x27 +1 x14 >= 1 ;
+1 x27 +1 x15 >= 1 ;
+1 x27 +1 x16 >= 1 ;
+1 x27 +1 x17 >= 1 ;
+1 x27 +1 x18 >= 1 ;
+1 x27 +1 x19 >= 1 ;
+1 x27 +1 x20 >= 1 ;
+1 x27 +1 x21 >= 1 ;
+1 x27 +1 x22 >= 1 ;
+1 x27 +1 x23 >= 1 ;
+1 x27 +1 x24 >= 1 ;
+1 x27 +1 x25 >= 1 ;
+1 x27 +1 x26 >= 1 ;
+1 x28 +1 x1 >= 1 ;
+1 x28 +1 x2 >= 1 ;
+1 x28 +1 x3 >= 1 ;
+1 x28 +1 x4 >= 1 ;
+1 x28 +1 x5 >= 1 ;
+1 x28 +1 x6 >= 1 ;
+1 x28 +1 x7 >= 1 ;
+1 x28 +1 x8 >= 1 ;
+1 x28 +1 x9 >= 1 ;
+1 x28 +1 x10 >= 1 ;
+1 x28 +1 x11 >= 1 ;
+1 x28 +1 x12 >= 1 ;
+1 x28 +1 x13 >= 1 ;
+1 x28 +1 x14 >= 1 ;
+1 x28 +1 x15 >= 1 ;
+1 x28 +1 x16 >= 1 ;
+1 x28 +1 x17 >= 1 ;
+1 x28 +1 x18 >= 1 ;
+1 x28 +1 x19 >= 1 ;
+1 x28 +1 x20 >= 1 ;
+1 x28 +1 x21 >= 1 ;
+1 x28 +1 x22 >= 1 ;
+1 x28 +1 x23 >= 1 ;
+1 x28 +1 x24 >= 1 ;
+1 x28 +1 x25 >= 1 ;
+1 x28 +1 x26 >= 1 ;
+1 x28 +1 x27 >= 1 ;
+1 x29 +1 x1 >= 1 ;
+1 x29 +1 x2 >= 1 ;
+1 x29 +1 x3 >= 1 ;
+1 x29 +1 x4 >= 1 ;
+1 x29 +1 x5 >= 1 ;
+1 x29 +1 x6 >= 1 ;
+1 x29 +1 x7 >= 1 ;
+1 x29 +1 x8 >= 1 ;
+1 x29 +1 x9 >= 1 ;
+1 x29 +1 x10 >= 1 ;
+1 x29 +1 x11 >= 1 ;
+1 x29 +1 x12 >= 1 ;
+1 x29 +1 x13 >= 1 ;
+1 x29 +1 x14 >= 1 ;
+1 x29 +1 x15 >= 1 ;
+1 x29 +1 x16 >= 1 ;
+1 x29 +1 x17 >= 1 ;
+1 x29 +1 x18 >= 1 ;
+1 x29 +1 x19 >= 1 ;
+1 x29 +1 x20 >= 1 ;
+1 x29 +1 x21 >= 1 ;
+1 x29 +1 x22 >= 1 ;
+1 x29 +1 x23 >= 1 ;
+1 x29 +1 x24 >= 1 ;
+1 x29 +1 x25 >= 1 ;
+1 x29 +1 x26 >= 1 ;
+1 x29 +1 x27 >= 1 ;
+1 x29 +1 x28 >= 1 ;
+1 x30 +1 x1 >= 1 ;
+1 x30 +1 x2 >= 1 ;
+1 x30 +1 x3 >= 1 ;
+1 x30 +1 x4 >= 1 ;
+1 x30 +1 x5 >= 1 ;
+1 x30 +1 x6 >= 1 ;
+1 x30 +1 x7 >= 1 ;
+1 x30 +1 x8 >= 1 ;
+1 x30 +1 x9 >= 1 ;
+1 x30 +1 x10 >= 1 ;
+1 x30 +1 x11 >= 1 ;
+1 x30 +1 x12 >= 1 ;
+1 x30 +1 x13 >= 1 ;
+1 x30 +1 x14 >= 1 ;
+1 x30 +1 x15 >= 1 ;
+1 x30 +1 x16 >= 1 ;
+1 x30 +1 x17 >= 1 ;
+1 x30 +1 x18 >= 1 ;
+1 x30 +1 x19 >= 1 ;
+1 x30 +1 x20 >= 1 ;
+1 x30 +1 x21 >= 1 ;
+1 x30 +1 x22 >= 1 ;
+1 x30 +1 x23 >= 1 ;
+1 x30 +1 x24 >= 1 ;
+1 x30 +1 x25 >= 1 ;
+1 x30 +1 x26 >= 1 ;
+1 x30 +1 x27 >= 1 ;
+1 x30 +1 x28 >= 1 ;
+1 x30 +1 x29 >= 1 ;
+1 x31 +1 x1 >= 1 ;
+1 x31 +1 x2 >= 1 ;
+1 x31 +1 x3 >= 1 ;
+1 x31 +1 x4 >= 1 ;
+1 x31 +1 x5 >= 1 ;
+1 x31 +1 x6 >= 1 ;
+1 x31 +1 x7 >= 1 ;
+1 x31 +1 x8 >= 1 ;
+1 x31 +1 x9 >= 1 ;
+1 x31 +1 x10 >= 1 ;
+1 x31 +1 x11 >= 1 ;
+1 x31 +1 x12 >= 1 ;
+1 x31 +1 x13 >= 1 ;
+1 x31 +1 x14 >= 1 ;
+1 x31 +1 x15 >= 1 ;
+1 x31 +1 x16 >= 1 ;
+1 x31 +1 x17 >= 1 ;
+1 x31 +1 x18 >= 1 ;
+1 x31 +1 x19 >= 1 ;
+1 x31 +1 x20 >= 1 ;
+1 x31 +1 x21 >= 1 ;
+1 x31 +1 x22 >= 1 ;
+1 x31 +1 x23 >= 1 ;
+1 x31 +1 x24 >= 1 ;
+1 x31 +1 x25 >= 1 ;
+1 x31 +1 x26 >= 1 ;
+1 x31 +1 x27 >= 1 ;
+1 x31 +1 x28 >= 1 ;
+1 x31 +1 x29 >= 1 ;
+1 x31 +1 x30 >= 1 ;
+1 x32 +1 x1 >= 1 ;
+1 x32 +1 x2 >= 1 ;
+1 x32 +1 x3 >= 1 ;
+1 x32 +1 x4 >= 1 ;
+1 x32 +1 x5 >= 1 ;
+1 x32 +1 x6 >= 1 ;
+1 x32 +1 x7 >= 1 ;
+1 x32 +1 x8 >= 1 ;
+1 x32 +1 x9 >= 1 ;
+1 x32 +1 x10 >= 1 ;
+1 x32 +1 x11 >= 1 ;
+1 x32 +1 x12 >= 1 ;
+1 x32 +1 x13 >= 1 ;
+1 x32 +1 x14 >= 1 ;
+1 x32 +1 x15 >= 1 ;
+1 x32 +1 x16 >= 1 ;
+1 x32 +1 x17 >= 1 ;
+1 x32 +1 x18 >= 1 ;
+1 x32 +1 x19 >= 1 ;
+1 x32 +1 x20 >= 1 ;
+1 x32 +1 x21 >= 1 ;
+1 x32 +1 x22 >= 1 ;
+1 x32 +1 x23 >= 1 ;
+1 x32 +1 x24 >= 1 ;
+1 x32 +1 x25 >= 1 ;
+1 x32 +1 x26 >= 1 ;
+1 x32 +1 x27 >= 1 ;
+1 x32 +1 x28 >= 1 ;
+1 x32 +1 x29 >= 1 ;
+1 x32 +1 x30 >= 1 ;
+1 x32 +1 x31 >= 1 ;
+1 x33 +1 x1 >= 1 ;
+1 x33 +1 x2 >= 1 ;
+1 x33 +1 x3 >= 1 ;
+1 x33 +1 x4 >= 1 ;
+1 x33 +1 x5 >= 1 ;
+1 x33 +1 x6 >= 1 ;
+1 x33 +1 x7 >= 1 ;
+1 x33 +1 x8 >= 1 ;
+1 x33 +1 x9 >= 1 ;
+1 x33 +1 x10 >= 1 ;
+1 x33 +1 x11 >= 1 ;
+1 x33 +1 x12 >= 1 ;
+1 x33 +1 x13 >= 1 ;
+1 x33 +1 x14 >= 1 ;
+1 x33 +1 x15 >= 1 ;
+1 x33 +1 x16 >= 1 ;
+1 x33 +1 x17 >= 1 ;
+1 x33 +1 x18 >= 1 ;
+1 x33 +1 x19 >= 1 ;
+1 x33 +1 x20 >= 1 ;
+1 x33 +1 x21 >= 1 ;
+1 x33 +1 x22 >= 1 ;
+1 x33 +1 x23 >= 1 ;
+1 x33 +1 x24 >= 1 ;
+1 x33 +1 x25 >= 1 ;
+1 x33 +1 x26 >= 1 ;
+1 x33 +1 x27 >= 1 ;
+1 x33 +1 x28 >= 1 ;
+1 x33 +1 x29 >= 1 ;
+1 x33 +1 x30 >= 1 ;
+1 x33 +1 x31 >= 1 ;
+1 x33 +1 x32 >= 1 ;
+1 x34 +1 x1 >= 1 ;
+1 x34 +1 x2 >= 1 ;
+1 x34 +1 x3 >= 1 ;
+1 x34 +1 x4 >= 1 ;
+1 x34 +1 x5 >= 1 ;
+1 x34 +1 x6 >= 1 ;
+1 x34 +1 x7 >= 1 ;
+1 x34 +1 x8 >= 1 ;
+1 x34 +1 x9 >= 1 ;
+1 x34 +1 x10 >= 1 ;
+1 x34 +1 x11 >= 1 ;
+1 x34 +1 x12 >= 1 ;
+1 x34 +1 x13 >= 1 ;
+1 x34 +1 x14 >= 1 ;
+1 x34 +1 x15 >= 1 ;
+1 x34 +1 x16 >= 1 ;
+1 x34 +1 x17 >= 1 ;
+1 x34 +1 x18 >= 1 ;
+1 x34 +1 x19 >= 1 ;
+1 x34 +1 x20 >= 1 ;
+1 x34 +1 x21 >= 1 ;
+1 x34 +1 x22 >= 1 ;
+1 x34 +1 x23 >= 1 ;
+1 x34 +1 x24 >= 1 ;
+1 x34 +1 x25 >= 1 ;
+1 x34 +1 x26 >= 1 ;
+1 x34 +1 x27 >= 1 ;
+1 x34 +1 x28 >= 1 ;
+1 x34 +1 x29 >= 1 ;
+1 x34 +1 x30 >= 1 ;
+1 x34 +1 x31 >= 1 ;
+1 x34 +1 x32 >= 1 ;
+1 x34 +1 x33 >= 1 ;
+1 x35 +1 x1 >= 1 ;
+1 x35 +1 x2 >= 1 ;
+1 x35 +1 x3 >= 1 ;
+1 x35 +1 x4 >= 1 ;
+1 x35 +1 x5 >= 1 ;
+1 x35 +1 x6 >= 1 ;
+1 x35 +1 x7 >= 1 ;
+1 x35 +1 x8 >= 1 ;
+1 x35 +1 x9 >= 1 ;
+1 x35 +1 x10 >= 1 ;
+1 x35 +1 x11 >= 1 ;
+1 x35 +1 x12 >= 1 ;
+1 x35 +1 x13 >= 1 ;
+1 x35 +1 x14 >= 1 ;
+1 x35 +1 x15 >= 1 ;
+1 x35 +1 x16 >= 1 ;
+1 x35 +1 x17 >= 1 ;
+1 x35 +1 x18 >= 1 ;
+1 x35 +1 x19 >= 1 ;
+1 x35 +1 x20 >= 1 ;
+1 x35 +1 x21 >= 1 ;
+1 x35 +1 x22 >= 1 ;
+1 x35 +1 x23 >= 1 ;
+1 x35 +1 x24 >= 1 ;
+1 x35 +1 x25 >= 1 ;
+1 x35 +1 x26 >= 1 ;
+1 x35 +1 x27 >= 1 ;
+1 x35 +1 x28 >= 1 ;
+1 x35 +1 x29 >= 1 ;
+1 x35 +1 x30 >= 1 ;
+1 x35 +1 x31 >= 1 ;
+1 x35 +1 x32 >= 1 ;
+1 x35 +1 x33 >= 1 ;
+1 x35 +1 x34 >= 1 ;
+1 x36 +1 x1 >= 1 ;
+1 x36 +1 x2 >= 1 ;
+1 x36 +1 x3 >= 1 ;
+1 x36 +1 x4 >= 1 ;
+1 x36 +1 x5 >= 1 ;
+1 x36 +1 x6 >= 1 ;
+1 x36 +1 x7 >= 1 ;
+1 x36 +1 x8 >= 1 ;
+1 x36 +1 x9 >= 1 ;
+1 x36 +1 x10 >= 1 ;
+1 x36 +1 x11 >= 1 ;
+1 x36 +1 x12 >= 1 ;
+1 x36 +1 x13 >= 1 ;
+1 x36 +1 x14 >= 1 ;
+1 x36 +1 x15 >= 1 ;
+1 x36 +1 x16 >= 1 ;
+1 x36 +1 x17 >= 1 ;
+1 x36 +1 x18 >= 1 ;
+1 x36 +1 x19 >= 1 ;
+1 x36 +1 x20 >= 1 ;
+1 x36 +1 x21 >= 1 ;
+1 x36 +1 x22 >= 1 ;
+1 x36 +1 x23 >= 1 ;
+1 x36 +1 x24 >= 1 ;
+1 x36 +1 x25 >= 1 ;
+1 x36 +1 x26 >= 1 ;
+1 x36 +1 x27 >= 1 ;
+1 x36 +1 x28 >= 1 ;
+1 x36 +1 x29 >= 1 ;
+1 x36 +1 x30 >= 1 ;
+1 x36 +1 x31 >= 1 ;
+1 x36 +1 x32 >= 1 ;
+1 x36 +1 x33 >= 1 ;
+1 x36 +1 x34 >= 1 ;
+1 x36 +1 x35 >= 1 ;
+1 x37 +1 x1 >= 1 ;
+1 x37 +1 x2 >= 1 ;
+1 x37 +1 x3 >= 1 ;
+1 x37 +1 x4 >= 1 ;
+1 x37 +1 x5 >= 1 ;
+1 x37 +1 x6 >= 1 ;
+1 x37 +1 x7 >= 1 ;
+1 x37 +1 x8 >= 1 ;
+1 x37 +1 x9 >= 1 ;
+1 x37 +1 x10 >= 1 ;
+1 x37 +1 x11 >= 1 ;
+1 x37 +1 x12 >= 1 ;
+1 x37 +1 x13 >= 1 ;
+1 x37 +1 x14 >= 1 ;
+1 x37 +1 x15 >= 1 ;
+1 x37 +1 x16 >= 1 ;
+1 x37 +1 x17 >= 1 ;
+1 x37 +1 x18 >= 1 ;
+1 x37 +1 x19 >= 1 ;
+1 x37 +1 x20 >= 1 ;
+1 x37 +1 x21 >= 1 ;
+1 x37 +1 x22 >= 1 ;
+1 x37 +1 x23 >= 1 ;
+1 x37 +1 x24 >= 1 ;
+1 x37 +1 x25 >= 1 ;
+1 x37 +1 x26 >= 1 ;
+1 x37 +1 x27 >= 1 ;
+1 x37 +1 x28 >= 1 ;
+1 x37 +1 x29 >= 1 ;
+1 x37 +1 x30 >= 1 ;
+1 x37 +1 x31 >= 1 ;
+1 x37 +1 x32 >= 1 ;
+1 x37 +1 x33 >= 1 ;
+1 x37 +1 x34 >= 1 ;
+1 x37 +1 x35 >= 1 ;
+1 x37 +1 x36 >= 1 ;
+1 x38 +1 x1 >= 1 ;
+1 x38 +1 x2 >= 1 ;
+1 x38 +1 x3 >= 1 ;
+1 x38 +1 x4 >= 1 ;
+1 x38 +1 x5 >= 1 ;
+1 x38 +1 x6 >= 1 ;
+1 x38 +1 x7 >= 1 ;
+1 x38 +1 x8 >= 1 ;
+1 x38 +1 x9 >= 1 ;
+1 x38 +1 x10 >= 1 ;
+1 x38 +1 x11 >= 1 ;
+1 x38 +1 x12 >= 1 ;
+1 x38 +1 x13 >= 1 ;
+1 x38 +1 x14 >= 1 ;
+1 x38 +1 x15 >= 1 ;
+1 x38 +1 x16 >= 1 ;
+1 x38 +1 x17 >= 1 ;
+1 x38 +1 x18 >= 1 ;
+1 x38 +1 x19 >= 1 ;
+1 x38 +1 x20 >= 1 ;
+1 x38 +1 x21 >= 1 ;
+1 x38 +1 x22 >= 1 ;
+1 x38 +1 x23 >= 1 ;
+1 x38 +1 x24 >= 1 ;
+1 x38 +1 x25 >= 1 ;
+1 x38 +1 x26 >= 1 ;
+1 x38 +1 x27 >= 1 ;
+1 x38 +1 x28 >= 1 ;
+1 x38 +1 x29 >= 1 ;
+1 x38 +1 x30 >= 1 ;
+1 x38 +1 x31 >= 1 ;
+1 x38 +1 x32 >= 1 ;
+1 x38 +1 x33 >= 1 ;
+1 x38 +1 x34 >= 1 ;
+1 x38 +1 x35 >= 1 ;
+1 x38 +1 x36 >= 1 ;
+1 x38 +1 x37 >= 1 ;
+1 x39 +1 x1 >= 1 ;
+1 x39 +1 x2 >= 1 ;
+1 x39 +1 x3 >= 1 ;
+1 x39 +1 x4 >= 1 ;
+1 x39 +1 x5 >= 1 ;
+1 x39 +1 x6 >= 1 ;
+1 x39 +1 x7 >= 1 ;
+1 x39 +1 x8 >= 1 ;
+1 x39 +1 x9 >= 1 ;
+1 x39 +1 x10 >= 1 ;
+1 x39 +1 x11 >= 1 ;
+1 x39 +1 x12 >= 1 ;
+1 x39 +1 x13 >= 1 ;
+1 x39 +1 x14 >= 1 ;
+1 x39 +1 x15 >= 1 ;
+1 x39 +1 x16 >= 1 ;
+1 x39 +1 x17 >= 1 ;
+1 x39 +1 x18 >= 1 ;
+1 x39 +1 x19 >= 1 ;
+1 x39 +1 x20 >= 1 ;
+1 x39 +1 x21 >= 1 ;
+1 x39 +1 x22 >= 1 ;
+1 x39 +1 x23 >= 1 ;
+1 x39 +1 x24 >= 1 ;
+1 x39 +1 x25 >= 1 ;
+1 x39 +1 x26 >= 1 ;
+1 x39 +1 x27 >= 1 ;
+1 x39 +1 x28 >= 1 ;
+1 x39 +1 x29 >= 1 ;
+1 x39 +1 x30 >= 1 ;
+1 x39 +1 x31 >= 1 ;
+1 x39 +1 x32 >= 1 ;
+1 x39 +1 x33 >= 1 ;
+1 x39 +1 x34 >= 1 ;
+1 x39 +1 x35 >= 1 ;
+1 x39 +1 x36 >= 1 ;
+1 x39 +1 x37 >= 1 ;
+1 x39 +1 x38 >= 1 ;
-2 x1 -2 x2 -2 x3 -2 x4 -2 x5 -2 x6 -2 x7 -2 x8 -2 x9 -2 x10 -2 x11 -2 x12 -2 x13 -2 x14 -2 x15 -2 x16 -2 x17 -2 x18 -2 x19 -2 x20 -2 x21 -2 x22 -2 x23 -2 x24 -2 x25 -2 x26 -2 x27 -2 x28 -2 x29 -2 x30 -2 x31 -2 x32 -2 x33 -2 x34 -2 x35 -2 x36 -2 x37 -2 x38 -2 x39 >= -39 ;
