Subject To
	w1: + 32 x_1 + 11 x_2 + 29 x_3 + 43 x_4 + 22 x_5 + 39 x_6 + 23 x_7 + 36 x_8 + 48 x_9 + 8 x_10 <= 1510
	w2: + 10 x_1 + 25 x_2 + 47 x_3 + 22 x_4 + 49 x_5 + 31 x_6 + 1 x_7 + 17 x_8 + 32 x_9 + 3 x_10 <= 1230
	w3: + 40 x_1 + 21 x_2 + 27 x_3 + 35 x_4 + 41 x_5 + 36 x_6 + 23 x_7 + 46 x_8 + 33 x_9 + 18 x_10 <= 1660
	w4: + 16 x_1 + 2 x_2 + 15 x_3 + 42 x_4 + 43 x_5 + 21 x_6 + 7 x_7 + 47 x_8 + 6 x_9 + 31 x_10 <= 1190
	w5: + 43 x_1 + 7 x_2 + 35 x_3 + 48 x_4 + 33 x_5 + 46 x_6 + 4 x_7 + 43 x_8 + 7 x_9 + 23 x_10 <= 1500
	w6: + 36 x_1 + 13 x_2 + 49 x_3 + 31 x_4 + 17 x_5 + 41 x_6 + 22 x_7 + 37 x_8 + 46 x_9 + 20 x_10 <= 1620
	w7: + 38 x_1 + 35 x_2 + 18 x_3 + 6 x_4 + 29 x_5 + 41 x_6 + 46 x_7 + 35 x_8 + 28 x_9 + 42 x_10 <= 1650
	w8: + 1 x_1 + 32 x_2 + 3 x_3 + 33 x_4 + 27 x_5 + 49 x_6 + 37 x_7 + 41 x_8 + 14 x_9 + 21 x_10 <= 1340
	w9: + 29 x_1 + 21 x_2 + 5 x_3 + 29 x_4 + 9 x_5 + 47 x_6 + 17 x_7 + 41 x_8 + 43 x_9 + 35 x_10 <= 1430
	w10: + 47 x_1 + 18 x_2 + 7 x_3 + 21 x_4 + 8 x_5 + 33 x_6 + 42 x_7 + 40 x_8 + 10 x_9 + 47 x_10 <= 1410
	w11: + 25 x_1 + 17 x_2 + 45 x_3 + 46 x_4 + 44 x_5 + 32 x_6 + 47 x_7 + 30 x_8 + 20 x_9 + 10 x_10 <= 1640
	w12: + 2 x_1 + 15 x_2 + 25 x_3 + 9 x_4 + 37 x_5 + 44 x_6 + 48 x_7 + 19 x_8 + 9 x_9 + 43 x_10 <= 1300
	w13: + 45 x_1 + 8 x_2 + 41 x_3 + 26 x_4 + 33 x_5 + 49 x_6 + 38 x_7 + 34 x_8 + 39 x_9 + 45 x_10 <= 1860
	w14: + 5 x_1 + 8 x_2 + 43 x_3 + 31 x_4 + 47 x_5 + 35 x_6 + 11 x_7 + 49 x_8 + 10 x_9 + 14 x_10 <= 1310
	w15: + 37 x_1 + 20 x_2 + 29 x_3 + 30 x_4 + 44 x_5 + 31 x_6 + 6 x_7 + 6 x_8 + 27 x_9 + 21 x_10 <= 1300
	w16: + 44 x_1 + 14 x_2 + 40 x_3 + 48 x_4 + 11 x_5 + 4 x_6 + 28 x_7 + 6 x_8 + 49 x_9 + 17 x_10 <= 1350
	w17: + 34 x_1 + 37 x_2 + 1 x_3 + 38 x_4 + 26 x_5 + 18 x_6 + 1 x_7 + 7 x_8 + 47 x_9 + 8 x_10 <= 1120
	w18: + 37 x_1 + 22 x_2 + 14 x_3 + 11 x_4 + 8 x_5 + 7 x_6 + 44 x_7 + 3 x_8 + 5 x_9 + 36 x_10 <= 970
	w19: + 14 x_1 + 1 x_2 + 30 x_3 + 10 x_4 + 37 x_5 + 9 x_6 + 14 x_7 + 22 x_8 + 43 x_9 + 47 x_10 <= 1180
	w20: + 19 x_1 + 5 x_2 + 38 x_3 + 46 x_4 + 20 x_5 + 11 x_6 + 14 x_7 + 10 x_8 + 30 x_9 + 15 x_10 <= 1080
	w21: + 1 x_1 + 1 x_2 + 5 x_3 + 18 x_4 + 11 x_5 + 35 x_6 + 45 x_7 + 7 x_8 + 30 x_9 + 4 x_10 <= 810
	w22: + 7 x_1 + 6 x_2 + 43 x_3 + 6 x_4 + 38 x_5 + 28 x_6 + 4 x_7 + 37 x_8 + 8 x_9 + 35 x_10 <= 1100
	w23: + 8 x_1 + 27 x_2 + 25 x_3 + 36 x_4 + 45 x_5 + 48 x_6 + 42 x_7 + 17 x_8 + 41 x_9 + 14 x_10 <= 1570
	w24: + 30 x_1 + 12 x_2 + 33 x_3 + 44 x_4 + 41 x_5 + 26 x_6 + 27 x_7 + 44 x_8 + 42 x_9 + 8 x_10 <= 1590
	w25: + 9 x_1 + 14 x_2 + 8 x_3 + 3 x_4 + 46 x_5 + 5 x_6 + 34 x_7 + 15 x_8 + 12 x_9 + 31 x_10 <= 920
	w26: + 49 x_1 + 6 x_2 + 39 x_3 + 44 x_4 + 48 x_5 + 2 x_6 + 3 x_7 + 16 x_8 + 3 x_9 + 33 x_10 <= 1260
	w27: + 45 x_1 + 42 x_2 + 38 x_3 + 42 x_4 + 10 x_5 + 42 x_6 + 8 x_7 + 27 x_8 + 30 x_9 + 45 x_10 <= 1710
	w28: + 32 x_1 + 7 x_2 + 46 x_3 + 45 x_4 + 26 x_5 + 34 x_6 + 13 x_7 + 40 x_8 + 47 x_9 + 25 x_10 <= 1630
	w29: + 41 x_1 + 23 x_2 + 36 x_3 + 17 x_4 + 34 x_5 + 38 x_6 + 22 x_7 + 2 x_8 + 49 x_9 + 19 x_10 <= 1460
	w30: + 28 x_1 + 40 x_2 + 27 x_3 + 6 x_4 + 14 x_5 + 37 x_6 + 2 x_7 + 11 x_8 + 2 x_9 + 44 x_10 <= 1090
	w31: + 39 x_1 + 14 x_2 + 37 x_3 + 17 x_4 + 21 x_5 + 25 x_6 + 22 x_7 + 27 x_8 + 39 x_9 + 2 x_10 <= 1260
	w32: + 13 x_1 + 2 x_2 + 30 x_3 + 4 x_4 + 9 x_5 + 7 x_6 + 36 x_7 + 32 x_8 + 39 x_9 + 2 x_10 <= 900
	w33: + 41 x_1 + 25 x_2 + 39 x_3 + 3 x_4 + 4 x_5 + 18 x_6 + 26 x_7 + 24 x_8 + 11 x_9 + 12 x_10 <= 1050
	w34: + 43 x_1 + 10 x_2 + 41 x_3 + 34 x_4 + 18 x_5 + 24 x_6 + 30 x_7 + 17 x_8 + 12 x_9 + 22 x_10 <= 1300
	w35: + 23 x_1 + 26 x_2 + 27 x_3 + 11 x_4 + 1 x_5 + 16 x_6 + 19 x_7 + 49 x_8 + 46 x_9 + 46 x_10 <= 1370
	w36: + 6 x_1 + 19 x_2 + 38 x_3 + 27 x_4 + 9 x_5 + 20 x_6 + 24 x_7 + 9 x_8 + 19 x_9 + 18 x_10 <= 980
	w37: + 14 x_1 + 32 x_2 + 39 x_3 + 14 x_4 + 30 x_5 + 2 x_6 + 24 x_7 + 22 x_8 + 38 x_9 + 35 x_10 <= 1300
	w38: + 13 x_1 + 3 x_2 + 13 x_3 + 37 x_4 + 18 x_5 + 42 x_6 + 43 x_7 + 7 x_8 + 39 x_9 + 15 x_10 <= 1190
	w39: + 16 x_1 + 38 x_2 + 1 x_3 + 29 x_4 + 1 x_5 + 20 x_6 + 16 x_7 + 10 x_8 + 1 x_9 + 17 x_10 <= 770
	w40: + 20 x_1 + 26 x_2 + 12 x_3 + 18 x_4 + 49 x_5 + 3 x_6 + 4 x_7 + 43 x_8 + 44 x_9 + 23 x_10 <= 1250
	w41: + 16 x_1 + 20 x_2 + 17 x_3 + 10 x_4 + 36 x_5 + 47 x_6 + 16 x_7 + 30 x_8 + 23 x_9 + 46 x_10 <= 1350
	w42: + 27 x_1 + 17 x_2 + 27 x_3 + 38 x_4 + 11 x_5 + 32 x_6 + 28 x_7 + 47 x_8 + 28 x_9 + 36 x_10 <= 1510
	w43: + 19 x_1 + 27 x_2 + 34 x_3 + 18 x_4 + 11 x_5 + 44 x_6 + 27 x_7 + 16 x_8 + 29 x_9 + 27 x_10 <= 1310
	w44: + 43 x_1 + 3 x_2 + 7 x_3 + 46 x_4 + 25 x_5 + 13 x_6 + 44 x_7 + 17 x_8 + 21 x_9 + 36 x_10 <= 1320
	w45: + 8 x_1 + 37 x_2 + 26 x_3 + 33 x_4 + 8 x_5 + 29 x_6 + 23 x_7 + 20 x_8 + 44 x_9 + 10 x_10 <= 1230
	w46: + 29 x_1 + 25 x_2 + 10 x_3 + 2 x_4 + 49 x_5 + 14 x_6 + 4 x_7 + 13 x_8 + 21 x_9 + 2 x_10 <= 870
	w47: + 21 x_1 + 29 x_2 + 45 x_3 + 10 x_4 + 4 x_5 + 15 x_6 + 15 x_7 + 37 x_8 + 48 x_9 + 38 x_10 <= 1360
	w48: + 48 x_1 + 26 x_2 + 1 x_3 + 24 x_4 + 27 x_5 + 23 x_6 + 9 x_7 + 33 x_8 + 30 x_9 + 34 x_10 <= 1320
	w49: + 41 x_1 + 42 x_2 + 14 x_3 + 29 x_4 + 15 x_5 + 9 x_6 + 18 x_7 + 18 x_8 + 7 x_9 + 33 x_10 <= 1170
	w50: + 40 x_1 + 40 x_2 + 38 x_3 + 44 x_4 + 41 x_5 + 12 x_6 + 1 x_7 + 41 x_8 + 32 x_9 + 44 x_10 <= 1730
	w51: + 24 x_1 + 15 x_2 + 4 x_3 + 30 x_4 + 16 x_5 + 5 x_6 + 41 x_7 + 29 x_8 + 34 x_9 + 8 x_10 <= 1070
	w52: + 39 x_1 + 33 x_2 + 47 x_3 + 38 x_4 + 39 x_5 + 27 x_6 + 25 x_7 + 46 x_8 + 37 x_9 + 11 x_10 <= 1770
	w53: + 12 x_1 + 47 x_2 + 27 x_3 + 27 x_4 + 39 x_5 + 23 x_6 + 47 x_7 + 18 x_8 + 26 x_9 + 32 x_10 <= 1540
	w54: + 25 x_1 + 37 x_2 + 17 x_3 + 38 x_4 + 9 x_5 + 45 x_6 + 27 x_7 + 7 x_8 + 6 x_9 + 22 x_10 <= 1210
	w55: + 4 x_1 + 22 x_2 + 34 x_3 + 41 x_4 + 46 x_5 + 16 x_6 + 48 x_7 + 31 x_8 + 49 x_9 + 27 x_10 <= 1650
	w56: + 5 x_1 + 25 x_2 + 11 x_3 + 28 x_4 + 44 x_5 + 13 x_6 + 5 x_7 + 5 x_8 + 9 x_9 + 26 x_10 <= 880
	w57: + 16 x_1 + 9 x_2 + 25 x_3 + 4 x_4 + 11 x_5 + 41 x_6 + 31 x_7 + 13 x_8 + 42 x_9 + 33 x_10 <= 1170
	w58: + 2 x_1 + 19 x_2 + 20 x_3 + 33 x_4 + 29 x_5 + 28 x_6 + 10 x_7 + 31 x_8 + 32 x_9 + 42 x_10 <= 1270
	w59: + 13 x_1 + 30 x_2 + 2 x_3 + 42 x_4 + 27 x_5 + 8 x_6 + 45 x_7 + 7 x_8 + 17 x_9 + 25 x_10 <= 1120
	w60: + 20 x_1 + 12 x_2 + 16 x_3 + 41 x_4 + 41 x_5 + 13 x_6 + 14 x_7 + 33 x_8 + 15 x_9 + 39 x_10 <= 1260
	w61: + 20 x_1 + 32 x_2 + 4 x_3 + 8 x_4 + 23 x_5 + 32 x_6 + 24 x_7 + 34 x_8 + 34 x_9 + 40 x_10 <= 1300
	w62: + 32 x_1 + 33 x_2 + 3 x_3 + 2 x_4 + 4 x_5 + 16 x_6 + 47 x_7 + 18 x_8 + 12 x_9 + 2 x_10 <= 870
	w63: + 16 x_1 + 3 x_2 + 25 x_3 + 39 x_4 + 4 x_5 + 27 x_6 + 27 x_7 + 1 x_8 + 35 x_9 + 45 x_10 <= 1150
	w64: + 43 x_1 + 49 x_2 + 24 x_3 + 11 x_4 + 5 x_5 + 48 x_6 + 14 x_7 + 44 x_8 + 1 x_9 + 23 x_10 <= 1360
	w65: + 8 x_1 + 29 x_2 + 12 x_3 + 6 x_4 + 27 x_5 + 1 x_6 + 41 x_7 + 3 x_8 + 5 x_9 + 41 x_10 <= 890
	w66: + 26 x_1 + 47 x_2 + 30 x_3 + 17 x_4 + 33 x_5 + 8 x_6 + 48 x_7 + 2 x_8 + 31 x_9 + 45 x_10 <= 1490
	w67: + 24 x_1 + 6 x_2 + 24 x_3 + 16 x_4 + 3 x_5 + 19 x_6 + 41 x_7 + 1 x_8 + 33 x_9 + 29 x_10 <= 1010
	w68: + 26 x_1 + 14 x_2 + 29 x_3 + 19 x_4 + 49 x_5 + 23 x_6 + 13 x_7 + 16 x_8 + 10 x_9 + 8 x_10 <= 1070
	w69: + 19 x_1 + 32 x_2 + 35 x_3 + 4 x_4 + 35 x_5 + 17 x_6 + 41 x_7 + 46 x_8 + 24 x_9 + 1 x_10 <= 1320
	w70: + 17 x_1 + 29 x_2 + 42 x_3 + 22 x_4 + 42 x_5 + 18 x_6 + 12 x_7 + 44 x_8 + 26 x_9 + 40 x_10 <= 1510
	w71: + 11 x_1 + 14 x_2 + 28 x_3 + 3 x_4 + 29 x_5 + 31 x_6 + 18 x_7 + 48 x_8 + 46 x_9 + 38 x_10 <= 1380
	w72: + 4 x_1 + 22 x_2 + 29 x_3 + 8 x_4 + 15 x_5 + 15 x_6 + 43 x_7 + 25 x_8 + 33 x_9 + 17 x_10 <= 1090
	w73: + 25 x_1 + 31 x_2 + 5 x_3 + 41 x_4 + 20 x_5 + 22 x_6 + 49 x_7 + 38 x_8 + 39 x_9 + 40 x_10 <= 1610
	w74: + 38 x_1 + 43 x_2 + 27 x_3 + 12 x_4 + 23 x_5 + 13 x_6 + 30 x_7 + 6 x_8 + 48 x_9 + 29 x_10 <= 1390
	w75: + 1 x_1 + 30 x_2 + 7 x_3 + 43 x_4 + 34 x_5 + 26 x_6 + 28 x_7 + 46 x_8 + 25 x_9 + 6 x_10 <= 1270
	w76: + 27 x_1 + 7 x_2 + 25 x_3 + 3 x_4 + 35 x_5 + 9 x_6 + 12 x_7 + 10 x_8 + 35 x_9 + 11 x_10 <= 900
	w77: + 49 x_1 + 33 x_2 + 35 x_3 + 7 x_4 + 49 x_5 + 27 x_6 + 20 x_7 + 17 x_8 + 27 x_9 + 30 x_10 <= 1520
	w78: + 21 x_1 + 11 x_2 + 18 x_3 + 7 x_4 + 32 x_5 + 19 x_6 + 19 x_7 + 10 x_8 + 18 x_9 + 8 x_10 <= 840
	w79: + 18 x_1 + 44 x_2 + 14 x_3 + 35 x_4 + 17 x_5 + 1 x_6 + 29 x_7 + 31 x_8 + 41 x_9 + 18 x_10 <= 1280
	w80: + 20 x_1 + 26 x_2 + 28 x_3 + 20 x_4 + 40 x_5 + 20 x_6 + 20 x_7 + 9 x_8 + 27 x_9 + 31 x_10 <= 1250
	w81: + 35 x_1 + 36 x_2 + 19 x_3 + 24 x_4 + 39 x_5 + 47 x_6 + 29 x_7 + 21 x_8 + 6 x_9 + 37 x_10 <= 1520
	w82: + 14 x_1 + 5 x_2 + 11 x_3 + 30 x_4 + 37 x_5 + 23 x_6 + 28 x_7 + 39 x_8 + 11 x_9 + 4 x_10 <= 1050
	w83: + 45 x_1 + 2 x_2 + 3 x_3 + 40 x_4 + 5 x_5 + 42 x_6 + 3 x_7 + 20 x_8 + 23 x_9 + 8 x_10 <= 990
	w84: + 33 x_1 + 20 x_2 + 41 x_3 + 45 x_4 + 19 x_5 + 3 x_6 + 18 x_7 + 30 x_8 + 1 x_9 + 9 x_10 <= 1130
	w85: + 24 x_1 + 11 x_2 + 26 x_3 + 41 x_4 + 16 x_5 + 33 x_6 + 15 x_7 + 35 x_8 + 17 x_9 + 9 x_10 <= 1180
	w86: + 25 x_1 + 48 x_2 + 42 x_3 + 39 x_4 + 13 x_5 + 11 x_6 + 9 x_7 + 38 x_8 + 41 x_9 + 19 x_10 <= 1480
	w87: + 47 x_1 + 21 x_2 + 27 x_3 + 31 x_4 + 41 x_5 + 8 x_6 + 28 x_7 + 48 x_8 + 49 x_9 + 29 x_10 <= 1710
	w88: + 42 x_1 + 10 x_2 + 9 x_3 + 24 x_4 + 39 x_5 + 16 x_6 + 41 x_7 + 32 x_8 + 17 x_9 + 45 x_10 <= 1430
	w89: + 13 x_1 + 40 x_2 + 33 x_3 + 14 x_4 + 3 x_5 + 2 x_6 + 2 x_7 + 48 x_8 + 40 x_9 + 7 x_10 <= 1050
	w90: + 33 x_1 + 9 x_2 + 48 x_3 + 29 x_4 + 41 x_5 + 13 x_6 + 1 x_7 + 18 x_8 + 4 x_9 + 36 x_10 <= 1200
	w91: + 31 x_1 + 29 x_2 + 38 x_3 + 29 x_4 + 21 x_5 + 22 x_6 + 19 x_7 + 6 x_8 + 7 x_9 + 10 x_10 <= 1100
	w92: + 6 x_1 + 15 x_2 + 39 x_3 + 49 x_4 + 49 x_5 + 28 x_6 + 42 x_7 + 16 x_8 + 1 x_9 + 35 x_10 <= 1450
	w93: + 31 x_1 + 48 x_2 + 35 x_3 + 28 x_4 + 40 x_5 + 26 x_6 + 16 x_7 + 38 x_8 + 41 x_9 + 44 x_10 <= 1800
	w94: + 47 x_1 + 22 x_2 + 18 x_3 + 37 x_4 + 34 x_5 + 1 x_6 + 28 x_7 + 17 x_8 + 13 x_9 + 15 x_10 <= 1200
	w95: + 48 x_1 + 11 x_2 + 10 x_3 + 10 x_4 + 38 x_5 + 33 x_6 + 1 x_7 + 27 x_8 + 41 x_9 + 22 x_10 <= 1250
	w96: + 27 x_1 + 1 x_2 + 35 x_3 + 23 x_4 + 6 x_5 + 22 x_6 + 16 x_7 + 44 x_8 + 21 x_9 + 16 x_10 <= 1090
	w97: + 12 x_1 + 38 x_2 + 28 x_3 + 21 x_4 + 34 x_5 + 1 x_6 + 38 x_7 + 29 x_8 + 13 x_9 + 14 x_10 <= 1180
	w98: + 34 x_1 + 43 x_2 + 38 x_3 + 47 x_4 + 3 x_5 + 13 x_6 + 33 x_7 + 44 x_8 + 21 x_9 + 41 x_10 <= 1640
	w99: + 33 x_1 + 26 x_2 + 2 x_3 + 35 x_4 + 32 x_5 + 47 x_6 + 7 x_7 + 28 x_8 + 49 x_9 + 24 x_10 <= 1470
	w100: + 26 x_1 + 49 x_2 + 44 x_3 + 32 x_4 + 43 x_5 + 4 x_6 + 20 x_7 + 7 x_8 + 46 x_9 + 32 x_10 <= 1570
	w101: + 31 x_1 + 26 x_2 + 8 x_3 + 1 x_4 + 49 x_5 + 32 x_6 + 1 x_7 + 43 x_8 + 38 x_9 + 40 x_10 <= 1390
	w102: + 17 x_1 + 23 x_2 + 45 x_3 + 13 x_4 + 42 x_5 + 1 x_6 + 14 x_7 + 20 x_8 + 35 x_9 + 40 x_10 <= 1300
	w103: + 48 x_1 + 36 x_2 + 4 x_3 + 35 x_4 + 34 x_5 + 27 x_6 + 35 x_7 + 45 x_8 + 20 x_9 + 36 x_10 <= 1660
	w104: + 15 x_1 + 45 x_2 + 8 x_3 + 30 x_4 + 13 x_5 + 20 x_6 + 14 x_7 + 8 x_8 + 41 x_9 + 15 x_10 <= 1080
	w105: + 23 x_1 + 43 x_2 + 11 x_3 + 49 x_4 + 48 x_5 + 29 x_6 + 27 x_7 + 29 x_8 + 16 x_9 + 32 x_10 <= 1590
	w106: + 37 x_1 + 9 x_2 + 48 x_3 + 15 x_4 + 40 x_5 + 41 x_6 + 41 x_7 + 41 x_8 + 35 x_9 + 48 x_10 <= 1840
	w107: + 31 x_1 + 45 x_2 + 38 x_3 + 22 x_4 + 38 x_5 + 43 x_6 + 33 x_7 + 39 x_8 + 21 x_9 + 27 x_10 <= 1750
	w108: + 45 x_1 + 21 x_2 + 7 x_3 + 34 x_4 + 9 x_5 + 34 x_6 + 30 x_7 + 44 x_8 + 3 x_9 + 9 x_10 <= 1220
	w109: + 26 x_1 + 45 x_2 + 1 x_3 + 37 x_4 + 15 x_5 + 22 x_6 + 41 x_7 + 47 x_8 + 30 x_9 + 49 x_10 <= 1620
	w110: + 27 x_1 + 32 x_2 + 45 x_3 + 16 x_4 + 31 x_5 + 37 x_6 + 3 x_7 + 10 x_8 + 1 x_9 + 25 x_10 <= 1180
	w111: + 3 x_1 + 45 x_2 + 21 x_3 + 28 x_4 + 14 x_5 + 3 x_6 + 35 x_7 + 19 x_8 + 3 x_9 + 11 x_10 <= 940
	w112: + 44 x_1 + 24 x_2 + 46 x_3 + 5 x_4 + 31 x_5 + 6 x_6 + 2 x_7 + 13 x_8 + 44 x_9 + 4 x_10 <= 1130
	w113: + 37 x_1 + 30 x_2 + 30 x_3 + 13 x_4 + 29 x_5 + 32 x_6 + 39 x_7 + 39 x_8 + 45 x_9 + 38 x_10 <= 1720
	w114: + 11 x_1 + 16 x_2 + 7 x_3 + 2 x_4 + 47 x_5 + 23 x_6 + 22 x_7 + 6 x_8 + 7 x_9 + 36 x_10 <= 920
	w115: + 37 x_1 + 35 x_2 + 42 x_3 + 45 x_4 + 23 x_5 + 44 x_6 + 21 x_7 + 35 x_8 + 29 x_9 + 20 x_10 <= 1720
	w116: + 12 x_1 + 30 x_2 + 29 x_3 + 41 x_4 + 24 x_5 + 2 x_6 + 45 x_7 + 20 x_8 + 4 x_9 + 24 x_10 <= 1200
	w117: + 13 x_1 + 23 x_2 + 3 x_3 + 16 x_4 + 1 x_5 + 16 x_6 + 11 x_7 + 12 x_8 + 6 x_9 + 16 x_10 <= 600
	w118: + 42 x_1 + 33 x_2 + 44 x_3 + 35 x_4 + 38 x_5 + 25 x_6 + 47 x_7 + 15 x_8 + 45 x_9 + 11 x_10 <= 1740
	w119: + 43 x_1 + 26 x_2 + 30 x_3 + 7 x_4 + 47 x_5 + 29 x_6 + 9 x_7 + 6 x_8 + 5 x_9 + 5 x_10 <= 1070
	w120: + 13 x_1 + 16 x_2 + 16 x_3 + 26 x_4 + 42 x_5 + 35 x_6 + 27 x_7 + 4 x_8 + 11 x_9 + 36 x_10 <= 1170
	w121: + 37 x_1 + 22 x_2 + 46 x_3 + 13 x_4 + 22 x_5 + 23 x_6 + 29 x_7 + 45 x_8 + 43 x_9 + 39 x_10 <= 1650
	w122: + 3 x_1 + 11 x_2 + 7 x_3 + 36 x_4 + 7 x_5 + 25 x_6 + 22 x_7 + 45 x_8 + 11 x_9 + 45 x_10 <= 1100
	w123: + 32 x_1 + 43 x_2 + 6 x_3 + 24 x_4 + 30 x_5 + 25 x_6 + 30 x_7 + 37 x_8 + 6 x_9 + 22 x_10 <= 1320
	w124: + 11 x_1 + 8 x_2 + 18 x_3 + 39 x_4 + 35 x_5 + 20 x_6 + 3 x_7 + 4 x_8 + 3 x_9 + 22 x_10 <= 840
	w125: + 39 x_1 + 15 x_2 + 46 x_3 + 40 x_4 + 10 x_5 + 16 x_6 + 26 x_7 + 20 x_8 + 35 x_9 + 8 x_10 <= 1320
	w126: + 39 x_1 + 20 x_2 + 21 x_3 + 39 x_4 + 18 x_5 + 2 x_6 + 41 x_7 + 40 x_8 + 15 x_9 + 42 x_10 <= 1440
	w127: + 9 x_1 + 21 x_2 + 1 x_3 + 33 x_4 + 35 x_5 + 7 x_6 + 3 x_7 + 8 x_8 + 31 x_9 + 20 x_10 <= 870
	w128: + 14 x_1 + 47 x_2 + 32 x_3 + 27 x_4 + 1 x_5 + 39 x_6 + 40 x_7 + 48 x_8 + 16 x_9 + 14 x_10 <= 1440
	w129: + 12 x_1 + 49 x_2 + 3 x_3 + 19 x_4 + 6 x_5 + 44 x_6 + 20 x_7 + 8 x_8 + 5 x_9 + 41 x_10 <= 1070
	w130: + 10 x_1 + 27 x_2 + 4 x_3 + 34 x_4 + 35 x_5 + 40 x_6 + 24 x_7 + 7 x_8 + 47 x_9 + 21 x_10 <= 1290
	w131: + 9 x_1 + 2 x_2 + 37 x_3 + 29 x_4 + 1 x_5 + 33 x_6 + 38 x_7 + 31 x_8 + 1 x_9 + 35 x_10 <= 1120
	w132: + 49 x_1 + 16 x_2 + 27 x_3 + 43 x_4 + 25 x_5 + 25 x_6 + 22 x_7 + 42 x_8 + 3 x_9 + 37 x_10 <= 1500
	w133: + 25 x_1 + 13 x_2 + 7 x_3 + 21 x_4 + 16 x_5 + 14 x_6 + 14 x_7 + 1 x_8 + 38 x_9 + 6 x_10 <= 800
	w134: + 35 x_1 + 39 x_2 + 34 x_3 + 35 x_4 + 38 x_5 + 28 x_6 + 1 x_7 + 27 x_8 + 2 x_9 + 10 x_10 <= 1290
	w135: + 26 x_1 + 33 x_2 + 40 x_3 + 12 x_4 + 17 x_5 + 2 x_6 + 44 x_7 + 6 x_8 + 15 x_9 + 45 x_10 <= 1240
	w136: + 3 x_1 + 32 x_2 + 21 x_3 + 36 x_4 + 29 x_5 + 48 x_6 + 14 x_7 + 46 x_8 + 42 x_9 + 25 x_10 <= 1530
	w137: + 31 x_1 + 24 x_2 + 10 x_3 + 12 x_4 + 28 x_5 + 32 x_6 + 24 x_7 + 42 x_8 + 4 x_9 + 21 x_10 <= 1180
	w138: + 44 x_1 + 14 x_2 + 22 x_3 + 31 x_4 + 44 x_5 + 29 x_6 + 7 x_7 + 6 x_8 + 12 x_9 + 6 x_10 <= 1110
	w139: + 45 x_1 + 2 x_2 + 36 x_3 + 24 x_4 + 45 x_5 + 29 x_6 + 20 x_7 + 42 x_8 + 31 x_9 + 5 x_10 <= 1450
	w140: + 23 x_1 + 23 x_2 + 40 x_3 + 46 x_4 + 41 x_5 + 6 x_6 + 17 x_7 + 2 x_8 + 24 x_9 + 7 x_10 <= 1190
	w141: + 44 x_1 + 3 x_2 + 17 x_3 + 35 x_4 + 34 x_5 + 13 x_6 + 40 x_7 + 17 x_8 + 29 x_9 + 16 x_10 <= 1280
	w142: + 8 x_1 + 42 x_2 + 7 x_3 + 8 x_4 + 27 x_5 + 35 x_6 + 7 x_7 + 21 x_8 + 3 x_9 + 11 x_10 <= 870
	w143: + 41 x_1 + 25 x_2 + 22 x_3 + 4 x_4 + 2 x_5 + 12 x_6 + 15 x_7 + 16 x_8 + 8 x_9 + 14 x_10 <= 820
	w144: + 6 x_1 + 40 x_2 + 27 x_3 + 21 x_4 + 39 x_5 + 12 x_6 + 40 x_7 + 3 x_8 + 35 x_9 + 29 x_10 <= 1310
	w145: + 45 x_1 + 27 x_2 + 20 x_3 + 22 x_4 + 41 x_5 + 38 x_6 + 29 x_7 + 25 x_8 + 20 x_9 + 37 x_10 <= 1580
	w146: + 32 x_1 + 45 x_2 + 12 x_3 + 30 x_4 + 30 x_5 + 1 x_6 + 39 x_7 + 18 x_8 + 46 x_9 + 30 x_10 <= 1470
	w147: + 13 x_1 + 40 x_2 + 23 x_3 + 25 x_4 + 1 x_5 + 48 x_6 + 19 x_7 + 21 x_8 + 10 x_9 + 46 x_10 <= 1270
	w148: + 23 x_1 + 29 x_2 + 23 x_3 + 13 x_4 + 34 x_5 + 27 x_6 + 11 x_7 + 30 x_8 + 36 x_9 + 40 x_10 <= 1380
	w149: + 15 x_1 + 18 x_2 + 48 x_3 + 49 x_4 + 10 x_5 + 31 x_6 + 12 x_7 + 37 x_8 + 4 x_9 + 37 x_10 <= 1350
	w150: + 45 x_1 + 39 x_2 + 31 x_3 + 13 x_4 + 48 x_5 + 43 x_6 + 7 x_7 + 7 x_8 + 15 x_9 + 17 x_10 <= 1370
	w151: + 19 x_1 + 10 x_2 + 7 x_3 + 2 x_4 + 44 x_5 + 27 x_6 + 19 x_7 + 30 x_8 + 47 x_9 + 37 x_10 <= 1250
	w152: + 33 x_1 + 17 x_2 + 23 x_3 + 47 x_4 + 42 x_5 + 8 x_6 + 28 x_7 + 2 x_8 + 2 x_9 + 38 x_10 <= 1240
	w153: + 28 x_1 + 39 x_2 + 46 x_3 + 46 x_4 + 3 x_5 + 1 x_6 + 47 x_7 + 14 x_8 + 7 x_9 + 40 x_10 <= 1400
	w154: + 32 x_1 + 22 x_2 + 23 x_3 + 30 x_4 + 19 x_5 + 13 x_6 + 42 x_7 + 42 x_8 + 3 x_9 + 29 x_10 <= 1320
	w155: + 23 x_1 + 34 x_2 + 7 x_3 + 6 x_4 + 1 x_5 + 35 x_6 + 7 x_7 + 7 x_8 + 47 x_9 + 18 x_10 <= 960
	w156: + 14 x_1 + 9 x_2 + 40 x_3 + 49 x_4 + 30 x_5 + 13 x_6 + 21 x_7 + 43 x_8 + 4 x_9 + 40 x_10 <= 1360
	w157: + 17 x_1 + 44 x_2 + 13 x_3 + 41 x_4 + 5 x_5 + 19 x_6 + 44 x_7 + 36 x_8 + 17 x_9 + 2 x_10 <= 1230
	w158: + 46 x_1 + 36 x_2 + 40 x_3 + 25 x_4 + 38 x_5 + 29 x_6 + 1 x_7 + 24 x_8 + 18 x_9 + 5 x_10 <= 1360
	w159: + 45 x_1 + 42 x_2 + 26 x_3 + 7 x_4 + 22 x_5 + 2 x_6 + 30 x_7 + 47 x_8 + 23 x_9 + 27 x_10 <= 1400
	w160: + 6 x_1 + 20 x_2 + 18 x_3 + 44 x_4 + 4 x_5 + 10 x_6 + 25 x_7 + 11 x_8 + 41 x_9 + 47 x_10 <= 1170
	w161: + 11 x_1 + 8 x_2 + 40 x_3 + 40 x_4 + 36 x_5 + 40 x_6 + 49 x_7 + 29 x_8 + 12 x_9 + 43 x_10 <= 1600
	w162: + 39 x_1 + 45 x_2 + 33 x_3 + 36 x_4 + 9 x_5 + 3 x_6 + 30 x_7 + 8 x_8 + 32 x_9 + 45 x_10 <= 1450
	w163: + 26 x_1 + 34 x_2 + 27 x_3 + 11 x_4 + 11 x_5 + 16 x_6 + 37 x_7 + 11 x_8 + 4 x_9 + 23 x_10 <= 1040
	w164: + 26 x_1 + 24 x_2 + 47 x_3 + 27 x_4 + 44 x_5 + 12 x_6 + 44 x_7 + 16 x_8 + 15 x_9 + 8 x_10 <= 1360
	w165: + 45 x_1 + 22 x_2 + 43 x_3 + 31 x_4 + 37 x_5 + 29 x_6 + 42 x_7 + 25 x_8 + 11 x_9 + 40 x_10 <= 1690
	w166: + 45 x_1 + 40 x_2 + 22 x_3 + 32 x_4 + 36 x_5 + 45 x_6 + 19 x_7 + 29 x_8 + 5 x_9 + 48 x_10 <= 1660
	w167: + 19 x_1 + 35 x_2 + 15 x_3 + 38 x_4 + 47 x_5 + 16 x_6 + 21 x_7 + 17 x_8 + 24 x_9 + 8 x_10 <= 1240
	w168: + 22 x_1 + 26 x_2 + 28 x_3 + 45 x_4 + 29 x_5 + 10 x_6 + 32 x_7 + 8 x_8 + 15 x_9 + 25 x_10 <= 1240
	w169: + 19 x_1 + 31 x_2 + 39 x_3 + 10 x_4 + 46 x_5 + 46 x_6 + 49 x_7 + 43 x_8 + 18 x_9 + 46 x_10 <= 1800
	w170: + 2 x_1 + 8 x_2 + 49 x_3 + 38 x_4 + 5 x_5 + 3 x_6 + 13 x_7 + 37 x_8 + 48 x_9 + 12 x_10 <= 1110
	w171: + 7 x_1 + 12 x_2 + 6 x_3 + 5 x_4 + 18 x_5 + 27 x_6 + 24 x_7 + 28 x_8 + 14 x_9 + 35 x_10 <= 910
	w172: + 3 x_1 + 29 x_2 + 38 x_3 + 38 x_4 + 4 x_5 + 15 x_6 + 7 x_7 + 23 x_8 + 25 x_9 + 22 x_10 <= 1060
	w173: + 6 x_1 + 12 x_2 + 27 x_3 + 25 x_4 + 42 x_5 + 9 x_6 + 34 x_7 + 42 x_8 + 42 x_9 + 5 x_10 <= 1260
	w174: + 4 x_1 + 43 x_2 + 3 x_3 + 40 x_4 + 35 x_5 + 8 x_6 + 6 x_7 + 4 x_8 + 29 x_9 + 49 x_10 <= 1140
	w175: + 28 x_1 + 15 x_2 + 47 x_3 + 11 x_4 + 17 x_5 + 41 x_6 + 2 x_7 + 20 x_8 + 18 x_9 + 10 x_10 <= 1080
	w176: + 35 x_1 + 10 x_2 + 9 x_3 + 30 x_4 + 44 x_5 + 46 x_6 + 23 x_7 + 8 x_8 + 3 x_9 + 12 x_10 <= 1140
	w177: + 29 x_1 + 2 x_2 + 33 x_3 + 18 x_4 + 18 x_5 + 26 x_6 + 36 x_7 + 41 x_8 + 12 x_9 + 3 x_10 <= 1130
	w178: + 27 x_1 + 44 x_2 + 23 x_3 + 2 x_4 + 14 x_5 + 35 x_6 + 23 x_7 + 22 x_8 + 47 x_9 + 49 x_10 <= 1480
	w179: + 20 x_1 + 34 x_2 + 31 x_3 + 21 x_4 + 3 x_5 + 7 x_6 + 35 x_7 + 12 x_8 + 9 x_9 + 39 x_10 <= 1090
	w180: + 10 x_1 + 17 x_2 + 38 x_3 + 16 x_4 + 6 x_5 + 38 x_6 + 39 x_7 + 15 x_8 + 46 x_9 + 12 x_10 <= 1230
	w181: + 33 x_1 + 47 x_2 + 3 x_3 + 25 x_4 + 41 x_5 + 31 x_6 + 41 x_7 + 19 x_8 + 3 x_9 + 19 x_10 <= 1360
	w182: + 6 x_1 + 5 x_2 + 14 x_3 + 9 x_4 + 32 x_5 + 23 x_6 + 33 x_7 + 21 x_8 + 14 x_9 + 3 x_10 <= 830
	w183: + 49 x_1 + 3 x_2 + 35 x_3 + 12 x_4 + 15 x_5 + 46 x_6 + 30 x_7 + 12 x_8 + 7 x_9 + 34 x_10 <= 1260
	w184: + 45 x_1 + 37 x_2 + 27 x_3 + 48 x_4 + 2 x_5 + 35 x_6 + 36 x_7 + 21 x_8 + 4 x_9 + 45 x_10 <= 1560
	w185: + 4 x_1 + 17 x_2 + 19 x_3 + 10 x_4 + 14 x_5 + 40 x_6 + 46 x_7 + 45 x_8 + 36 x_9 + 44 x_10 <= 1430
	w186: + 10 x_1 + 6 x_2 + 46 x_3 + 23 x_4 + 1 x_5 + 43 x_6 + 30 x_7 + 24 x_8 + 44 x_9 + 31 x_10 <= 1340
	w187: + 17 x_1 + 42 x_2 + 45 x_3 + 34 x_4 + 29 x_5 + 46 x_6 + 23 x_7 + 15 x_8 + 13 x_9 + 17 x_10 <= 1460
	w188: + 29 x_1 + 39 x_2 + 36 x_3 + 4 x_4 + 22 x_5 + 27 x_6 + 33 x_7 + 44 x_8 + 2 x_9 + 12 x_10 <= 1280
	w189: + 18 x_1 + 26 x_2 + 41 x_3 + 11 x_4 + 28 x_5 + 46 x_6 + 13 x_7 + 32 x_8 + 37 x_9 + 48 x_10 <= 1560
	w190: + 39 x_1 + 14 x_2 + 48 x_3 + 27 x_4 + 1 x_5 + 3 x_6 + 27 x_7 + 4 x_8 + 35 x_9 + 16 x_10 <= 1110
	w191: + 43 x_1 + 5 x_2 + 11 x_3 + 47 x_4 + 32 x_5 + 8 x_6 + 5 x_7 + 1 x_8 + 39 x_9 + 42 x_10 <= 1210
	w192: + 22 x_1 + 35 x_2 + 37 x_3 + 28 x_4 + 29 x_5 + 26 x_6 + 15 x_7 + 29 x_8 + 31 x_9 + 36 x_10 <= 1490
	w193: + 7 x_1 + 6 x_2 + 12 x_3 + 35 x_4 + 29 x_5 + 43 x_6 + 26 x_7 + 43 x_8 + 5 x_9 + 25 x_10 <= 1200
	w194: + 41 x_1 + 39 x_2 + 45 x_3 + 3 x_4 + 43 x_5 + 45 x_6 + 43 x_7 + 45 x_8 + 32 x_9 + 19 x_10 <= 1840
	w195: + 36 x_1 + 39 x_2 + 47 x_3 + 43 x_4 + 4 x_5 + 48 x_6 + 47 x_7 + 3 x_8 + 9 x_9 + 13 x_10 <= 1500
	w196: + 8 x_1 + 46 x_2 + 6 x_3 + 37 x_4 + 13 x_5 + 46 x_6 + 41 x_7 + 36 x_8 + 42 x_9 + 25 x_10 <= 1560
	w197: + 12 x_1 + 41 x_2 + 21 x_3 + 46 x_4 + 5 x_5 + 29 x_6 + 45 x_7 + 12 x_8 + 8 x_9 + 1 x_10 <= 1140
	w198: + 45 x_1 + 43 x_2 + 16 x_3 + 14 x_4 + 31 x_5 + 3 x_6 + 47 x_7 + 38 x_8 + 43 x_9 + 39 x_10 <= 1650
	w199: + 7 x_1 + 37 x_2 + 20 x_3 + 2 x_4 + 12 x_5 + 2 x_6 + 32 x_7 + 2 x_8 + 11 x_9 + 28 x_10 <= 790
	w200: + 22 x_1 + 23 x_2 + 9 x_3 + 21 x_4 + 7 x_5 + 28 x_6 + 1 x_7 + 29 x_8 + 49 x_9 + 12 x_10 <= 1040
	profits: + 15 x_1 + 1 x_2 + 23 x_3 + 25 x_4 + 10 x_5 + 14 x_6 + 49 x_7 + 39 x_8 + 12 x_9 + 14 x_10 >= 960
Bounds
  0 <= x_1 <= 10
  0 <= x_2 <= 10
  0 <= x_3 <= 10
  0 <= x_4 <= 10
  0 <= x_5 <= 10
  0 <= x_6 <= 10
  0 <= x_7 <= 10
  0 <= x_8 <= 10
  0 <= x_9 <= 10
  0 <= x_10 <= 10
End
