Subject To
	w1: + 26 x_1 + 27 x_2 + 46 x_3 + 45 x_4 + 8 x_5 + 31 x_6 + 37 x_7 + 35 x_8 + 45 x_9 + 16 x_10 <= 1740
	w2: + 29 x_1 + 44 x_2 + 10 x_3 + 13 x_4 + 41 x_5 + 38 x_6 + 37 x_7 + 30 x_8 + 1 x_9 + 22 x_10 <= 1460
	w3: + 45 x_1 + 40 x_2 + 25 x_3 + 35 x_4 + 41 x_5 + 8 x_6 + 42 x_7 + 29 x_8 + 10 x_9 + 36 x_10 <= 1710
	w4: + 7 x_1 + 44 x_2 + 46 x_3 + 48 x_4 + 27 x_5 + 45 x_6 + 21 x_7 + 29 x_8 + 34 x_9 + 46 x_10 <= 1910
	w5: + 43 x_1 + 43 x_2 + 24 x_3 + 13 x_4 + 44 x_5 + 33 x_6 + 22 x_7 + 38 x_8 + 16 x_9 + 37 x_10 <= 1720
	w6: + 40 x_1 + 49 x_2 + 10 x_3 + 16 x_4 + 33 x_5 + 42 x_6 + 43 x_7 + 10 x_8 + 8 x_9 + 48 x_10 <= 1650
	w7: + 26 x_1 + 49 x_2 + 17 x_3 + 21 x_4 + 21 x_5 + 49 x_6 + 27 x_7 + 25 x_8 + 37 x_9 + 30 x_10 <= 1660
	w8: + 47 x_1 + 12 x_2 + 5 x_3 + 29 x_4 + 8 x_5 + 35 x_6 + 13 x_7 + 43 x_8 + 45 x_9 + 35 x_10 <= 1500
	w9: + 48 x_1 + 19 x_2 + 34 x_3 + 43 x_4 + 5 x_5 + 45 x_6 + 16 x_7 + 32 x_8 + 34 x_9 + 3 x_10 <= 1540
	w10: + 27 x_1 + 7 x_2 + 47 x_3 + 17 x_4 + 29 x_5 + 10 x_6 + 4 x_7 + 26 x_8 + 25 x_9 + 48 x_10 <= 1320
	w11: + 36 x_1 + 24 x_2 + 34 x_3 + 32 x_4 + 43 x_5 + 21 x_6 + 17 x_7 + 23 x_8 + 32 x_9 + 11 x_10 <= 1500
	w12: + 6 x_1 + 23 x_2 + 12 x_3 + 36 x_4 + 37 x_5 + 14 x_6 + 24 x_7 + 42 x_8 + 5 x_9 + 29 x_10 <= 1250
	w13: + 26 x_1 + 9 x_2 + 16 x_3 + 29 x_4 + 28 x_5 + 38 x_6 + 45 x_7 + 38 x_8 + 43 x_9 + 12 x_10 <= 1560
	w14: + 12 x_1 + 44 x_2 + 44 x_3 + 43 x_4 + 48 x_5 + 6 x_6 + 47 x_7 + 15 x_8 + 11 x_9 + 18 x_10 <= 1580
	w15: + 31 x_1 + 30 x_2 + 17 x_3 + 48 x_4 + 48 x_5 + 19 x_6 + 39 x_7 + 11 x_8 + 31 x_9 + 3 x_10 <= 1520
	w16: + 27 x_1 + 7 x_2 + 43 x_3 + 19 x_4 + 35 x_5 + 36 x_6 + 12 x_7 + 9 x_8 + 47 x_9 + 35 x_10 <= 1490
	w17: + 4 x_1 + 4 x_2 + 4 x_3 + 15 x_4 + 36 x_5 + 23 x_6 + 44 x_7 + 12 x_8 + 23 x_9 + 15 x_10 <= 990
	w18: + 36 x_1 + 29 x_2 + 5 x_3 + 33 x_4 + 37 x_5 + 23 x_6 + 43 x_7 + 9 x_8 + 1 x_9 + 31 x_10 <= 1360
	w19: + 19 x_1 + 46 x_2 + 28 x_3 + 8 x_4 + 14 x_5 + 15 x_6 + 15 x_7 + 36 x_8 + 32 x_9 + 3 x_10 <= 1190
	w20: + 15 x_1 + 23 x_2 + 45 x_3 + 31 x_4 + 43 x_5 + 40 x_6 + 20 x_7 + 24 x_8 + 10 x_9 + 13 x_10 <= 1450
	w21: + 15 x_1 + 23 x_2 + 48 x_3 + 36 x_4 + 3 x_5 + 15 x_6 + 34 x_7 + 34 x_8 + 32 x_9 + 41 x_10 <= 1550
	w22: + 38 x_1 + 37 x_2 + 35 x_3 + 11 x_4 + 10 x_5 + 1 x_6 + 27 x_7 + 47 x_8 + 35 x_9 + 20 x_10 <= 1440
	w23: + 3 x_1 + 48 x_2 + 41 x_3 + 34 x_4 + 5 x_5 + 42 x_6 + 7 x_7 + 35 x_8 + 45 x_9 + 23 x_10 <= 1560
	w24: + 42 x_1 + 27 x_2 + 39 x_3 + 48 x_4 + 37 x_5 + 26 x_6 + 47 x_7 + 27 x_8 + 7 x_9 + 46 x_10 <= 1900
	w25: + 37 x_1 + 33 x_2 + 2 x_3 + 34 x_4 + 43 x_5 + 32 x_6 + 30 x_7 + 29 x_8 + 28 x_9 + 25 x_10 <= 1610
	w26: + 35 x_1 + 48 x_2 + 39 x_3 + 22 x_4 + 3 x_5 + 45 x_6 + 2 x_7 + 7 x_8 + 24 x_9 + 45 x_10 <= 1490
	w27: + 4 x_1 + 19 x_2 + 2 x_3 + 38 x_4 + 20 x_5 + 43 x_6 + 40 x_7 + 28 x_8 + 9 x_9 + 19 x_10 <= 1220
	w28: + 41 x_1 + 11 x_2 + 15 x_3 + 13 x_4 + 12 x_5 + 12 x_6 + 39 x_7 + 20 x_8 + 1 x_9 + 7 x_10 <= 940
	w29: + 38 x_1 + 48 x_2 + 37 x_3 + 41 x_4 + 13 x_5 + 18 x_6 + 13 x_7 + 11 x_8 + 4 x_9 + 19 x_10 <= 1330
	w30: + 14 x_1 + 33 x_2 + 27 x_3 + 17 x_4 + 10 x_5 + 24 x_6 + 37 x_7 + 38 x_8 + 21 x_9 + 46 x_10 <= 1470
	w31: + 12 x_1 + 2 x_2 + 20 x_3 + 49 x_4 + 38 x_5 + 7 x_6 + 2 x_7 + 9 x_8 + 28 x_9 + 39 x_10 <= 1130
	w32: + 4 x_1 + 41 x_2 + 34 x_3 + 45 x_4 + 1 x_5 + 6 x_6 + 47 x_7 + 36 x_8 + 21 x_9 + 30 x_10 <= 1460
	w33: + 19 x_1 + 47 x_2 + 24 x_3 + 4 x_4 + 43 x_5 + 9 x_6 + 49 x_7 + 11 x_8 + 17 x_9 + 7 x_10 <= 1260
	w34: + 47 x_1 + 14 x_2 + 49 x_3 + 20 x_4 + 11 x_5 + 25 x_6 + 48 x_7 + 38 x_8 + 44 x_9 + 40 x_10 <= 1850
	w35: + 24 x_1 + 4 x_2 + 3 x_3 + 1 x_4 + 23 x_5 + 41 x_6 + 29 x_7 + 45 x_8 + 3 x_9 + 42 x_10 <= 1180
	w36: + 15 x_1 + 42 x_2 + 2 x_3 + 33 x_4 + 47 x_5 + 3 x_6 + 46 x_7 + 19 x_8 + 6 x_9 + 5 x_10 <= 1200
	w37: + 8 x_1 + 31 x_2 + 2 x_3 + 15 x_4 + 34 x_5 + 25 x_6 + 38 x_7 + 18 x_8 + 20 x_9 + 7 x_10 <= 1090
	w38: + 48 x_1 + 10 x_2 + 16 x_3 + 15 x_4 + 1 x_5 + 24 x_6 + 34 x_7 + 38 x_8 + 45 x_9 + 31 x_10 <= 1440
	w39: + 16 x_1 + 6 x_2 + 31 x_3 + 15 x_4 + 7 x_5 + 36 x_6 + 25 x_7 + 33 x_8 + 2 x_9 + 27 x_10 <= 1090
	w40: + 10 x_1 + 1 x_2 + 38 x_3 + 27 x_4 + 40 x_5 + 44 x_6 + 10 x_7 + 7 x_8 + 31 x_9 + 37 x_10 <= 1350
	w41: + 41 x_1 + 1 x_2 + 26 x_3 + 39 x_4 + 11 x_5 + 12 x_6 + 32 x_7 + 42 x_8 + 29 x_9 + 9 x_10 <= 1330
	w42: + 10 x_1 + 48 x_2 + 13 x_3 + 15 x_4 + 38 x_5 + 8 x_6 + 13 x_7 + 23 x_8 + 25 x_9 + 46 x_10 <= 1310
	w43: + 8 x_1 + 5 x_2 + 45 x_3 + 28 x_4 + 7 x_5 + 49 x_6 + 42 x_7 + 21 x_8 + 13 x_9 + 12 x_10 <= 1260
	w44: + 36 x_1 + 24 x_2 + 13 x_3 + 16 x_4 + 39 x_5 + 17 x_6 + 6 x_7 + 5 x_8 + 31 x_9 + 15 x_10 <= 1110
	w45: + 10 x_1 + 14 x_2 + 18 x_3 + 9 x_4 + 41 x_5 + 4 x_6 + 37 x_7 + 25 x_8 + 1 x_9 + 20 x_10 <= 980
	w46: + 16 x_1 + 49 x_2 + 5 x_3 + 1 x_4 + 12 x_5 + 13 x_6 + 14 x_7 + 3 x_8 + 48 x_9 + 42 x_10 <= 1120
	w47: + 48 x_1 + 22 x_2 + 3 x_3 + 7 x_4 + 23 x_5 + 22 x_6 + 37 x_7 + 46 x_8 + 26 x_9 + 4 x_10 <= 1310
	w48: + 12 x_1 + 10 x_2 + 32 x_3 + 7 x_4 + 49 x_5 + 13 x_6 + 9 x_7 + 3 x_8 + 38 x_9 + 34 x_10 <= 1140
	w49: + 34 x_1 + 49 x_2 + 12 x_3 + 5 x_4 + 11 x_5 + 3 x_6 + 25 x_7 + 18 x_8 + 12 x_9 + 20 x_10 <= 1040
	w50: + 10 x_1 + 25 x_2 + 31 x_3 + 23 x_4 + 19 x_5 + 35 x_6 + 12 x_7 + 38 x_8 + 46 x_9 + 9 x_10 <= 1360
	w51: + 46 x_1 + 31 x_2 + 21 x_3 + 37 x_4 + 29 x_5 + 18 x_6 + 19 x_7 + 6 x_8 + 2 x_9 + 14 x_10 <= 1230
	w52: + 5 x_1 + 23 x_2 + 30 x_3 + 9 x_4 + 48 x_5 + 21 x_6 + 34 x_7 + 2 x_8 + 29 x_9 + 11 x_10 <= 1170
	w53: + 13 x_1 + 37 x_2 + 49 x_3 + 35 x_4 + 8 x_5 + 45 x_6 + 5 x_7 + 43 x_8 + 47 x_9 + 22 x_10 <= 1670
	w54: + 11 x_1 + 42 x_2 + 43 x_3 + 44 x_4 + 40 x_5 + 42 x_6 + 8 x_7 + 18 x_8 + 11 x_9 + 39 x_10 <= 1640
	w55: + 12 x_1 + 12 x_2 + 27 x_3 + 37 x_4 + 1 x_5 + 35 x_6 + 17 x_7 + 31 x_8 + 1 x_9 + 6 x_10 <= 980
	w56: + 42 x_1 + 16 x_2 + 9 x_3 + 12 x_4 + 38 x_5 + 9 x_6 + 18 x_7 + 12 x_8 + 42 x_9 + 23 x_10 <= 1210
	w57: + 31 x_1 + 44 x_2 + 37 x_3 + 34 x_4 + 35 x_5 + 37 x_6 + 48 x_7 + 41 x_8 + 23 x_9 + 3 x_10 <= 1830
	w58: + 34 x_1 + 35 x_2 + 5 x_3 + 40 x_4 + 47 x_5 + 36 x_6 + 9 x_7 + 44 x_8 + 45 x_9 + 15 x_10 <= 1710
	w59: + 37 x_1 + 31 x_2 + 45 x_3 + 2 x_4 + 48 x_5 + 46 x_6 + 47 x_7 + 26 x_8 + 4 x_9 + 31 x_10 <= 1740
	w60: + 4 x_1 + 9 x_2 + 13 x_3 + 37 x_4 + 42 x_5 + 16 x_6 + 37 x_7 + 6 x_8 + 33 x_9 + 11 x_10 <= 1140
	w61: + 36 x_1 + 13 x_2 + 6 x_3 + 25 x_4 + 37 x_5 + 19 x_6 + 1 x_7 + 38 x_8 + 17 x_9 + 1 x_10 <= 1060
	w62: + 19 x_1 + 41 x_2 + 10 x_3 + 4 x_4 + 30 x_5 + 49 x_6 + 2 x_7 + 19 x_8 + 5 x_9 + 29 x_10 <= 1140
	w63: + 22 x_1 + 24 x_2 + 49 x_3 + 38 x_4 + 25 x_5 + 14 x_6 + 47 x_7 + 48 x_8 + 19 x_9 + 45 x_10 <= 1820
	w64: + 6 x_1 + 15 x_2 + 25 x_3 + 15 x_4 + 33 x_5 + 4 x_6 + 14 x_7 + 37 x_8 + 37 x_9 + 47 x_10 <= 1280
	w65: + 1 x_1 + 46 x_2 + 27 x_3 + 23 x_4 + 39 x_5 + 18 x_6 + 12 x_7 + 5 x_8 + 23 x_9 + 43 x_10 <= 1300
	w66: + 7 x_1 + 33 x_2 + 20 x_3 + 26 x_4 + 33 x_5 + 31 x_6 + 4 x_7 + 32 x_8 + 31 x_9 + 28 x_10 <= 1350
	w67: + 39 x_1 + 30 x_2 + 1 x_3 + 12 x_4 + 8 x_5 + 31 x_6 + 47 x_7 + 17 x_8 + 31 x_9 + 44 x_10 <= 1430
	w68: + 38 x_1 + 17 x_2 + 26 x_3 + 45 x_4 + 27 x_5 + 8 x_6 + 44 x_7 + 8 x_8 + 17 x_9 + 17 x_10 <= 1360
	w69: + 40 x_1 + 2 x_2 + 30 x_3 + 25 x_4 + 9 x_5 + 48 x_6 + 38 x_7 + 37 x_8 + 46 x_9 + 10 x_10 <= 1570
	w70: + 43 x_1 + 33 x_2 + 2 x_3 + 22 x_4 + 38 x_5 + 40 x_6 + 9 x_7 + 19 x_8 + 29 x_9 + 44 x_10 <= 1540
	w71: + 24 x_1 + 29 x_2 + 18 x_3 + 6 x_4 + 1 x_5 + 45 x_6 + 20 x_7 + 40 x_8 + 29 x_9 + 11 x_10 <= 1230
	w72: + 28 x_1 + 9 x_2 + 27 x_3 + 48 x_4 + 6 x_5 + 23 x_6 + 40 x_7 + 48 x_8 + 37 x_9 + 23 x_10 <= 1590
	w73: + 38 x_1 + 18 x_2 + 19 x_3 + 20 x_4 + 33 x_5 + 8 x_6 + 10 x_7 + 19 x_8 + 36 x_9 + 9 x_10 <= 1150
	w74: + 46 x_1 + 33 x_2 + 21 x_3 + 44 x_4 + 36 x_5 + 24 x_6 + 43 x_7 + 8 x_8 + 47 x_9 + 48 x_10 <= 1930
	w75: + 34 x_1 + 3 x_2 + 49 x_3 + 5 x_4 + 37 x_5 + 16 x_6 + 20 x_7 + 18 x_8 + 7 x_9 + 23 x_10 <= 1170
	w76: + 38 x_1 + 26 x_2 + 25 x_3 + 25 x_4 + 6 x_5 + 30 x_6 + 40 x_7 + 6 x_8 + 44 x_9 + 23 x_10 <= 1450
	w77: + 15 x_1 + 44 x_2 + 30 x_3 + 49 x_4 + 14 x_5 + 39 x_6 + 16 x_7 + 27 x_8 + 32 x_9 + 49 x_10 <= 1730
	w78: + 10 x_1 + 20 x_2 + 18 x_3 + 13 x_4 + 14 x_5 + 36 x_6 + 36 x_7 + 44 x_8 + 14 x_9 + 19 x_10 <= 1230
	w79: + 15 x_1 + 15 x_2 + 14 x_3 + 36 x_4 + 11 x_5 + 10 x_6 + 45 x_7 + 16 x_8 + 48 x_9 + 42 x_10 <= 1390
	w80: + 47 x_1 + 32 x_2 + 26 x_3 + 25 x_4 + 11 x_5 + 41 x_6 + 9 x_7 + 35 x_8 + 37 x_9 + 10 x_10 <= 1500
	w81: + 3 x_1 + 22 x_2 + 46 x_3 + 22 x_4 + 36 x_5 + 22 x_6 + 10 x_7 + 44 x_8 + 10 x_9 + 10 x_10 <= 1240
	w82: + 12 x_1 + 9 x_2 + 29 x_3 + 7 x_4 + 1 x_5 + 13 x_6 + 43 x_7 + 33 x_8 + 25 x_9 + 2 x_10 <= 960
	w83: + 36 x_1 + 33 x_2 + 26 x_3 + 38 x_4 + 39 x_5 + 24 x_6 + 5 x_7 + 22 x_8 + 33 x_9 + 46 x_10 <= 1660
	w84: + 12 x_1 + 25 x_2 + 29 x_3 + 27 x_4 + 1 x_5 + 3 x_6 + 43 x_7 + 41 x_8 + 43 x_9 + 39 x_10 <= 1450
	w85: + 48 x_1 + 2 x_2 + 14 x_3 + 46 x_4 + 38 x_5 + 30 x_6 + 47 x_7 + 12 x_8 + 26 x_9 + 25 x_10 <= 1580
	w86: + 43 x_1 + 7 x_2 + 16 x_3 + 36 x_4 + 28 x_5 + 6 x_6 + 40 x_7 + 5 x_8 + 43 x_9 + 30 x_10 <= 1400
	w87: + 20 x_1 + 3 x_2 + 29 x_3 + 45 x_4 + 41 x_5 + 49 x_6 + 9 x_7 + 30 x_8 + 7 x_9 + 49 x_10 <= 1550
	w88: + 5 x_1 + 48 x_2 + 41 x_3 + 22 x_4 + 39 x_5 + 32 x_6 + 28 x_7 + 2 x_8 + 24 x_9 + 15 x_10 <= 1410
	w89: + 47 x_1 + 20 x_2 + 15 x_3 + 28 x_4 + 40 x_5 + 29 x_6 + 5 x_7 + 49 x_8 + 6 x_9 + 46 x_10 <= 1570
	w90: + 27 x_1 + 2 x_2 + 44 x_3 + 4 x_4 + 26 x_5 + 44 x_6 + 41 x_7 + 21 x_8 + 22 x_9 + 28 x_10 <= 1420
	w91: + 19 x_1 + 5 x_2 + 47 x_3 + 24 x_4 + 24 x_5 + 42 x_6 + 1 x_7 + 39 x_8 + 35 x_9 + 47 x_10 <= 1560
	w92: + 20 x_1 + 30 x_2 + 12 x_3 + 18 x_4 + 44 x_5 + 12 x_6 + 46 x_7 + 41 x_8 + 37 x_9 + 18 x_10 <= 1530
	w93: + 20 x_1 + 45 x_2 + 47 x_3 + 34 x_4 + 11 x_5 + 45 x_6 + 33 x_7 + 49 x_8 + 45 x_9 + 30 x_10 <= 1980
	w94: + 39 x_1 + 47 x_2 + 29 x_3 + 16 x_4 + 24 x_5 + 2 x_6 + 39 x_7 + 6 x_8 + 3 x_9 + 28 x_10 <= 1280
	w95: + 4 x_1 + 8 x_2 + 42 x_3 + 5 x_4 + 45 x_5 + 48 x_6 + 46 x_7 + 7 x_8 + 17 x_9 + 13 x_10 <= 1290
	w96: + 34 x_1 + 28 x_2 + 17 x_3 + 39 x_4 + 16 x_5 + 38 x_6 + 41 x_7 + 49 x_8 + 17 x_9 + 37 x_10 <= 1740
	w97: + 3 x_1 + 36 x_2 + 4 x_3 + 40 x_4 + 28 x_5 + 38 x_6 + 11 x_7 + 22 x_8 + 1 x_9 + 11 x_10 <= 1070
	w98: + 27 x_1 + 20 x_2 + 4 x_3 + 13 x_4 + 8 x_5 + 4 x_6 + 17 x_7 + 23 x_8 + 14 x_9 + 13 x_10 <= 780
	w99: + 23 x_1 + 4 x_2 + 13 x_3 + 30 x_4 + 11 x_5 + 10 x_6 + 25 x_7 + 1 x_8 + 14 x_9 + 40 x_10 <= 940
	w100: + 32 x_1 + 43 x_2 + 22 x_3 + 20 x_4 + 48 x_5 + 45 x_6 + 21 x_7 + 17 x_8 + 2 x_9 + 30 x_10 <= 1540
	w101: + 39 x_1 + 47 x_2 + 16 x_3 + 15 x_4 + 36 x_5 + 18 x_6 + 45 x_7 + 18 x_8 + 34 x_9 + 8 x_10 <= 1520
	w102: + 33 x_1 + 2 x_2 + 34 x_3 + 1 x_4 + 20 x_5 + 36 x_6 + 44 x_7 + 11 x_8 + 17 x_9 + 32 x_10 <= 1260
	w103: + 48 x_1 + 7 x_2 + 1 x_3 + 47 x_4 + 12 x_5 + 6 x_6 + 38 x_7 + 29 x_8 + 14 x_9 + 38 x_10 <= 1320
	w104: + 16 x_1 + 49 x_2 + 45 x_3 + 13 x_4 + 5 x_5 + 36 x_6 + 19 x_7 + 43 x_8 + 29 x_9 + 13 x_10 <= 1470
	w105: + 48 x_1 + 8 x_2 + 10 x_3 + 33 x_4 + 3 x_5 + 38 x_6 + 44 x_7 + 21 x_8 + 26 x_9 + 10 x_10 <= 1330
	w106: + 9 x_1 + 1 x_2 + 30 x_3 + 25 x_4 + 13 x_5 + 37 x_6 + 43 x_7 + 8 x_8 + 7 x_9 + 24 x_10 <= 1080
	w107: + 15 x_1 + 6 x_2 + 20 x_3 + 11 x_4 + 3 x_5 + 46 x_6 + 5 x_7 + 38 x_8 + 16 x_9 + 36 x_10 <= 1080
	w108: + 6 x_1 + 46 x_2 + 4 x_3 + 48 x_4 + 21 x_5 + 33 x_6 + 49 x_7 + 2 x_8 + 41 x_9 + 41 x_10 <= 1600
	w109: + 14 x_1 + 1 x_2 + 4 x_3 + 6 x_4 + 42 x_5 + 46 x_6 + 23 x_7 + 30 x_8 + 33 x_9 + 14 x_10 <= 1170
	w110: + 14 x_1 + 29 x_2 + 39 x_3 + 46 x_4 + 7 x_5 + 42 x_6 + 38 x_7 + 14 x_8 + 32 x_9 + 28 x_10 <= 1590
	w111: + 48 x_1 + 36 x_2 + 37 x_3 + 23 x_4 + 42 x_5 + 46 x_6 + 19 x_7 + 20 x_8 + 2 x_9 + 19 x_10 <= 1610
	w112: + 32 x_1 + 30 x_2 + 33 x_3 + 35 x_4 + 28 x_5 + 44 x_6 + 7 x_7 + 26 x_8 + 18 x_9 + 34 x_10 <= 1580
	w113: + 43 x_1 + 46 x_2 + 11 x_3 + 3 x_4 + 34 x_5 + 23 x_6 + 10 x_7 + 48 x_8 + 11 x_9 + 40 x_10 <= 1480
	w114: + 10 x_1 + 8 x_2 + 6 x_3 + 5 x_4 + 14 x_5 + 27 x_6 + 12 x_7 + 45 x_8 + 36 x_9 + 35 x_10 <= 1090
	w115: + 7 x_1 + 18 x_2 + 26 x_3 + 12 x_4 + 30 x_5 + 9 x_6 + 25 x_7 + 11 x_8 + 20 x_9 + 43 x_10 <= 1100
	w116: + 6 x_1 + 37 x_2 + 6 x_3 + 39 x_4 + 42 x_5 + 29 x_6 + 43 x_7 + 5 x_8 + 5 x_9 + 49 x_10 <= 1440
	w117: + 37 x_1 + 6 x_2 + 1 x_3 + 47 x_4 + 32 x_5 + 38 x_6 + 23 x_7 + 5 x_8 + 39 x_9 + 10 x_10 <= 1310
	w118: + 11 x_1 + 13 x_2 + 18 x_3 + 32 x_4 + 5 x_5 + 13 x_6 + 36 x_7 + 27 x_8 + 45 x_9 + 41 x_10 <= 1330
	w119: + 20 x_1 + 7 x_2 + 6 x_3 + 41 x_4 + 45 x_5 + 23 x_6 + 27 x_7 + 46 x_8 + 46 x_9 + 22 x_10 <= 1560
	w120: + 20 x_1 + 33 x_2 + 3 x_3 + 39 x_4 + 11 x_5 + 10 x_6 + 12 x_7 + 47 x_8 + 37 x_9 + 25 x_10 <= 1300
	w121: + 3 x_1 + 44 x_2 + 15 x_3 + 11 x_4 + 46 x_5 + 28 x_6 + 30 x_7 + 37 x_8 + 32 x_9 + 32 x_10 <= 1530
	w122: + 47 x_1 + 25 x_2 + 30 x_3 + 3 x_4 + 44 x_5 + 12 x_6 + 17 x_7 + 15 x_8 + 16 x_9 + 7 x_10 <= 1190
	w123: + 47 x_1 + 22 x_2 + 23 x_3 + 20 x_4 + 47 x_5 + 46 x_6 + 7 x_7 + 48 x_8 + 21 x_9 + 17 x_10 <= 1640
	w124: + 4 x_1 + 48 x_2 + 39 x_3 + 2 x_4 + 10 x_5 + 13 x_6 + 13 x_7 + 36 x_8 + 23 x_9 + 1 x_10 <= 1040
	w125: + 22 x_1 + 34 x_2 + 25 x_3 + 14 x_4 + 28 x_5 + 36 x_6 + 42 x_7 + 13 x_8 + 11 x_9 + 12 x_10 <= 1300
	w126: + 31 x_1 + 39 x_2 + 17 x_3 + 24 x_4 + 7 x_5 + 22 x_6 + 25 x_7 + 14 x_8 + 37 x_9 + 20 x_10 <= 1300
	w127: + 22 x_1 + 40 x_2 + 49 x_3 + 41 x_4 + 14 x_5 + 13 x_6 + 7 x_7 + 26 x_8 + 37 x_9 + 38 x_10 <= 1580
	w128: + 35 x_1 + 24 x_2 + 36 x_3 + 34 x_4 + 2 x_5 + 8 x_6 + 26 x_7 + 40 x_8 + 22 x_9 + 4 x_10 <= 1270
	w129: + 48 x_1 + 11 x_2 + 40 x_3 + 13 x_4 + 15 x_5 + 38 x_6 + 41 x_7 + 23 x_8 + 3 x_9 + 31 x_10 <= 1450
	w130: + 37 x_1 + 42 x_2 + 5 x_3 + 14 x_4 + 48 x_5 + 38 x_6 + 5 x_7 + 9 x_8 + 17 x_9 + 17 x_10 <= 1280
	w131: + 48 x_1 + 11 x_2 + 33 x_3 + 36 x_4 + 32 x_5 + 8 x_6 + 20 x_7 + 31 x_8 + 49 x_9 + 31 x_10 <= 1650
	w132: + 48 x_1 + 10 x_2 + 40 x_3 + 22 x_4 + 32 x_5 + 44 x_6 + 46 x_7 + 37 x_8 + 28 x_9 + 40 x_10 <= 1910
	w133: + 8 x_1 + 10 x_2 + 30 x_3 + 16 x_4 + 7 x_5 + 28 x_6 + 1 x_7 + 30 x_8 + 4 x_9 + 13 x_10 <= 810
	w134: + 35 x_1 + 27 x_2 + 22 x_3 + 37 x_4 + 42 x_5 + 6 x_6 + 16 x_7 + 46 x_8 + 15 x_9 + 26 x_10 <= 1500
	w135: + 19 x_1 + 7 x_2 + 10 x_3 + 9 x_4 + 1 x_5 + 11 x_6 + 49 x_7 + 20 x_8 + 18 x_9 + 40 x_10 <= 1010
	w136: + 22 x_1 + 41 x_2 + 17 x_3 + 21 x_4 + 27 x_5 + 44 x_6 + 36 x_7 + 42 x_8 + 47 x_9 + 28 x_10 <= 1790
	w137: + 37 x_1 + 10 x_2 + 35 x_3 + 17 x_4 + 14 x_5 + 33 x_6 + 25 x_7 + 32 x_8 + 36 x_9 + 26 x_10 <= 1460
	w138: + 11 x_1 + 10 x_2 + 32 x_3 + 12 x_4 + 49 x_5 + 8 x_6 + 15 x_7 + 1 x_8 + 27 x_9 + 5 x_10 <= 930
	w139: + 21 x_1 + 39 x_2 + 37 x_3 + 43 x_4 + 19 x_5 + 42 x_6 + 11 x_7 + 48 x_8 + 18 x_9 + 48 x_10 <= 1790
	w140: + 27 x_1 + 9 x_2 + 35 x_3 + 39 x_4 + 9 x_5 + 46 x_6 + 15 x_7 + 23 x_8 + 26 x_9 + 25 x_10 <= 1400
	w141: + 1 x_1 + 37 x_2 + 25 x_3 + 24 x_4 + 36 x_5 + 41 x_6 + 11 x_7 + 6 x_8 + 20 x_9 + 40 x_10 <= 1330
	w142: + 5 x_1 + 32 x_2 + 49 x_3 + 28 x_4 + 45 x_5 + 2 x_6 + 2 x_7 + 16 x_8 + 19 x_9 + 7 x_10 <= 1130
	w143: + 15 x_1 + 28 x_2 + 45 x_3 + 5 x_4 + 17 x_5 + 14 x_6 + 47 x_7 + 23 x_8 + 23 x_9 + 8 x_10 <= 1240
	w144: + 7 x_1 + 48 x_2 + 13 x_3 + 12 x_4 + 5 x_5 + 10 x_6 + 45 x_7 + 2 x_8 + 31 x_9 + 41 x_10 <= 1180
	w145: + 48 x_1 + 6 x_2 + 39 x_3 + 24 x_4 + 22 x_5 + 11 x_6 + 18 x_7 + 48 x_8 + 42 x_9 + 36 x_10 <= 1620
	w146: + 41 x_1 + 23 x_2 + 28 x_3 + 27 x_4 + 48 x_5 + 44 x_6 + 48 x_7 + 40 x_8 + 6 x_9 + 7 x_10 <= 1720
	w147: + 44 x_1 + 37 x_2 + 47 x_3 + 34 x_4 + 47 x_5 + 45 x_6 + 47 x_7 + 39 x_8 + 17 x_9 + 20 x_10 <= 2080
	w148: + 44 x_1 + 16 x_2 + 41 x_3 + 11 x_4 + 30 x_5 + 41 x_6 + 27 x_7 + 39 x_8 + 2 x_9 + 20 x_10 <= 1490
	w149: + 43 x_1 + 44 x_2 + 42 x_3 + 5 x_4 + 47 x_5 + 34 x_6 + 45 x_7 + 11 x_8 + 20 x_9 + 47 x_10 <= 1860
	w150: + 27 x_1 + 8 x_2 + 46 x_3 + 5 x_4 + 47 x_5 + 27 x_6 + 12 x_7 + 21 x_8 + 28 x_9 + 26 x_10 <= 1360
	w151: + 28 x_1 + 40 x_2 + 47 x_3 + 7 x_4 + 6 x_5 + 48 x_6 + 47 x_7 + 15 x_8 + 40 x_9 + 22 x_10 <= 1650
	w152: + 5 x_1 + 6 x_2 + 30 x_3 + 42 x_4 + 4 x_5 + 26 x_6 + 29 x_7 + 18 x_8 + 44 x_9 + 20 x_10 <= 1230
	w153: + 9 x_1 + 22 x_2 + 46 x_3 + 33 x_4 + 2 x_5 + 14 x_6 + 5 x_7 + 9 x_8 + 28 x_9 + 7 x_10 <= 960
	w154: + 1 x_1 + 17 x_2 + 7 x_3 + 3 x_4 + 6 x_5 + 14 x_6 + 24 x_7 + 23 x_8 + 3 x_9 + 11 x_10 <= 600
	w155: + 27 x_1 + 15 x_2 + 37 x_3 + 42 x_4 + 15 x_5 + 16 x_6 + 45 x_7 + 21 x_8 + 47 x_9 + 27 x_10 <= 1610
	w156: + 23 x_1 + 30 x_2 + 9 x_3 + 9 x_4 + 37 x_5 + 43 x_6 + 14 x_7 + 19 x_8 + 48 x_9 + 42 x_10 <= 1510
	w157: + 28 x_1 + 4 x_2 + 31 x_3 + 1 x_4 + 20 x_5 + 34 x_6 + 44 x_7 + 35 x_8 + 38 x_9 + 1 x_10 <= 1300
	w158: + 14 x_1 + 22 x_2 + 9 x_3 + 43 x_4 + 40 x_5 + 28 x_6 + 18 x_7 + 44 x_8 + 48 x_9 + 32 x_10 <= 1640
	w159: + 3 x_1 + 41 x_2 + 16 x_3 + 8 x_4 + 9 x_5 + 28 x_6 + 39 x_7 + 45 x_8 + 14 x_9 + 31 x_10 <= 1290
	w160: + 17 x_1 + 27 x_2 + 40 x_3 + 32 x_4 + 28 x_5 + 33 x_6 + 14 x_7 + 21 x_8 + 19 x_9 + 19 x_10 <= 1380
	w161: + 22 x_1 + 18 x_2 + 14 x_3 + 29 x_4 + 3 x_5 + 19 x_6 + 25 x_7 + 32 x_8 + 12 x_9 + 17 x_10 <= 1050
	w162: + 47 x_1 + 33 x_2 + 46 x_3 + 3 x_4 + 48 x_5 + 20 x_6 + 20 x_7 + 35 x_8 + 21 x_9 + 35 x_10 <= 1700
	w163: + 40 x_1 + 45 x_2 + 45 x_3 + 39 x_4 + 6 x_5 + 18 x_6 + 32 x_7 + 10 x_8 + 29 x_9 + 28 x_10 <= 1610
	w164: + 47 x_1 + 13 x_2 + 4 x_3 + 38 x_4 + 41 x_5 + 3 x_6 + 20 x_7 + 33 x_8 + 16 x_9 + 3 x_10 <= 1200
	w165: + 19 x_1 + 33 x_2 + 14 x_3 + 23 x_4 + 38 x_5 + 13 x_6 + 23 x_7 + 17 x_8 + 26 x_9 + 9 x_10 <= 1180
	w166: + 43 x_1 + 44 x_2 + 29 x_3 + 29 x_4 + 40 x_5 + 20 x_6 + 43 x_7 + 44 x_8 + 1 x_9 + 14 x_10 <= 1690
	w167: + 9 x_1 + 24 x_2 + 22 x_3 + 41 x_4 + 18 x_5 + 30 x_6 + 17 x_7 + 27 x_8 + 38 x_9 + 35 x_10 <= 1440
	w168: + 26 x_1 + 18 x_2 + 19 x_3 + 21 x_4 + 16 x_5 + 19 x_6 + 49 x_7 + 44 x_8 + 21 x_9 + 7 x_10 <= 1320
	w169: + 6 x_1 + 26 x_2 + 13 x_3 + 9 x_4 + 42 x_5 + 25 x_6 + 1 x_7 + 2 x_8 + 21 x_9 + 20 x_10 <= 910
	w170: + 37 x_1 + 36 x_2 + 2 x_3 + 45 x_4 + 33 x_5 + 11 x_6 + 47 x_7 + 38 x_8 + 36 x_9 + 45 x_10 <= 1820
	w171: + 43 x_1 + 49 x_2 + 8 x_3 + 46 x_4 + 47 x_5 + 29 x_6 + 11 x_7 + 44 x_8 + 19 x_9 + 27 x_10 <= 1780
	w172: + 32 x_1 + 18 x_2 + 19 x_3 + 5 x_4 + 45 x_5 + 1 x_6 + 35 x_7 + 26 x_8 + 16 x_9 + 48 x_10 <= 1350
	w173: + 28 x_1 + 14 x_2 + 8 x_3 + 34 x_4 + 46 x_5 + 46 x_6 + 3 x_7 + 13 x_8 + 7 x_9 + 37 x_10 <= 1300
	w174: + 10 x_1 + 39 x_2 + 11 x_3 + 49 x_4 + 21 x_5 + 32 x_6 + 42 x_7 + 27 x_8 + 8 x_9 + 15 x_10 <= 1400
	w175: + 35 x_1 + 8 x_2 + 22 x_3 + 29 x_4 + 20 x_5 + 34 x_6 + 19 x_7 + 41 x_8 + 48 x_9 + 3 x_10 <= 1420
	w176: + 27 x_1 + 9 x_2 + 4 x_3 + 34 x_4 + 8 x_5 + 11 x_6 + 38 x_7 + 24 x_8 + 14 x_9 + 20 x_10 <= 1040
	w177: + 14 x_1 + 27 x_2 + 32 x_3 + 38 x_4 + 38 x_5 + 25 x_6 + 23 x_7 + 13 x_8 + 20 x_9 + 20 x_10 <= 1380
	w178: + 41 x_1 + 28 x_2 + 12 x_3 + 41 x_4 + 36 x_5 + 37 x_6 + 47 x_7 + 18 x_8 + 29 x_9 + 39 x_10 <= 1810
	w179: + 22 x_1 + 4 x_2 + 32 x_3 + 13 x_4 + 25 x_5 + 28 x_6 + 31 x_7 + 32 x_8 + 9 x_9 + 21 x_10 <= 1190
	w180: + 28 x_1 + 26 x_2 + 46 x_3 + 4 x_4 + 5 x_5 + 47 x_6 + 30 x_7 + 42 x_8 + 10 x_9 + 34 x_10 <= 1500
	w181: + 19 x_1 + 49 x_2 + 11 x_3 + 27 x_4 + 8 x_5 + 31 x_6 + 9 x_7 + 39 x_8 + 6 x_9 + 2 x_10 <= 1100
	w182: + 40 x_1 + 42 x_2 + 3 x_3 + 47 x_4 + 27 x_5 + 9 x_6 + 21 x_7 + 18 x_8 + 2 x_9 + 24 x_10 <= 1280
	w183: + 28 x_1 + 3 x_2 + 12 x_3 + 25 x_4 + 4 x_5 + 30 x_6 + 45 x_7 + 16 x_8 + 18 x_9 + 47 x_10 <= 1250
	w184: + 21 x_1 + 12 x_2 + 16 x_3 + 34 x_4 + 46 x_5 + 38 x_6 + 16 x_7 + 17 x_8 + 12 x_9 + 25 x_10 <= 1300
	w185: + 5 x_1 + 25 x_2 + 41 x_3 + 29 x_4 + 39 x_5 + 23 x_6 + 44 x_7 + 26 x_8 + 14 x_9 + 18 x_10 <= 1450
	w186: + 8 x_1 + 7 x_2 + 20 x_3 + 1 x_4 + 5 x_5 + 19 x_6 + 44 x_7 + 10 x_8 + 43 x_9 + 11 x_10 <= 920
	w187: + 26 x_1 + 24 x_2 + 37 x_3 + 42 x_4 + 1 x_5 + 31 x_6 + 37 x_7 + 2 x_8 + 7 x_9 + 28 x_10 <= 1290
	w188: + 34 x_1 + 20 x_2 + 10 x_3 + 35 x_4 + 12 x_5 + 23 x_6 + 39 x_7 + 44 x_8 + 31 x_9 + 1 x_10 <= 1370
	w189: + 5 x_1 + 19 x_2 + 26 x_3 + 5 x_4 + 46 x_5 + 13 x_6 + 35 x_7 + 32 x_8 + 15 x_9 + 44 x_10 <= 1320
	w190: + 18 x_1 + 26 x_2 + 4 x_3 + 1 x_4 + 28 x_5 + 19 x_6 + 33 x_7 + 30 x_8 + 17 x_9 + 24 x_10 <= 1100
	w191: + 6 x_1 + 46 x_2 + 46 x_3 + 31 x_4 + 10 x_5 + 14 x_6 + 31 x_7 + 38 x_8 + 36 x_9 + 18 x_10 <= 1520
	w192: + 16 x_1 + 45 x_2 + 13 x_3 + 32 x_4 + 23 x_5 + 28 x_6 + 25 x_7 + 25 x_8 + 38 x_9 + 21 x_10 <= 1460
	w193: + 38 x_1 + 49 x_2 + 39 x_3 + 18 x_4 + 31 x_5 + 7 x_6 + 33 x_7 + 13 x_8 + 48 x_9 + 17 x_10 <= 1610
	w194: + 12 x_1 + 28 x_2 + 44 x_3 + 27 x_4 + 22 x_5 + 46 x_6 + 24 x_7 + 47 x_8 + 34 x_9 + 49 x_10 <= 1830
	w195: + 48 x_1 + 49 x_2 + 26 x_3 + 8 x_4 + 15 x_5 + 5 x_6 + 34 x_7 + 10 x_8 + 16 x_9 + 25 x_10 <= 1300
	w196: + 39 x_1 + 11 x_2 + 1 x_3 + 4 x_4 + 16 x_5 + 8 x_6 + 35 x_7 + 25 x_8 + 47 x_9 + 3 x_10 <= 1040
	w197: + 40 x_1 + 2 x_2 + 2 x_3 + 34 x_4 + 49 x_5 + 23 x_6 + 3 x_7 + 11 x_8 + 12 x_9 + 40 x_10 <= 1190
	w198: + 23 x_1 + 1 x_2 + 26 x_3 + 9 x_4 + 41 x_5 + 48 x_6 + 27 x_7 + 15 x_8 + 9 x_9 + 25 x_10 <= 1230
	w199: + 31 x_1 + 30 x_2 + 33 x_3 + 36 x_4 + 17 x_5 + 1 x_6 + 2 x_7 + 41 x_8 + 31 x_9 + 15 x_10 <= 1300
	w200: + 1 x_1 + 9 x_2 + 8 x_3 + 49 x_4 + 15 x_5 + 9 x_6 + 16 x_7 + 13 x_8 + 24 x_9 + 14 x_10 <= 870
	profits: + 5 x_1 + 18 x_2 + 10 x_3 + 21 x_4 + 12 x_5 + 20 x_6 + 18 x_7 + 32 x_8 + 24 x_9 + 48 x_10 >= 930
Bounds
  0 <= x_1 <= 10
  0 <= x_2 <= 10
  0 <= x_3 <= 10
  0 <= x_4 <= 10
  0 <= x_5 <= 10
  0 <= x_6 <= 10
  0 <= x_7 <= 10
  0 <= x_8 <= 10
  0 <= x_9 <= 10
  0 <= x_10 <= 10
End
