Subject To
	c_1: + 27 x_1 + 33 x_2 + 29 x_3 + 30 x_4 + 32 x_5 + 49 x_6 + 34 x_7 + 16 x_8 + 20 x_9 + 19 x_10 + 22 x_11 + 45 x_12 + 4 x_13 + 30 x_14 + 45 x_15 + 17 x_16 + 50 x_17 + 1 x_18 + 8 x_19 + 39 x_20 + 31 x_21 + 32 x_22 + 33 x_23 + 37 x_24 + 32 x_25 + 48 x_26 + 16 x_27 + 2 x_28 + 20 x_29 + 11 x_30 + 44 x_31 + 18 x_32 + 44 x_33 + 17 x_34 + 17 x_35 + 13 x_36 + 11 x_37 + 48 x_38 + 26 x_39 + 5 x_40 = 818
	c_2: + 5 x_1 + 39 x_2 + 3 x_3 + 21 x_4 + 29 x_5 + 50 x_6 + 47 x_7 + 23 x_8 + 11 x_9 + 42 x_10 + 48 x_11 + 49 x_12 + 48 x_13 + 5 x_14 + 50 x_15 + 6 x_16 + 40 x_17 + 6 x_18 + 29 x_19 + 37 x_20 + 44 x_21 + 41 x_22 + 11 x_23 + 49 x_24 + 22 x_25 + 13 x_26 + 44 x_27 + 6 x_28 + 19 x_29 + 48 x_30 + 11 x_31 + 34 x_32 + 5 x_33 + 33 x_34 + 46 x_35 + 46 x_36 + 42 x_37 + 14 x_38 + 31 x_39 + 28 x_40 = 616
	c_3: + 8 x_1 + 45 x_2 + 16 x_3 + 9 x_4 + 44 x_5 + 33 x_6 + 31 x_7 + 10 x_8 + 1 x_9 + 25 x_10 + 49 x_11 + 28 x_12 + 27 x_13 + 24 x_14 + 10 x_15 + 13 x_16 + 24 x_17 + 48 x_18 + 4 x_19 + 6 x_20 + 47 x_21 + 43 x_22 + 2 x_23 + 35 x_24 + 17 x_25 + 38 x_26 + 11 x_27 + 9 x_28 + 36 x_29 + 1 x_30 + 11 x_31 + 50 x_32 + 21 x_33 + 21 x_34 + 12 x_35 + 29 x_36 + 23 x_37 + 45 x_38 + 22 x_39 + 14 x_40 = 559
	c_4: + 8 x_1 + 47 x_2 + 28 x_3 + 5 x_4 + 5 x_5 + 30 x_6 + 5 x_7 + 45 x_8 + 8 x_9 + 1 x_10 + 1 x_11 + 18 x_12 + 47 x_13 + 37 x_14 + 21 x_15 + 13 x_16 + 44 x_17 + 2 x_18 + 41 x_19 + 48 x_20 + 26 x_21 + 29 x_22 + 20 x_23 + 1 x_24 + 21 x_25 + 28 x_26 + 7 x_27 + 23 x_28 + 26 x_29 + 31 x_30 + 35 x_31 + 1 x_32 + 17 x_33 + 14 x_34 + 2 x_35 + 4 x_36 + 9 x_37 + 31 x_38 + 17 x_39 + 16 x_40 = 521
	c_5: + 21 x_1 + 26 x_2 + 18 x_3 + 32 x_4 + 27 x_5 + 21 x_6 + 44 x_7 + 27 x_8 + 9 x_9 + 32 x_10 + 1 x_11 + 23 x_12 + 44 x_13 + 27 x_14 + 50 x_15 + 17 x_16 + 25 x_17 + 11 x_18 + 17 x_19 + 7 x_20 + 1 x_21 + 38 x_22 + 50 x_23 + 40 x_24 + 47 x_25 + 31 x_26 + 47 x_27 + 16 x_28 + 18 x_29 + 15 x_30 + 21 x_31 + 19 x_32 + 1 x_33 + 27 x_34 + 35 x_35 + 35 x_36 + 43 x_37 + 44 x_38 + 27 x_39 + 22 x_40 = 621
	c_6: + 26 x_1 + 17 x_2 + 17 x_3 + 9 x_4 + 11 x_5 + 20 x_6 + 16 x_7 + 1 x_8 + 50 x_9 + 28 x_10 + 24 x_11 + 24 x_12 + 9 x_13 + 17 x_14 + 44 x_15 + 7 x_16 + 28 x_17 + 27 x_18 + 26 x_19 + 43 x_20 + 25 x_21 + 4 x_22 + 25 x_23 + 39 x_24 + 43 x_25 + 12 x_26 + 23 x_27 + 49 x_28 + 11 x_29 + 27 x_30 + 29 x_31 + 24 x_32 + 21 x_33 + 11 x_34 + 13 x_35 + 47 x_36 + 4 x_37 + 14 x_38 + 47 x_39 + 32 x_40 = 531
	c_7: + 6 x_1 + 7 x_2 + 26 x_3 + 6 x_4 + 15 x_5 + 35 x_6 + 20 x_7 + 9 x_8 + 49 x_9 + 38 x_10 + 3 x_11 + 34 x_12 + 13 x_13 + 2 x_14 + 24 x_15 + 16 x_16 + 28 x_17 + 48 x_18 + 22 x_19 + 16 x_20 + 49 x_21 + 39 x_22 + 35 x_23 + 16 x_24 + 35 x_25 + 44 x_26 + 48 x_27 + 42 x_28 + 27 x_29 + 39 x_30 + 49 x_31 + 36 x_32 + 13 x_33 + 30 x_34 + 5 x_35 + 24 x_36 + 16 x_37 + 30 x_38 + 32 x_39 + 9 x_40 = 561
	c_8: + 39 x_1 + 18 x_2 + 15 x_3 + 32 x_4 + 1 x_5 + 42 x_6 + 10 x_7 + 5 x_8 + 41 x_9 + 19 x_10 + 47 x_11 + 12 x_12 + 24 x_13 + 3 x_14 + 40 x_15 + 9 x_16 + 40 x_17 + 14 x_18 + 38 x_19 + 16 x_20 + 6 x_21 + 34 x_22 + 28 x_23 + 47 x_24 + 6 x_25 + 1 x_26 + 21 x_27 + 31 x_28 + 44 x_29 + 34 x_30 + 9 x_31 + 7 x_32 + 16 x_33 + 13 x_34 + 42 x_35 + 15 x_36 + 32 x_37 + 21 x_38 + 41 x_39 + 41 x_40 = 477
	c_9: + 41 x_1 + 36 x_2 + 14 x_3 + 24 x_4 + 26 x_5 + 26 x_6 + 24 x_7 + 24 x_8 + 37 x_9 + 9 x_10 + 2 x_11 + 7 x_12 + 41 x_13 + 23 x_14 + 19 x_15 + 32 x_16 + 17 x_17 + 4 x_18 + 29 x_19 + 19 x_20 + 13 x_21 + 36 x_22 + 37 x_23 + 37 x_24 + 15 x_25 + 27 x_26 + 25 x_27 + 33 x_28 + 31 x_29 + 10 x_30 + 26 x_31 + 32 x_32 + 9 x_33 + 5 x_34 + 37 x_35 + 22 x_36 + 39 x_37 + 37 x_38 + 2 x_39 + 44 x_40 = 515
	c_10: + 44 x_1 + 41 x_2 + 39 x_3 + 6 x_4 + 22 x_5 + 10 x_6 + 20 x_7 + 49 x_8 + 24 x_9 + 36 x_10 + 17 x_11 + 25 x_12 + 4 x_13 + 45 x_14 + 16 x_15 + 12 x_16 + 41 x_17 + 33 x_18 + 47 x_19 + 12 x_20 + 39 x_21 + 28 x_22 + 37 x_23 + 16 x_24 + 46 x_25 + 42 x_26 + 42 x_27 + 33 x_28 + 35 x_29 + 1 x_30 + 11 x_31 + 32 x_32 + 1 x_33 + 37 x_34 + 40 x_35 + 26 x_36 + 22 x_37 + 29 x_38 + 47 x_39 + 30 x_40 = 617
	c_11: + 35 x_1 + 27 x_2 + 9 x_3 + 20 x_4 + 37 x_5 + 14 x_6 + 32 x_7 + 9 x_8 + 18 x_9 + 14 x_10 + 9 x_11 + 23 x_12 + 32 x_13 + 8 x_14 + 9 x_15 + 28 x_16 + 50 x_17 + 45 x_18 + 31 x_19 + 11 x_20 + 19 x_21 + 28 x_22 + 13 x_23 + 23 x_24 + 33 x_25 + 44 x_26 + 40 x_27 + 13 x_28 + 35 x_29 + 49 x_30 + 12 x_31 + 19 x_32 + 36 x_33 + 8 x_34 + 17 x_35 + 32 x_36 + 31 x_37 + 6 x_38 + 43 x_39 + 1 x_40 = 532
	c_12: + 12 x_1 + 19 x_2 + 2 x_3 + 31 x_4 + 6 x_5 + 41 x_6 + 26 x_7 + 35 x_8 + 32 x_9 + 3 x_10 + 4 x_11 + 23 x_12 + 40 x_13 + 26 x_14 + 48 x_15 + 14 x_16 + 3 x_17 + 40 x_18 + 30 x_19 + 30 x_20 + 46 x_21 + 6 x_22 + 8 x_23 + 38 x_24 + 23 x_25 + 44 x_26 + 49 x_27 + 34 x_28 + 48 x_29 + 45 x_30 + 26 x_31 + 47 x_32 + 26 x_33 + 5 x_34 + 19 x_35 + 21 x_36 + 8 x_37 + 12 x_38 + 43 x_39 + 16 x_40 = 539
	c_13: + 16 x_1 + 39 x_2 + 18 x_3 + 27 x_4 + 29 x_5 + 38 x_6 + 4 x_7 + 28 x_8 + 40 x_9 + 20 x_10 + 42 x_11 + 36 x_12 + 43 x_13 + 48 x_14 + 32 x_15 + 15 x_16 + 12 x_17 + 19 x_18 + 25 x_19 + 32 x_20 + 41 x_21 + 47 x_22 + 39 x_23 + 46 x_24 + 39 x_25 + 7 x_26 + 24 x_27 + 43 x_28 + 19 x_29 + 32 x_30 + 8 x_31 + 49 x_32 + 6 x_33 + 36 x_34 + 8 x_35 + 19 x_36 + 36 x_37 + 32 x_38 + 25 x_39 + 12 x_40 = 621
	c_14: + 25 x_1 + 43 x_2 + 47 x_3 + 47 x_4 + 26 x_5 + 47 x_6 + 30 x_7 + 7 x_8 + 26 x_9 + 13 x_10 + 12 x_11 + 21 x_12 + 11 x_13 + 7 x_14 + 24 x_15 + 18 x_16 + 22 x_17 + 45 x_18 + 6 x_19 + 1 x_20 + 5 x_21 + 15 x_22 + 3 x_23 + 4 x_24 + 38 x_25 + 30 x_26 + 11 x_27 + 25 x_28 + 29 x_29 + 19 x_30 + 27 x_31 + 13 x_32 + 17 x_33 + 28 x_34 + 1 x_35 + 33 x_36 + 17 x_37 + 20 x_38 + 8 x_39 + 9 x_40 = 507
	c_15: + 25 x_1 + 8 x_2 + 30 x_3 + 30 x_4 + 15 x_5 + 42 x_6 + 13 x_7 + 20 x_8 + 30 x_9 + 27 x_10 + 11 x_11 + 41 x_12 + 42 x_13 + 45 x_14 + 41 x_15 + 12 x_16 + 28 x_17 + 10 x_18 + 6 x_19 + 20 x_20 + 38 x_21 + 41 x_22 + 23 x_23 + 49 x_24 + 46 x_25 + 3 x_26 + 49 x_27 + 34 x_28 + 19 x_29 + 26 x_30 + 13 x_31 + 12 x_32 + 39 x_33 + 50 x_34 + 50 x_35 + 26 x_36 + 7 x_37 + 4 x_38 + 33 x_39 + 29 x_40 = 627
Bounds
  0 <= x_1 <= 1
  0 <= x_2 <= 1
  0 <= x_3 <= 1
  0 <= x_4 <= 1
  0 <= x_5 <= 1
  0 <= x_6 <= 1
  0 <= x_7 <= 1
  0 <= x_8 <= 1
  0 <= x_9 <= 1
  0 <= x_10 <= 1
  0 <= x_11 <= 1
  0 <= x_12 <= 1
  0 <= x_13 <= 1
  0 <= x_14 <= 1
  0 <= x_15 <= 1
  0 <= x_16 <= 1
  0 <= x_17 <= 1
  0 <= x_18 <= 1
  0 <= x_19 <= 1
  0 <= x_20 <= 1
  0 <= x_21 <= 1
  0 <= x_22 <= 1
  0 <= x_23 <= 1
  0 <= x_24 <= 1
  0 <= x_25 <= 1
  0 <= x_26 <= 1
  0 <= x_27 <= 1
  0 <= x_28 <= 1
  0 <= x_29 <= 1
  0 <= x_30 <= 1
  0 <= x_31 <= 1
  0 <= x_32 <= 1
  0 <= x_33 <= 1
  0 <= x_34 <= 1
  0 <= x_35 <= 1
  0 <= x_36 <= 1
  0 <= x_37 <= 1
  0 <= x_38 <= 1
  0 <= x_39 <= 1
  0 <= x_40 <= 1
End
