Subject To
	c_1: + 14 x_1 + 39 x_2 + 44 x_3 + 10 x_4 + 22 x_5 + 43 x_6 + 49 x_7 + 46 x_8 + 38 x_9 + 45 x_10 + 7 x_11 + 45 x_12 + 20 x_13 + 48 x_14 + 47 x_15 + 40 x_16 + 31 x_17 + 40 x_18 + 46 x_19 + 23 x_20 + 10 x_21 + 38 x_22 + 17 x_23 + 49 x_24 + 4 x_25 + 41 x_26 + 19 x_27 + 9 x_28 + 30 x_29 + 23 x_30 + 39 x_31 + 49 x_32 + 15 x_33 + 39 x_34 + 46 x_35 + 28 x_36 + 21 x_37 + 26 x_38 + 40 x_39 + 9 x_40 = 1026
	c_2: + 5 x_1 + 28 x_2 + 1 x_3 + 22 x_4 + 50 x_5 + 32 x_6 + 6 x_7 + 48 x_8 + 18 x_9 + 35 x_10 + 21 x_11 + 23 x_12 + 45 x_13 + 27 x_14 + 28 x_15 + 10 x_16 + 30 x_17 + 5 x_18 + 21 x_19 + 40 x_20 + 23 x_21 + 23 x_22 + 15 x_23 + 26 x_24 + 30 x_25 + 11 x_26 + 43 x_27 + 37 x_28 + 49 x_29 + 42 x_30 + 21 x_31 + 29 x_32 + 6 x_33 + 14 x_34 + 19 x_35 + 27 x_36 + 38 x_37 + 25 x_38 + 26 x_39 + 31 x_40 = 582
	c_3: + 41 x_1 + 7 x_2 + 29 x_3 + 29 x_4 + 35 x_5 + 24 x_6 + 22 x_7 + 12 x_8 + 22 x_9 + 1 x_10 + 38 x_11 + 5 x_12 + 4 x_13 + 17 x_14 + 46 x_15 + 2 x_16 + 35 x_17 + 19 x_18 + 25 x_19 + 20 x_20 + 29 x_21 + 40 x_22 + 26 x_23 + 12 x_24 + 8 x_25 + 48 x_26 + 24 x_27 + 42 x_28 + 29 x_29 + 29 x_30 + 33 x_31 + 2 x_32 + 33 x_33 + 50 x_34 + 13 x_35 + 36 x_36 + 10 x_37 + 25 x_38 + 42 x_39 + 25 x_40 = 596
	c_4: + 17 x_1 + 50 x_2 + 27 x_3 + 42 x_4 + 43 x_5 + 6 x_6 + 38 x_7 + 22 x_8 + 16 x_9 + 46 x_10 + 27 x_11 + 11 x_12 + 15 x_13 + 46 x_14 + 35 x_15 + 18 x_16 + 12 x_17 + 21 x_18 + 38 x_19 + 2 x_20 + 20 x_21 + 46 x_22 + 33 x_23 + 14 x_24 + 15 x_25 + 14 x_26 + 8 x_27 + 44 x_28 + 47 x_29 + 17 x_30 + 4 x_31 + 3 x_32 + 21 x_33 + 44 x_34 + 2 x_35 + 41 x_36 + 3 x_37 + 27 x_38 + 7 x_39 + 43 x_40 = 635
	c_5: + 23 x_1 + 44 x_2 + 7 x_3 + 27 x_4 + 31 x_5 + 24 x_6 + 28 x_7 + 48 x_8 + 17 x_9 + 18 x_10 + 32 x_11 + 28 x_12 + 17 x_13 + 14 x_14 + 13 x_15 + 37 x_16 + 1 x_17 + 43 x_18 + 20 x_19 + 13 x_20 + 16 x_21 + 33 x_22 + 29 x_23 + 36 x_24 + 13 x_25 + 11 x_26 + 40 x_27 + 11 x_28 + 44 x_29 + 19 x_30 + 8 x_31 + 46 x_32 + 17 x_33 + 27 x_34 + 36 x_35 + 13 x_36 + 33 x_37 + 15 x_38 + 19 x_39 + 17 x_40 = 630
	c_6: + 23 x_1 + 11 x_2 + 15 x_3 + 5 x_4 + 4 x_5 + 1 x_6 + 6 x_7 + 14 x_8 + 26 x_9 + 37 x_10 + 38 x_11 + 28 x_12 + 47 x_13 + 17 x_14 + 38 x_15 + 18 x_16 + 27 x_17 + 37 x_18 + 8 x_19 + 36 x_20 + 44 x_21 + 20 x_22 + 14 x_23 + 7 x_24 + 2 x_25 + 41 x_26 + 47 x_27 + 40 x_28 + 24 x_29 + 26 x_30 + 10 x_31 + 47 x_32 + 19 x_33 + 22 x_34 + 23 x_35 + 8 x_36 + 42 x_37 + 6 x_38 + 25 x_39 + 15 x_40 = 516
	c_7: + 9 x_1 + 44 x_2 + 41 x_3 + 26 x_4 + 3 x_5 + 15 x_6 + 11 x_7 + 17 x_8 + 13 x_9 + 4 x_10 + 22 x_11 + 33 x_12 + 21 x_13 + 12 x_14 + 39 x_15 + 4 x_16 + 38 x_17 + 41 x_18 + 46 x_19 + 3 x_20 + 21 x_21 + 45 x_22 + 28 x_23 + 45 x_24 + 15 x_25 + 20 x_26 + 50 x_27 + 11 x_28 + 22 x_29 + 46 x_30 + 16 x_31 + 39 x_32 + 21 x_33 + 48 x_34 + 39 x_35 + 6 x_36 + 12 x_37 + 9 x_38 + 1 x_39 + 22 x_40 = 648
	c_8: + 20 x_1 + 2 x_2 + 31 x_3 + 22 x_4 + 14 x_5 + 28 x_6 + 17 x_7 + 9 x_8 + 28 x_9 + 12 x_10 + 18 x_11 + 17 x_12 + 23 x_13 + 6 x_14 + 7 x_15 + 47 x_16 + 49 x_17 + 12 x_18 + 7 x_19 + 18 x_20 + 26 x_21 + 16 x_22 + 31 x_23 + 23 x_24 + 22 x_25 + 42 x_26 + 26 x_27 + 28 x_28 + 41 x_29 + 29 x_30 + 18 x_31 + 33 x_32 + 5 x_33 + 32 x_34 + 10 x_35 + 40 x_36 + 38 x_37 + 7 x_38 + 3 x_39 + 21 x_40 = 537
	c_9: + 9 x_1 + 40 x_2 + 6 x_3 + 3 x_4 + 31 x_5 + 38 x_6 + 3 x_7 + 50 x_8 + 39 x_9 + 2 x_10 + 22 x_11 + 5 x_12 + 24 x_13 + 24 x_14 + 9 x_15 + 29 x_16 + 35 x_17 + 17 x_18 + 14 x_19 + 2 x_20 + 5 x_21 + 39 x_22 + 2 x_23 + 33 x_24 + 29 x_25 + 9 x_26 + 10 x_27 + 45 x_28 + 11 x_29 + 46 x_30 + 44 x_31 + 18 x_32 + 26 x_33 + 45 x_34 + 11 x_35 + 28 x_36 + 3 x_37 + 48 x_38 + 21 x_39 + 47 x_40 = 618
	c_10: + 37 x_1 + 9 x_2 + 17 x_3 + 41 x_4 + 17 x_5 + 35 x_6 + 13 x_7 + 6 x_8 + 49 x_9 + 37 x_10 + 11 x_11 + 4 x_12 + 50 x_13 + 5 x_14 + 41 x_15 + 47 x_16 + 4 x_17 + 49 x_18 + 23 x_19 + 10 x_20 + 16 x_21 + 7 x_22 + 22 x_23 + 31 x_24 + 47 x_25 + 13 x_26 + 12 x_27 + 43 x_28 + 7 x_29 + 49 x_30 + 28 x_31 + 15 x_32 + 3 x_33 + 27 x_34 + 34 x_35 + 4 x_36 + 34 x_37 + 5 x_38 + 1 x_39 + 42 x_40 = 511
	c_11: + 17 x_1 + 50 x_2 + 4 x_3 + 47 x_4 + 22 x_5 + 7 x_6 + 16 x_7 + 42 x_8 + 42 x_9 + 30 x_10 + 49 x_11 + 38 x_12 + 16 x_13 + 3 x_14 + 18 x_15 + 34 x_16 + 26 x_17 + 38 x_18 + 11 x_19 + 21 x_20 + 13 x_21 + 23 x_22 + 33 x_23 + 15 x_24 + 2 x_25 + 7 x_26 + 33 x_27 + 3 x_28 + 21 x_29 + 33 x_30 + 1 x_31 + 22 x_32 + 4 x_33 + 15 x_34 + 35 x_35 + 41 x_36 + 40 x_37 + 17 x_38 + 31 x_39 + 16 x_40 = 587
	c_12: + 31 x_1 + 17 x_2 + 50 x_3 + 1 x_4 + 41 x_5 + 22 x_6 + 3 x_7 + 45 x_8 + 47 x_9 + 9 x_10 + 26 x_11 + 24 x_12 + 13 x_13 + 6 x_14 + 18 x_15 + 44 x_16 + 29 x_17 + 42 x_18 + 48 x_19 + 22 x_20 + 29 x_21 + 36 x_22 + 25 x_23 + 46 x_24 + 24 x_25 + 5 x_26 + 28 x_27 + 43 x_28 + 30 x_29 + 3 x_30 + 7 x_31 + 36 x_32 + 5 x_33 + 44 x_34 + 32 x_35 + 44 x_36 + 24 x_37 + 31 x_38 + 30 x_39 + 23 x_40 = 745
	c_13: + 1 x_1 + 15 x_2 + 14 x_3 + 19 x_4 + 45 x_5 + 3 x_6 + 34 x_7 + 50 x_8 + 17 x_9 + 18 x_10 + 9 x_11 + 6 x_12 + 7 x_13 + 44 x_14 + 38 x_15 + 47 x_16 + 10 x_17 + 2 x_18 + 39 x_19 + 29 x_20 + 48 x_21 + 4 x_22 + 37 x_23 + 50 x_24 + 6 x_25 + 37 x_26 + 42 x_27 + 27 x_28 + 39 x_29 + 43 x_30 + 39 x_31 + 26 x_32 + 25 x_33 + 9 x_34 + 41 x_35 + 17 x_36 + 40 x_37 + 40 x_38 + 35 x_39 + 31 x_40 = 674
	c_14: + 48 x_1 + 22 x_2 + 29 x_3 + 12 x_4 + 33 x_5 + 37 x_6 + 16 x_7 + 49 x_8 + 33 x_9 + 28 x_10 + 12 x_11 + 1 x_12 + 21 x_13 + 12 x_14 + 7 x_15 + 21 x_16 + 24 x_17 + 10 x_18 + 43 x_19 + 40 x_20 + 27 x_21 + 35 x_22 + 45 x_23 + 7 x_24 + 27 x_25 + 7 x_26 + 35 x_27 + 18 x_28 + 48 x_29 + 34 x_30 + 47 x_31 + 50 x_32 + 28 x_33 + 45 x_34 + 8 x_35 + 25 x_36 + 36 x_37 + 10 x_38 + 9 x_39 + 17 x_40 = 623
	c_15: + 13 x_1 + 31 x_2 + 47 x_3 + 6 x_4 + 28 x_5 + 38 x_6 + 34 x_7 + 12 x_8 + 33 x_9 + 25 x_10 + 25 x_11 + 25 x_12 + 10 x_13 + 25 x_14 + 1 x_15 + 27 x_16 + 15 x_17 + 25 x_18 + 40 x_19 + 2 x_20 + 5 x_21 + 39 x_22 + 20 x_23 + 4 x_24 + 45 x_25 + 47 x_26 + 4 x_27 + 37 x_28 + 43 x_29 + 5 x_30 + 38 x_31 + 19 x_32 + 41 x_33 + 11 x_34 + 30 x_35 + 46 x_36 + 26 x_37 + 49 x_38 + 5 x_39 + 24 x_40 = 709
Bounds
  0 <= x_1 <= 1
  0 <= x_2 <= 1
  0 <= x_3 <= 1
  0 <= x_4 <= 1
  0 <= x_5 <= 1
  0 <= x_6 <= 1
  0 <= x_7 <= 1
  0 <= x_8 <= 1
  0 <= x_9 <= 1
  0 <= x_10 <= 1
  0 <= x_11 <= 1
  0 <= x_12 <= 1
  0 <= x_13 <= 1
  0 <= x_14 <= 1
  0 <= x_15 <= 1
  0 <= x_16 <= 1
  0 <= x_17 <= 1
  0 <= x_18 <= 1
  0 <= x_19 <= 1
  0 <= x_20 <= 1
  0 <= x_21 <= 1
  0 <= x_22 <= 1
  0 <= x_23 <= 1
  0 <= x_24 <= 1
  0 <= x_25 <= 1
  0 <= x_26 <= 1
  0 <= x_27 <= 1
  0 <= x_28 <= 1
  0 <= x_29 <= 1
  0 <= x_30 <= 1
  0 <= x_31 <= 1
  0 <= x_32 <= 1
  0 <= x_33 <= 1
  0 <= x_34 <= 1
  0 <= x_35 <= 1
  0 <= x_36 <= 1
  0 <= x_37 <= 1
  0 <= x_38 <= 1
  0 <= x_39 <= 1
  0 <= x_40 <= 1
End
