Subject To
	c_1: + 25 x_1 + 30 x_2 + 48 x_3 + 50 x_4 + 7 x_5 + 29 x_6 + 32 x_7 + 16 x_8 + 8 x_9 + 24 x_10 + 4 x_11 + 38 x_12 + 4 x_13 + 40 x_14 + 11 x_15 + 34 x_16 + 33 x_17 + 13 x_18 + 6 x_19 + 40 x_20 + 20 x_21 + 16 x_22 + 9 x_23 + 24 x_24 + 6 x_25 + 23 x_26 + 7 x_27 + 24 x_28 + 38 x_29 + 31 x_30 + 5 x_31 + 16 x_32 + 32 x_33 + 17 x_34 + 21 x_35 + 15 x_36 + 28 x_37 + 4 x_38 + 21 x_39 + 12 x_40 = 503
	c_2: + 23 x_1 + 47 x_2 + 18 x_3 + 31 x_4 + 13 x_5 + 3 x_6 + 24 x_7 + 8 x_8 + 31 x_9 + 42 x_10 + 15 x_11 + 14 x_12 + 1 x_13 + 13 x_14 + 32 x_15 + 35 x_16 + 44 x_17 + 31 x_18 + 20 x_19 + 41 x_20 + 28 x_21 + 26 x_22 + 15 x_23 + 9 x_24 + 25 x_25 + 27 x_26 + 12 x_27 + 31 x_28 + 40 x_29 + 32 x_30 + 8 x_31 + 35 x_32 + 35 x_33 + 27 x_34 + 6 x_35 + 50 x_36 + 34 x_37 + 15 x_38 + 44 x_39 + 5 x_40 = 411
	c_3: + 34 x_1 + 3 x_2 + 39 x_3 + 36 x_4 + 6 x_5 + 44 x_6 + 4 x_7 + 37 x_8 + 24 x_9 + 17 x_10 + 32 x_11 + 41 x_12 + 36 x_13 + 3 x_14 + 16 x_15 + 26 x_16 + 29 x_17 + 35 x_18 + 33 x_19 + 15 x_20 + 21 x_21 + 39 x_22 + 24 x_23 + 13 x_24 + 43 x_25 + 32 x_26 + 28 x_27 + 3 x_28 + 9 x_29 + 9 x_30 + 17 x_31 + 25 x_32 + 19 x_33 + 21 x_34 + 15 x_35 + 11 x_36 + 16 x_37 + 30 x_38 + 11 x_39 + 32 x_40 = 293
	c_4: + 29 x_1 + 6 x_2 + 18 x_3 + 36 x_4 + 32 x_5 + 43 x_6 + 38 x_7 + 46 x_8 + 44 x_9 + 31 x_10 + 7 x_11 + 45 x_12 + 7 x_13 + 36 x_14 + 19 x_15 + 8 x_16 + 4 x_17 + 18 x_18 + 17 x_19 + 31 x_20 + 46 x_21 + 35 x_22 + 16 x_23 + 29 x_24 + 21 x_25 + 40 x_26 + 45 x_27 + 47 x_28 + 50 x_29 + 25 x_30 + 2 x_31 + 15 x_32 + 10 x_33 + 9 x_34 + 4 x_35 + 41 x_36 + 26 x_37 + 31 x_38 + 18 x_39 + 25 x_40 = 376
	c_5: + 42 x_1 + 18 x_2 + 30 x_3 + 9 x_4 + 50 x_5 + 12 x_6 + 12 x_7 + 32 x_8 + 3 x_9 + 28 x_10 + 6 x_11 + 25 x_12 + 45 x_13 + 6 x_14 + 17 x_15 + 2 x_16 + 32 x_17 + 49 x_18 + 15 x_19 + 20 x_20 + 25 x_21 + 21 x_22 + 44 x_23 + 28 x_24 + 34 x_25 + 49 x_26 + 21 x_27 + 17 x_28 + 16 x_29 + 36 x_30 + 3 x_31 + 44 x_32 + 42 x_33 + 41 x_34 + 46 x_35 + 33 x_36 + 10 x_37 + 30 x_38 + 28 x_39 + 8 x_40 = 270
	c_6: + 19 x_1 + 20 x_2 + 4 x_3 + 42 x_4 + 20 x_5 + 5 x_6 + 43 x_7 + 12 x_8 + 42 x_9 + 46 x_10 + 16 x_11 + 17 x_12 + 7 x_13 + 39 x_14 + 49 x_15 + 20 x_16 + 35 x_17 + 3 x_18 + 27 x_19 + 1 x_20 + 25 x_21 + 26 x_22 + 43 x_23 + 16 x_24 + 29 x_25 + 22 x_26 + 20 x_27 + 48 x_28 + 50 x_29 + 49 x_30 + 4 x_31 + 7 x_32 + 28 x_33 + 9 x_34 + 31 x_35 + 24 x_36 + 14 x_37 + 23 x_38 + 3 x_39 + 10 x_40 = 367
	c_7: + 20 x_1 + 29 x_2 + 6 x_3 + 18 x_4 + 15 x_5 + 12 x_6 + 42 x_7 + 21 x_8 + 40 x_9 + 1 x_10 + 40 x_11 + 17 x_12 + 7 x_13 + 26 x_14 + 36 x_15 + 4 x_16 + 44 x_17 + 36 x_18 + 43 x_19 + 23 x_20 + 20 x_21 + 19 x_22 + 39 x_23 + 50 x_24 + 3 x_25 + 31 x_26 + 21 x_27 + 9 x_28 + 18 x_29 + 28 x_30 + 5 x_31 + 32 x_32 + 43 x_33 + 22 x_34 + 23 x_35 + 44 x_36 + 15 x_37 + 50 x_38 + 42 x_39 + 32 x_40 = 325
	c_8: + 33 x_1 + 19 x_2 + 1 x_3 + 45 x_4 + 32 x_5 + 42 x_6 + 40 x_7 + 49 x_8 + 24 x_9 + 34 x_10 + 32 x_11 + 32 x_12 + 13 x_13 + 14 x_14 + 11 x_15 + 44 x_16 + 41 x_17 + 23 x_18 + 24 x_19 + 35 x_20 + 3 x_21 + 48 x_22 + 23 x_23 + 47 x_24 + 40 x_25 + 9 x_26 + 29 x_27 + 2 x_28 + 19 x_29 + 3 x_30 + 41 x_31 + 13 x_32 + 13 x_33 + 23 x_34 + 3 x_35 + 26 x_36 + 9 x_37 + 28 x_38 + 3 x_39 + 7 x_40 = 357
	c_9: + 7 x_1 + 26 x_2 + 45 x_3 + 6 x_4 + 26 x_5 + 7 x_6 + 42 x_7 + 24 x_8 + 43 x_9 + 20 x_10 + 37 x_11 + 14 x_12 + 33 x_13 + 19 x_14 + 39 x_15 + 4 x_16 + 10 x_17 + 37 x_18 + 46 x_19 + 24 x_20 + 17 x_21 + 32 x_22 + 24 x_23 + 12 x_24 + 40 x_25 + 30 x_26 + 31 x_27 + 6 x_28 + 38 x_29 + 44 x_30 + 12 x_31 + 19 x_32 + 11 x_33 + 22 x_34 + 28 x_35 + 42 x_36 + 8 x_37 + 50 x_38 + 37 x_39 + 28 x_40 = 298
	c_10: + 5 x_1 + 28 x_2 + 14 x_3 + 21 x_4 + 27 x_5 + 20 x_6 + 16 x_7 + 5 x_8 + 11 x_9 + 15 x_10 + 49 x_11 + 29 x_12 + 40 x_13 + 7 x_14 + 40 x_15 + 28 x_16 + 29 x_17 + 18 x_18 + 43 x_19 + 31 x_20 + 38 x_21 + 10 x_22 + 36 x_23 + 2 x_24 + 44 x_25 + 34 x_26 + 44 x_27 + 32 x_28 + 28 x_29 + 19 x_30 + 27 x_31 + 14 x_32 + 30 x_33 + 8 x_34 + 19 x_35 + 50 x_36 + 28 x_37 + 25 x_38 + 41 x_39 + 44 x_40 = 328
	c_11: + 4 x_1 + 1 x_2 + 26 x_3 + 7 x_4 + 46 x_5 + 15 x_6 + 9 x_7 + 13 x_8 + 47 x_9 + 48 x_10 + 24 x_11 + 9 x_12 + 24 x_13 + 40 x_14 + 42 x_15 + 9 x_16 + 18 x_17 + 26 x_18 + 46 x_19 + 8 x_20 + 19 x_21 + 30 x_22 + 36 x_23 + 45 x_24 + 26 x_25 + 4 x_26 + 5 x_27 + 9 x_28 + 30 x_29 + 29 x_30 + 19 x_31 + 21 x_32 + 6 x_33 + 45 x_34 + 49 x_35 + 43 x_36 + 35 x_37 + 44 x_38 + 26 x_39 + 33 x_40 = 242
	c_12: + 42 x_1 + 23 x_2 + 27 x_3 + 30 x_4 + 42 x_5 + 19 x_6 + 42 x_7 + 44 x_8 + 21 x_9 + 13 x_10 + 30 x_11 + 47 x_12 + 29 x_13 + 16 x_14 + 23 x_15 + 30 x_16 + 36 x_17 + 50 x_18 + 2 x_19 + 5 x_20 + 6 x_21 + 30 x_22 + 48 x_23 + 17 x_24 + 14 x_25 + 25 x_26 + 7 x_27 + 29 x_28 + 21 x_29 + 44 x_30 + 47 x_31 + 33 x_32 + 42 x_33 + 34 x_34 + 25 x_35 + 20 x_36 + 26 x_37 + 16 x_38 + 20 x_39 + 28 x_40 = 408
	c_13: + 5 x_1 + 46 x_2 + 45 x_3 + 13 x_4 + 28 x_5 + 24 x_6 + 30 x_7 + 13 x_8 + 29 x_9 + 31 x_10 + 29 x_11 + 46 x_12 + 29 x_13 + 1 x_14 + 35 x_15 + 7 x_16 + 25 x_17 + 28 x_18 + 9 x_19 + 20 x_20 + 18 x_21 + 44 x_22 + 15 x_23 + 30 x_24 + 3 x_25 + 24 x_26 + 33 x_27 + 49 x_28 + 29 x_29 + 1 x_30 + 20 x_31 + 31 x_32 + 31 x_33 + 35 x_34 + 46 x_35 + 43 x_36 + 45 x_37 + 19 x_38 + 13 x_39 + 9 x_40 = 363
	c_14: + 1 x_1 + 22 x_2 + 37 x_3 + 13 x_4 + 44 x_5 + 14 x_6 + 47 x_7 + 49 x_8 + 22 x_9 + 43 x_10 + 37 x_11 + 8 x_12 + 41 x_13 + 29 x_14 + 40 x_15 + 20 x_16 + 40 x_17 + 22 x_18 + 27 x_19 + 43 x_20 + 43 x_21 + 10 x_22 + 33 x_23 + 16 x_24 + 24 x_25 + 39 x_26 + 31 x_27 + 38 x_28 + 15 x_29 + 7 x_30 + 50 x_31 + 12 x_32 + 27 x_33 + 28 x_34 + 33 x_35 + 49 x_36 + 22 x_37 + 9 x_38 + 6 x_39 + 33 x_40 = 344
	c_15: + 23 x_1 + 15 x_2 + 45 x_3 + 30 x_4 + 42 x_5 + 6 x_6 + 18 x_7 + 16 x_8 + 46 x_9 + 2 x_10 + 33 x_11 + 6 x_12 + 45 x_13 + 15 x_14 + 1 x_15 + 12 x_16 + 22 x_17 + 49 x_18 + 33 x_19 + 38 x_20 + 38 x_21 + 29 x_22 + 6 x_23 + 36 x_24 + 50 x_25 + 22 x_26 + 40 x_27 + 32 x_28 + 9 x_29 + 33 x_30 + 50 x_31 + 19 x_32 + 46 x_33 + 30 x_34 + 30 x_35 + 13 x_36 + 35 x_37 + 36 x_38 + 25 x_39 + 13 x_40 = 330
Bounds
  0 <= x_1 <= 1
  0 <= x_2 <= 1
  0 <= x_3 <= 1
  0 <= x_4 <= 1
  0 <= x_5 <= 1
  0 <= x_6 <= 1
  0 <= x_7 <= 1
  0 <= x_8 <= 1
  0 <= x_9 <= 1
  0 <= x_10 <= 1
  0 <= x_11 <= 1
  0 <= x_12 <= 1
  0 <= x_13 <= 1
  0 <= x_14 <= 1
  0 <= x_15 <= 1
  0 <= x_16 <= 1
  0 <= x_17 <= 1
  0 <= x_18 <= 1
  0 <= x_19 <= 1
  0 <= x_20 <= 1
  0 <= x_21 <= 1
  0 <= x_22 <= 1
  0 <= x_23 <= 1
  0 <= x_24 <= 1
  0 <= x_25 <= 1
  0 <= x_26 <= 1
  0 <= x_27 <= 1
  0 <= x_28 <= 1
  0 <= x_29 <= 1
  0 <= x_30 <= 1
  0 <= x_31 <= 1
  0 <= x_32 <= 1
  0 <= x_33 <= 1
  0 <= x_34 <= 1
  0 <= x_35 <= 1
  0 <= x_36 <= 1
  0 <= x_37 <= 1
  0 <= x_38 <= 1
  0 <= x_39 <= 1
  0 <= x_40 <= 1
End
