Subject To
	c_1: + 49 x_1 + 20 x_2 + 20 x_3 + 15 x_4 + 49 x_5 + 10 x_6 + 12 x_7 + 20 x_8 + 3 x_9 + 24 x_10 + 30 x_11 + 43 x_12 + 25 x_13 + 45 x_14 + 27 x_15 + 36 x_16 + 34 x_17 + 2 x_18 + 13 x_19 + 37 x_20 + 27 x_21 + 8 x_22 + 28 x_23 + 36 x_24 + 41 x_25 + 28 x_26 + 22 x_27 + 30 x_28 + 16 x_29 + 33 x_30 + 40 x_31 + 38 x_32 + 24 x_33 + 40 x_34 + 1 x_35 + 30 x_36 + 11 x_37 + 28 x_38 + 24 x_39 + 35 x_40 = 784
	c_2: + 35 x_1 + 22 x_2 + 27 x_3 + 40 x_4 + 37 x_5 + 21 x_6 + 42 x_7 + 29 x_8 + 25 x_9 + 39 x_10 + 31 x_11 + 31 x_12 + 2 x_13 + 22 x_14 + 47 x_15 + 48 x_16 + 25 x_17 + 47 x_18 + 5 x_19 + 38 x_20 + 9 x_21 + 48 x_22 + 10 x_23 + 41 x_24 + 28 x_25 + 10 x_26 + 26 x_27 + 29 x_28 + 9 x_29 + 2 x_30 + 37 x_31 + 30 x_32 + 20 x_33 + 37 x_34 + 48 x_35 + 34 x_36 + 28 x_37 + 9 x_38 + 44 x_39 + 10 x_40 = 600
	c_3: + 25 x_1 + 22 x_2 + 49 x_3 + 30 x_4 + 49 x_5 + 5 x_6 + 3 x_7 + 15 x_8 + 9 x_9 + 48 x_10 + 18 x_11 + 26 x_12 + 12 x_13 + 16 x_14 + 5 x_15 + 12 x_16 + 4 x_17 + 11 x_18 + 13 x_19 + 23 x_20 + 7 x_21 + 36 x_22 + 47 x_23 + 31 x_24 + 4 x_25 + 34 x_26 + 41 x_27 + 27 x_28 + 45 x_29 + 2 x_30 + 42 x_31 + 16 x_32 + 10 x_33 + 16 x_34 + 50 x_35 + 49 x_36 + 12 x_37 + 16 x_38 + 35 x_39 + 43 x_40 = 512
	c_4: + 1 x_1 + 39 x_2 + 42 x_3 + 37 x_4 + 7 x_5 + 14 x_6 + 30 x_7 + 37 x_8 + 9 x_9 + 18 x_10 + 42 x_11 + 25 x_12 + 35 x_13 + 18 x_14 + 4 x_15 + 41 x_16 + 35 x_17 + 33 x_18 + 18 x_19 + 27 x_20 + 34 x_21 + 16 x_22 + 15 x_23 + 13 x_24 + 9 x_25 + 40 x_26 + 23 x_27 + 43 x_28 + 13 x_29 + 1 x_30 + 22 x_31 + 29 x_32 + 32 x_33 + 42 x_34 + 45 x_35 + 8 x_36 + 44 x_37 + 3 x_38 + 37 x_39 + 14 x_40 = 473
	c_5: + 35 x_1 + 35 x_2 + 41 x_3 + 16 x_4 + 12 x_5 + 29 x_6 + 49 x_7 + 18 x_8 + 36 x_9 + 7 x_10 + 13 x_11 + 33 x_12 + 38 x_13 + 4 x_14 + 46 x_15 + 21 x_16 + 41 x_17 + 14 x_18 + 49 x_19 + 12 x_20 + 6 x_21 + 29 x_22 + 21 x_23 + 32 x_24 + 41 x_25 + 17 x_26 + 36 x_27 + 48 x_28 + 5 x_29 + 34 x_30 + 40 x_31 + 12 x_32 + 5 x_33 + 9 x_34 + 22 x_35 + 47 x_36 + 12 x_37 + 34 x_38 + 39 x_39 + 31 x_40 = 589
	c_6: + 29 x_1 + 6 x_2 + 5 x_3 + 18 x_4 + 43 x_5 + 28 x_6 + 17 x_7 + 6 x_8 + 33 x_9 + 4 x_10 + 27 x_11 + 5 x_12 + 37 x_13 + 40 x_14 + 22 x_15 + 21 x_16 + 15 x_17 + 4 x_18 + 14 x_19 + 16 x_20 + 17 x_21 + 4 x_22 + 38 x_23 + 29 x_24 + 24 x_25 + 26 x_26 + 48 x_27 + 13 x_28 + 17 x_29 + 50 x_30 + 36 x_31 + 46 x_32 + 26 x_33 + 6 x_34 + 6 x_35 + 9 x_36 + 43 x_37 + 46 x_38 + 28 x_39 + 7 x_40 = 565
	c_7: + 35 x_1 + 34 x_2 + 14 x_3 + 20 x_4 + 27 x_5 + 31 x_6 + 20 x_7 + 4 x_8 + 20 x_9 + 41 x_10 + 16 x_11 + 22 x_12 + 9 x_13 + 2 x_14 + 11 x_15 + 27 x_16 + 27 x_17 + 3 x_18 + 45 x_19 + 25 x_20 + 45 x_21 + 15 x_22 + 15 x_23 + 45 x_24 + 44 x_25 + 39 x_26 + 21 x_27 + 6 x_28 + 6 x_29 + 31 x_30 + 40 x_31 + 26 x_32 + 24 x_33 + 40 x_34 + 14 x_35 + 4 x_36 + 5 x_37 + 18 x_38 + 24 x_39 + 28 x_40 = 573
	c_8: + 41 x_1 + 23 x_2 + 12 x_3 + 31 x_4 + 23 x_5 + 13 x_6 + 35 x_7 + 35 x_8 + 19 x_9 + 26 x_10 + 8 x_11 + 49 x_12 + 8 x_13 + 40 x_14 + 32 x_15 + 1 x_16 + 47 x_17 + 37 x_18 + 3 x_19 + 11 x_20 + 22 x_21 + 37 x_22 + 9 x_23 + 4 x_24 + 13 x_25 + 22 x_26 + 27 x_27 + 20 x_28 + 13 x_29 + 45 x_30 + 30 x_31 + 23 x_32 + 21 x_33 + 18 x_34 + 22 x_35 + 37 x_36 + 37 x_37 + 15 x_38 + 26 x_39 + 20 x_40 = 530
	c_9: + 27 x_1 + 29 x_2 + 47 x_3 + 1 x_4 + 33 x_5 + 1 x_6 + 32 x_7 + 9 x_8 + 42 x_9 + 8 x_10 + 39 x_11 + 16 x_12 + 7 x_13 + 40 x_14 + 42 x_15 + 21 x_16 + 26 x_17 + 7 x_18 + 12 x_19 + 4 x_20 + 15 x_21 + 7 x_22 + 46 x_23 + 36 x_24 + 3 x_25 + 35 x_26 + 43 x_27 + 39 x_28 + 43 x_29 + 7 x_30 + 27 x_31 + 46 x_32 + 36 x_33 + 21 x_34 + 43 x_35 + 6 x_36 + 19 x_37 + 28 x_38 + 4 x_39 + 8 x_40 = 565
	c_10: + 49 x_1 + 39 x_2 + 13 x_3 + 31 x_4 + 48 x_5 + 32 x_6 + 17 x_7 + 21 x_8 + 41 x_9 + 39 x_10 + 25 x_11 + 19 x_12 + 23 x_13 + 13 x_14 + 13 x_15 + 2 x_16 + 17 x_17 + 20 x_18 + 38 x_19 + 4 x_20 + 49 x_21 + 4 x_22 + 29 x_23 + 26 x_24 + 39 x_25 + 35 x_26 + 29 x_27 + 8 x_28 + 50 x_29 + 22 x_30 + 3 x_31 + 16 x_32 + 46 x_33 + 7 x_34 + 5 x_35 + 4 x_36 + 31 x_37 + 45 x_38 + 34 x_39 + 22 x_40 = 495
	c_11: + 9 x_1 + 34 x_2 + 3 x_3 + 9 x_4 + 28 x_5 + 11 x_6 + 22 x_7 + 7 x_8 + 45 x_9 + 25 x_10 + 26 x_11 + 42 x_12 + 29 x_13 + 14 x_14 + 8 x_15 + 9 x_16 + 11 x_17 + 19 x_18 + 46 x_19 + 18 x_20 + 39 x_21 + 21 x_22 + 7 x_23 + 42 x_24 + 4 x_25 + 49 x_26 + 18 x_27 + 46 x_28 + 8 x_29 + 14 x_30 + 7 x_31 + 39 x_32 + 48 x_33 + 29 x_34 + 29 x_35 + 10 x_36 + 49 x_37 + 37 x_38 + 36 x_39 + 3 x_40 = 491
	c_12: + 32 x_1 + 33 x_2 + 33 x_3 + 48 x_4 + 24 x_5 + 2 x_6 + 47 x_7 + 45 x_8 + 19 x_9 + 28 x_10 + 25 x_11 + 28 x_12 + 17 x_13 + 27 x_14 + 10 x_15 + 25 x_16 + 42 x_17 + 12 x_18 + 32 x_19 + 36 x_20 + 43 x_21 + 7 x_22 + 49 x_23 + 34 x_24 + 10 x_25 + 35 x_26 + 50 x_27 + 19 x_28 + 23 x_29 + 46 x_30 + 47 x_31 + 38 x_32 + 36 x_33 + 8 x_34 + 8 x_35 + 43 x_36 + 34 x_37 + 8 x_38 + 44 x_39 + 3 x_40 = 632
	c_13: + 1 x_1 + 8 x_2 + 33 x_3 + 34 x_4 + 14 x_5 + 28 x_6 + 3 x_7 + 32 x_8 + 27 x_9 + 19 x_10 + 26 x_11 + 36 x_12 + 47 x_13 + 11 x_14 + 7 x_15 + 17 x_16 + 45 x_17 + 23 x_18 + 50 x_19 + 9 x_20 + 45 x_21 + 16 x_22 + 18 x_23 + 28 x_24 + 3 x_25 + 22 x_26 + 21 x_27 + 30 x_28 + 10 x_29 + 38 x_30 + 47 x_31 + 19 x_32 + 41 x_33 + 32 x_34 + 5 x_35 + 32 x_36 + 3 x_37 + 50 x_38 + 34 x_39 + 23 x_40 = 553
	c_14: + 24 x_1 + 6 x_2 + 11 x_3 + 25 x_4 + 19 x_5 + 19 x_6 + 31 x_7 + 35 x_8 + 48 x_9 + 3 x_10 + 50 x_11 + 47 x_12 + 20 x_13 + 19 x_14 + 28 x_15 + 32 x_16 + 8 x_17 + 47 x_18 + 38 x_19 + 16 x_20 + 41 x_21 + 46 x_22 + 19 x_23 + 26 x_24 + 21 x_25 + 15 x_26 + 7 x_27 + 15 x_28 + 1 x_29 + 39 x_30 + 31 x_31 + 14 x_32 + 28 x_33 + 8 x_34 + 42 x_35 + 33 x_36 + 37 x_37 + 50 x_38 + 5 x_39 + 20 x_40 = 575
	c_15: + 26 x_1 + 19 x_2 + 19 x_3 + 34 x_4 + 36 x_5 + 28 x_6 + 46 x_7 + 48 x_8 + 14 x_9 + 41 x_10 + 5 x_11 + 21 x_12 + 6 x_13 + 25 x_14 + 5 x_15 + 5 x_16 + 5 x_17 + 3 x_18 + 32 x_19 + 29 x_20 + 34 x_21 + 9 x_22 + 26 x_23 + 37 x_24 + 24 x_25 + 21 x_26 + 12 x_27 + 50 x_28 + 42 x_29 + 34 x_30 + 4 x_31 + 41 x_32 + 9 x_33 + 22 x_34 + 38 x_35 + 22 x_36 + 10 x_37 + 37 x_38 + 13 x_39 + 1 x_40 = 510
Bounds
  0 <= x_1 <= 1
  0 <= x_2 <= 1
  0 <= x_3 <= 1
  0 <= x_4 <= 1
  0 <= x_5 <= 1
  0 <= x_6 <= 1
  0 <= x_7 <= 1
  0 <= x_8 <= 1
  0 <= x_9 <= 1
  0 <= x_10 <= 1
  0 <= x_11 <= 1
  0 <= x_12 <= 1
  0 <= x_13 <= 1
  0 <= x_14 <= 1
  0 <= x_15 <= 1
  0 <= x_16 <= 1
  0 <= x_17 <= 1
  0 <= x_18 <= 1
  0 <= x_19 <= 1
  0 <= x_20 <= 1
  0 <= x_21 <= 1
  0 <= x_22 <= 1
  0 <= x_23 <= 1
  0 <= x_24 <= 1
  0 <= x_25 <= 1
  0 <= x_26 <= 1
  0 <= x_27 <= 1
  0 <= x_28 <= 1
  0 <= x_29 <= 1
  0 <= x_30 <= 1
  0 <= x_31 <= 1
  0 <= x_32 <= 1
  0 <= x_33 <= 1
  0 <= x_34 <= 1
  0 <= x_35 <= 1
  0 <= x_36 <= 1
  0 <= x_37 <= 1
  0 <= x_38 <= 1
  0 <= x_39 <= 1
  0 <= x_40 <= 1
End
