Subject To
	c_1: + 4 x_1 + 13 x_2 + 46 x_3 + 18 x_4 + 43 x_5 + 22 x_6 + 43 x_7 + 33 x_8 + 17 x_9 + 41 x_10 + 8 x_11 + 25 x_12 + 48 x_13 + 32 x_14 + 13 x_15 + 9 x_16 + 12 x_17 + 15 x_18 + 35 x_19 + 18 x_20 + 46 x_21 + 39 x_22 + 10 x_23 + 44 x_24 + 11 x_25 + 14 x_26 + 29 x_27 + 10 x_28 + 37 x_29 + 15 x_30 + 41 x_31 + 22 x_32 + 46 x_33 + 39 x_34 + 21 x_35 + 36 x_36 + 15 x_37 + 15 x_38 + 1 x_39 + 44 x_40 = 722
	c_2: + 38 x_1 + 7 x_2 + 47 x_3 + 33 x_4 + 49 x_5 + 37 x_6 + 37 x_7 + 10 x_8 + 27 x_9 + 20 x_10 + 7 x_11 + 25 x_12 + 34 x_13 + 44 x_14 + 4 x_15 + 49 x_16 + 15 x_17 + 20 x_18 + 47 x_19 + 41 x_20 + 36 x_21 + 37 x_22 + 11 x_23 + 25 x_24 + 7 x_25 + 20 x_26 + 32 x_27 + 9 x_28 + 49 x_29 + 37 x_30 + 42 x_31 + 17 x_32 + 22 x_33 + 33 x_34 + 7 x_35 + 5 x_36 + 31 x_37 + 34 x_38 + 32 x_39 + 6 x_40 = 575
	c_3: + 9 x_1 + 43 x_2 + 6 x_3 + 24 x_4 + 47 x_5 + 15 x_6 + 28 x_7 + 4 x_8 + 3 x_9 + 12 x_10 + 2 x_11 + 9 x_12 + 20 x_13 + 47 x_14 + 32 x_15 + 36 x_16 + 49 x_17 + 37 x_18 + 29 x_19 + 18 x_20 + 27 x_21 + 41 x_22 + 48 x_23 + 50 x_24 + 44 x_25 + 8 x_26 + 45 x_27 + 50 x_28 + 19 x_29 + 1 x_30 + 13 x_31 + 34 x_32 + 49 x_33 + 36 x_34 + 47 x_35 + 12 x_36 + 5 x_37 + 2 x_38 + 28 x_39 + 43 x_40 = 528
	c_4: + 3 x_1 + 46 x_2 + 13 x_3 + 32 x_4 + 41 x_5 + 23 x_6 + 3 x_7 + 11 x_8 + 33 x_9 + 17 x_10 + 45 x_11 + 23 x_12 + 22 x_13 + 14 x_14 + 20 x_15 + 42 x_16 + 21 x_17 + 36 x_18 + 11 x_19 + 28 x_20 + 40 x_21 + 35 x_22 + 24 x_23 + 9 x_24 + 8 x_25 + 1 x_26 + 28 x_27 + 16 x_28 + 42 x_29 + 17 x_30 + 3 x_31 + 16 x_32 + 3 x_33 + 13 x_34 + 50 x_35 + 41 x_36 + 6 x_37 + 7 x_38 + 10 x_39 + 8 x_40 = 354
	c_5: + 48 x_1 + 3 x_2 + 37 x_3 + 10 x_4 + 47 x_5 + 31 x_6 + 26 x_7 + 45 x_8 + 2 x_9 + 22 x_10 + 13 x_11 + 6 x_12 + 41 x_13 + 45 x_14 + 48 x_15 + 13 x_16 + 16 x_17 + 42 x_18 + 14 x_19 + 20 x_20 + 44 x_21 + 29 x_22 + 16 x_23 + 20 x_24 + 50 x_25 + 50 x_26 + 25 x_27 + 38 x_28 + 8 x_29 + 49 x_30 + 36 x_31 + 19 x_32 + 46 x_33 + 30 x_34 + 10 x_35 + 11 x_36 + 14 x_37 + 16 x_38 + 6 x_39 + 21 x_40 = 547
	c_6: + 34 x_1 + 39 x_2 + 22 x_3 + 2 x_4 + 4 x_5 + 47 x_6 + 39 x_7 + 36 x_8 + 25 x_9 + 37 x_10 + 1 x_11 + 49 x_12 + 39 x_13 + 5 x_14 + 40 x_15 + 24 x_16 + 6 x_17 + 38 x_18 + 7 x_19 + 40 x_20 + 49 x_21 + 29 x_22 + 49 x_23 + 5 x_24 + 1 x_25 + 34 x_26 + 43 x_27 + 8 x_28 + 16 x_29 + 37 x_30 + 38 x_31 + 43 x_32 + 41 x_33 + 38 x_34 + 2 x_35 + 24 x_36 + 18 x_37 + 30 x_38 + 49 x_39 + 19 x_40 = 491
	c_7: + 48 x_1 + 46 x_2 + 14 x_3 + 16 x_4 + 50 x_5 + 10 x_6 + 8 x_7 + 18 x_8 + 12 x_9 + 11 x_10 + 20 x_11 + 35 x_12 + 31 x_13 + 4 x_14 + 1 x_15 + 36 x_16 + 40 x_17 + 50 x_18 + 46 x_19 + 27 x_20 + 1 x_21 + 24 x_22 + 13 x_23 + 50 x_24 + 47 x_25 + 1 x_26 + 13 x_27 + 6 x_28 + 38 x_29 + 42 x_30 + 47 x_31 + 44 x_32 + 3 x_33 + 40 x_34 + 47 x_35 + 33 x_36 + 39 x_37 + 16 x_38 + 2 x_39 + 37 x_40 = 468
	c_8: + 44 x_1 + 50 x_2 + 17 x_3 + 8 x_4 + 26 x_5 + 10 x_6 + 23 x_7 + 41 x_8 + 3 x_9 + 17 x_10 + 10 x_11 + 1 x_12 + 12 x_13 + 45 x_14 + 1 x_15 + 42 x_16 + 28 x_17 + 14 x_18 + 26 x_19 + 13 x_20 + 49 x_21 + 2 x_22 + 38 x_23 + 10 x_24 + 44 x_25 + 9 x_26 + 41 x_27 + 38 x_28 + 43 x_29 + 23 x_30 + 45 x_31 + 36 x_32 + 29 x_33 + 45 x_34 + 3 x_35 + 49 x_36 + 19 x_37 + 44 x_38 + 25 x_39 + 46 x_40 = 566
	c_9: + 38 x_1 + 3 x_2 + 27 x_3 + 33 x_4 + 6 x_5 + 16 x_6 + 1 x_7 + 45 x_8 + 1 x_9 + 13 x_10 + 32 x_11 + 5 x_12 + 7 x_13 + 29 x_14 + 12 x_15 + 29 x_16 + 49 x_17 + 35 x_18 + 35 x_19 + 1 x_20 + 33 x_21 + 15 x_22 + 14 x_23 + 16 x_24 + 21 x_25 + 4 x_26 + 6 x_27 + 22 x_28 + 44 x_29 + 38 x_30 + 15 x_31 + 28 x_32 + 2 x_33 + 43 x_34 + 36 x_35 + 18 x_36 + 25 x_37 + 9 x_38 + 34 x_39 + 5 x_40 = 360
	c_10: + 36 x_1 + 46 x_2 + 24 x_3 + 28 x_4 + 11 x_5 + 35 x_6 + 17 x_7 + 23 x_8 + 9 x_9 + 43 x_10 + 40 x_11 + 4 x_12 + 12 x_13 + 44 x_14 + 32 x_15 + 29 x_16 + 27 x_17 + 23 x_18 + 33 x_19 + 40 x_20 + 13 x_21 + 11 x_22 + 40 x_23 + 39 x_24 + 1 x_25 + 30 x_26 + 46 x_27 + 40 x_28 + 30 x_29 + 35 x_30 + 30 x_31 + 48 x_32 + 49 x_33 + 31 x_34 + 44 x_35 + 19 x_36 + 2 x_37 + 36 x_38 + 42 x_39 + 5 x_40 = 480
	c_11: + 13 x_1 + 31 x_2 + 5 x_3 + 31 x_4 + 25 x_5 + 24 x_6 + 21 x_7 + 37 x_8 + 8 x_9 + 26 x_10 + 18 x_11 + 16 x_12 + 47 x_13 + 10 x_14 + 8 x_15 + 16 x_16 + 50 x_17 + 33 x_18 + 29 x_19 + 42 x_20 + 47 x_21 + 3 x_22 + 6 x_23 + 48 x_24 + 43 x_25 + 26 x_26 + 5 x_27 + 11 x_28 + 36 x_29 + 38 x_30 + 9 x_31 + 24 x_32 + 40 x_33 + 22 x_34 + 21 x_35 + 42 x_36 + 9 x_37 + 39 x_38 + 14 x_39 + 33 x_40 = 485
	c_12: + 46 x_1 + 29 x_2 + 46 x_3 + 21 x_4 + 4 x_5 + 38 x_6 + 32 x_7 + 3 x_8 + 14 x_9 + 3 x_10 + 12 x_11 + 45 x_12 + 28 x_13 + 2 x_14 + 9 x_15 + 11 x_16 + 40 x_17 + 40 x_18 + 42 x_19 + 48 x_20 + 19 x_21 + 19 x_22 + 48 x_23 + 32 x_24 + 39 x_25 + 15 x_26 + 32 x_27 + 50 x_28 + 41 x_29 + 43 x_30 + 48 x_31 + 8 x_32 + 27 x_33 + 11 x_34 + 50 x_35 + 15 x_36 + 23 x_37 + 23 x_38 + 20 x_39 + 35 x_40 = 439
	c_13: + 29 x_1 + 34 x_2 + 1 x_3 + 48 x_4 + 34 x_5 + 28 x_6 + 50 x_7 + 16 x_8 + 3 x_9 + 4 x_10 + 50 x_11 + 39 x_12 + 34 x_13 + 47 x_14 + 38 x_15 + 29 x_16 + 49 x_17 + 4 x_18 + 44 x_19 + 34 x_20 + 40 x_21 + 27 x_22 + 40 x_23 + 8 x_24 + 27 x_25 + 46 x_26 + 1 x_27 + 26 x_28 + 38 x_29 + 9 x_30 + 38 x_31 + 4 x_32 + 18 x_33 + 10 x_34 + 7 x_35 + 7 x_36 + 42 x_37 + 6 x_38 + 29 x_39 + 16 x_40 = 433
	c_14: + 3 x_1 + 38 x_2 + 15 x_3 + 7 x_4 + 33 x_5 + 15 x_6 + 49 x_7 + 42 x_8 + 36 x_9 + 50 x_10 + 21 x_11 + 13 x_12 + 35 x_13 + 18 x_14 + 5 x_15 + 42 x_16 + 23 x_17 + 42 x_18 + 12 x_19 + 2 x_20 + 2 x_21 + 49 x_22 + 43 x_23 + 14 x_24 + 11 x_25 + 25 x_26 + 30 x_27 + 7 x_28 + 16 x_29 + 22 x_30 + 16 x_31 + 5 x_32 + 37 x_33 + 6 x_34 + 39 x_35 + 25 x_36 + 46 x_37 + 27 x_38 + 10 x_39 + 45 x_40 = 494
	c_15: + 44 x_1 + 34 x_2 + 11 x_3 + 30 x_4 + 47 x_5 + 4 x_6 + 46 x_7 + 7 x_8 + 36 x_9 + 30 x_10 + 14 x_11 + 45 x_12 + 4 x_13 + 50 x_14 + 45 x_15 + 35 x_16 + 16 x_17 + 32 x_18 + 45 x_19 + 4 x_20 + 25 x_21 + 9 x_22 + 28 x_23 + 26 x_24 + 32 x_25 + 12 x_26 + 48 x_27 + 23 x_28 + 22 x_29 + 12 x_30 + 16 x_31 + 22 x_32 + 17 x_33 + 50 x_34 + 50 x_35 + 18 x_36 + 38 x_37 + 16 x_38 + 24 x_39 + 10 x_40 = 481
Bounds
  0 <= x_1 <= 1
  0 <= x_2 <= 1
  0 <= x_3 <= 1
  0 <= x_4 <= 1
  0 <= x_5 <= 1
  0 <= x_6 <= 1
  0 <= x_7 <= 1
  0 <= x_8 <= 1
  0 <= x_9 <= 1
  0 <= x_10 <= 1
  0 <= x_11 <= 1
  0 <= x_12 <= 1
  0 <= x_13 <= 1
  0 <= x_14 <= 1
  0 <= x_15 <= 1
  0 <= x_16 <= 1
  0 <= x_17 <= 1
  0 <= x_18 <= 1
  0 <= x_19 <= 1
  0 <= x_20 <= 1
  0 <= x_21 <= 1
  0 <= x_22 <= 1
  0 <= x_23 <= 1
  0 <= x_24 <= 1
  0 <= x_25 <= 1
  0 <= x_26 <= 1
  0 <= x_27 <= 1
  0 <= x_28 <= 1
  0 <= x_29 <= 1
  0 <= x_30 <= 1
  0 <= x_31 <= 1
  0 <= x_32 <= 1
  0 <= x_33 <= 1
  0 <= x_34 <= 1
  0 <= x_35 <= 1
  0 <= x_36 <= 1
  0 <= x_37 <= 1
  0 <= x_38 <= 1
  0 <= x_39 <= 1
  0 <= x_40 <= 1
End
