Subject To
	c_1: + 11 x_1 + 46 x_2 + 13 x_3 + 46 x_4 + 24 x_5 + 33 x_6 + 3 x_7 + 14 x_8 + 2 x_9 + 11 x_10 + 21 x_11 + 34 x_12 + 7 x_13 + 43 x_14 + 11 x_15 + 7 x_16 + 13 x_17 + 17 x_18 + 11 x_19 + 35 x_20 + 32 x_21 + 35 x_22 + 3 x_23 + 47 x_24 + 25 x_25 + 39 x_26 + 39 x_27 + 32 x_28 + 6 x_29 + 48 x_30 + 43 x_31 + 21 x_32 + 37 x_33 + 43 x_34 + 37 x_35 + 6 x_36 + 8 x_37 + 50 x_38 + 32 x_39 + 8 x_40 = 751
	c_2: + 12 x_1 + 6 x_2 + 33 x_3 + 30 x_4 + 37 x_5 + 7 x_6 + 14 x_7 + 20 x_8 + 50 x_9 + 34 x_10 + 35 x_11 + 22 x_12 + 2 x_13 + 44 x_14 + 20 x_15 + 2 x_16 + 20 x_17 + 36 x_18 + 28 x_19 + 20 x_20 + 44 x_21 + 44 x_22 + 10 x_23 + 33 x_24 + 36 x_25 + 35 x_26 + 18 x_27 + 36 x_28 + 13 x_29 + 14 x_30 + 30 x_31 + 12 x_32 + 34 x_33 + 2 x_34 + 31 x_35 + 6 x_36 + 2 x_37 + 11 x_38 + 49 x_39 + 36 x_40 = 510
	c_3: + 9 x_1 + 41 x_2 + 30 x_3 + 12 x_4 + 20 x_5 + 8 x_6 + 44 x_7 + 30 x_8 + 19 x_9 + 37 x_10 + 19 x_11 + 50 x_12 + 4 x_13 + 49 x_14 + 47 x_15 + 4 x_16 + 30 x_17 + 19 x_18 + 36 x_19 + 34 x_20 + 46 x_21 + 20 x_22 + 38 x_23 + 31 x_24 + 46 x_25 + 28 x_26 + 9 x_27 + 29 x_28 + 17 x_29 + 44 x_30 + 22 x_31 + 21 x_32 + 39 x_33 + 23 x_34 + 34 x_35 + 17 x_36 + 4 x_37 + 20 x_38 + 4 x_39 + 31 x_40 = 543
	c_4: + 30 x_1 + 50 x_2 + 49 x_3 + 35 x_4 + 28 x_5 + 10 x_6 + 10 x_7 + 34 x_8 + 16 x_9 + 37 x_10 + 12 x_11 + 33 x_12 + 17 x_13 + 4 x_14 + 42 x_15 + 4 x_16 + 32 x_17 + 18 x_18 + 9 x_19 + 13 x_20 + 10 x_21 + 29 x_22 + 3 x_23 + 34 x_24 + 23 x_25 + 32 x_26 + 1 x_27 + 49 x_28 + 13 x_29 + 36 x_30 + 10 x_31 + 25 x_32 + 14 x_33 + 19 x_34 + 39 x_35 + 50 x_36 + 1 x_37 + 19 x_38 + 2 x_39 + 5 x_40 = 439
	c_5: + 21 x_1 + 29 x_2 + 19 x_3 + 33 x_4 + 4 x_5 + 41 x_6 + 9 x_7 + 4 x_8 + 29 x_9 + 32 x_10 + 42 x_11 + 29 x_12 + 29 x_13 + 13 x_14 + 29 x_15 + 44 x_16 + 6 x_17 + 21 x_18 + 27 x_19 + 1 x_20 + 43 x_21 + 46 x_22 + 10 x_23 + 13 x_24 + 36 x_25 + 7 x_26 + 15 x_27 + 4 x_28 + 8 x_29 + 4 x_30 + 19 x_31 + 2 x_32 + 48 x_33 + 16 x_34 + 50 x_35 + 24 x_36 + 2 x_37 + 32 x_38 + 35 x_39 + 50 x_40 = 478
	c_6: + 11 x_1 + 30 x_2 + 27 x_3 + 14 x_4 + 45 x_5 + 22 x_6 + 41 x_7 + 48 x_8 + 42 x_9 + 24 x_10 + 20 x_11 + 50 x_12 + 22 x_13 + 20 x_14 + 20 x_15 + 7 x_16 + 43 x_17 + 9 x_18 + 50 x_19 + 24 x_20 + 1 x_21 + 28 x_22 + 50 x_23 + 29 x_24 + 2 x_25 + 42 x_26 + 14 x_27 + 39 x_28 + 24 x_29 + 19 x_30 + 34 x_31 + 9 x_32 + 38 x_33 + 5 x_34 + 2 x_35 + 23 x_36 + 5 x_37 + 24 x_38 + 2 x_39 + 36 x_40 = 437
	c_7: + 39 x_1 + 33 x_2 + 35 x_3 + 6 x_4 + 11 x_5 + 33 x_6 + 28 x_7 + 2 x_8 + 43 x_9 + 11 x_10 + 45 x_11 + 37 x_12 + 21 x_13 + 11 x_14 + 44 x_15 + 24 x_16 + 49 x_17 + 18 x_18 + 48 x_19 + 46 x_20 + 22 x_21 + 17 x_22 + 42 x_23 + 37 x_24 + 27 x_25 + 50 x_26 + 33 x_27 + 34 x_28 + 35 x_29 + 29 x_30 + 49 x_31 + 1 x_32 + 19 x_33 + 45 x_34 + 30 x_35 + 25 x_36 + 45 x_37 + 20 x_38 + 33 x_39 + 18 x_40 = 584
	c_8: + 33 x_1 + 18 x_2 + 25 x_3 + 26 x_4 + 44 x_5 + 11 x_6 + 6 x_7 + 36 x_8 + 37 x_9 + 35 x_10 + 43 x_11 + 47 x_12 + 22 x_13 + 26 x_14 + 11 x_15 + 1 x_16 + 21 x_17 + 7 x_18 + 50 x_19 + 8 x_20 + 43 x_21 + 31 x_22 + 43 x_23 + 6 x_24 + 36 x_25 + 1 x_26 + 11 x_27 + 10 x_28 + 50 x_29 + 33 x_30 + 37 x_31 + 42 x_32 + 34 x_33 + 31 x_34 + 3 x_35 + 3 x_36 + 28 x_37 + 33 x_38 + 44 x_39 + 45 x_40 = 453
	c_9: + 29 x_1 + 37 x_2 + 48 x_3 + 15 x_4 + 27 x_5 + 12 x_6 + 36 x_7 + 43 x_8 + 41 x_9 + 38 x_10 + 38 x_11 + 27 x_12 + 38 x_13 + 34 x_14 + 4 x_15 + 19 x_16 + 8 x_17 + 14 x_18 + 43 x_19 + 16 x_20 + 36 x_21 + 23 x_22 + 42 x_23 + 44 x_24 + 47 x_25 + 44 x_26 + 3 x_27 + 47 x_28 + 9 x_29 + 36 x_30 + 26 x_31 + 11 x_32 + 49 x_33 + 42 x_34 + 14 x_35 + 28 x_36 + 21 x_37 + 5 x_38 + 40 x_39 + 30 x_40 = 550
	c_10: + 15 x_1 + 2 x_2 + 29 x_3 + 10 x_4 + 1 x_5 + 33 x_6 + 4 x_7 + 41 x_8 + 20 x_9 + 4 x_10 + 17 x_11 + 23 x_12 + 16 x_13 + 39 x_14 + 20 x_15 + 2 x_16 + 28 x_17 + 41 x_18 + 27 x_19 + 13 x_20 + 31 x_21 + 29 x_22 + 11 x_23 + 3 x_24 + 39 x_25 + 39 x_26 + 48 x_27 + 42 x_28 + 17 x_29 + 24 x_30 + 39 x_31 + 33 x_32 + 29 x_33 + 21 x_34 + 7 x_35 + 39 x_36 + 26 x_37 + 41 x_38 + 31 x_39 + 10 x_40 = 504
	c_11: + 6 x_1 + 20 x_2 + 8 x_3 + 18 x_4 + 47 x_5 + 1 x_6 + 40 x_7 + 37 x_8 + 30 x_9 + 26 x_10 + 47 x_11 + 16 x_12 + 10 x_13 + 17 x_14 + 50 x_15 + 35 x_16 + 17 x_17 + 3 x_18 + 22 x_19 + 6 x_20 + 42 x_21 + 20 x_22 + 20 x_23 + 14 x_24 + 15 x_25 + 12 x_26 + 31 x_27 + 46 x_28 + 19 x_29 + 50 x_30 + 32 x_31 + 43 x_32 + 20 x_33 + 48 x_34 + 12 x_35 + 32 x_36 + 12 x_37 + 44 x_38 + 22 x_39 + 36 x_40 = 471
	c_12: + 36 x_1 + 37 x_2 + 5 x_3 + 1 x_4 + 23 x_5 + 22 x_6 + 21 x_7 + 11 x_8 + 38 x_9 + 48 x_10 + 14 x_11 + 4 x_12 + 40 x_13 + 31 x_14 + 35 x_15 + 44 x_16 + 20 x_17 + 40 x_18 + 30 x_19 + 45 x_20 + 28 x_21 + 28 x_22 + 45 x_23 + 47 x_24 + 50 x_25 + 20 x_26 + 30 x_27 + 24 x_28 + 39 x_29 + 16 x_30 + 7 x_31 + 49 x_32 + 38 x_33 + 1 x_34 + 6 x_35 + 37 x_36 + 40 x_37 + 13 x_38 + 1 x_39 + 35 x_40 = 399
	c_13: + 20 x_1 + 12 x_2 + 48 x_3 + 11 x_4 + 33 x_5 + 38 x_6 + 27 x_7 + 28 x_8 + 36 x_9 + 26 x_10 + 37 x_11 + 32 x_12 + 47 x_13 + 13 x_14 + 14 x_15 + 23 x_16 + 26 x_17 + 38 x_18 + 28 x_19 + 46 x_20 + 38 x_21 + 31 x_22 + 45 x_23 + 12 x_24 + 20 x_25 + 9 x_26 + 39 x_27 + 38 x_28 + 15 x_29 + 50 x_30 + 16 x_31 + 5 x_32 + 18 x_33 + 22 x_34 + 16 x_35 + 5 x_36 + 39 x_37 + 31 x_38 + 14 x_39 + 20 x_40 = 486
	c_14: + 19 x_1 + 49 x_2 + 41 x_3 + 22 x_4 + 45 x_5 + 11 x_6 + 1 x_7 + 5 x_8 + 31 x_9 + 22 x_10 + 35 x_11 + 40 x_12 + 38 x_13 + 27 x_14 + 15 x_15 + 4 x_16 + 9 x_17 + 48 x_18 + 26 x_19 + 11 x_20 + 10 x_21 + 20 x_22 + 6 x_23 + 41 x_24 + 30 x_25 + 34 x_26 + 45 x_27 + 26 x_28 + 3 x_29 + 3 x_30 + 28 x_31 + 27 x_32 + 32 x_33 + 42 x_34 + 44 x_35 + 8 x_36 + 3 x_37 + 26 x_38 + 26 x_39 + 36 x_40 = 537
	c_15: + 42 x_1 + 26 x_2 + 32 x_3 + 20 x_4 + 17 x_5 + 34 x_6 + 16 x_7 + 1 x_8 + 1 x_9 + 29 x_10 + 49 x_11 + 27 x_12 + 49 x_13 + 17 x_14 + 14 x_15 + 9 x_16 + 47 x_17 + 15 x_18 + 34 x_19 + 16 x_20 + 1 x_21 + 41 x_22 + 12 x_23 + 34 x_24 + 10 x_25 + 33 x_26 + 25 x_27 + 22 x_28 + 33 x_29 + 42 x_30 + 12 x_31 + 47 x_32 + 47 x_33 + 17 x_34 + 43 x_35 + 6 x_36 + 40 x_37 + 34 x_38 + 14 x_39 + 3 x_40 = 505
Bounds
  0 <= x_1 <= 1
  0 <= x_2 <= 1
  0 <= x_3 <= 1
  0 <= x_4 <= 1
  0 <= x_5 <= 1
  0 <= x_6 <= 1
  0 <= x_7 <= 1
  0 <= x_8 <= 1
  0 <= x_9 <= 1
  0 <= x_10 <= 1
  0 <= x_11 <= 1
  0 <= x_12 <= 1
  0 <= x_13 <= 1
  0 <= x_14 <= 1
  0 <= x_15 <= 1
  0 <= x_16 <= 1
  0 <= x_17 <= 1
  0 <= x_18 <= 1
  0 <= x_19 <= 1
  0 <= x_20 <= 1
  0 <= x_21 <= 1
  0 <= x_22 <= 1
  0 <= x_23 <= 1
  0 <= x_24 <= 1
  0 <= x_25 <= 1
  0 <= x_26 <= 1
  0 <= x_27 <= 1
  0 <= x_28 <= 1
  0 <= x_29 <= 1
  0 <= x_30 <= 1
  0 <= x_31 <= 1
  0 <= x_32 <= 1
  0 <= x_33 <= 1
  0 <= x_34 <= 1
  0 <= x_35 <= 1
  0 <= x_36 <= 1
  0 <= x_37 <= 1
  0 <= x_38 <= 1
  0 <= x_39 <= 1
  0 <= x_40 <= 1
End
