Subject To
	c_1: + 15 x_1 + 23 x_2 + 12 x_3 + 15 x_4 + 49 x_5 + 26 x_6 + 5 x_7 + 31 x_8 + 22 x_9 + 31 x_10 + 31 x_11 + 30 x_12 + 16 x_13 + 15 x_14 + 18 x_15 + 45 x_16 + 41 x_17 + 20 x_18 + 14 x_19 + 38 x_20 + 41 x_21 + 50 x_22 + 22 x_23 + 21 x_24 + 1 x_25 + 33 x_26 + 2 x_27 + 2 x_28 + 18 x_29 + 16 x_30 + 35 x_31 + 1 x_32 + 28 x_33 + 11 x_34 + 41 x_35 + 24 x_36 + 12 x_37 + 30 x_38 + 42 x_39 + 4 x_40 = 622
	c_2: + 42 x_1 + 35 x_2 + 50 x_3 + 28 x_4 + 50 x_5 + 26 x_6 + 41 x_7 + 14 x_8 + 26 x_9 + 2 x_10 + 4 x_11 + 49 x_12 + 20 x_13 + 29 x_14 + 27 x_15 + 6 x_16 + 44 x_17 + 39 x_18 + 13 x_19 + 15 x_20 + 20 x_21 + 9 x_22 + 43 x_23 + 18 x_24 + 35 x_25 + 46 x_26 + 33 x_27 + 9 x_28 + 22 x_29 + 46 x_30 + 48 x_31 + 37 x_32 + 18 x_33 + 23 x_34 + 25 x_35 + 21 x_36 + 19 x_37 + 49 x_38 + 30 x_39 + 19 x_40 = 455
	c_3: + 1 x_1 + 4 x_2 + 20 x_3 + 43 x_4 + 11 x_5 + 28 x_6 + 16 x_7 + 7 x_8 + 32 x_9 + 4 x_10 + 26 x_11 + 25 x_12 + 35 x_13 + 45 x_14 + 19 x_15 + 8 x_16 + 45 x_17 + 12 x_18 + 43 x_19 + 47 x_20 + 44 x_21 + 1 x_22 + 39 x_23 + 49 x_24 + 31 x_25 + 30 x_26 + 46 x_27 + 38 x_28 + 43 x_29 + 3 x_30 + 46 x_31 + 46 x_32 + 33 x_33 + 15 x_34 + 17 x_35 + 23 x_36 + 31 x_37 + 30 x_38 + 11 x_39 + 41 x_40 = 413
	c_4: + 17 x_1 + 43 x_2 + 49 x_3 + 4 x_4 + 33 x_5 + 12 x_6 + 15 x_7 + 35 x_8 + 21 x_9 + 15 x_10 + 16 x_11 + 26 x_12 + 9 x_13 + 3 x_14 + 10 x_15 + 28 x_16 + 21 x_17 + 47 x_18 + 2 x_19 + 2 x_20 + 17 x_21 + 10 x_22 + 50 x_23 + 34 x_24 + 34 x_25 + 12 x_26 + 1 x_27 + 26 x_28 + 29 x_29 + 4 x_30 + 35 x_31 + 29 x_32 + 42 x_33 + 47 x_34 + 39 x_35 + 17 x_36 + 4 x_37 + 22 x_38 + 12 x_39 + 16 x_40 = 377
	c_5: + 41 x_1 + 50 x_2 + 50 x_3 + 45 x_4 + 39 x_5 + 22 x_6 + 2 x_7 + 24 x_8 + 39 x_9 + 36 x_10 + 48 x_11 + 28 x_12 + 20 x_13 + 4 x_14 + 48 x_15 + 16 x_16 + 28 x_17 + 13 x_18 + 15 x_19 + 39 x_20 + 22 x_21 + 14 x_22 + 19 x_23 + 23 x_24 + 35 x_25 + 50 x_26 + 14 x_27 + 22 x_28 + 44 x_29 + 4 x_30 + 18 x_31 + 32 x_32 + 7 x_33 + 36 x_34 + 29 x_35 + 21 x_36 + 8 x_37 + 11 x_38 + 13 x_39 + 40 x_40 = 444
	c_6: + 48 x_1 + 40 x_2 + 39 x_3 + 1 x_4 + 7 x_5 + 33 x_6 + 37 x_7 + 44 x_8 + 50 x_9 + 47 x_10 + 34 x_11 + 35 x_12 + 33 x_13 + 17 x_14 + 16 x_15 + 19 x_16 + 38 x_17 + 46 x_18 + 19 x_19 + 34 x_20 + 24 x_21 + 8 x_22 + 26 x_23 + 47 x_24 + 14 x_25 + 24 x_26 + 17 x_27 + 12 x_28 + 3 x_29 + 8 x_30 + 50 x_31 + 22 x_32 + 21 x_33 + 25 x_34 + 21 x_35 + 21 x_36 + 7 x_37 + 7 x_38 + 39 x_39 + 32 x_40 = 485
	c_7: + 5 x_1 + 26 x_2 + 42 x_3 + 11 x_4 + 46 x_5 + 22 x_6 + 26 x_7 + 41 x_8 + 7 x_9 + 29 x_10 + 14 x_11 + 49 x_12 + 36 x_13 + 33 x_14 + 27 x_15 + 15 x_16 + 30 x_17 + 50 x_18 + 18 x_19 + 43 x_20 + 3 x_21 + 36 x_22 + 37 x_23 + 31 x_24 + 22 x_25 + 6 x_26 + 14 x_27 + 26 x_28 + 48 x_29 + 34 x_30 + 46 x_31 + 8 x_32 + 21 x_33 + 15 x_34 + 23 x_35 + 45 x_36 + 10 x_37 + 17 x_38 + 14 x_39 + 49 x_40 = 455
	c_8: + 42 x_1 + 30 x_2 + 42 x_3 + 14 x_4 + 49 x_5 + 24 x_6 + 29 x_7 + 46 x_8 + 35 x_9 + 3 x_10 + 12 x_11 + 12 x_12 + 30 x_13 + 3 x_14 + 10 x_15 + 3 x_16 + 29 x_17 + 12 x_18 + 22 x_19 + 36 x_20 + 27 x_21 + 20 x_22 + 34 x_23 + 45 x_24 + 13 x_25 + 17 x_26 + 44 x_27 + 44 x_28 + 12 x_29 + 39 x_30 + 3 x_31 + 26 x_32 + 44 x_33 + 22 x_34 + 32 x_35 + 7 x_36 + 38 x_37 + 7 x_38 + 15 x_39 + 19 x_40 = 379
	c_9: + 46 x_1 + 27 x_2 + 36 x_3 + 33 x_4 + 26 x_5 + 30 x_6 + 18 x_7 + 8 x_8 + 42 x_9 + 39 x_10 + 28 x_11 + 16 x_12 + 41 x_13 + 9 x_14 + 24 x_15 + 20 x_16 + 27 x_17 + 43 x_18 + 14 x_19 + 49 x_20 + 14 x_21 + 9 x_22 + 10 x_23 + 35 x_24 + 48 x_25 + 36 x_26 + 32 x_27 + 31 x_28 + 34 x_29 + 2 x_30 + 36 x_31 + 2 x_32 + 9 x_33 + 45 x_34 + 21 x_35 + 30 x_36 + 2 x_37 + 43 x_38 + 42 x_39 + 10 x_40 = 453
	c_10: + 26 x_1 + 38 x_2 + 14 x_3 + 45 x_4 + 40 x_5 + 12 x_6 + 49 x_7 + 44 x_8 + 42 x_9 + 41 x_10 + 24 x_11 + 31 x_12 + 47 x_13 + 46 x_14 + 19 x_15 + 28 x_16 + 43 x_17 + 24 x_18 + 44 x_19 + 15 x_20 + 1 x_21 + 7 x_22 + 40 x_23 + 21 x_24 + 18 x_25 + 16 x_26 + 49 x_27 + 21 x_28 + 23 x_29 + 29 x_30 + 4 x_31 + 32 x_32 + 47 x_33 + 44 x_34 + 10 x_35 + 40 x_36 + 9 x_37 + 16 x_38 + 28 x_39 + 49 x_40 = 407
	c_11: + 20 x_1 + 18 x_2 + 49 x_3 + 15 x_4 + 45 x_5 + 41 x_6 + 44 x_7 + 10 x_8 + 8 x_9 + 50 x_10 + 7 x_11 + 22 x_12 + 24 x_13 + 9 x_14 + 36 x_15 + 32 x_16 + 47 x_17 + 6 x_18 + 16 x_19 + 1 x_20 + 45 x_21 + 48 x_22 + 15 x_23 + 39 x_24 + 50 x_25 + 41 x_26 + 33 x_27 + 5 x_28 + 16 x_29 + 37 x_30 + 25 x_31 + 31 x_32 + 49 x_33 + 48 x_34 + 21 x_35 + 31 x_36 + 23 x_37 + 7 x_38 + 24 x_39 + 2 x_40 = 515
	c_12: + 20 x_1 + 10 x_2 + 22 x_3 + 50 x_4 + 19 x_5 + 19 x_6 + 21 x_7 + 21 x_8 + 31 x_9 + 37 x_10 + 7 x_11 + 32 x_12 + 39 x_13 + 21 x_14 + 24 x_15 + 24 x_16 + 13 x_17 + 41 x_18 + 44 x_19 + 31 x_20 + 7 x_21 + 30 x_22 + 14 x_23 + 7 x_24 + 26 x_25 + 3 x_26 + 32 x_27 + 30 x_28 + 25 x_29 + 35 x_30 + 36 x_31 + 23 x_32 + 3 x_33 + 29 x_34 + 15 x_35 + 12 x_36 + 2 x_37 + 35 x_38 + 26 x_39 + 5 x_40 = 358
	c_13: + 40 x_1 + 26 x_2 + 31 x_3 + 5 x_4 + 10 x_5 + 44 x_6 + 27 x_7 + 26 x_8 + 27 x_9 + 46 x_10 + 1 x_11 + 10 x_12 + 31 x_13 + 41 x_14 + 23 x_15 + 1 x_16 + 8 x_17 + 17 x_18 + 14 x_19 + 8 x_20 + 27 x_21 + 22 x_22 + 7 x_23 + 23 x_24 + 21 x_25 + 6 x_26 + 30 x_27 + 28 x_28 + 34 x_29 + 47 x_30 + 33 x_31 + 21 x_32 + 44 x_33 + 11 x_34 + 40 x_35 + 34 x_36 + 31 x_37 + 45 x_38 + 34 x_39 + 34 x_40 = 405
	c_14: + 17 x_1 + 22 x_2 + 32 x_3 + 4 x_4 + 33 x_5 + 8 x_6 + 7 x_7 + 49 x_8 + 11 x_9 + 42 x_10 + 21 x_11 + 33 x_12 + 25 x_13 + 17 x_14 + 5 x_15 + 24 x_16 + 5 x_17 + 18 x_18 + 16 x_19 + 40 x_20 + 2 x_21 + 19 x_22 + 14 x_23 + 38 x_24 + 40 x_25 + 20 x_26 + 48 x_27 + 10 x_28 + 16 x_29 + 46 x_30 + 34 x_31 + 27 x_32 + 30 x_33 + 16 x_34 + 31 x_35 + 50 x_36 + 49 x_37 + 7 x_38 + 34 x_39 + 12 x_40 = 432
	c_15: + 9 x_1 + 35 x_2 + 7 x_3 + 17 x_4 + 15 x_5 + 35 x_6 + 9 x_7 + 34 x_8 + 7 x_9 + 44 x_10 + 47 x_11 + 22 x_12 + 25 x_13 + 6 x_14 + 26 x_15 + 35 x_16 + 15 x_17 + 33 x_18 + 4 x_19 + 15 x_20 + 16 x_21 + 37 x_22 + 22 x_23 + 15 x_24 + 49 x_25 + 48 x_26 + 29 x_27 + 32 x_28 + 38 x_29 + 7 x_30 + 28 x_31 + 6 x_32 + 40 x_33 + 45 x_34 + 27 x_35 + 39 x_36 + 11 x_37 + 47 x_38 + 11 x_39 + 19 x_40 = 516
Bounds
  0 <= x_1 <= 1
  0 <= x_2 <= 1
  0 <= x_3 <= 1
  0 <= x_4 <= 1
  0 <= x_5 <= 1
  0 <= x_6 <= 1
  0 <= x_7 <= 1
  0 <= x_8 <= 1
  0 <= x_9 <= 1
  0 <= x_10 <= 1
  0 <= x_11 <= 1
  0 <= x_12 <= 1
  0 <= x_13 <= 1
  0 <= x_14 <= 1
  0 <= x_15 <= 1
  0 <= x_16 <= 1
  0 <= x_17 <= 1
  0 <= x_18 <= 1
  0 <= x_19 <= 1
  0 <= x_20 <= 1
  0 <= x_21 <= 1
  0 <= x_22 <= 1
  0 <= x_23 <= 1
  0 <= x_24 <= 1
  0 <= x_25 <= 1
  0 <= x_26 <= 1
  0 <= x_27 <= 1
  0 <= x_28 <= 1
  0 <= x_29 <= 1
  0 <= x_30 <= 1
  0 <= x_31 <= 1
  0 <= x_32 <= 1
  0 <= x_33 <= 1
  0 <= x_34 <= 1
  0 <= x_35 <= 1
  0 <= x_36 <= 1
  0 <= x_37 <= 1
  0 <= x_38 <= 1
  0 <= x_39 <= 1
  0 <= x_40 <= 1
End
