Subject To
	c_1: + 11 x_1 + 19 x_2 + 39 x_3 + 43 x_4 + 23 x_5 + 30 x_6 + 23 x_7 + 7 x_8 + 46 x_9 + 44 x_10 + 30 x_11 + 18 x_12 + 50 x_13 + 38 x_14 + 25 x_15 + 3 x_16 + 23 x_17 + 49 x_18 + 6 x_19 + 14 x_20 + 22 x_21 + 27 x_22 + 30 x_23 + 18 x_24 + 50 x_25 + 38 x_26 + 24 x_27 + 17 x_28 + 9 x_29 + 20 x_30 + 16 x_31 + 2 x_32 + 48 x_33 + 38 x_34 + 33 x_35 + 4 x_36 + 50 x_37 + 50 x_38 + 17 x_39 + 26 x_40 = 759
	c_2: + 2 x_1 + 30 x_2 + 21 x_3 + 15 x_4 + 34 x_5 + 29 x_6 + 31 x_7 + 3 x_8 + 26 x_9 + 15 x_10 + 24 x_11 + 39 x_12 + 32 x_13 + 18 x_14 + 50 x_15 + 7 x_16 + 40 x_17 + 14 x_18 + 45 x_19 + 38 x_20 + 26 x_21 + 40 x_22 + 1 x_23 + 4 x_24 + 42 x_25 + 1 x_26 + 22 x_27 + 7 x_28 + 41 x_29 + 43 x_30 + 4 x_31 + 46 x_32 + 43 x_33 + 44 x_34 + 20 x_35 + 48 x_36 + 18 x_37 + 10 x_38 + 42 x_39 + 8 x_40 = 421
	c_3: + 5 x_1 + 27 x_2 + 36 x_3 + 48 x_4 + 19 x_5 + 26 x_6 + 40 x_7 + 34 x_8 + 6 x_9 + 5 x_10 + 34 x_11 + 29 x_12 + 5 x_13 + 9 x_14 + 39 x_15 + 14 x_16 + 38 x_17 + 32 x_18 + 16 x_19 + 30 x_20 + 46 x_21 + 36 x_22 + 16 x_23 + 22 x_24 + 24 x_25 + 34 x_26 + 26 x_27 + 29 x_28 + 24 x_29 + 12 x_30 + 34 x_31 + 45 x_32 + 40 x_33 + 5 x_34 + 37 x_35 + 40 x_36 + 48 x_37 + 26 x_38 + 26 x_39 + 25 x_40 = 492
	c_4: + 49 x_1 + 23 x_2 + 17 x_3 + 1 x_4 + 23 x_5 + 3 x_6 + 1 x_7 + 12 x_8 + 14 x_9 + 34 x_10 + 33 x_11 + 46 x_12 + 7 x_13 + 21 x_14 + 25 x_15 + 16 x_16 + 39 x_17 + 45 x_18 + 18 x_19 + 16 x_20 + 21 x_21 + 16 x_22 + 7 x_23 + 35 x_24 + 18 x_25 + 44 x_26 + 40 x_27 + 45 x_28 + 27 x_29 + 3 x_30 + 44 x_31 + 8 x_32 + 20 x_33 + 6 x_34 + 5 x_35 + 32 x_36 + 3 x_37 + 23 x_38 + 40 x_39 + 28 x_40 = 345
	c_5: + 28 x_1 + 27 x_2 + 30 x_3 + 32 x_4 + 8 x_5 + 10 x_6 + 22 x_7 + 48 x_8 + 13 x_9 + 40 x_10 + 28 x_11 + 39 x_12 + 20 x_13 + 28 x_14 + 23 x_15 + 35 x_16 + 21 x_17 + 39 x_18 + 12 x_19 + 33 x_20 + 16 x_21 + 27 x_22 + 34 x_23 + 30 x_24 + 26 x_25 + 30 x_26 + 6 x_27 + 11 x_28 + 31 x_29 + 50 x_30 + 6 x_31 + 15 x_32 + 15 x_33 + 21 x_34 + 34 x_35 + 35 x_36 + 38 x_37 + 43 x_38 + 40 x_39 + 2 x_40 = 510
	c_6: + 40 x_1 + 35 x_2 + 4 x_3 + 50 x_4 + 8 x_5 + 32 x_6 + 9 x_7 + 3 x_8 + 24 x_9 + 31 x_10 + 32 x_11 + 2 x_12 + 12 x_13 + 13 x_14 + 11 x_15 + 36 x_16 + 32 x_17 + 27 x_18 + 42 x_19 + 32 x_20 + 6 x_21 + 19 x_22 + 48 x_23 + 50 x_24 + 2 x_25 + 13 x_26 + 9 x_27 + 13 x_28 + 16 x_29 + 38 x_30 + 22 x_31 + 22 x_32 + 20 x_33 + 31 x_34 + 33 x_35 + 38 x_36 + 31 x_37 + 40 x_38 + 45 x_39 + 25 x_40 = 487
	c_7: + 39 x_1 + 37 x_2 + 5 x_3 + 12 x_4 + 47 x_5 + 27 x_6 + 49 x_7 + 1 x_8 + 19 x_9 + 34 x_10 + 4 x_11 + 2 x_12 + 13 x_13 + 6 x_14 + 29 x_15 + 27 x_16 + 1 x_17 + 34 x_18 + 31 x_19 + 4 x_20 + 19 x_21 + 14 x_22 + 40 x_23 + 47 x_24 + 50 x_25 + 45 x_26 + 23 x_27 + 37 x_28 + 42 x_29 + 25 x_30 + 8 x_31 + 44 x_32 + 27 x_33 + 15 x_34 + 30 x_35 + 28 x_36 + 2 x_37 + 28 x_38 + 27 x_39 + 13 x_40 = 418
	c_8: + 49 x_1 + 18 x_2 + 20 x_3 + 38 x_4 + 6 x_5 + 20 x_6 + 28 x_7 + 18 x_8 + 21 x_9 + 21 x_10 + 8 x_11 + 1 x_12 + 3 x_13 + 6 x_14 + 14 x_15 + 25 x_16 + 8 x_17 + 7 x_18 + 41 x_19 + 22 x_20 + 17 x_21 + 25 x_22 + 25 x_23 + 42 x_24 + 22 x_25 + 17 x_26 + 48 x_27 + 16 x_28 + 19 x_29 + 40 x_30 + 19 x_31 + 15 x_32 + 4 x_33 + 49 x_34 + 2 x_35 + 30 x_36 + 32 x_37 + 3 x_38 + 32 x_39 + 3 x_40 = 326
	c_9: + 29 x_1 + 44 x_2 + 29 x_3 + 36 x_4 + 19 x_5 + 45 x_6 + 49 x_7 + 34 x_8 + 23 x_9 + 8 x_10 + 34 x_11 + 39 x_12 + 24 x_13 + 23 x_14 + 50 x_15 + 30 x_16 + 8 x_17 + 47 x_18 + 4 x_19 + 36 x_20 + 29 x_21 + 34 x_22 + 17 x_23 + 42 x_24 + 35 x_25 + 33 x_26 + 27 x_27 + 7 x_28 + 19 x_29 + 37 x_30 + 14 x_31 + 6 x_32 + 50 x_33 + 3 x_34 + 11 x_35 + 28 x_36 + 45 x_37 + 24 x_38 + 17 x_39 + 3 x_40 = 524
	c_10: + 20 x_1 + 7 x_2 + 31 x_3 + 11 x_4 + 48 x_5 + 32 x_6 + 13 x_7 + 11 x_8 + 26 x_9 + 49 x_10 + 48 x_11 + 5 x_12 + 35 x_13 + 28 x_14 + 39 x_15 + 9 x_16 + 30 x_17 + 19 x_18 + 2 x_19 + 25 x_20 + 27 x_21 + 48 x_22 + 41 x_23 + 24 x_24 + 22 x_25 + 12 x_26 + 17 x_27 + 50 x_28 + 8 x_29 + 26 x_30 + 4 x_31 + 40 x_32 + 34 x_33 + 29 x_34 + 2 x_35 + 5 x_36 + 47 x_37 + 7 x_38 + 13 x_39 + 11 x_40 = 532
	c_11: + 24 x_1 + 45 x_2 + 7 x_3 + 22 x_4 + 27 x_5 + 38 x_6 + 44 x_7 + 49 x_8 + 35 x_9 + 8 x_10 + 45 x_11 + 47 x_12 + 44 x_13 + 37 x_14 + 24 x_15 + 33 x_16 + 48 x_17 + 33 x_18 + 29 x_19 + 33 x_20 + 18 x_21 + 20 x_22 + 20 x_23 + 18 x_24 + 29 x_25 + 1 x_26 + 43 x_27 + 10 x_28 + 22 x_29 + 25 x_30 + 24 x_31 + 34 x_32 + 17 x_33 + 16 x_34 + 10 x_35 + 1 x_36 + 30 x_37 + 16 x_38 + 16 x_39 + 18 x_40 = 446
	c_12: + 25 x_1 + 30 x_2 + 14 x_3 + 10 x_4 + 25 x_5 + 18 x_6 + 14 x_7 + 4 x_8 + 25 x_9 + 9 x_10 + 42 x_11 + 41 x_12 + 35 x_13 + 6 x_14 + 26 x_15 + 31 x_16 + 26 x_17 + 14 x_18 + 40 x_19 + 34 x_20 + 37 x_21 + 17 x_22 + 7 x_23 + 14 x_24 + 49 x_25 + 2 x_26 + 7 x_27 + 11 x_28 + 33 x_29 + 48 x_30 + 40 x_31 + 21 x_32 + 49 x_33 + 1 x_34 + 35 x_35 + 20 x_36 + 34 x_37 + 35 x_38 + 19 x_39 + 8 x_40 = 410
	c_13: + 38 x_1 + 44 x_2 + 42 x_3 + 29 x_4 + 17 x_5 + 21 x_6 + 4 x_7 + 12 x_8 + 17 x_9 + 12 x_10 + 47 x_11 + 41 x_12 + 47 x_13 + 40 x_14 + 10 x_15 + 19 x_16 + 12 x_17 + 43 x_18 + 3 x_19 + 9 x_20 + 12 x_21 + 41 x_22 + 24 x_23 + 17 x_24 + 37 x_25 + 42 x_26 + 49 x_27 + 48 x_28 + 1 x_29 + 32 x_30 + 26 x_31 + 43 x_32 + 36 x_33 + 33 x_34 + 11 x_35 + 6 x_36 + 48 x_37 + 8 x_38 + 38 x_39 + 2 x_40 = 580
	c_14: + 36 x_1 + 43 x_2 + 2 x_3 + 29 x_4 + 3 x_5 + 24 x_6 + 2 x_7 + 5 x_8 + 26 x_9 + 20 x_10 + 15 x_11 + 2 x_12 + 30 x_13 + 32 x_14 + 33 x_15 + 13 x_16 + 27 x_17 + 17 x_18 + 24 x_19 + 29 x_20 + 20 x_21 + 5 x_22 + 49 x_23 + 33 x_24 + 40 x_25 + 8 x_26 + 25 x_27 + 23 x_28 + 5 x_29 + 4 x_30 + 6 x_31 + 35 x_32 + 16 x_33 + 13 x_34 + 24 x_35 + 17 x_36 + 30 x_37 + 27 x_38 + 20 x_39 + 10 x_40 = 417
	c_15: + 40 x_1 + 48 x_2 + 28 x_3 + 15 x_4 + 47 x_5 + 31 x_6 + 39 x_7 + 7 x_8 + 20 x_9 + 38 x_10 + 40 x_11 + 31 x_12 + 6 x_13 + 8 x_14 + 37 x_15 + 20 x_16 + 29 x_17 + 40 x_18 + 49 x_19 + 33 x_20 + 30 x_21 + 7 x_22 + 6 x_23 + 35 x_24 + 45 x_25 + 37 x_26 + 18 x_27 + 31 x_28 + 15 x_29 + 42 x_30 + 17 x_31 + 43 x_32 + 6 x_33 + 49 x_34 + 1 x_35 + 27 x_36 + 9 x_37 + 13 x_38 + 31 x_39 + 1 x_40 = 400
Bounds
  0 <= x_1 <= 1
  0 <= x_2 <= 1
  0 <= x_3 <= 1
  0 <= x_4 <= 1
  0 <= x_5 <= 1
  0 <= x_6 <= 1
  0 <= x_7 <= 1
  0 <= x_8 <= 1
  0 <= x_9 <= 1
  0 <= x_10 <= 1
  0 <= x_11 <= 1
  0 <= x_12 <= 1
  0 <= x_13 <= 1
  0 <= x_14 <= 1
  0 <= x_15 <= 1
  0 <= x_16 <= 1
  0 <= x_17 <= 1
  0 <= x_18 <= 1
  0 <= x_19 <= 1
  0 <= x_20 <= 1
  0 <= x_21 <= 1
  0 <= x_22 <= 1
  0 <= x_23 <= 1
  0 <= x_24 <= 1
  0 <= x_25 <= 1
  0 <= x_26 <= 1
  0 <= x_27 <= 1
  0 <= x_28 <= 1
  0 <= x_29 <= 1
  0 <= x_30 <= 1
  0 <= x_31 <= 1
  0 <= x_32 <= 1
  0 <= x_33 <= 1
  0 <= x_34 <= 1
  0 <= x_35 <= 1
  0 <= x_36 <= 1
  0 <= x_37 <= 1
  0 <= x_38 <= 1
  0 <= x_39 <= 1
  0 <= x_40 <= 1
End
