Subject To
	c_1: + 49 x_1 + 9 x_2 + 8 x_3 + 21 x_4 + 3 x_5 + 10 x_6 + 39 x_7 + 19 x_8 + 10 x_9 + 4 x_10 + 24 x_11 + 32 x_12 + 21 x_13 + 28 x_14 + 45 x_15 + 29 x_16 + 12 x_17 + 1 x_18 + 36 x_19 + 33 x_20 + 36 x_21 + 43 x_22 + 17 x_23 + 49 x_24 + 17 x_25 + 38 x_26 + 11 x_27 + 7 x_28 + 11 x_29 + 25 x_30 + 45 x_31 + 21 x_32 + 2 x_33 + 30 x_34 + 41 x_35 + 42 x_36 + 33 x_37 + 27 x_38 + 7 x_39 + 26 x_40 = 701
	c_2: + 9 x_1 + 36 x_2 + 2 x_3 + 8 x_4 + 25 x_5 + 1 x_6 + 33 x_7 + 44 x_8 + 17 x_9 + 28 x_10 + 8 x_11 + 11 x_12 + 13 x_13 + 32 x_14 + 48 x_15 + 2 x_16 + 3 x_17 + 16 x_18 + 15 x_19 + 45 x_20 + 44 x_21 + 26 x_22 + 49 x_23 + 32 x_24 + 20 x_25 + 18 x_26 + 10 x_27 + 46 x_28 + 36 x_29 + 11 x_30 + 15 x_31 + 12 x_32 + 30 x_33 + 44 x_34 + 16 x_35 + 30 x_36 + 8 x_37 + 5 x_38 + 7 x_39 + 17 x_40 = 450
	c_3: + 1 x_1 + 18 x_2 + 47 x_3 + 48 x_4 + 49 x_5 + 45 x_6 + 23 x_7 + 13 x_8 + 32 x_9 + 14 x_10 + 5 x_11 + 40 x_12 + 7 x_13 + 26 x_14 + 6 x_15 + 49 x_16 + 28 x_17 + 34 x_18 + 3 x_19 + 22 x_20 + 45 x_21 + 1 x_22 + 24 x_23 + 24 x_24 + 24 x_25 + 50 x_26 + 41 x_27 + 21 x_28 + 8 x_29 + 37 x_30 + 20 x_31 + 40 x_32 + 27 x_33 + 35 x_34 + 46 x_35 + 42 x_36 + 1 x_37 + 45 x_38 + 40 x_39 + 37 x_40 = 516
	c_4: + 16 x_1 + 21 x_2 + 3 x_3 + 28 x_4 + 8 x_5 + 48 x_6 + 23 x_7 + 39 x_8 + 7 x_9 + 44 x_10 + 34 x_11 + 38 x_12 + 41 x_13 + 7 x_14 + 37 x_15 + 5 x_16 + 29 x_17 + 50 x_18 + 29 x_19 + 1 x_20 + 5 x_21 + 27 x_22 + 11 x_23 + 1 x_24 + 30 x_25 + 13 x_26 + 17 x_27 + 32 x_28 + 2 x_29 + 26 x_30 + 2 x_31 + 47 x_32 + 15 x_33 + 43 x_34 + 34 x_35 + 8 x_36 + 6 x_37 + 26 x_38 + 33 x_39 + 48 x_40 = 369
	c_5: + 10 x_1 + 15 x_2 + 7 x_3 + 31 x_4 + 37 x_5 + 48 x_6 + 29 x_7 + 5 x_8 + 11 x_9 + 37 x_10 + 5 x_11 + 48 x_12 + 3 x_13 + 30 x_14 + 14 x_15 + 44 x_16 + 30 x_17 + 3 x_18 + 4 x_19 + 23 x_20 + 46 x_21 + 34 x_22 + 31 x_23 + 36 x_24 + 47 x_25 + 35 x_26 + 35 x_27 + 50 x_28 + 49 x_29 + 45 x_30 + 13 x_31 + 10 x_32 + 9 x_33 + 15 x_34 + 50 x_35 + 29 x_36 + 11 x_37 + 47 x_38 + 27 x_39 + 14 x_40 = 532
	c_6: + 41 x_1 + 48 x_2 + 12 x_3 + 49 x_4 + 37 x_5 + 29 x_6 + 13 x_7 + 46 x_8 + 24 x_9 + 21 x_10 + 32 x_11 + 6 x_12 + 35 x_13 + 37 x_14 + 29 x_15 + 36 x_16 + 44 x_17 + 33 x_18 + 13 x_19 + 50 x_20 + 46 x_21 + 1 x_22 + 31 x_23 + 30 x_24 + 9 x_25 + 31 x_26 + 32 x_27 + 21 x_28 + 44 x_29 + 9 x_30 + 47 x_31 + 50 x_32 + 50 x_33 + 4 x_34 + 30 x_35 + 10 x_36 + 49 x_37 + 15 x_38 + 13 x_39 + 17 x_40 = 505
	c_7: + 9 x_1 + 3 x_2 + 14 x_3 + 45 x_4 + 28 x_5 + 41 x_6 + 15 x_7 + 48 x_8 + 27 x_9 + 36 x_10 + 43 x_11 + 39 x_12 + 32 x_13 + 8 x_14 + 28 x_15 + 4 x_16 + 40 x_17 + 38 x_18 + 34 x_19 + 14 x_20 + 24 x_21 + 7 x_22 + 16 x_23 + 38 x_24 + 44 x_25 + 19 x_26 + 22 x_27 + 25 x_28 + 2 x_29 + 3 x_30 + 5 x_31 + 4 x_32 + 31 x_33 + 26 x_34 + 38 x_35 + 26 x_36 + 33 x_37 + 48 x_38 + 13 x_39 + 37 x_40 = 452
	c_8: + 41 x_1 + 25 x_2 + 34 x_3 + 2 x_4 + 7 x_5 + 28 x_6 + 7 x_7 + 11 x_8 + 24 x_9 + 40 x_10 + 13 x_11 + 7 x_12 + 15 x_13 + 31 x_14 + 9 x_15 + 16 x_16 + 6 x_17 + 31 x_18 + 33 x_19 + 13 x_20 + 17 x_21 + 7 x_22 + 28 x_23 + 43 x_24 + 19 x_25 + 23 x_26 + 28 x_27 + 49 x_28 + 47 x_29 + 47 x_30 + 4 x_31 + 24 x_32 + 41 x_33 + 28 x_34 + 2 x_35 + 43 x_36 + 5 x_37 + 17 x_38 + 30 x_39 + 13 x_40 = 359
	c_9: + 7 x_1 + 20 x_2 + 42 x_3 + 36 x_4 + 49 x_5 + 29 x_6 + 40 x_7 + 15 x_8 + 34 x_9 + 49 x_10 + 30 x_11 + 9 x_12 + 27 x_13 + 10 x_14 + 1 x_15 + 37 x_16 + 40 x_17 + 11 x_18 + 46 x_19 + 16 x_20 + 7 x_21 + 21 x_22 + 25 x_23 + 37 x_24 + 15 x_25 + 31 x_26 + 45 x_27 + 48 x_28 + 1 x_29 + 48 x_30 + 49 x_31 + 43 x_32 + 12 x_33 + 18 x_34 + 46 x_35 + 43 x_36 + 33 x_37 + 49 x_38 + 8 x_39 + 45 x_40 = 545
	c_10: + 12 x_1 + 22 x_2 + 1 x_3 + 11 x_4 + 41 x_5 + 42 x_6 + 8 x_7 + 17 x_8 + 49 x_9 + 33 x_10 + 35 x_11 + 14 x_12 + 33 x_13 + 28 x_14 + 42 x_15 + 44 x_16 + 35 x_17 + 38 x_18 + 47 x_19 + 18 x_20 + 21 x_21 + 19 x_22 + 15 x_23 + 22 x_24 + 47 x_25 + 17 x_26 + 31 x_27 + 35 x_28 + 13 x_29 + 45 x_30 + 33 x_31 + 10 x_32 + 31 x_33 + 7 x_34 + 40 x_35 + 27 x_36 + 1 x_37 + 13 x_38 + 30 x_39 + 12 x_40 = 425
	c_11: + 12 x_1 + 35 x_2 + 3 x_3 + 18 x_4 + 13 x_5 + 38 x_6 + 1 x_7 + 24 x_8 + 43 x_9 + 1 x_10 + 33 x_11 + 44 x_12 + 13 x_13 + 30 x_14 + 30 x_15 + 13 x_16 + 38 x_17 + 48 x_18 + 7 x_19 + 48 x_20 + 46 x_21 + 33 x_22 + 14 x_23 + 50 x_24 + 23 x_25 + 46 x_26 + 19 x_27 + 25 x_28 + 1 x_29 + 7 x_30 + 3 x_31 + 37 x_32 + 33 x_33 + 2 x_34 + 6 x_35 + 49 x_36 + 50 x_37 + 26 x_38 + 4 x_39 + 9 x_40 = 505
	c_12: + 17 x_1 + 7 x_2 + 4 x_3 + 28 x_4 + 3 x_5 + 13 x_6 + 28 x_7 + 28 x_8 + 7 x_9 + 42 x_10 + 38 x_11 + 26 x_12 + 47 x_13 + 37 x_14 + 4 x_15 + 20 x_16 + 24 x_17 + 18 x_18 + 19 x_19 + 43 x_20 + 39 x_21 + 45 x_22 + 2 x_23 + 6 x_24 + 21 x_25 + 6 x_26 + 41 x_27 + 29 x_28 + 3 x_29 + 26 x_30 + 12 x_31 + 6 x_32 + 20 x_33 + 36 x_34 + 15 x_35 + 37 x_36 + 22 x_37 + 36 x_38 + 44 x_39 + 23 x_40 = 471
	c_13: + 6 x_1 + 17 x_2 + 2 x_3 + 5 x_4 + 30 x_5 + 43 x_6 + 29 x_7 + 12 x_8 + 39 x_9 + 29 x_10 + 16 x_11 + 36 x_12 + 16 x_13 + 41 x_14 + 30 x_15 + 4 x_16 + 1 x_17 + 2 x_18 + 47 x_19 + 14 x_20 + 29 x_21 + 37 x_22 + 3 x_23 + 1 x_24 + 28 x_25 + 36 x_26 + 45 x_27 + 42 x_28 + 12 x_29 + 33 x_30 + 17 x_31 + 4 x_32 + 18 x_33 + 35 x_34 + 47 x_35 + 6 x_36 + 40 x_37 + 14 x_38 + 16 x_39 + 16 x_40 = 485
	c_14: + 12 x_1 + 41 x_2 + 48 x_3 + 50 x_4 + 30 x_5 + 1 x_6 + 9 x_7 + 3 x_8 + 26 x_9 + 38 x_10 + 19 x_11 + 28 x_12 + 46 x_13 + 40 x_14 + 17 x_15 + 31 x_16 + 44 x_17 + 7 x_18 + 12 x_19 + 27 x_20 + 26 x_21 + 44 x_22 + 35 x_23 + 40 x_24 + 12 x_25 + 26 x_26 + 45 x_27 + 8 x_28 + 31 x_29 + 27 x_30 + 33 x_31 + 39 x_32 + 21 x_33 + 10 x_34 + 39 x_35 + 46 x_36 + 26 x_37 + 46 x_38 + 13 x_39 + 42 x_40 = 554
	c_15: + 10 x_1 + 24 x_2 + 23 x_3 + 2 x_4 + 22 x_5 + 34 x_6 + 5 x_7 + 33 x_8 + 44 x_9 + 25 x_10 + 9 x_11 + 43 x_12 + 1 x_13 + 2 x_14 + 4 x_15 + 33 x_16 + 30 x_17 + 30 x_18 + 23 x_19 + 25 x_20 + 34 x_21 + 42 x_22 + 44 x_23 + 50 x_24 + 40 x_25 + 20 x_26 + 25 x_27 + 28 x_28 + 43 x_29 + 11 x_30 + 46 x_31 + 40 x_32 + 14 x_33 + 11 x_34 + 7 x_35 + 10 x_36 + 47 x_37 + 13 x_38 + 41 x_39 + 10 x_40 = 435
Bounds
  0 <= x_1 <= 1
  0 <= x_2 <= 1
  0 <= x_3 <= 1
  0 <= x_4 <= 1
  0 <= x_5 <= 1
  0 <= x_6 <= 1
  0 <= x_7 <= 1
  0 <= x_8 <= 1
  0 <= x_9 <= 1
  0 <= x_10 <= 1
  0 <= x_11 <= 1
  0 <= x_12 <= 1
  0 <= x_13 <= 1
  0 <= x_14 <= 1
  0 <= x_15 <= 1
  0 <= x_16 <= 1
  0 <= x_17 <= 1
  0 <= x_18 <= 1
  0 <= x_19 <= 1
  0 <= x_20 <= 1
  0 <= x_21 <= 1
  0 <= x_22 <= 1
  0 <= x_23 <= 1
  0 <= x_24 <= 1
  0 <= x_25 <= 1
  0 <= x_26 <= 1
  0 <= x_27 <= 1
  0 <= x_28 <= 1
  0 <= x_29 <= 1
  0 <= x_30 <= 1
  0 <= x_31 <= 1
  0 <= x_32 <= 1
  0 <= x_33 <= 1
  0 <= x_34 <= 1
  0 <= x_35 <= 1
  0 <= x_36 <= 1
  0 <= x_37 <= 1
  0 <= x_38 <= 1
  0 <= x_39 <= 1
  0 <= x_40 <= 1
End
