Subject To
	c_1: + 14 x_1 + 27 x_2 + 30 x_3 + 8 x_4 + 15 x_5 + 29 x_6 + 23 x_7 + 34 x_8 + 31 x_9 + 3 x_10 + 42 x_11 + 30 x_12 + 20 x_13 + 13 x_14 + 21 x_15 + 27 x_16 + 26 x_17 + 33 x_18 + 39 x_19 + 9 x_20 + 21 x_21 + 41 x_22 + 28 x_23 + 3 x_24 + 6 x_25 + 35 x_26 + 44 x_27 + 15 x_28 + 32 x_29 + 24 x_30 + 39 x_31 + 29 x_32 + 23 x_33 + 26 x_34 + 15 x_35 + 20 x_36 + 46 x_37 + 39 x_38 + 47 x_39 + 22 x_40 = 754
	c_2: + 41 x_1 + 18 x_2 + 1 x_3 + 13 x_4 + 27 x_5 + 7 x_6 + 23 x_7 + 34 x_8 + 24 x_9 + 35 x_10 + 21 x_11 + 17 x_12 + 13 x_13 + 33 x_14 + 43 x_15 + 11 x_16 + 49 x_17 + 4 x_18 + 40 x_19 + 1 x_20 + 48 x_21 + 38 x_22 + 27 x_23 + 42 x_24 + 44 x_25 + 12 x_26 + 19 x_27 + 24 x_28 + 11 x_29 + 50 x_30 + 6 x_31 + 45 x_32 + 5 x_33 + 46 x_34 + 30 x_35 + 41 x_36 + 44 x_37 + 19 x_38 + 32 x_39 + 35 x_40 = 525
	c_3: + 8 x_1 + 14 x_2 + 4 x_3 + 47 x_4 + 43 x_5 + 47 x_6 + 11 x_7 + 13 x_8 + 42 x_9 + 5 x_10 + 38 x_11 + 27 x_12 + 27 x_13 + 49 x_14 + 35 x_15 + 43 x_16 + 37 x_17 + 22 x_18 + 43 x_19 + 47 x_20 + 26 x_21 + 13 x_22 + 35 x_23 + 13 x_24 + 24 x_25 + 26 x_26 + 15 x_27 + 21 x_28 + 29 x_29 + 11 x_30 + 31 x_31 + 38 x_32 + 27 x_33 + 11 x_34 + 18 x_35 + 11 x_36 + 35 x_37 + 31 x_38 + 12 x_39 + 40 x_40 = 606
	c_4: + 35 x_1 + 35 x_2 + 31 x_3 + 9 x_4 + 42 x_5 + 17 x_6 + 3 x_7 + 11 x_8 + 2 x_9 + 26 x_10 + 20 x_11 + 36 x_12 + 32 x_13 + 44 x_14 + 6 x_15 + 17 x_16 + 43 x_17 + 40 x_18 + 43 x_19 + 50 x_20 + 42 x_21 + 15 x_22 + 46 x_23 + 10 x_24 + 12 x_25 + 25 x_26 + 21 x_27 + 32 x_28 + 7 x_29 + 26 x_30 + 35 x_31 + 10 x_32 + 46 x_33 + 17 x_34 + 26 x_35 + 42 x_36 + 22 x_37 + 25 x_38 + 11 x_39 + 23 x_40 = 529
	c_5: + 31 x_1 + 7 x_2 + 38 x_3 + 47 x_4 + 2 x_5 + 38 x_6 + 17 x_7 + 14 x_8 + 41 x_9 + 9 x_10 + 32 x_11 + 33 x_12 + 17 x_13 + 50 x_14 + 49 x_15 + 7 x_16 + 29 x_17 + 2 x_18 + 5 x_19 + 42 x_20 + 14 x_21 + 39 x_22 + 10 x_23 + 43 x_24 + 43 x_25 + 24 x_26 + 48 x_27 + 10 x_28 + 22 x_29 + 28 x_30 + 35 x_31 + 17 x_32 + 10 x_33 + 44 x_34 + 14 x_35 + 23 x_36 + 44 x_37 + 33 x_38 + 14 x_39 + 2 x_40 = 576
	c_6: + 16 x_1 + 15 x_2 + 10 x_3 + 4 x_4 + 33 x_5 + 8 x_6 + 45 x_7 + 22 x_8 + 35 x_9 + 3 x_10 + 35 x_11 + 24 x_12 + 47 x_13 + 5 x_14 + 8 x_15 + 40 x_16 + 15 x_17 + 29 x_18 + 39 x_19 + 5 x_20 + 32 x_21 + 47 x_22 + 12 x_23 + 20 x_24 + 48 x_25 + 43 x_26 + 7 x_27 + 48 x_28 + 28 x_29 + 13 x_30 + 35 x_31 + 29 x_32 + 5 x_33 + 37 x_34 + 23 x_35 + 8 x_36 + 2 x_37 + 40 x_38 + 5 x_39 + 47 x_40 = 557
	c_7: + 32 x_1 + 18 x_2 + 21 x_3 + 37 x_4 + 38 x_5 + 28 x_6 + 27 x_7 + 24 x_8 + 47 x_9 + 24 x_10 + 17 x_11 + 37 x_12 + 28 x_13 + 13 x_14 + 26 x_15 + 5 x_16 + 8 x_17 + 36 x_18 + 11 x_19 + 46 x_20 + 10 x_21 + 44 x_22 + 43 x_23 + 44 x_24 + 33 x_25 + 16 x_26 + 28 x_27 + 17 x_28 + 20 x_29 + 40 x_30 + 31 x_31 + 33 x_32 + 39 x_33 + 21 x_34 + 16 x_35 + 29 x_36 + 33 x_37 + 24 x_38 + 3 x_39 + 44 x_40 = 548
	c_8: + 49 x_1 + 45 x_2 + 41 x_3 + 42 x_4 + 49 x_5 + 2 x_6 + 9 x_7 + 17 x_8 + 48 x_9 + 10 x_10 + 10 x_11 + 3 x_12 + 46 x_13 + 11 x_14 + 46 x_15 + 32 x_16 + 49 x_17 + 28 x_18 + 45 x_19 + 9 x_20 + 36 x_21 + 22 x_22 + 18 x_23 + 35 x_24 + 2 x_25 + 35 x_26 + 28 x_27 + 32 x_28 + 29 x_29 + 48 x_30 + 18 x_31 + 39 x_32 + 6 x_33 + 31 x_34 + 13 x_35 + 39 x_36 + 20 x_37 + 12 x_38 + 28 x_39 + 12 x_40 = 600
	c_9: + 20 x_1 + 38 x_2 + 10 x_3 + 16 x_4 + 27 x_5 + 12 x_6 + 35 x_7 + 23 x_8 + 8 x_9 + 10 x_10 + 49 x_11 + 42 x_12 + 30 x_13 + 23 x_14 + 42 x_15 + 3 x_16 + 14 x_17 + 19 x_18 + 20 x_19 + 25 x_20 + 29 x_21 + 33 x_22 + 1 x_23 + 36 x_24 + 5 x_25 + 8 x_26 + 34 x_27 + 45 x_28 + 19 x_29 + 15 x_30 + 24 x_31 + 48 x_32 + 42 x_33 + 4 x_34 + 30 x_35 + 43 x_36 + 50 x_37 + 21 x_38 + 47 x_39 + 16 x_40 = 527
	c_10: + 44 x_1 + 26 x_2 + 22 x_3 + 11 x_4 + 36 x_5 + 8 x_6 + 36 x_7 + 1 x_8 + 2 x_9 + 20 x_10 + 27 x_11 + 43 x_12 + 38 x_13 + 11 x_14 + 7 x_15 + 22 x_16 + 31 x_17 + 24 x_18 + 14 x_19 + 37 x_20 + 48 x_21 + 25 x_22 + 10 x_23 + 45 x_24 + 19 x_25 + 50 x_26 + 11 x_27 + 25 x_28 + 38 x_29 + 7 x_30 + 9 x_31 + 24 x_32 + 8 x_33 + 49 x_34 + 13 x_35 + 13 x_36 + 25 x_37 + 38 x_38 + 17 x_39 + 45 x_40 = 516
	c_11: + 9 x_1 + 7 x_2 + 48 x_3 + 46 x_4 + 14 x_5 + 34 x_6 + 18 x_7 + 44 x_8 + 49 x_9 + 13 x_10 + 40 x_11 + 36 x_12 + 35 x_13 + 40 x_14 + 11 x_15 + 29 x_16 + 33 x_17 + 7 x_18 + 30 x_19 + 11 x_20 + 14 x_21 + 16 x_22 + 36 x_23 + 17 x_24 + 45 x_25 + 20 x_26 + 49 x_27 + 25 x_28 + 22 x_29 + 44 x_30 + 23 x_31 + 14 x_32 + 46 x_33 + 40 x_34 + 47 x_35 + 28 x_36 + 42 x_37 + 6 x_38 + 16 x_39 + 21 x_40 = 641
	c_12: + 43 x_1 + 20 x_2 + 4 x_3 + 5 x_4 + 20 x_5 + 22 x_6 + 10 x_7 + 23 x_8 + 3 x_9 + 38 x_10 + 23 x_11 + 38 x_12 + 28 x_13 + 35 x_14 + 47 x_15 + 2 x_16 + 34 x_17 + 16 x_18 + 33 x_19 + 5 x_20 + 43 x_21 + 42 x_22 + 5 x_23 + 18 x_24 + 16 x_25 + 49 x_26 + 33 x_27 + 50 x_28 + 50 x_29 + 22 x_30 + 18 x_31 + 15 x_32 + 12 x_33 + 32 x_34 + 4 x_35 + 43 x_36 + 30 x_37 + 24 x_38 + 26 x_39 + 10 x_40 = 542
	c_13: + 2 x_1 + 12 x_2 + 29 x_3 + 21 x_4 + 42 x_5 + 4 x_6 + 6 x_7 + 23 x_8 + 20 x_9 + 32 x_10 + 42 x_11 + 18 x_12 + 36 x_13 + 24 x_14 + 49 x_15 + 14 x_16 + 37 x_17 + 2 x_18 + 14 x_19 + 10 x_20 + 34 x_21 + 7 x_22 + 41 x_23 + 21 x_24 + 20 x_25 + 46 x_26 + 22 x_27 + 28 x_28 + 12 x_29 + 1 x_30 + 29 x_31 + 49 x_32 + 39 x_33 + 2 x_34 + 27 x_35 + 49 x_36 + 36 x_37 + 36 x_38 + 31 x_39 + 43 x_40 = 526
	c_14: + 46 x_1 + 33 x_2 + 20 x_3 + 7 x_4 + 14 x_5 + 37 x_6 + 25 x_7 + 5 x_8 + 4 x_9 + 1 x_10 + 41 x_11 + 38 x_12 + 37 x_13 + 4 x_14 + 8 x_15 + 50 x_16 + 47 x_17 + 27 x_18 + 45 x_19 + 46 x_20 + 36 x_21 + 45 x_22 + 19 x_23 + 2 x_24 + 17 x_25 + 26 x_26 + 2 x_27 + 19 x_28 + 34 x_29 + 14 x_30 + 37 x_31 + 23 x_32 + 18 x_33 + 24 x_34 + 50 x_35 + 41 x_36 + 9 x_37 + 36 x_38 + 42 x_39 + 48 x_40 = 644
	c_15: + 26 x_1 + 10 x_2 + 50 x_3 + 41 x_4 + 17 x_5 + 21 x_6 + 15 x_7 + 41 x_8 + 38 x_9 + 15 x_10 + 6 x_11 + 5 x_12 + 39 x_13 + 14 x_14 + 5 x_15 + 24 x_16 + 15 x_17 + 39 x_18 + 6 x_19 + 20 x_20 + 9 x_21 + 39 x_22 + 41 x_23 + 13 x_24 + 41 x_25 + 4 x_26 + 49 x_27 + 36 x_28 + 46 x_29 + 32 x_30 + 18 x_31 + 44 x_32 + 42 x_33 + 9 x_34 + 42 x_35 + 5 x_36 + 49 x_37 + 42 x_38 + 44 x_39 + 27 x_40 = 640
Bounds
  0 <= x_1 <= 1
  0 <= x_2 <= 1
  0 <= x_3 <= 1
  0 <= x_4 <= 1
  0 <= x_5 <= 1
  0 <= x_6 <= 1
  0 <= x_7 <= 1
  0 <= x_8 <= 1
  0 <= x_9 <= 1
  0 <= x_10 <= 1
  0 <= x_11 <= 1
  0 <= x_12 <= 1
  0 <= x_13 <= 1
  0 <= x_14 <= 1
  0 <= x_15 <= 1
  0 <= x_16 <= 1
  0 <= x_17 <= 1
  0 <= x_18 <= 1
  0 <= x_19 <= 1
  0 <= x_20 <= 1
  0 <= x_21 <= 1
  0 <= x_22 <= 1
  0 <= x_23 <= 1
  0 <= x_24 <= 1
  0 <= x_25 <= 1
  0 <= x_26 <= 1
  0 <= x_27 <= 1
  0 <= x_28 <= 1
  0 <= x_29 <= 1
  0 <= x_30 <= 1
  0 <= x_31 <= 1
  0 <= x_32 <= 1
  0 <= x_33 <= 1
  0 <= x_34 <= 1
  0 <= x_35 <= 1
  0 <= x_36 <= 1
  0 <= x_37 <= 1
  0 <= x_38 <= 1
  0 <= x_39 <= 1
  0 <= x_40 <= 1
End
