Subject To
	c_1: + 15 x_1 + 9 x_2 + 38 x_3 + 35 x_4 + 23 x_5 + 10 x_6 + 38 x_7 + 27 x_8 + 3 x_9 + 37 x_10 + 10 x_11 + 9 x_12 + 1 x_13 + 17 x_14 + 21 x_15 + 32 x_16 + 8 x_17 + 29 x_18 + 38 x_19 + 13 x_20 + 28 x_21 + 14 x_22 + 42 x_23 + 14 x_24 + 38 x_25 + 4 x_26 + 16 x_27 + 1 x_28 + 44 x_29 + 7 x_30 + 17 x_31 + 13 x_32 + 43 x_33 + 46 x_34 + 30 x_35 + 29 x_36 + 23 x_37 + 41 x_38 + 2 x_39 + 25 x_40 = 615
	c_2: + 23 x_1 + 30 x_2 + 6 x_3 + 26 x_4 + 33 x_5 + 12 x_6 + 11 x_7 + 10 x_8 + 44 x_9 + 18 x_10 + 10 x_11 + 43 x_12 + 31 x_13 + 5 x_14 + 42 x_15 + 50 x_16 + 20 x_17 + 50 x_18 + 32 x_19 + 32 x_20 + 9 x_21 + 18 x_22 + 20 x_23 + 30 x_24 + 35 x_25 + 36 x_26 + 8 x_27 + 13 x_28 + 2 x_29 + 47 x_30 + 8 x_31 + 46 x_32 + 1 x_33 + 32 x_34 + 38 x_35 + 25 x_36 + 18 x_37 + 3 x_38 + 22 x_39 + 33 x_40 = 368
	c_3: + 9 x_1 + 35 x_2 + 23 x_3 + 25 x_4 + 6 x_5 + 5 x_6 + 5 x_7 + 18 x_8 + 39 x_9 + 43 x_10 + 33 x_11 + 14 x_12 + 31 x_13 + 29 x_14 + 24 x_15 + 38 x_16 + 35 x_17 + 49 x_18 + 38 x_19 + 27 x_20 + 50 x_21 + 33 x_22 + 41 x_23 + 16 x_24 + 9 x_25 + 37 x_26 + 15 x_27 + 42 x_28 + 48 x_29 + 38 x_30 + 5 x_31 + 8 x_32 + 28 x_33 + 19 x_34 + 39 x_35 + 42 x_36 + 45 x_37 + 31 x_38 + 19 x_39 + 3 x_40 = 546
	c_4: + 17 x_1 + 15 x_2 + 36 x_3 + 27 x_4 + 24 x_5 + 30 x_6 + 6 x_7 + 12 x_8 + 28 x_9 + 9 x_10 + 30 x_11 + 38 x_12 + 32 x_13 + 31 x_14 + 9 x_15 + 43 x_16 + 11 x_17 + 37 x_18 + 31 x_19 + 31 x_20 + 28 x_21 + 22 x_22 + 24 x_23 + 29 x_24 + 24 x_25 + 18 x_26 + 49 x_27 + 15 x_28 + 9 x_29 + 36 x_30 + 48 x_31 + 22 x_32 + 43 x_33 + 43 x_34 + 46 x_35 + 47 x_36 + 48 x_37 + 33 x_38 + 11 x_39 + 40 x_40 = 498
	c_5: + 12 x_1 + 8 x_2 + 25 x_3 + 4 x_4 + 30 x_5 + 39 x_6 + 26 x_7 + 48 x_8 + 8 x_9 + 37 x_10 + 39 x_11 + 13 x_12 + 19 x_13 + 16 x_14 + 32 x_15 + 44 x_16 + 45 x_17 + 17 x_18 + 38 x_19 + 15 x_20 + 13 x_21 + 10 x_22 + 42 x_23 + 5 x_24 + 31 x_25 + 49 x_26 + 25 x_27 + 31 x_28 + 20 x_29 + 6 x_30 + 50 x_31 + 15 x_32 + 16 x_33 + 46 x_34 + 30 x_35 + 46 x_36 + 39 x_37 + 8 x_38 + 20 x_39 + 5 x_40 = 491
	c_6: + 50 x_1 + 44 x_2 + 4 x_3 + 47 x_4 + 43 x_5 + 26 x_6 + 27 x_7 + 28 x_8 + 17 x_9 + 21 x_10 + 40 x_11 + 37 x_12 + 3 x_13 + 45 x_14 + 46 x_15 + 42 x_16 + 5 x_17 + 40 x_18 + 20 x_19 + 11 x_20 + 5 x_21 + 49 x_22 + 13 x_23 + 7 x_24 + 43 x_25 + 3 x_26 + 23 x_27 + 34 x_28 + 22 x_29 + 37 x_30 + 45 x_31 + 27 x_32 + 15 x_33 + 14 x_34 + 5 x_35 + 40 x_36 + 34 x_37 + 26 x_38 + 42 x_39 + 13 x_40 = 412
	c_7: + 30 x_1 + 46 x_2 + 1 x_3 + 44 x_4 + 37 x_5 + 38 x_6 + 29 x_7 + 47 x_8 + 29 x_9 + 11 x_10 + 47 x_11 + 6 x_12 + 24 x_13 + 20 x_14 + 23 x_15 + 47 x_16 + 28 x_17 + 39 x_18 + 31 x_19 + 3 x_20 + 23 x_21 + 35 x_22 + 22 x_23 + 44 x_24 + 10 x_25 + 17 x_26 + 17 x_27 + 34 x_28 + 15 x_29 + 45 x_30 + 16 x_31 + 39 x_32 + 43 x_33 + 50 x_34 + 30 x_35 + 41 x_36 + 27 x_37 + 37 x_38 + 26 x_39 + 38 x_40 = 520
	c_8: + 44 x_1 + 45 x_2 + 46 x_3 + 39 x_4 + 3 x_5 + 32 x_6 + 16 x_7 + 46 x_8 + 32 x_9 + 22 x_10 + 38 x_11 + 38 x_12 + 32 x_13 + 32 x_14 + 29 x_15 + 50 x_16 + 13 x_17 + 46 x_18 + 7 x_19 + 31 x_20 + 39 x_21 + 2 x_22 + 9 x_23 + 44 x_24 + 43 x_25 + 48 x_26 + 18 x_27 + 1 x_28 + 18 x_29 + 24 x_30 + 43 x_31 + 33 x_32 + 48 x_33 + 38 x_34 + 9 x_35 + 10 x_36 + 23 x_37 + 47 x_38 + 32 x_39 + 39 x_40 = 533
	c_9: + 33 x_1 + 16 x_2 + 12 x_3 + 20 x_4 + 14 x_5 + 32 x_6 + 4 x_7 + 31 x_8 + 22 x_9 + 35 x_10 + 41 x_11 + 50 x_12 + 10 x_13 + 4 x_14 + 7 x_15 + 49 x_16 + 9 x_17 + 24 x_18 + 26 x_19 + 21 x_20 + 34 x_21 + 5 x_22 + 27 x_23 + 14 x_24 + 44 x_25 + 24 x_26 + 49 x_27 + 36 x_28 + 35 x_29 + 31 x_30 + 35 x_31 + 32 x_32 + 45 x_33 + 40 x_34 + 11 x_35 + 50 x_36 + 13 x_37 + 42 x_38 + 26 x_39 + 25 x_40 = 529
	c_10: + 50 x_1 + 14 x_2 + 5 x_3 + 39 x_4 + 33 x_5 + 9 x_6 + 15 x_7 + 4 x_8 + 46 x_9 + 23 x_10 + 7 x_11 + 3 x_12 + 15 x_13 + 21 x_14 + 15 x_15 + 39 x_16 + 16 x_17 + 23 x_18 + 31 x_19 + 33 x_20 + 17 x_21 + 29 x_22 + 7 x_23 + 50 x_24 + 26 x_25 + 12 x_26 + 3 x_27 + 26 x_28 + 12 x_29 + 18 x_30 + 3 x_31 + 44 x_32 + 27 x_33 + 20 x_34 + 17 x_35 + 22 x_36 + 31 x_37 + 9 x_38 + 8 x_39 + 33 x_40 = 336
	c_11: + 3 x_1 + 40 x_2 + 41 x_3 + 13 x_4 + 38 x_5 + 34 x_6 + 24 x_7 + 16 x_8 + 36 x_9 + 37 x_10 + 19 x_11 + 50 x_12 + 38 x_13 + 18 x_14 + 35 x_15 + 36 x_16 + 22 x_17 + 7 x_18 + 8 x_19 + 4 x_20 + 25 x_21 + 42 x_22 + 31 x_23 + 1 x_24 + 8 x_25 + 44 x_26 + 49 x_27 + 42 x_28 + 8 x_29 + 14 x_30 + 27 x_31 + 35 x_32 + 34 x_33 + 8 x_34 + 8 x_35 + 21 x_36 + 1 x_37 + 21 x_38 + 17 x_39 + 6 x_40 = 346
	c_12: + 13 x_1 + 25 x_2 + 44 x_3 + 19 x_4 + 10 x_5 + 11 x_6 + 24 x_7 + 19 x_8 + 39 x_9 + 36 x_10 + 31 x_11 + 40 x_12 + 8 x_13 + 35 x_14 + 18 x_15 + 42 x_16 + 5 x_17 + 18 x_18 + 14 x_19 + 20 x_20 + 40 x_21 + 5 x_22 + 9 x_23 + 9 x_24 + 11 x_25 + 1 x_26 + 28 x_27 + 3 x_28 + 44 x_29 + 12 x_30 + 33 x_31 + 38 x_32 + 28 x_33 + 42 x_34 + 50 x_35 + 49 x_36 + 11 x_37 + 23 x_38 + 8 x_39 + 48 x_40 = 512
	c_13: + 11 x_1 + 38 x_2 + 10 x_3 + 35 x_4 + 47 x_5 + 41 x_6 + 19 x_7 + 24 x_8 + 4 x_9 + 33 x_10 + 3 x_11 + 31 x_12 + 11 x_13 + 27 x_14 + 48 x_15 + 35 x_16 + 7 x_17 + 36 x_18 + 20 x_19 + 9 x_20 + 13 x_21 + 1 x_22 + 8 x_23 + 34 x_24 + 37 x_25 + 7 x_26 + 24 x_27 + 31 x_28 + 10 x_29 + 10 x_30 + 32 x_31 + 20 x_32 + 47 x_33 + 1 x_34 + 45 x_35 + 5 x_36 + 8 x_37 + 48 x_38 + 49 x_39 + 35 x_40 = 426
	c_14: + 47 x_1 + 19 x_2 + 27 x_3 + 6 x_4 + 23 x_5 + 45 x_6 + 27 x_7 + 22 x_8 + 20 x_9 + 10 x_10 + 19 x_11 + 39 x_12 + 5 x_13 + 6 x_14 + 28 x_15 + 14 x_16 + 11 x_17 + 21 x_18 + 14 x_19 + 17 x_20 + 4 x_21 + 42 x_22 + 46 x_23 + 49 x_24 + 22 x_25 + 37 x_26 + 36 x_27 + 43 x_28 + 44 x_29 + 10 x_30 + 50 x_31 + 47 x_32 + 29 x_33 + 3 x_34 + 32 x_35 + 39 x_36 + 36 x_37 + 39 x_38 + 24 x_39 + 3 x_40 = 399
	c_15: + 23 x_1 + 24 x_2 + 43 x_3 + 24 x_4 + 48 x_5 + 23 x_6 + 38 x_7 + 2 x_8 + 1 x_9 + 45 x_10 + 43 x_11 + 16 x_12 + 33 x_13 + 2 x_14 + 22 x_15 + 46 x_16 + 37 x_17 + 9 x_18 + 18 x_19 + 14 x_20 + 26 x_21 + 7 x_22 + 7 x_23 + 33 x_24 + 8 x_25 + 49 x_26 + 46 x_27 + 15 x_28 + 7 x_29 + 48 x_30 + 43 x_31 + 33 x_32 + 26 x_33 + 35 x_34 + 33 x_35 + 14 x_36 + 25 x_37 + 25 x_38 + 31 x_39 + 43 x_40 = 406
Bounds
  0 <= x_1 <= 1
  0 <= x_2 <= 1
  0 <= x_3 <= 1
  0 <= x_4 <= 1
  0 <= x_5 <= 1
  0 <= x_6 <= 1
  0 <= x_7 <= 1
  0 <= x_8 <= 1
  0 <= x_9 <= 1
  0 <= x_10 <= 1
  0 <= x_11 <= 1
  0 <= x_12 <= 1
  0 <= x_13 <= 1
  0 <= x_14 <= 1
  0 <= x_15 <= 1
  0 <= x_16 <= 1
  0 <= x_17 <= 1
  0 <= x_18 <= 1
  0 <= x_19 <= 1
  0 <= x_20 <= 1
  0 <= x_21 <= 1
  0 <= x_22 <= 1
  0 <= x_23 <= 1
  0 <= x_24 <= 1
  0 <= x_25 <= 1
  0 <= x_26 <= 1
  0 <= x_27 <= 1
  0 <= x_28 <= 1
  0 <= x_29 <= 1
  0 <= x_30 <= 1
  0 <= x_31 <= 1
  0 <= x_32 <= 1
  0 <= x_33 <= 1
  0 <= x_34 <= 1
  0 <= x_35 <= 1
  0 <= x_36 <= 1
  0 <= x_37 <= 1
  0 <= x_38 <= 1
  0 <= x_39 <= 1
  0 <= x_40 <= 1
End
