Subject To
	c_1: + 12 x_1 + 37 x_2 + 16 x_3 + 24 x_4 + 42 x_5 + 25 x_6 + 13 x_7 + 28 x_8 + 2 x_9 + 28 x_10 + 27 x_11 + 11 x_12 + 3 x_13 + 38 x_14 + 7 x_15 + 6 x_16 + 45 x_17 + 47 x_18 + 29 x_19 + 25 x_20 + 44 x_21 + 16 x_22 + 37 x_23 + 3 x_24 + 23 x_25 + 30 x_26 + 12 x_27 + 14 x_28 + 1 x_29 + 22 x_30 + 47 x_31 + 38 x_32 + 29 x_33 + 32 x_34 + 13 x_35 + 39 x_36 + 19 x_37 + 26 x_38 + 45 x_39 + 28 x_40 = 716
	c_2: + 46 x_1 + 7 x_2 + 11 x_3 + 40 x_4 + 27 x_5 + 20 x_6 + 38 x_7 + 31 x_8 + 21 x_9 + 10 x_10 + 20 x_11 + 43 x_12 + 23 x_13 + 15 x_14 + 44 x_15 + 22 x_16 + 20 x_17 + 6 x_18 + 23 x_19 + 19 x_20 + 30 x_21 + 2 x_22 + 8 x_23 + 20 x_24 + 1 x_25 + 33 x_26 + 16 x_27 + 25 x_28 + 42 x_29 + 14 x_30 + 10 x_31 + 2 x_32 + 45 x_33 + 32 x_34 + 13 x_35 + 49 x_36 + 22 x_37 + 42 x_38 + 11 x_39 + 9 x_40 = 430
	c_3: + 19 x_1 + 37 x_2 + 10 x_3 + 13 x_4 + 16 x_5 + 37 x_6 + 2 x_7 + 27 x_8 + 42 x_9 + 50 x_10 + 4 x_11 + 28 x_12 + 21 x_13 + 32 x_14 + 29 x_15 + 20 x_16 + 26 x_17 + 33 x_18 + 23 x_19 + 11 x_20 + 38 x_21 + 1 x_22 + 32 x_23 + 22 x_24 + 19 x_25 + 36 x_26 + 29 x_27 + 29 x_28 + 41 x_29 + 22 x_30 + 13 x_31 + 48 x_32 + 33 x_33 + 37 x_34 + 19 x_35 + 15 x_36 + 29 x_37 + 23 x_38 + 28 x_39 + 24 x_40 = 575
	c_4: + 23 x_1 + 37 x_2 + 18 x_3 + 5 x_4 + 46 x_5 + 12 x_6 + 17 x_7 + 49 x_8 + 33 x_9 + 41 x_10 + 33 x_11 + 1 x_12 + 30 x_13 + 19 x_14 + 1 x_15 + 11 x_16 + 36 x_17 + 22 x_18 + 1 x_19 + 26 x_20 + 38 x_21 + 22 x_22 + 23 x_23 + 31 x_24 + 37 x_25 + 29 x_26 + 48 x_27 + 40 x_28 + 6 x_29 + 23 x_30 + 45 x_31 + 14 x_32 + 19 x_33 + 33 x_34 + 7 x_35 + 18 x_36 + 41 x_37 + 19 x_38 + 1 x_39 + 9 x_40 = 532
	c_5: + 16 x_1 + 40 x_2 + 9 x_3 + 25 x_4 + 33 x_5 + 48 x_6 + 23 x_7 + 50 x_8 + 12 x_9 + 11 x_10 + 38 x_11 + 29 x_12 + 17 x_13 + 6 x_14 + 32 x_15 + 15 x_16 + 23 x_17 + 21 x_18 + 50 x_19 + 20 x_20 + 1 x_21 + 39 x_22 + 23 x_23 + 25 x_24 + 30 x_25 + 46 x_26 + 38 x_27 + 50 x_28 + 13 x_29 + 20 x_30 + 13 x_31 + 12 x_32 + 7 x_33 + 27 x_34 + 42 x_35 + 43 x_36 + 35 x_37 + 5 x_38 + 31 x_39 + 28 x_40 = 508
	c_6: + 25 x_1 + 7 x_2 + 48 x_3 + 50 x_4 + 48 x_5 + 20 x_6 + 24 x_7 + 35 x_8 + 13 x_9 + 23 x_10 + 11 x_11 + 7 x_12 + 40 x_13 + 14 x_14 + 22 x_15 + 3 x_16 + 32 x_17 + 21 x_18 + 25 x_19 + 40 x_20 + 37 x_21 + 19 x_22 + 17 x_23 + 41 x_24 + 24 x_25 + 18 x_26 + 33 x_27 + 17 x_28 + 3 x_29 + 3 x_30 + 32 x_31 + 45 x_32 + 29 x_33 + 46 x_34 + 17 x_35 + 21 x_36 + 30 x_37 + 12 x_38 + 5 x_39 + 48 x_40 = 526
	c_7: + 20 x_1 + 2 x_2 + 50 x_3 + 19 x_4 + 42 x_5 + 9 x_6 + 31 x_7 + 10 x_8 + 42 x_9 + 16 x_10 + 44 x_11 + 15 x_12 + 7 x_13 + 40 x_14 + 15 x_15 + 1 x_16 + 36 x_17 + 11 x_18 + 24 x_19 + 27 x_20 + 26 x_21 + 8 x_22 + 31 x_23 + 46 x_24 + 16 x_25 + 7 x_26 + 4 x_27 + 23 x_28 + 10 x_29 + 30 x_30 + 13 x_31 + 31 x_32 + 28 x_33 + 2 x_34 + 2 x_35 + 32 x_36 + 17 x_37 + 50 x_38 + 7 x_39 + 39 x_40 = 491
	c_8: + 18 x_1 + 10 x_2 + 24 x_3 + 48 x_4 + 32 x_5 + 34 x_6 + 9 x_7 + 18 x_8 + 21 x_9 + 26 x_10 + 44 x_11 + 36 x_12 + 16 x_13 + 44 x_14 + 2 x_15 + 27 x_16 + 22 x_17 + 11 x_18 + 47 x_19 + 46 x_20 + 42 x_21 + 1 x_22 + 35 x_23 + 35 x_24 + 20 x_25 + 13 x_26 + 27 x_27 + 9 x_28 + 5 x_29 + 7 x_30 + 27 x_31 + 35 x_32 + 22 x_33 + 44 x_34 + 17 x_35 + 26 x_36 + 38 x_37 + 49 x_38 + 20 x_39 + 48 x_40 = 615
	c_9: + 7 x_1 + 8 x_2 + 37 x_3 + 2 x_4 + 17 x_5 + 49 x_6 + 39 x_7 + 36 x_8 + 24 x_9 + 46 x_10 + 14 x_11 + 50 x_12 + 11 x_13 + 12 x_14 + 41 x_15 + 47 x_16 + 50 x_17 + 19 x_18 + 24 x_19 + 47 x_20 + 34 x_21 + 4 x_22 + 19 x_23 + 12 x_24 + 37 x_25 + 4 x_26 + 15 x_27 + 7 x_28 + 23 x_29 + 13 x_30 + 35 x_31 + 33 x_32 + 6 x_33 + 11 x_34 + 14 x_35 + 29 x_36 + 7 x_37 + 22 x_38 + 9 x_39 + 50 x_40 = 478
	c_10: + 25 x_1 + 27 x_2 + 6 x_3 + 37 x_4 + 11 x_5 + 29 x_6 + 49 x_7 + 6 x_8 + 8 x_9 + 5 x_10 + 22 x_11 + 5 x_12 + 6 x_13 + 39 x_14 + 12 x_15 + 32 x_16 + 17 x_17 + 31 x_18 + 19 x_19 + 33 x_20 + 35 x_21 + 38 x_22 + 48 x_23 + 10 x_24 + 31 x_25 + 37 x_26 + 16 x_27 + 21 x_28 + 12 x_29 + 29 x_30 + 28 x_31 + 14 x_32 + 38 x_33 + 37 x_34 + 38 x_35 + 15 x_36 + 48 x_37 + 29 x_38 + 3 x_39 + 42 x_40 = 503
	c_11: + 46 x_1 + 41 x_2 + 33 x_3 + 1 x_4 + 35 x_5 + 34 x_6 + 5 x_7 + 25 x_8 + 1 x_9 + 37 x_10 + 2 x_11 + 20 x_12 + 34 x_13 + 16 x_14 + 24 x_15 + 34 x_16 + 27 x_17 + 36 x_18 + 4 x_19 + 47 x_20 + 29 x_21 + 44 x_22 + 47 x_23 + 28 x_24 + 38 x_25 + 15 x_26 + 39 x_27 + 24 x_28 + 23 x_29 + 34 x_30 + 16 x_31 + 20 x_32 + 45 x_33 + 5 x_34 + 37 x_35 + 44 x_36 + 20 x_37 + 48 x_38 + 5 x_39 + 34 x_40 = 531
	c_12: + 13 x_1 + 48 x_2 + 25 x_3 + 43 x_4 + 20 x_5 + 14 x_6 + 6 x_7 + 45 x_8 + 13 x_9 + 49 x_10 + 5 x_11 + 34 x_12 + 29 x_13 + 10 x_14 + 7 x_15 + 5 x_16 + 23 x_17 + 26 x_18 + 4 x_19 + 35 x_20 + 33 x_21 + 8 x_22 + 40 x_23 + 26 x_24 + 20 x_25 + 39 x_26 + 15 x_27 + 43 x_28 + 45 x_29 + 24 x_30 + 24 x_31 + 31 x_32 + 37 x_33 + 32 x_34 + 41 x_35 + 43 x_36 + 10 x_37 + 13 x_38 + 20 x_39 + 1 x_40 = 543
	c_13: + 33 x_1 + 31 x_2 + 48 x_3 + 36 x_4 + 1 x_5 + 10 x_6 + 10 x_7 + 41 x_8 + 5 x_9 + 25 x_10 + 24 x_11 + 40 x_12 + 46 x_13 + 45 x_14 + 44 x_15 + 44 x_16 + 30 x_17 + 2 x_18 + 13 x_19 + 50 x_20 + 24 x_21 + 32 x_22 + 4 x_23 + 22 x_24 + 40 x_25 + 43 x_26 + 46 x_27 + 16 x_28 + 35 x_29 + 23 x_30 + 23 x_31 + 14 x_32 + 6 x_33 + 44 x_34 + 11 x_35 + 13 x_36 + 15 x_37 + 20 x_38 + 1 x_39 + 21 x_40 = 425
	c_14: + 48 x_1 + 23 x_2 + 39 x_3 + 31 x_4 + 13 x_5 + 5 x_6 + 38 x_7 + 31 x_8 + 45 x_9 + 15 x_10 + 26 x_11 + 2 x_12 + 20 x_13 + 28 x_14 + 12 x_15 + 1 x_16 + 20 x_17 + 4 x_18 + 10 x_19 + 37 x_20 + 14 x_21 + 40 x_22 + 39 x_23 + 45 x_24 + 10 x_25 + 4 x_26 + 27 x_27 + 27 x_28 + 31 x_29 + 43 x_30 + 23 x_31 + 32 x_32 + 30 x_33 + 50 x_34 + 24 x_35 + 16 x_36 + 23 x_37 + 41 x_38 + 14 x_39 + 15 x_40 = 448
	c_15: + 20 x_1 + 38 x_2 + 43 x_3 + 19 x_4 + 8 x_5 + 11 x_6 + 23 x_7 + 36 x_8 + 13 x_9 + 1 x_10 + 38 x_11 + 26 x_12 + 34 x_13 + 10 x_14 + 47 x_15 + 47 x_16 + 18 x_17 + 11 x_18 + 9 x_19 + 12 x_20 + 19 x_21 + 20 x_22 + 50 x_23 + 4 x_24 + 23 x_25 + 49 x_26 + 50 x_27 + 1 x_28 + 9 x_29 + 7 x_30 + 38 x_31 + 38 x_32 + 4 x_33 + 26 x_34 + 15 x_35 + 42 x_36 + 4 x_37 + 28 x_38 + 16 x_39 + 13 x_40 = 492
Bounds
  0 <= x_1 <= 1
  0 <= x_2 <= 1
  0 <= x_3 <= 1
  0 <= x_4 <= 1
  0 <= x_5 <= 1
  0 <= x_6 <= 1
  0 <= x_7 <= 1
  0 <= x_8 <= 1
  0 <= x_9 <= 1
  0 <= x_10 <= 1
  0 <= x_11 <= 1
  0 <= x_12 <= 1
  0 <= x_13 <= 1
  0 <= x_14 <= 1
  0 <= x_15 <= 1
  0 <= x_16 <= 1
  0 <= x_17 <= 1
  0 <= x_18 <= 1
  0 <= x_19 <= 1
  0 <= x_20 <= 1
  0 <= x_21 <= 1
  0 <= x_22 <= 1
  0 <= x_23 <= 1
  0 <= x_24 <= 1
  0 <= x_25 <= 1
  0 <= x_26 <= 1
  0 <= x_27 <= 1
  0 <= x_28 <= 1
  0 <= x_29 <= 1
  0 <= x_30 <= 1
  0 <= x_31 <= 1
  0 <= x_32 <= 1
  0 <= x_33 <= 1
  0 <= x_34 <= 1
  0 <= x_35 <= 1
  0 <= x_36 <= 1
  0 <= x_37 <= 1
  0 <= x_38 <= 1
  0 <= x_39 <= 1
  0 <= x_40 <= 1
End
