Subject To
	c_1: + 32 x_1 + 16 x_2 + 44 x_3 + 18 x_4 + 4 x_5 + 8 x_6 + 25 x_7 + 48 x_8 + 26 x_9 + 41 x_10 + 35 x_11 + 4 x_12 + 20 x_13 + 9 x_14 + 34 x_15 + 24 x_16 + 22 x_17 + 22 x_18 + 20 x_19 + 45 x_20 + 46 x_21 + 4 x_22 + 23 x_23 + 3 x_24 + 50 x_25 + 34 x_26 + 22 x_27 + 44 x_28 + 40 x_29 + 33 x_30 + 13 x_31 + 46 x_32 + 26 x_33 + 43 x_34 + 47 x_35 + 1 x_36 + 4 x_37 + 18 x_38 + 17 x_39 + 5 x_40 = 714
	c_2: + 26 x_1 + 19 x_2 + 11 x_3 + 47 x_4 + 23 x_5 + 43 x_6 + 2 x_7 + 44 x_8 + 12 x_9 + 7 x_10 + 45 x_11 + 31 x_12 + 38 x_13 + 50 x_14 + 8 x_15 + 19 x_16 + 48 x_17 + 33 x_18 + 43 x_19 + 8 x_20 + 12 x_21 + 14 x_22 + 8 x_23 + 10 x_24 + 6 x_25 + 28 x_26 + 36 x_27 + 41 x_28 + 14 x_29 + 44 x_30 + 3 x_31 + 45 x_32 + 38 x_33 + 31 x_34 + 31 x_35 + 1 x_36 + 10 x_37 + 43 x_38 + 39 x_39 + 19 x_40 = 451
	c_3: + 28 x_1 + 44 x_2 + 39 x_3 + 7 x_4 + 18 x_5 + 25 x_6 + 23 x_7 + 39 x_8 + 39 x_9 + 24 x_10 + 16 x_11 + 34 x_12 + 36 x_13 + 14 x_14 + 42 x_15 + 33 x_16 + 33 x_17 + 37 x_18 + 35 x_19 + 22 x_20 + 36 x_21 + 8 x_22 + 4 x_23 + 12 x_24 + 18 x_25 + 43 x_26 + 11 x_27 + 5 x_28 + 27 x_29 + 24 x_30 + 2 x_31 + 34 x_32 + 18 x_33 + 49 x_34 + 25 x_35 + 32 x_36 + 15 x_37 + 37 x_38 + 18 x_39 + 45 x_40 = 528
	c_4: + 2 x_1 + 14 x_2 + 15 x_3 + 41 x_4 + 33 x_5 + 40 x_6 + 36 x_7 + 2 x_8 + 20 x_9 + 8 x_10 + 35 x_11 + 38 x_12 + 35 x_13 + 36 x_14 + 45 x_15 + 48 x_16 + 47 x_17 + 43 x_18 + 18 x_19 + 43 x_20 + 16 x_21 + 17 x_22 + 25 x_23 + 44 x_24 + 48 x_25 + 9 x_26 + 30 x_27 + 32 x_28 + 39 x_29 + 37 x_30 + 14 x_31 + 11 x_32 + 46 x_33 + 44 x_34 + 36 x_35 + 13 x_36 + 47 x_37 + 43 x_38 + 30 x_39 + 43 x_40 = 488
	c_5: + 14 x_1 + 8 x_2 + 28 x_3 + 20 x_4 + 46 x_5 + 8 x_6 + 41 x_7 + 33 x_8 + 49 x_9 + 48 x_10 + 39 x_11 + 7 x_12 + 50 x_13 + 5 x_14 + 22 x_15 + 40 x_16 + 6 x_17 + 47 x_18 + 49 x_19 + 32 x_20 + 9 x_21 + 38 x_22 + 15 x_23 + 47 x_24 + 46 x_25 + 33 x_26 + 17 x_27 + 46 x_28 + 35 x_29 + 14 x_30 + 25 x_31 + 27 x_32 + 32 x_33 + 9 x_34 + 7 x_35 + 2 x_36 + 2 x_37 + 26 x_38 + 9 x_39 + 36 x_40 = 523
	c_6: + 21 x_1 + 29 x_2 + 23 x_3 + 46 x_4 + 7 x_5 + 14 x_6 + 17 x_7 + 30 x_8 + 32 x_9 + 13 x_10 + 46 x_11 + 48 x_12 + 10 x_13 + 2 x_14 + 36 x_15 + 17 x_16 + 4 x_17 + 26 x_18 + 49 x_19 + 1 x_20 + 19 x_21 + 45 x_22 + 48 x_23 + 49 x_24 + 13 x_25 + 6 x_26 + 50 x_27 + 9 x_28 + 1 x_29 + 24 x_30 + 31 x_31 + 1 x_32 + 3 x_33 + 39 x_34 + 11 x_35 + 34 x_36 + 17 x_37 + 4 x_38 + 4 x_39 + 41 x_40 = 328
	c_7: + 45 x_1 + 41 x_2 + 48 x_3 + 5 x_4 + 46 x_5 + 43 x_6 + 46 x_7 + 44 x_8 + 48 x_9 + 39 x_10 + 13 x_11 + 32 x_12 + 44 x_13 + 13 x_14 + 23 x_15 + 44 x_16 + 14 x_17 + 28 x_18 + 46 x_19 + 44 x_20 + 22 x_21 + 2 x_22 + 47 x_23 + 18 x_24 + 15 x_25 + 16 x_26 + 39 x_27 + 47 x_28 + 42 x_29 + 1 x_30 + 46 x_31 + 26 x_32 + 10 x_33 + 32 x_34 + 42 x_35 + 14 x_36 + 5 x_37 + 14 x_38 + 46 x_39 + 38 x_40 = 557
	c_8: + 22 x_1 + 46 x_2 + 44 x_3 + 45 x_4 + 15 x_5 + 33 x_6 + 17 x_7 + 21 x_8 + 42 x_9 + 19 x_10 + 29 x_11 + 28 x_12 + 10 x_13 + 7 x_14 + 17 x_15 + 8 x_16 + 31 x_17 + 29 x_18 + 38 x_19 + 4 x_20 + 25 x_21 + 39 x_22 + 4 x_23 + 50 x_24 + 14 x_25 + 29 x_26 + 13 x_27 + 48 x_28 + 4 x_29 + 43 x_30 + 7 x_31 + 36 x_32 + 43 x_33 + 35 x_34 + 46 x_35 + 2 x_36 + 38 x_37 + 3 x_38 + 33 x_39 + 44 x_40 = 521
	c_9: + 42 x_1 + 15 x_2 + 28 x_3 + 4 x_4 + 7 x_5 + 38 x_6 + 9 x_7 + 13 x_8 + 27 x_9 + 28 x_10 + 5 x_11 + 9 x_12 + 12 x_13 + 19 x_14 + 12 x_15 + 31 x_16 + 1 x_17 + 45 x_18 + 40 x_19 + 6 x_20 + 26 x_21 + 29 x_22 + 5 x_23 + 23 x_24 + 31 x_25 + 10 x_26 + 15 x_27 + 26 x_28 + 1 x_29 + 33 x_30 + 41 x_31 + 25 x_32 + 37 x_33 + 38 x_34 + 13 x_35 + 43 x_36 + 7 x_37 + 15 x_38 + 21 x_39 + 7 x_40 = 401
	c_10: + 13 x_1 + 28 x_2 + 46 x_3 + 49 x_4 + 41 x_5 + 38 x_6 + 49 x_7 + 48 x_8 + 48 x_9 + 50 x_10 + 20 x_11 + 43 x_12 + 46 x_13 + 45 x_14 + 28 x_15 + 38 x_16 + 4 x_17 + 14 x_18 + 14 x_19 + 47 x_20 + 14 x_21 + 3 x_22 + 40 x_23 + 10 x_24 + 24 x_25 + 33 x_26 + 33 x_27 + 6 x_28 + 15 x_29 + 4 x_30 + 9 x_31 + 14 x_32 + 29 x_33 + 25 x_34 + 39 x_35 + 48 x_36 + 20 x_37 + 41 x_38 + 48 x_39 + 42 x_40 = 503
	c_11: + 42 x_1 + 25 x_2 + 9 x_3 + 44 x_4 + 48 x_5 + 41 x_6 + 9 x_7 + 49 x_8 + 36 x_9 + 31 x_10 + 30 x_11 + 10 x_12 + 1 x_13 + 32 x_14 + 27 x_15 + 24 x_16 + 45 x_17 + 1 x_18 + 50 x_19 + 1 x_20 + 5 x_21 + 14 x_22 + 10 x_23 + 44 x_24 + 42 x_25 + 39 x_26 + 22 x_27 + 41 x_28 + 28 x_29 + 14 x_30 + 28 x_31 + 36 x_32 + 22 x_33 + 8 x_34 + 31 x_35 + 14 x_36 + 16 x_37 + 23 x_38 + 1 x_39 + 16 x_40 = 491
	c_12: + 16 x_1 + 22 x_2 + 1 x_3 + 46 x_4 + 14 x_5 + 17 x_6 + 25 x_7 + 39 x_8 + 29 x_9 + 50 x_10 + 31 x_11 + 12 x_12 + 38 x_13 + 42 x_14 + 19 x_15 + 21 x_16 + 21 x_17 + 37 x_18 + 37 x_19 + 4 x_20 + 39 x_21 + 36 x_22 + 31 x_23 + 8 x_24 + 49 x_25 + 16 x_26 + 15 x_27 + 35 x_28 + 4 x_29 + 48 x_30 + 15 x_31 + 42 x_32 + 45 x_33 + 19 x_34 + 11 x_35 + 44 x_36 + 25 x_37 + 29 x_38 + 50 x_39 + 3 x_40 = 497
	c_13: + 2 x_1 + 13 x_2 + 1 x_3 + 15 x_4 + 35 x_5 + 37 x_6 + 47 x_7 + 50 x_8 + 33 x_9 + 11 x_10 + 26 x_11 + 41 x_12 + 14 x_13 + 6 x_14 + 13 x_15 + 13 x_16 + 25 x_17 + 47 x_18 + 9 x_19 + 44 x_20 + 26 x_21 + 23 x_22 + 50 x_23 + 42 x_24 + 50 x_25 + 1 x_26 + 42 x_27 + 21 x_28 + 49 x_29 + 7 x_30 + 10 x_31 + 41 x_32 + 39 x_33 + 41 x_34 + 38 x_35 + 13 x_36 + 15 x_37 + 45 x_38 + 47 x_39 + 26 x_40 = 493
	c_14: + 13 x_1 + 30 x_2 + 8 x_3 + 46 x_4 + 28 x_5 + 38 x_6 + 27 x_7 + 21 x_8 + 35 x_9 + 14 x_10 + 36 x_11 + 50 x_12 + 38 x_13 + 12 x_14 + 19 x_15 + 8 x_16 + 9 x_17 + 4 x_18 + 29 x_19 + 25 x_20 + 36 x_21 + 50 x_22 + 47 x_23 + 29 x_24 + 36 x_25 + 24 x_26 + 6 x_27 + 48 x_28 + 14 x_29 + 25 x_30 + 8 x_31 + 12 x_32 + 50 x_33 + 13 x_34 + 3 x_35 + 45 x_36 + 9 x_37 + 20 x_38 + 22 x_39 + 41 x_40 = 432
	c_15: + 22 x_1 + 41 x_2 + 15 x_3 + 47 x_4 + 48 x_5 + 38 x_6 + 44 x_7 + 17 x_8 + 17 x_9 + 33 x_10 + 49 x_11 + 33 x_12 + 22 x_13 + 39 x_14 + 37 x_15 + 11 x_16 + 29 x_17 + 38 x_18 + 33 x_19 + 26 x_20 + 29 x_21 + 44 x_22 + 34 x_23 + 37 x_24 + 2 x_25 + 21 x_26 + 12 x_27 + 15 x_28 + 43 x_29 + 45 x_30 + 16 x_31 + 21 x_32 + 36 x_33 + 46 x_34 + 20 x_35 + 2 x_36 + 19 x_37 + 9 x_38 + 22 x_39 + 9 x_40 = 494
Bounds
  0 <= x_1 <= 1
  0 <= x_2 <= 1
  0 <= x_3 <= 1
  0 <= x_4 <= 1
  0 <= x_5 <= 1
  0 <= x_6 <= 1
  0 <= x_7 <= 1
  0 <= x_8 <= 1
  0 <= x_9 <= 1
  0 <= x_10 <= 1
  0 <= x_11 <= 1
  0 <= x_12 <= 1
  0 <= x_13 <= 1
  0 <= x_14 <= 1
  0 <= x_15 <= 1
  0 <= x_16 <= 1
  0 <= x_17 <= 1
  0 <= x_18 <= 1
  0 <= x_19 <= 1
  0 <= x_20 <= 1
  0 <= x_21 <= 1
  0 <= x_22 <= 1
  0 <= x_23 <= 1
  0 <= x_24 <= 1
  0 <= x_25 <= 1
  0 <= x_26 <= 1
  0 <= x_27 <= 1
  0 <= x_28 <= 1
  0 <= x_29 <= 1
  0 <= x_30 <= 1
  0 <= x_31 <= 1
  0 <= x_32 <= 1
  0 <= x_33 <= 1
  0 <= x_34 <= 1
  0 <= x_35 <= 1
  0 <= x_36 <= 1
  0 <= x_37 <= 1
  0 <= x_38 <= 1
  0 <= x_39 <= 1
  0 <= x_40 <= 1
End
