Subject To
	c_1: + 17 x_1 + 1 x_2 + 4 x_3 + 7 x_4 + 37 x_5 + 26 x_6 + 36 x_7 + 41 x_8 + 39 x_9 + 2 x_10 + 30 x_11 + 37 x_12 + 7 x_13 + 16 x_14 + 22 x_15 + 34 x_16 + 2 x_17 + 29 x_18 + 22 x_19 + 45 x_20 + 24 x_21 + 12 x_22 + 38 x_23 + 50 x_24 + 1 x_25 + 6 x_26 + 26 x_27 + 10 x_28 + 47 x_29 + 34 x_30 + 43 x_31 + 40 x_32 + 35 x_33 + 16 x_34 + 45 x_35 + 30 x_36 + 11 x_37 + 14 x_38 + 22 x_39 + 30 x_40 = 772
	c_2: + 6 x_1 + 37 x_2 + 2 x_3 + 48 x_4 + 48 x_5 + 24 x_6 + 36 x_7 + 13 x_8 + 40 x_9 + 32 x_10 + 47 x_11 + 47 x_12 + 20 x_13 + 9 x_14 + 49 x_15 + 35 x_16 + 14 x_17 + 38 x_18 + 25 x_19 + 7 x_20 + 22 x_21 + 11 x_22 + 47 x_23 + 46 x_24 + 42 x_25 + 12 x_26 + 34 x_27 + 48 x_28 + 29 x_29 + 50 x_30 + 11 x_31 + 24 x_32 + 7 x_33 + 5 x_34 + 24 x_35 + 28 x_36 + 14 x_37 + 47 x_38 + 21 x_39 + 5 x_40 = 640
	c_3: + 45 x_1 + 19 x_2 + 17 x_3 + 9 x_4 + 28 x_5 + 19 x_6 + 8 x_7 + 31 x_8 + 8 x_9 + 13 x_10 + 38 x_11 + 32 x_12 + 38 x_13 + 26 x_14 + 49 x_15 + 11 x_16 + 20 x_17 + 33 x_18 + 28 x_19 + 48 x_20 + 7 x_21 + 29 x_22 + 6 x_23 + 32 x_24 + 47 x_25 + 22 x_26 + 47 x_27 + 37 x_28 + 42 x_29 + 1 x_30 + 9 x_31 + 6 x_32 + 23 x_33 + 39 x_34 + 13 x_35 + 10 x_36 + 2 x_37 + 42 x_38 + 8 x_39 + 42 x_40 = 487
	c_4: + 14 x_1 + 49 x_2 + 5 x_3 + 43 x_4 + 34 x_5 + 47 x_6 + 16 x_7 + 26 x_8 + 28 x_9 + 19 x_10 + 3 x_11 + 5 x_12 + 8 x_13 + 34 x_14 + 37 x_15 + 9 x_16 + 4 x_17 + 1 x_18 + 18 x_19 + 37 x_20 + 24 x_21 + 23 x_22 + 21 x_23 + 34 x_24 + 44 x_25 + 44 x_26 + 4 x_27 + 15 x_28 + 27 x_29 + 31 x_30 + 11 x_31 + 31 x_32 + 28 x_33 + 2 x_34 + 41 x_35 + 20 x_36 + 33 x_37 + 3 x_38 + 35 x_39 + 23 x_40 = 477
	c_5: + 19 x_1 + 22 x_2 + 15 x_3 + 36 x_4 + 7 x_5 + 7 x_6 + 48 x_7 + 5 x_8 + 30 x_9 + 6 x_10 + 18 x_11 + 37 x_12 + 44 x_13 + 45 x_14 + 25 x_15 + 38 x_16 + 11 x_17 + 4 x_18 + 25 x_19 + 16 x_20 + 33 x_21 + 20 x_22 + 18 x_23 + 22 x_24 + 23 x_25 + 26 x_26 + 24 x_27 + 48 x_28 + 11 x_29 + 33 x_30 + 25 x_31 + 38 x_32 + 36 x_33 + 6 x_34 + 15 x_35 + 39 x_36 + 41 x_37 + 3 x_38 + 35 x_39 + 3 x_40 = 474
	c_6: + 8 x_1 + 24 x_2 + 49 x_3 + 23 x_4 + 38 x_5 + 25 x_6 + 30 x_7 + 2 x_8 + 28 x_9 + 45 x_10 + 22 x_11 + 11 x_12 + 22 x_13 + 36 x_14 + 39 x_15 + 36 x_16 + 17 x_17 + 1 x_18 + 48 x_19 + 25 x_20 + 38 x_21 + 19 x_22 + 1 x_23 + 29 x_24 + 50 x_25 + 7 x_26 + 50 x_27 + 17 x_28 + 41 x_29 + 40 x_30 + 43 x_31 + 19 x_32 + 10 x_33 + 15 x_34 + 42 x_35 + 41 x_36 + 27 x_37 + 28 x_38 + 35 x_39 + 50 x_40 = 584
	c_7: + 2 x_1 + 28 x_2 + 49 x_3 + 17 x_4 + 23 x_5 + 37 x_6 + 9 x_7 + 36 x_8 + 29 x_9 + 30 x_10 + 35 x_11 + 40 x_12 + 44 x_13 + 35 x_14 + 5 x_15 + 5 x_16 + 41 x_17 + 26 x_18 + 31 x_19 + 38 x_20 + 33 x_21 + 40 x_22 + 6 x_23 + 2 x_24 + 46 x_25 + 2 x_26 + 33 x_27 + 7 x_28 + 8 x_29 + 24 x_30 + 11 x_31 + 49 x_32 + 39 x_33 + 30 x_34 + 48 x_35 + 21 x_36 + 7 x_37 + 30 x_38 + 17 x_39 + 24 x_40 = 543
	c_8: + 43 x_1 + 44 x_2 + 41 x_3 + 50 x_4 + 1 x_5 + 42 x_6 + 7 x_7 + 38 x_8 + 10 x_9 + 35 x_10 + 37 x_11 + 36 x_12 + 35 x_13 + 27 x_14 + 15 x_15 + 34 x_16 + 36 x_17 + 32 x_18 + 27 x_19 + 16 x_20 + 11 x_21 + 19 x_22 + 39 x_23 + 4 x_24 + 2 x_25 + 45 x_26 + 6 x_27 + 16 x_28 + 1 x_29 + 44 x_30 + 48 x_31 + 36 x_32 + 46 x_33 + 6 x_34 + 3 x_35 + 47 x_36 + 2 x_37 + 13 x_38 + 13 x_39 + 41 x_40 = 568
	c_9: + 36 x_1 + 7 x_2 + 25 x_3 + 1 x_4 + 37 x_5 + 25 x_6 + 10 x_7 + 10 x_8 + 19 x_9 + 15 x_10 + 14 x_11 + 49 x_12 + 5 x_13 + 25 x_14 + 15 x_15 + 22 x_16 + 28 x_17 + 15 x_18 + 5 x_19 + 8 x_20 + 2 x_21 + 43 x_22 + 10 x_23 + 25 x_24 + 16 x_25 + 23 x_26 + 40 x_27 + 21 x_28 + 6 x_29 + 50 x_30 + 13 x_31 + 3 x_32 + 14 x_33 + 22 x_34 + 2 x_35 + 24 x_36 + 11 x_37 + 46 x_38 + 36 x_39 + 33 x_40 = 429
	c_10: + 41 x_1 + 42 x_2 + 15 x_3 + 10 x_4 + 20 x_5 + 40 x_6 + 28 x_7 + 27 x_8 + 11 x_9 + 34 x_10 + 20 x_11 + 26 x_12 + 20 x_13 + 26 x_14 + 9 x_15 + 33 x_16 + 24 x_17 + 10 x_18 + 40 x_19 + 7 x_20 + 23 x_21 + 22 x_22 + 14 x_23 + 49 x_24 + 23 x_25 + 49 x_26 + 29 x_27 + 44 x_28 + 27 x_29 + 34 x_30 + 43 x_31 + 13 x_32 + 15 x_33 + 34 x_34 + 39 x_35 + 11 x_36 + 5 x_37 + 22 x_38 + 15 x_39 + 36 x_40 = 532
	c_11: + 10 x_1 + 26 x_2 + 2 x_3 + 35 x_4 + 27 x_5 + 12 x_6 + 43 x_7 + 44 x_8 + 36 x_9 + 7 x_10 + 1 x_11 + 23 x_12 + 47 x_13 + 20 x_14 + 2 x_15 + 15 x_16 + 39 x_17 + 39 x_18 + 20 x_19 + 39 x_20 + 42 x_21 + 28 x_22 + 49 x_23 + 24 x_24 + 40 x_25 + 37 x_26 + 47 x_27 + 12 x_28 + 28 x_29 + 2 x_30 + 45 x_31 + 21 x_32 + 7 x_33 + 31 x_34 + 44 x_35 + 2 x_36 + 27 x_37 + 46 x_38 + 29 x_39 + 17 x_40 = 565
	c_12: + 31 x_1 + 15 x_2 + 35 x_3 + 7 x_4 + 17 x_5 + 36 x_6 + 33 x_7 + 25 x_8 + 50 x_9 + 30 x_10 + 6 x_11 + 17 x_12 + 36 x_13 + 7 x_14 + 29 x_15 + 28 x_16 + 22 x_17 + 30 x_18 + 29 x_19 + 48 x_20 + 11 x_21 + 47 x_22 + 15 x_23 + 33 x_24 + 20 x_25 + 38 x_26 + 11 x_27 + 16 x_28 + 25 x_29 + 1 x_30 + 23 x_31 + 21 x_32 + 49 x_33 + 5 x_34 + 5 x_35 + 10 x_36 + 43 x_37 + 21 x_38 + 33 x_39 + 23 x_40 = 506
	c_13: + 10 x_1 + 45 x_2 + 38 x_3 + 21 x_4 + 14 x_5 + 3 x_6 + 29 x_7 + 15 x_8 + 31 x_9 + 33 x_10 + 3 x_11 + 32 x_12 + 24 x_13 + 37 x_14 + 5 x_15 + 3 x_16 + 28 x_17 + 46 x_18 + 5 x_19 + 50 x_20 + 4 x_21 + 19 x_22 + 36 x_23 + 8 x_24 + 23 x_25 + 3 x_26 + 14 x_27 + 6 x_28 + 45 x_29 + 14 x_30 + 14 x_31 + 1 x_32 + 24 x_33 + 36 x_34 + 15 x_35 + 21 x_36 + 39 x_37 + 45 x_38 + 29 x_39 + 36 x_40 = 454
	c_14: + 35 x_1 + 11 x_2 + 22 x_3 + 47 x_4 + 32 x_5 + 35 x_6 + 43 x_7 + 35 x_8 + 7 x_9 + 10 x_10 + 11 x_11 + 36 x_12 + 43 x_13 + 50 x_14 + 21 x_15 + 31 x_16 + 28 x_17 + 42 x_18 + 15 x_19 + 48 x_20 + 40 x_21 + 10 x_22 + 16 x_23 + 7 x_24 + 31 x_25 + 27 x_26 + 27 x_27 + 7 x_28 + 9 x_29 + 44 x_30 + 38 x_31 + 1 x_32 + 12 x_33 + 47 x_34 + 25 x_35 + 10 x_36 + 4 x_37 + 32 x_38 + 24 x_39 + 30 x_40 = 539
	c_15: + 41 x_1 + 34 x_2 + 36 x_3 + 50 x_4 + 37 x_5 + 7 x_6 + 27 x_7 + 19 x_8 + 35 x_9 + 4 x_10 + 4 x_11 + 10 x_12 + 23 x_13 + 45 x_14 + 17 x_15 + 8 x_16 + 12 x_17 + 41 x_18 + 22 x_19 + 14 x_20 + 19 x_21 + 32 x_22 + 5 x_23 + 30 x_24 + 50 x_25 + 31 x_26 + 1 x_27 + 14 x_28 + 2 x_29 + 35 x_30 + 40 x_31 + 18 x_32 + 44 x_33 + 10 x_34 + 19 x_35 + 48 x_36 + 15 x_37 + 30 x_38 + 30 x_39 + 4 x_40 = 448
Bounds
  0 <= x_1 <= 1
  0 <= x_2 <= 1
  0 <= x_3 <= 1
  0 <= x_4 <= 1
  0 <= x_5 <= 1
  0 <= x_6 <= 1
  0 <= x_7 <= 1
  0 <= x_8 <= 1
  0 <= x_9 <= 1
  0 <= x_10 <= 1
  0 <= x_11 <= 1
  0 <= x_12 <= 1
  0 <= x_13 <= 1
  0 <= x_14 <= 1
  0 <= x_15 <= 1
  0 <= x_16 <= 1
  0 <= x_17 <= 1
  0 <= x_18 <= 1
  0 <= x_19 <= 1
  0 <= x_20 <= 1
  0 <= x_21 <= 1
  0 <= x_22 <= 1
  0 <= x_23 <= 1
  0 <= x_24 <= 1
  0 <= x_25 <= 1
  0 <= x_26 <= 1
  0 <= x_27 <= 1
  0 <= x_28 <= 1
  0 <= x_29 <= 1
  0 <= x_30 <= 1
  0 <= x_31 <= 1
  0 <= x_32 <= 1
  0 <= x_33 <= 1
  0 <= x_34 <= 1
  0 <= x_35 <= 1
  0 <= x_36 <= 1
  0 <= x_37 <= 1
  0 <= x_38 <= 1
  0 <= x_39 <= 1
  0 <= x_40 <= 1
End
