Subject To
	c_1: + 27 x_1 + 28 x_2 + 32 x_3 + 21 x_4 + 2 x_5 + 21 x_6 + 37 x_7 + 43 x_8 + 7 x_9 + 1 x_10 + 47 x_11 + 26 x_12 + 20 x_13 + 8 x_14 + 27 x_15 + 11 x_16 + 1 x_17 + 26 x_18 + 3 x_19 + 33 x_20 + 43 x_21 + 25 x_22 + 26 x_23 + 3 x_24 + 18 x_25 + 23 x_26 + 40 x_27 + 11 x_28 + 21 x_29 + 33 x_30 + 22 x_31 + 45 x_32 + 47 x_33 + 44 x_34 + 33 x_35 + 12 x_36 + 29 x_37 + 20 x_38 + 4 x_39 + 22 x_40 = 666
	c_2: + 50 x_1 + 31 x_2 + 23 x_3 + 2 x_4 + 8 x_5 + 20 x_6 + 25 x_7 + 49 x_8 + 43 x_9 + 28 x_10 + 39 x_11 + 41 x_12 + 29 x_13 + 12 x_14 + 20 x_15 + 20 x_16 + 12 x_17 + 13 x_18 + 32 x_19 + 24 x_20 + 49 x_21 + 9 x_22 + 24 x_23 + 27 x_24 + 6 x_25 + 17 x_26 + 13 x_27 + 29 x_28 + 35 x_29 + 3 x_30 + 24 x_31 + 31 x_32 + 44 x_33 + 29 x_34 + 25 x_35 + 23 x_36 + 47 x_37 + 3 x_38 + 25 x_39 + 38 x_40 = 580
	c_3: + 17 x_1 + 18 x_2 + 20 x_3 + 37 x_4 + 35 x_5 + 29 x_6 + 4 x_7 + 20 x_8 + 36 x_9 + 47 x_10 + 5 x_11 + 43 x_12 + 29 x_13 + 40 x_14 + 39 x_15 + 17 x_16 + 9 x_17 + 40 x_18 + 44 x_19 + 16 x_20 + 8 x_21 + 15 x_22 + 47 x_23 + 38 x_24 + 14 x_25 + 7 x_26 + 43 x_27 + 8 x_28 + 21 x_29 + 20 x_30 + 30 x_31 + 45 x_32 + 8 x_33 + 28 x_34 + 24 x_35 + 39 x_36 + 28 x_37 + 45 x_38 + 6 x_39 + 43 x_40 = 473
	c_4: + 9 x_1 + 48 x_2 + 50 x_3 + 7 x_4 + 49 x_5 + 45 x_6 + 11 x_7 + 24 x_8 + 5 x_9 + 34 x_10 + 39 x_11 + 7 x_12 + 20 x_13 + 24 x_14 + 42 x_15 + 11 x_16 + 3 x_17 + 4 x_18 + 26 x_19 + 7 x_20 + 14 x_21 + 35 x_22 + 16 x_23 + 6 x_24 + 9 x_25 + 37 x_26 + 24 x_27 + 13 x_28 + 28 x_29 + 30 x_30 + 21 x_31 + 44 x_32 + 25 x_33 + 1 x_34 + 31 x_35 + 1 x_36 + 34 x_37 + 7 x_38 + 26 x_39 + 1 x_40 = 460
	c_5: + 11 x_1 + 35 x_2 + 46 x_3 + 23 x_4 + 23 x_5 + 5 x_6 + 35 x_7 + 15 x_8 + 4 x_9 + 47 x_10 + 17 x_11 + 10 x_12 + 1 x_13 + 25 x_14 + 12 x_15 + 44 x_16 + 43 x_17 + 22 x_18 + 20 x_19 + 49 x_20 + 32 x_21 + 26 x_22 + 4 x_23 + 25 x_24 + 36 x_25 + 49 x_26 + 27 x_27 + 37 x_28 + 10 x_29 + 5 x_30 + 1 x_31 + 37 x_32 + 31 x_33 + 15 x_34 + 37 x_35 + 14 x_36 + 37 x_37 + 50 x_38 + 39 x_39 + 48 x_40 = 477
	c_6: + 42 x_1 + 37 x_2 + 3 x_3 + 7 x_4 + 35 x_5 + 44 x_6 + 11 x_7 + 17 x_8 + 24 x_9 + 41 x_10 + 39 x_11 + 14 x_12 + 21 x_13 + 4 x_14 + 29 x_15 + 39 x_16 + 33 x_17 + 14 x_18 + 44 x_19 + 45 x_20 + 38 x_21 + 16 x_22 + 6 x_23 + 7 x_24 + 34 x_25 + 35 x_26 + 36 x_27 + 42 x_28 + 44 x_29 + 15 x_30 + 3 x_31 + 21 x_32 + 30 x_33 + 43 x_34 + 14 x_35 + 20 x_36 + 16 x_37 + 29 x_38 + 20 x_39 + 2 x_40 = 470
	c_7: + 27 x_1 + 2 x_2 + 27 x_3 + 28 x_4 + 18 x_5 + 44 x_6 + 32 x_7 + 35 x_8 + 24 x_9 + 33 x_10 + 45 x_11 + 20 x_12 + 28 x_13 + 36 x_14 + 49 x_15 + 10 x_16 + 12 x_17 + 6 x_18 + 12 x_19 + 31 x_20 + 36 x_21 + 40 x_22 + 6 x_23 + 7 x_24 + 25 x_25 + 34 x_26 + 17 x_27 + 36 x_28 + 6 x_29 + 36 x_30 + 24 x_31 + 19 x_32 + 43 x_33 + 48 x_34 + 14 x_35 + 50 x_36 + 12 x_37 + 3 x_38 + 39 x_39 + 44 x_40 = 505
	c_8: + 3 x_1 + 7 x_2 + 24 x_3 + 30 x_4 + 31 x_5 + 4 x_6 + 27 x_7 + 38 x_8 + 36 x_9 + 35 x_10 + 43 x_11 + 20 x_12 + 36 x_13 + 3 x_14 + 12 x_15 + 20 x_16 + 5 x_17 + 43 x_18 + 45 x_19 + 3 x_20 + 28 x_21 + 41 x_22 + 23 x_23 + 41 x_24 + 7 x_25 + 29 x_26 + 43 x_27 + 37 x_28 + 32 x_29 + 16 x_30 + 24 x_31 + 36 x_32 + 37 x_33 + 26 x_34 + 34 x_35 + 14 x_36 + 46 x_37 + 27 x_38 + 22 x_39 + 5 x_40 = 509
	c_9: + 43 x_1 + 33 x_2 + 3 x_3 + 29 x_4 + 10 x_5 + 20 x_6 + 13 x_7 + 2 x_8 + 15 x_9 + 24 x_10 + 9 x_11 + 38 x_12 + 27 x_13 + 26 x_14 + 29 x_15 + 49 x_16 + 36 x_17 + 42 x_18 + 39 x_19 + 44 x_20 + 41 x_21 + 14 x_22 + 13 x_23 + 48 x_24 + 24 x_25 + 4 x_26 + 21 x_27 + 34 x_28 + 1 x_29 + 14 x_30 + 16 x_31 + 11 x_32 + 14 x_33 + 41 x_34 + 20 x_35 + 13 x_36 + 29 x_37 + 24 x_38 + 9 x_39 + 1 x_40 = 460
	c_10: + 9 x_1 + 44 x_2 + 20 x_3 + 48 x_4 + 8 x_5 + 14 x_6 + 36 x_7 + 5 x_8 + 49 x_9 + 13 x_10 + 25 x_11 + 18 x_12 + 11 x_13 + 40 x_14 + 2 x_15 + 16 x_16 + 13 x_17 + 37 x_18 + 11 x_19 + 44 x_20 + 24 x_21 + 43 x_22 + 37 x_23 + 18 x_24 + 26 x_25 + 7 x_26 + 21 x_27 + 7 x_28 + 1 x_29 + 26 x_30 + 43 x_31 + 45 x_32 + 28 x_33 + 43 x_34 + 21 x_35 + 10 x_36 + 46 x_37 + 12 x_38 + 35 x_39 + 24 x_40 = 531
	c_11: + 48 x_1 + 13 x_2 + 31 x_3 + 12 x_4 + 12 x_5 + 25 x_6 + 7 x_7 + 36 x_8 + 31 x_9 + 50 x_10 + 10 x_11 + 34 x_12 + 28 x_13 + 30 x_14 + 16 x_15 + 49 x_16 + 20 x_17 + 31 x_18 + 23 x_19 + 26 x_20 + 7 x_21 + 20 x_22 + 45 x_23 + 38 x_24 + 34 x_25 + 44 x_26 + 3 x_27 + 18 x_28 + 3 x_29 + 50 x_30 + 28 x_31 + 20 x_32 + 1 x_33 + 40 x_34 + 27 x_35 + 13 x_36 + 27 x_37 + 13 x_38 + 31 x_39 + 33 x_40 = 472
	c_12: + 17 x_1 + 36 x_2 + 41 x_3 + 28 x_4 + 22 x_5 + 15 x_6 + 10 x_7 + 23 x_8 + 11 x_9 + 14 x_10 + 7 x_11 + 32 x_12 + 4 x_13 + 15 x_14 + 46 x_15 + 9 x_16 + 50 x_17 + 38 x_18 + 5 x_19 + 11 x_20 + 28 x_21 + 23 x_22 + 8 x_23 + 5 x_24 + 47 x_25 + 28 x_26 + 6 x_27 + 9 x_28 + 29 x_29 + 21 x_30 + 21 x_31 + 47 x_32 + 7 x_33 + 16 x_34 + 21 x_35 + 48 x_36 + 37 x_37 + 5 x_38 + 5 x_39 + 35 x_40 = 452
	c_13: + 11 x_1 + 44 x_2 + 20 x_3 + 46 x_4 + 50 x_5 + 40 x_6 + 3 x_7 + 15 x_8 + 40 x_9 + 17 x_10 + 27 x_11 + 30 x_12 + 41 x_13 + 41 x_14 + 25 x_15 + 25 x_16 + 20 x_17 + 23 x_18 + 10 x_19 + 23 x_20 + 43 x_21 + 5 x_22 + 1 x_23 + 19 x_24 + 26 x_25 + 23 x_26 + 46 x_27 + 25 x_28 + 5 x_29 + 35 x_30 + 42 x_31 + 40 x_32 + 21 x_33 + 41 x_34 + 17 x_35 + 5 x_36 + 36 x_37 + 43 x_38 + 18 x_39 + 19 x_40 = 501
	c_14: + 38 x_1 + 22 x_2 + 38 x_3 + 3 x_4 + 40 x_5 + 27 x_6 + 29 x_7 + 2 x_8 + 28 x_9 + 17 x_10 + 47 x_11 + 23 x_12 + 50 x_13 + 33 x_14 + 39 x_15 + 32 x_16 + 28 x_17 + 35 x_18 + 40 x_19 + 27 x_20 + 4 x_21 + 15 x_22 + 19 x_23 + 26 x_24 + 19 x_25 + 16 x_26 + 27 x_27 + 2 x_28 + 9 x_29 + 34 x_30 + 42 x_31 + 14 x_32 + 29 x_33 + 30 x_34 + 31 x_35 + 9 x_36 + 31 x_37 + 6 x_38 + 23 x_39 + 43 x_40 = 519
	c_15: + 27 x_1 + 24 x_2 + 27 x_3 + 40 x_4 + 37 x_5 + 27 x_6 + 39 x_7 + 20 x_8 + 13 x_9 + 36 x_10 + 49 x_11 + 21 x_12 + 27 x_13 + 46 x_14 + 30 x_15 + 27 x_16 + 47 x_17 + 7 x_18 + 4 x_19 + 13 x_20 + 22 x_21 + 2 x_22 + 14 x_23 + 4 x_24 + 43 x_25 + 45 x_26 + 26 x_27 + 43 x_28 + 27 x_29 + 2 x_30 + 6 x_31 + 49 x_32 + 45 x_33 + 17 x_34 + 22 x_35 + 7 x_36 + 31 x_37 + 37 x_38 + 34 x_39 + 31 x_40 = 485
Bounds
  0 <= x_1 <= 1
  0 <= x_2 <= 1
  0 <= x_3 <= 1
  0 <= x_4 <= 1
  0 <= x_5 <= 1
  0 <= x_6 <= 1
  0 <= x_7 <= 1
  0 <= x_8 <= 1
  0 <= x_9 <= 1
  0 <= x_10 <= 1
  0 <= x_11 <= 1
  0 <= x_12 <= 1
  0 <= x_13 <= 1
  0 <= x_14 <= 1
  0 <= x_15 <= 1
  0 <= x_16 <= 1
  0 <= x_17 <= 1
  0 <= x_18 <= 1
  0 <= x_19 <= 1
  0 <= x_20 <= 1
  0 <= x_21 <= 1
  0 <= x_22 <= 1
  0 <= x_23 <= 1
  0 <= x_24 <= 1
  0 <= x_25 <= 1
  0 <= x_26 <= 1
  0 <= x_27 <= 1
  0 <= x_28 <= 1
  0 <= x_29 <= 1
  0 <= x_30 <= 1
  0 <= x_31 <= 1
  0 <= x_32 <= 1
  0 <= x_33 <= 1
  0 <= x_34 <= 1
  0 <= x_35 <= 1
  0 <= x_36 <= 1
  0 <= x_37 <= 1
  0 <= x_38 <= 1
  0 <= x_39 <= 1
  0 <= x_40 <= 1
End
