Subject To
	c_1: + 23 x_1 + 37 x_2 + 38 x_3 + 50 x_4 + 39 x_5 + 9 x_6 + 24 x_7 + 22 x_8 + 20 x_9 + 37 x_10 + 48 x_11 + 7 x_12 + 33 x_13 + 12 x_14 + 18 x_15 + 3 x_16 + 49 x_17 + 4 x_18 + 20 x_19 + 35 x_20 + 38 x_21 + 1 x_22 + 13 x_23 + 39 x_24 + 30 x_25 + 27 x_26 + 17 x_27 + 13 x_28 + 15 x_29 + 14 x_30 + 42 x_31 + 46 x_32 + 19 x_33 + 8 x_34 + 26 x_35 + 36 x_36 + 37 x_37 + 35 x_38 + 40 x_39 + 7 x_40 = 762
	c_2: + 47 x_1 + 14 x_2 + 36 x_3 + 34 x_4 + 5 x_5 + 42 x_6 + 10 x_7 + 43 x_8 + 29 x_9 + 11 x_10 + 45 x_11 + 34 x_12 + 42 x_13 + 14 x_14 + 15 x_15 + 15 x_16 + 46 x_17 + 20 x_18 + 8 x_19 + 46 x_20 + 15 x_21 + 20 x_22 + 27 x_23 + 14 x_24 + 23 x_25 + 14 x_26 + 37 x_27 + 11 x_28 + 34 x_29 + 28 x_30 + 15 x_31 + 42 x_32 + 31 x_33 + 10 x_34 + 11 x_35 + 18 x_36 + 8 x_37 + 8 x_38 + 17 x_39 + 49 x_40 = 464
	c_3: + 35 x_1 + 20 x_2 + 30 x_3 + 6 x_4 + 29 x_5 + 5 x_6 + 2 x_7 + 1 x_8 + 49 x_9 + 8 x_10 + 24 x_11 + 50 x_12 + 29 x_13 + 14 x_14 + 49 x_15 + 29 x_16 + 14 x_17 + 46 x_18 + 5 x_19 + 2 x_20 + 2 x_21 + 49 x_22 + 8 x_23 + 23 x_24 + 9 x_25 + 50 x_26 + 16 x_27 + 5 x_28 + 3 x_29 + 17 x_30 + 2 x_31 + 44 x_32 + 19 x_33 + 29 x_34 + 32 x_35 + 5 x_36 + 4 x_37 + 37 x_38 + 19 x_39 + 49 x_40 = 389
	c_4: + 32 x_1 + 32 x_2 + 38 x_3 + 29 x_4 + 19 x_5 + 8 x_6 + 41 x_7 + 45 x_8 + 25 x_9 + 12 x_10 + 28 x_11 + 29 x_12 + 11 x_13 + 6 x_14 + 31 x_15 + 36 x_16 + 43 x_17 + 29 x_18 + 10 x_19 + 20 x_20 + 29 x_21 + 48 x_22 + 44 x_23 + 48 x_24 + 14 x_25 + 4 x_26 + 6 x_27 + 34 x_28 + 50 x_29 + 6 x_30 + 47 x_31 + 20 x_32 + 6 x_33 + 1 x_34 + 9 x_35 + 28 x_36 + 23 x_37 + 12 x_38 + 21 x_39 + 50 x_40 = 487
	c_5: + 48 x_1 + 11 x_2 + 10 x_3 + 29 x_4 + 43 x_5 + 36 x_6 + 22 x_7 + 45 x_8 + 40 x_9 + 12 x_10 + 34 x_11 + 33 x_12 + 47 x_13 + 12 x_14 + 28 x_15 + 41 x_16 + 2 x_17 + 42 x_18 + 45 x_19 + 17 x_20 + 29 x_21 + 48 x_22 + 4 x_23 + 9 x_24 + 40 x_25 + 3 x_26 + 46 x_27 + 23 x_28 + 27 x_29 + 26 x_30 + 9 x_31 + 22 x_32 + 28 x_33 + 42 x_34 + 48 x_35 + 27 x_36 + 2 x_37 + 2 x_38 + 26 x_39 + 8 x_40 = 422
	c_6: + 12 x_1 + 31 x_2 + 22 x_3 + 50 x_4 + 11 x_5 + 15 x_6 + 18 x_7 + 35 x_8 + 10 x_9 + 27 x_10 + 9 x_11 + 9 x_12 + 2 x_13 + 32 x_14 + 5 x_15 + 40 x_16 + 41 x_17 + 34 x_18 + 38 x_19 + 17 x_20 + 16 x_21 + 17 x_22 + 46 x_23 + 12 x_24 + 36 x_25 + 25 x_26 + 39 x_27 + 40 x_28 + 6 x_29 + 20 x_30 + 13 x_31 + 21 x_32 + 15 x_33 + 41 x_34 + 9 x_35 + 34 x_36 + 42 x_37 + 7 x_38 + 3 x_39 + 18 x_40 = 428
	c_7: + 1 x_1 + 35 x_2 + 7 x_3 + 2 x_4 + 41 x_5 + 50 x_6 + 49 x_7 + 38 x_8 + 39 x_9 + 46 x_10 + 15 x_11 + 39 x_12 + 30 x_13 + 45 x_14 + 31 x_15 + 31 x_16 + 25 x_17 + 37 x_18 + 49 x_19 + 35 x_20 + 15 x_21 + 25 x_22 + 21 x_23 + 28 x_24 + 26 x_25 + 48 x_26 + 26 x_27 + 49 x_28 + 29 x_29 + 15 x_30 + 29 x_31 + 8 x_32 + 7 x_33 + 38 x_34 + 39 x_35 + 7 x_36 + 11 x_37 + 27 x_38 + 46 x_39 + 38 x_40 = 520
	c_8: + 45 x_1 + 22 x_2 + 7 x_3 + 16 x_4 + 31 x_5 + 14 x_6 + 23 x_7 + 12 x_8 + 14 x_9 + 9 x_10 + 20 x_11 + 15 x_12 + 34 x_13 + 5 x_14 + 37 x_15 + 17 x_16 + 33 x_17 + 4 x_18 + 9 x_19 + 13 x_20 + 13 x_21 + 28 x_22 + 18 x_23 + 34 x_24 + 13 x_25 + 34 x_26 + 26 x_27 + 5 x_28 + 43 x_29 + 25 x_30 + 45 x_31 + 27 x_32 + 25 x_33 + 26 x_34 + 48 x_35 + 37 x_36 + 24 x_37 + 41 x_38 + 22 x_39 + 24 x_40 = 523
	c_9: + 11 x_1 + 30 x_2 + 31 x_3 + 7 x_4 + 32 x_5 + 13 x_6 + 26 x_7 + 18 x_8 + 3 x_9 + 4 x_10 + 11 x_11 + 13 x_12 + 26 x_13 + 12 x_14 + 32 x_15 + 17 x_16 + 44 x_17 + 48 x_18 + 32 x_19 + 9 x_20 + 35 x_21 + 25 x_22 + 16 x_23 + 48 x_24 + 19 x_25 + 29 x_26 + 9 x_27 + 9 x_28 + 24 x_29 + 15 x_30 + 11 x_31 + 16 x_32 + 25 x_33 + 21 x_34 + 14 x_35 + 39 x_36 + 47 x_37 + 37 x_38 + 20 x_39 + 33 x_40 = 509
	c_10: + 35 x_1 + 15 x_2 + 17 x_3 + 8 x_4 + 38 x_5 + 49 x_6 + 12 x_7 + 12 x_8 + 25 x_9 + 32 x_10 + 17 x_11 + 49 x_12 + 26 x_13 + 12 x_14 + 42 x_15 + 46 x_16 + 8 x_17 + 44 x_18 + 6 x_19 + 14 x_20 + 47 x_21 + 16 x_22 + 9 x_23 + 15 x_24 + 35 x_25 + 3 x_26 + 40 x_27 + 29 x_28 + 11 x_29 + 32 x_30 + 47 x_31 + 46 x_32 + 12 x_33 + 36 x_34 + 17 x_35 + 11 x_36 + 39 x_37 + 40 x_38 + 46 x_39 + 48 x_40 = 521
	c_11: + 10 x_1 + 37 x_2 + 15 x_3 + 47 x_4 + 13 x_5 + 4 x_6 + 3 x_7 + 18 x_8 + 44 x_9 + 50 x_10 + 42 x_11 + 35 x_12 + 11 x_13 + 39 x_14 + 15 x_15 + 17 x_16 + 42 x_17 + 19 x_18 + 18 x_19 + 18 x_20 + 3 x_21 + 37 x_22 + 20 x_23 + 15 x_24 + 32 x_25 + 8 x_26 + 50 x_27 + 6 x_28 + 16 x_29 + 25 x_30 + 49 x_31 + 48 x_32 + 26 x_33 + 3 x_34 + 41 x_35 + 50 x_36 + 12 x_37 + 17 x_38 + 13 x_39 + 42 x_40 = 563
	c_12: + 26 x_1 + 11 x_2 + 29 x_3 + 17 x_4 + 30 x_5 + 41 x_6 + 35 x_7 + 36 x_8 + 8 x_9 + 33 x_10 + 27 x_11 + 27 x_12 + 23 x_13 + 21 x_14 + 49 x_15 + 27 x_16 + 32 x_17 + 10 x_18 + 43 x_19 + 37 x_20 + 20 x_21 + 23 x_22 + 31 x_23 + 23 x_24 + 49 x_25 + 5 x_26 + 24 x_27 + 49 x_28 + 10 x_29 + 22 x_30 + 10 x_31 + 50 x_32 + 7 x_33 + 48 x_34 + 13 x_35 + 17 x_36 + 15 x_37 + 42 x_38 + 21 x_39 + 28 x_40 = 504
	c_13: + 33 x_1 + 29 x_2 + 1 x_3 + 11 x_4 + 16 x_5 + 32 x_6 + 48 x_7 + 16 x_8 + 4 x_9 + 45 x_10 + 29 x_11 + 24 x_12 + 47 x_13 + 18 x_14 + 15 x_15 + 34 x_16 + 10 x_17 + 31 x_18 + 17 x_19 + 23 x_20 + 3 x_21 + 45 x_22 + 43 x_23 + 41 x_24 + 40 x_25 + 5 x_26 + 49 x_27 + 42 x_28 + 36 x_29 + 15 x_30 + 7 x_31 + 36 x_32 + 46 x_33 + 2 x_34 + 43 x_35 + 8 x_36 + 7 x_37 + 30 x_38 + 32 x_39 + 18 x_40 = 463
	c_14: + 8 x_1 + 45 x_2 + 24 x_3 + 4 x_4 + 9 x_5 + 35 x_6 + 21 x_7 + 43 x_8 + 44 x_9 + 7 x_10 + 25 x_11 + 24 x_12 + 25 x_13 + 11 x_14 + 2 x_15 + 39 x_16 + 26 x_17 + 21 x_18 + 3 x_19 + 36 x_20 + 47 x_21 + 11 x_22 + 38 x_23 + 44 x_24 + 16 x_25 + 5 x_26 + 17 x_27 + 10 x_28 + 35 x_29 + 4 x_30 + 44 x_31 + 21 x_32 + 48 x_33 + 26 x_34 + 24 x_35 + 40 x_36 + 35 x_37 + 37 x_38 + 35 x_39 + 7 x_40 = 549
	c_15: + 22 x_1 + 3 x_2 + 29 x_3 + 22 x_4 + 3 x_5 + 27 x_6 + 15 x_7 + 42 x_8 + 15 x_9 + 49 x_10 + 16 x_11 + 5 x_12 + 4 x_13 + 41 x_14 + 14 x_15 + 49 x_16 + 39 x_17 + 14 x_18 + 43 x_19 + 28 x_20 + 23 x_21 + 9 x_22 + 32 x_23 + 12 x_24 + 48 x_25 + 29 x_26 + 12 x_27 + 15 x_28 + 28 x_29 + 48 x_30 + 30 x_31 + 4 x_32 + 33 x_33 + 35 x_34 + 30 x_35 + 22 x_36 + 32 x_37 + 45 x_38 + 14 x_39 + 50 x_40 = 482
Bounds
  0 <= x_1 <= 1
  0 <= x_2 <= 1
  0 <= x_3 <= 1
  0 <= x_4 <= 1
  0 <= x_5 <= 1
  0 <= x_6 <= 1
  0 <= x_7 <= 1
  0 <= x_8 <= 1
  0 <= x_9 <= 1
  0 <= x_10 <= 1
  0 <= x_11 <= 1
  0 <= x_12 <= 1
  0 <= x_13 <= 1
  0 <= x_14 <= 1
  0 <= x_15 <= 1
  0 <= x_16 <= 1
  0 <= x_17 <= 1
  0 <= x_18 <= 1
  0 <= x_19 <= 1
  0 <= x_20 <= 1
  0 <= x_21 <= 1
  0 <= x_22 <= 1
  0 <= x_23 <= 1
  0 <= x_24 <= 1
  0 <= x_25 <= 1
  0 <= x_26 <= 1
  0 <= x_27 <= 1
  0 <= x_28 <= 1
  0 <= x_29 <= 1
  0 <= x_30 <= 1
  0 <= x_31 <= 1
  0 <= x_32 <= 1
  0 <= x_33 <= 1
  0 <= x_34 <= 1
  0 <= x_35 <= 1
  0 <= x_36 <= 1
  0 <= x_37 <= 1
  0 <= x_38 <= 1
  0 <= x_39 <= 1
  0 <= x_40 <= 1
End
