Subject To
	c_1: + 16 x_1 + 3 x_2 + 45 x_3 + 15 x_4 + 27 x_5 + 24 x_6 + 9 x_7 + 25 x_8 + 8 x_9 + 29 x_10 + 46 x_11 + 20 x_12 + 31 x_13 + 22 x_14 + 21 x_15 + 31 x_16 + 16 x_17 + 40 x_18 + 41 x_19 + 5 x_20 + 20 x_21 + 17 x_22 + 1 x_23 + 10 x_24 + 19 x_25 + 2 x_26 + 44 x_27 + 36 x_28 + 44 x_29 + 1 x_30 + 32 x_31 + 46 x_32 + 8 x_33 + 47 x_34 + 9 x_35 + 8 x_36 + 26 x_37 + 36 x_38 + 2 x_39 + 28 x_40 = 629
	c_2: + 39 x_1 + 7 x_2 + 14 x_3 + 20 x_4 + 45 x_5 + 25 x_6 + 40 x_7 + 38 x_8 + 28 x_9 + 19 x_10 + 23 x_11 + 21 x_12 + 27 x_13 + 46 x_14 + 46 x_15 + 4 x_16 + 20 x_17 + 11 x_18 + 28 x_19 + 37 x_20 + 27 x_21 + 4 x_22 + 23 x_23 + 49 x_24 + 37 x_25 + 10 x_26 + 18 x_27 + 29 x_28 + 18 x_29 + 45 x_30 + 23 x_31 + 28 x_32 + 24 x_33 + 11 x_34 + 28 x_35 + 14 x_36 + 30 x_37 + 10 x_38 + 9 x_39 + 49 x_40 = 387
	c_3: + 41 x_1 + 35 x_2 + 5 x_3 + 23 x_4 + 48 x_5 + 43 x_6 + 3 x_7 + 14 x_8 + 31 x_9 + 10 x_10 + 13 x_11 + 11 x_12 + 29 x_13 + 27 x_14 + 34 x_15 + 36 x_16 + 34 x_17 + 19 x_18 + 1 x_19 + 26 x_20 + 35 x_21 + 41 x_22 + 30 x_23 + 46 x_24 + 20 x_25 + 10 x_26 + 14 x_27 + 30 x_28 + 12 x_29 + 42 x_30 + 27 x_31 + 45 x_32 + 24 x_33 + 41 x_34 + 16 x_35 + 4 x_36 + 31 x_37 + 15 x_38 + 23 x_39 + 38 x_40 = 414
	c_4: + 35 x_1 + 42 x_2 + 4 x_3 + 40 x_4 + 46 x_5 + 4 x_6 + 39 x_7 + 29 x_8 + 18 x_9 + 21 x_10 + 24 x_11 + 26 x_12 + 47 x_13 + 12 x_14 + 39 x_15 + 49 x_16 + 11 x_17 + 14 x_18 + 16 x_19 + 6 x_20 + 30 x_21 + 8 x_22 + 35 x_23 + 48 x_24 + 20 x_25 + 9 x_26 + 44 x_27 + 24 x_28 + 42 x_29 + 1 x_30 + 37 x_31 + 26 x_32 + 29 x_33 + 19 x_34 + 3 x_35 + 39 x_36 + 8 x_37 + 24 x_38 + 33 x_39 + 7 x_40 = 452
	c_5: + 27 x_1 + 23 x_2 + 46 x_3 + 8 x_4 + 20 x_5 + 21 x_6 + 41 x_7 + 21 x_8 + 33 x_9 + 43 x_10 + 18 x_11 + 10 x_12 + 3 x_13 + 31 x_14 + 42 x_15 + 2 x_16 + 4 x_17 + 15 x_18 + 22 x_19 + 39 x_20 + 26 x_21 + 45 x_22 + 4 x_23 + 16 x_24 + 47 x_25 + 45 x_26 + 48 x_27 + 25 x_28 + 34 x_29 + 2 x_30 + 27 x_31 + 45 x_32 + 1 x_33 + 18 x_34 + 34 x_35 + 42 x_36 + 26 x_37 + 37 x_38 + 38 x_39 + 37 x_40 = 466
	c_6: + 2 x_1 + 17 x_2 + 2 x_3 + 20 x_4 + 19 x_5 + 11 x_6 + 18 x_7 + 26 x_8 + 19 x_9 + 13 x_10 + 43 x_11 + 47 x_12 + 15 x_13 + 29 x_14 + 10 x_15 + 46 x_16 + 45 x_17 + 33 x_18 + 8 x_19 + 44 x_20 + 13 x_21 + 42 x_22 + 39 x_23 + 33 x_24 + 3 x_25 + 45 x_26 + 27 x_27 + 1 x_28 + 25 x_29 + 48 x_30 + 30 x_31 + 42 x_32 + 24 x_33 + 26 x_34 + 46 x_35 + 13 x_36 + 23 x_37 + 39 x_38 + 30 x_39 + 24 x_40 = 416
	c_7: + 42 x_1 + 22 x_2 + 7 x_3 + 4 x_4 + 20 x_5 + 6 x_6 + 35 x_7 + 1 x_8 + 12 x_9 + 30 x_10 + 3 x_11 + 24 x_12 + 19 x_13 + 29 x_14 + 3 x_15 + 14 x_16 + 32 x_17 + 13 x_18 + 18 x_19 + 5 x_20 + 22 x_21 + 32 x_22 + 7 x_23 + 23 x_24 + 5 x_25 + 8 x_26 + 25 x_27 + 40 x_28 + 16 x_29 + 18 x_30 + 22 x_31 + 49 x_32 + 37 x_33 + 46 x_34 + 13 x_35 + 49 x_36 + 10 x_37 + 18 x_38 + 24 x_39 + 18 x_40 = 368
	c_8: + 20 x_1 + 6 x_2 + 7 x_3 + 39 x_4 + 3 x_5 + 40 x_6 + 18 x_7 + 32 x_8 + 45 x_9 + 22 x_10 + 48 x_11 + 47 x_12 + 18 x_13 + 31 x_14 + 30 x_15 + 44 x_16 + 10 x_17 + 21 x_18 + 49 x_19 + 49 x_20 + 1 x_21 + 18 x_22 + 31 x_23 + 10 x_24 + 39 x_25 + 9 x_26 + 45 x_27 + 30 x_28 + 22 x_29 + 32 x_30 + 18 x_31 + 31 x_32 + 3 x_33 + 18 x_34 + 21 x_35 + 31 x_36 + 18 x_37 + 32 x_38 + 23 x_39 + 37 x_40 = 463
	c_9: + 40 x_1 + 23 x_2 + 13 x_3 + 18 x_4 + 7 x_5 + 43 x_6 + 38 x_7 + 49 x_8 + 6 x_9 + 11 x_10 + 15 x_11 + 46 x_12 + 49 x_13 + 45 x_14 + 47 x_15 + 38 x_16 + 11 x_17 + 1 x_18 + 34 x_19 + 13 x_20 + 33 x_21 + 49 x_22 + 17 x_23 + 16 x_24 + 8 x_25 + 36 x_26 + 5 x_27 + 9 x_28 + 44 x_29 + 41 x_30 + 41 x_31 + 3 x_32 + 23 x_33 + 27 x_34 + 35 x_35 + 38 x_36 + 24 x_37 + 46 x_38 + 9 x_39 + 1 x_40 = 368
	c_10: + 29 x_1 + 35 x_2 + 33 x_3 + 12 x_4 + 20 x_5 + 42 x_6 + 44 x_7 + 21 x_8 + 3 x_9 + 14 x_10 + 50 x_11 + 41 x_12 + 31 x_13 + 50 x_14 + 29 x_15 + 26 x_16 + 38 x_17 + 27 x_18 + 49 x_19 + 37 x_20 + 7 x_21 + 36 x_22 + 37 x_23 + 48 x_24 + 34 x_25 + 40 x_26 + 20 x_27 + 4 x_28 + 24 x_29 + 32 x_30 + 26 x_31 + 20 x_32 + 8 x_33 + 45 x_34 + 50 x_35 + 46 x_36 + 9 x_37 + 47 x_38 + 21 x_39 + 23 x_40 = 468
	c_11: + 8 x_1 + 50 x_2 + 29 x_3 + 3 x_4 + 15 x_5 + 11 x_6 + 37 x_7 + 11 x_8 + 10 x_9 + 2 x_10 + 11 x_11 + 23 x_12 + 49 x_13 + 20 x_14 + 37 x_15 + 44 x_16 + 24 x_17 + 22 x_18 + 48 x_19 + 12 x_20 + 46 x_21 + 30 x_22 + 45 x_23 + 26 x_24 + 22 x_25 + 40 x_26 + 14 x_27 + 6 x_28 + 13 x_29 + 36 x_30 + 36 x_31 + 50 x_32 + 5 x_33 + 9 x_34 + 12 x_35 + 18 x_36 + 24 x_37 + 12 x_38 + 40 x_39 + 50 x_40 = 434
	c_12: + 27 x_1 + 22 x_2 + 35 x_3 + 25 x_4 + 28 x_5 + 45 x_6 + 1 x_7 + 49 x_8 + 42 x_9 + 9 x_10 + 17 x_11 + 10 x_12 + 2 x_13 + 26 x_14 + 47 x_15 + 44 x_16 + 27 x_17 + 50 x_18 + 49 x_19 + 37 x_20 + 16 x_21 + 14 x_22 + 38 x_23 + 16 x_24 + 25 x_25 + 33 x_26 + 45 x_27 + 46 x_28 + 33 x_29 + 22 x_30 + 48 x_31 + 42 x_32 + 33 x_33 + 34 x_34 + 3 x_35 + 16 x_36 + 6 x_37 + 6 x_38 + 25 x_39 + 30 x_40 = 524
	c_13: + 42 x_1 + 29 x_2 + 23 x_3 + 4 x_4 + 8 x_5 + 44 x_6 + 3 x_7 + 40 x_8 + 41 x_9 + 38 x_10 + 16 x_11 + 19 x_12 + 39 x_13 + 43 x_14 + 4 x_15 + 48 x_16 + 33 x_17 + 1 x_18 + 50 x_19 + 35 x_20 + 28 x_21 + 27 x_22 + 40 x_23 + 13 x_24 + 18 x_25 + 41 x_26 + 41 x_27 + 36 x_28 + 12 x_29 + 14 x_30 + 22 x_31 + 39 x_32 + 41 x_33 + 22 x_34 + 18 x_35 + 21 x_36 + 4 x_37 + 44 x_38 + 2 x_39 + 12 x_40 = 455
	c_14: + 46 x_1 + 15 x_2 + 30 x_3 + 16 x_4 + 32 x_5 + 20 x_6 + 26 x_7 + 48 x_8 + 47 x_9 + 47 x_10 + 48 x_11 + 24 x_12 + 2 x_13 + 29 x_14 + 17 x_15 + 4 x_16 + 33 x_17 + 7 x_18 + 2 x_19 + 44 x_20 + 14 x_21 + 46 x_22 + 37 x_23 + 50 x_24 + 24 x_25 + 4 x_26 + 1 x_27 + 6 x_28 + 43 x_29 + 15 x_30 + 42 x_31 + 21 x_32 + 14 x_33 + 26 x_34 + 48 x_35 + 17 x_36 + 11 x_37 + 6 x_38 + 22 x_39 + 7 x_40 = 335
	c_15: + 5 x_1 + 47 x_2 + 18 x_3 + 14 x_4 + 27 x_5 + 27 x_6 + 13 x_7 + 32 x_8 + 38 x_9 + 6 x_10 + 7 x_11 + 50 x_12 + 18 x_13 + 5 x_14 + 39 x_15 + 48 x_16 + 34 x_17 + 9 x_18 + 34 x_19 + 18 x_20 + 11 x_21 + 31 x_22 + 43 x_23 + 11 x_24 + 12 x_25 + 4 x_26 + 25 x_27 + 11 x_28 + 41 x_29 + 44 x_30 + 2 x_31 + 25 x_32 + 46 x_33 + 47 x_34 + 40 x_35 + 1 x_36 + 36 x_37 + 30 x_38 + 6 x_39 + 50 x_40 = 434
Bounds
  0 <= x_1 <= 1
  0 <= x_2 <= 1
  0 <= x_3 <= 1
  0 <= x_4 <= 1
  0 <= x_5 <= 1
  0 <= x_6 <= 1
  0 <= x_7 <= 1
  0 <= x_8 <= 1
  0 <= x_9 <= 1
  0 <= x_10 <= 1
  0 <= x_11 <= 1
  0 <= x_12 <= 1
  0 <= x_13 <= 1
  0 <= x_14 <= 1
  0 <= x_15 <= 1
  0 <= x_16 <= 1
  0 <= x_17 <= 1
  0 <= x_18 <= 1
  0 <= x_19 <= 1
  0 <= x_20 <= 1
  0 <= x_21 <= 1
  0 <= x_22 <= 1
  0 <= x_23 <= 1
  0 <= x_24 <= 1
  0 <= x_25 <= 1
  0 <= x_26 <= 1
  0 <= x_27 <= 1
  0 <= x_28 <= 1
  0 <= x_29 <= 1
  0 <= x_30 <= 1
  0 <= x_31 <= 1
  0 <= x_32 <= 1
  0 <= x_33 <= 1
  0 <= x_34 <= 1
  0 <= x_35 <= 1
  0 <= x_36 <= 1
  0 <= x_37 <= 1
  0 <= x_38 <= 1
  0 <= x_39 <= 1
  0 <= x_40 <= 1
End
