Subject To
	c_1: + 43 x_1 + 7 x_2 + 2 x_3 + 47 x_4 + 39 x_5 + 37 x_6 + 16 x_7 + 18 x_8 + 10 x_9 + 32 x_10 + 49 x_11 + 47 x_12 + 44 x_13 + 28 x_14 + 11 x_15 + 45 x_16 + 35 x_17 + 21 x_18 + 43 x_19 + 8 x_20 + 44 x_21 + 28 x_22 + 33 x_23 + 45 x_24 + 5 x_25 + 4 x_26 + 11 x_27 + 13 x_28 + 40 x_29 + 5 x_30 + 35 x_31 + 31 x_32 + 45 x_33 + 14 x_34 + 37 x_35 + 24 x_36 + 34 x_37 + 34 x_38 + 20 x_39 + 27 x_40 = 922
	c_2: + 26 x_1 + 16 x_2 + 18 x_3 + 50 x_4 + 3 x_5 + 40 x_6 + 44 x_7 + 19 x_8 + 28 x_9 + 3 x_10 + 26 x_11 + 42 x_12 + 48 x_13 + 32 x_14 + 40 x_15 + 47 x_16 + 31 x_17 + 23 x_18 + 39 x_19 + 16 x_20 + 4 x_21 + 21 x_22 + 5 x_23 + 32 x_24 + 7 x_25 + 5 x_26 + 13 x_27 + 4 x_28 + 1 x_29 + 46 x_30 + 29 x_31 + 20 x_32 + 25 x_33 + 2 x_34 + 42 x_35 + 16 x_36 + 21 x_37 + 43 x_38 + 17 x_39 + 26 x_40 = 656
	c_3: + 25 x_1 + 11 x_2 + 14 x_3 + 39 x_4 + 27 x_5 + 45 x_6 + 44 x_7 + 13 x_8 + 31 x_9 + 28 x_10 + 49 x_11 + 35 x_12 + 6 x_13 + 36 x_14 + 9 x_15 + 30 x_16 + 20 x_17 + 49 x_18 + 12 x_19 + 29 x_20 + 46 x_21 + 28 x_22 + 36 x_23 + 49 x_24 + 9 x_25 + 32 x_26 + 6 x_27 + 22 x_28 + 37 x_29 + 43 x_30 + 36 x_31 + 37 x_32 + 9 x_33 + 28 x_34 + 32 x_35 + 12 x_36 + 3 x_37 + 7 x_38 + 22 x_39 + 44 x_40 = 716
	c_4: + 40 x_1 + 23 x_2 + 36 x_3 + 7 x_4 + 26 x_5 + 3 x_6 + 8 x_7 + 38 x_8 + 13 x_9 + 17 x_10 + 30 x_11 + 48 x_12 + 29 x_13 + 34 x_14 + 3 x_15 + 3 x_16 + 48 x_17 + 13 x_18 + 24 x_19 + 16 x_20 + 6 x_21 + 8 x_22 + 1 x_23 + 26 x_24 + 14 x_25 + 25 x_26 + 23 x_27 + 5 x_28 + 9 x_29 + 38 x_30 + 41 x_31 + 12 x_32 + 46 x_33 + 25 x_34 + 24 x_35 + 18 x_36 + 30 x_37 + 1 x_38 + 33 x_39 + 27 x_40 = 540
	c_5: + 5 x_1 + 46 x_2 + 19 x_3 + 27 x_4 + 47 x_5 + 26 x_6 + 45 x_7 + 20 x_8 + 37 x_9 + 5 x_10 + 33 x_11 + 40 x_12 + 11 x_13 + 41 x_14 + 4 x_15 + 2 x_16 + 43 x_17 + 21 x_18 + 23 x_19 + 16 x_20 + 2 x_21 + 18 x_22 + 31 x_23 + 17 x_24 + 9 x_25 + 44 x_26 + 40 x_27 + 17 x_28 + 38 x_29 + 41 x_30 + 25 x_31 + 36 x_32 + 33 x_33 + 37 x_34 + 35 x_35 + 31 x_36 + 5 x_37 + 5 x_38 + 46 x_39 + 22 x_40 = 570
	c_6: + 48 x_1 + 30 x_2 + 19 x_3 + 3 x_4 + 41 x_5 + 21 x_6 + 49 x_7 + 8 x_8 + 22 x_9 + 15 x_10 + 32 x_11 + 2 x_12 + 10 x_13 + 26 x_14 + 46 x_15 + 10 x_16 + 35 x_17 + 6 x_18 + 27 x_19 + 37 x_20 + 19 x_21 + 23 x_22 + 28 x_23 + 36 x_24 + 17 x_25 + 13 x_26 + 38 x_27 + 49 x_28 + 46 x_29 + 36 x_30 + 26 x_31 + 29 x_32 + 44 x_33 + 42 x_34 + 8 x_35 + 13 x_36 + 30 x_37 + 19 x_38 + 44 x_39 + 29 x_40 = 607
	c_7: + 13 x_1 + 42 x_2 + 16 x_3 + 13 x_4 + 21 x_5 + 14 x_6 + 5 x_7 + 50 x_8 + 36 x_9 + 33 x_10 + 19 x_11 + 14 x_12 + 33 x_13 + 6 x_14 + 5 x_15 + 18 x_16 + 38 x_17 + 24 x_18 + 27 x_19 + 13 x_20 + 12 x_21 + 1 x_22 + 40 x_23 + 45 x_24 + 9 x_25 + 32 x_26 + 26 x_27 + 19 x_28 + 5 x_29 + 36 x_30 + 13 x_31 + 26 x_32 + 6 x_33 + 17 x_34 + 50 x_35 + 22 x_36 + 37 x_37 + 43 x_38 + 38 x_39 + 24 x_40 = 551
	c_8: + 2 x_1 + 27 x_2 + 18 x_3 + 39 x_4 + 30 x_5 + 29 x_6 + 23 x_7 + 16 x_8 + 24 x_9 + 36 x_10 + 28 x_11 + 3 x_12 + 31 x_13 + 48 x_14 + 23 x_15 + 47 x_16 + 48 x_17 + 35 x_18 + 27 x_19 + 14 x_20 + 47 x_21 + 46 x_22 + 8 x_23 + 16 x_24 + 8 x_25 + 18 x_26 + 15 x_27 + 49 x_28 + 39 x_29 + 25 x_30 + 26 x_31 + 49 x_32 + 38 x_33 + 34 x_34 + 18 x_35 + 38 x_36 + 38 x_37 + 33 x_38 + 11 x_39 + 35 x_40 = 761
	c_9: + 22 x_1 + 23 x_2 + 43 x_3 + 8 x_4 + 23 x_5 + 19 x_6 + 46 x_7 + 17 x_8 + 49 x_9 + 23 x_10 + 47 x_11 + 34 x_12 + 22 x_13 + 14 x_14 + 23 x_15 + 29 x_16 + 13 x_17 + 16 x_18 + 25 x_19 + 20 x_20 + 24 x_21 + 18 x_22 + 18 x_23 + 44 x_24 + 26 x_25 + 14 x_26 + 41 x_27 + 9 x_28 + 34 x_29 + 10 x_30 + 10 x_31 + 27 x_32 + 22 x_33 + 9 x_34 + 46 x_35 + 44 x_36 + 39 x_37 + 25 x_38 + 39 x_39 + 39 x_40 = 625
	c_10: + 41 x_1 + 1 x_2 + 11 x_3 + 14 x_4 + 40 x_5 + 3 x_6 + 30 x_7 + 2 x_8 + 1 x_9 + 5 x_10 + 37 x_11 + 22 x_12 + 13 x_13 + 11 x_14 + 36 x_15 + 17 x_16 + 41 x_17 + 4 x_18 + 6 x_19 + 34 x_20 + 1 x_21 + 38 x_22 + 29 x_23 + 12 x_24 + 36 x_25 + 40 x_26 + 38 x_27 + 41 x_28 + 9 x_29 + 5 x_30 + 9 x_31 + 9 x_32 + 35 x_33 + 3 x_34 + 27 x_35 + 42 x_36 + 19 x_37 + 21 x_38 + 31 x_39 + 26 x_40 = 485
	c_11: + 16 x_1 + 44 x_2 + 15 x_3 + 19 x_4 + 33 x_5 + 47 x_6 + 17 x_7 + 27 x_8 + 32 x_9 + 45 x_10 + 8 x_11 + 23 x_12 + 31 x_13 + 43 x_14 + 22 x_15 + 8 x_16 + 21 x_17 + 26 x_18 + 16 x_19 + 18 x_20 + 24 x_21 + 18 x_22 + 7 x_23 + 1 x_24 + 24 x_25 + 46 x_26 + 1 x_27 + 13 x_28 + 3 x_29 + 15 x_30 + 40 x_31 + 24 x_32 + 46 x_33 + 16 x_34 + 42 x_35 + 45 x_36 + 9 x_37 + 46 x_38 + 13 x_39 + 18 x_40 = 588
	c_12: + 32 x_1 + 17 x_2 + 24 x_3 + 32 x_4 + 32 x_5 + 16 x_6 + 4 x_7 + 44 x_8 + 2 x_9 + 26 x_10 + 38 x_11 + 23 x_12 + 10 x_13 + 10 x_14 + 16 x_15 + 37 x_16 + 47 x_17 + 28 x_18 + 25 x_19 + 14 x_20 + 26 x_21 + 45 x_22 + 23 x_23 + 4 x_24 + 24 x_25 + 16 x_26 + 19 x_27 + 41 x_28 + 36 x_29 + 33 x_30 + 31 x_31 + 43 x_32 + 13 x_33 + 44 x_34 + 14 x_35 + 43 x_36 + 1 x_37 + 16 x_38 + 12 x_39 + 24 x_40 = 604
	c_13: + 48 x_1 + 41 x_2 + 50 x_3 + 38 x_4 + 28 x_5 + 36 x_6 + 23 x_7 + 10 x_8 + 47 x_9 + 29 x_10 + 3 x_11 + 22 x_12 + 15 x_13 + 32 x_14 + 45 x_15 + 2 x_16 + 43 x_17 + 26 x_18 + 50 x_19 + 4 x_20 + 20 x_21 + 30 x_22 + 16 x_23 + 21 x_24 + 21 x_25 + 16 x_26 + 37 x_27 + 11 x_28 + 37 x_29 + 28 x_30 + 44 x_31 + 17 x_32 + 15 x_33 + 21 x_34 + 42 x_35 + 47 x_36 + 33 x_37 + 44 x_38 + 12 x_39 + 20 x_40 = 685
	c_14: + 27 x_1 + 7 x_2 + 24 x_3 + 33 x_4 + 33 x_5 + 29 x_6 + 49 x_7 + 39 x_8 + 18 x_9 + 15 x_10 + 2 x_11 + 8 x_12 + 8 x_13 + 4 x_14 + 39 x_15 + 17 x_16 + 20 x_17 + 25 x_18 + 12 x_19 + 29 x_20 + 49 x_21 + 36 x_22 + 35 x_23 + 22 x_24 + 40 x_25 + 50 x_26 + 6 x_27 + 6 x_28 + 47 x_29 + 8 x_30 + 27 x_31 + 27 x_32 + 27 x_33 + 44 x_34 + 35 x_35 + 43 x_36 + 36 x_37 + 20 x_38 + 4 x_39 + 27 x_40 = 596
	c_15: + 18 x_1 + 19 x_2 + 43 x_3 + 47 x_4 + 23 x_5 + 35 x_6 + 21 x_7 + 24 x_8 + 36 x_9 + 47 x_10 + 10 x_11 + 1 x_12 + 18 x_13 + 23 x_14 + 19 x_15 + 20 x_16 + 16 x_17 + 41 x_18 + 28 x_19 + 40 x_20 + 47 x_21 + 20 x_22 + 43 x_23 + 6 x_24 + 4 x_25 + 11 x_26 + 6 x_27 + 29 x_28 + 12 x_29 + 30 x_30 + 50 x_31 + 16 x_32 + 12 x_33 + 33 x_34 + 33 x_35 + 23 x_36 + 47 x_37 + 5 x_38 + 10 x_39 + 7 x_40 = 584
Bounds
  0 <= x_1 <= 1
  0 <= x_2 <= 1
  0 <= x_3 <= 1
  0 <= x_4 <= 1
  0 <= x_5 <= 1
  0 <= x_6 <= 1
  0 <= x_7 <= 1
  0 <= x_8 <= 1
  0 <= x_9 <= 1
  0 <= x_10 <= 1
  0 <= x_11 <= 1
  0 <= x_12 <= 1
  0 <= x_13 <= 1
  0 <= x_14 <= 1
  0 <= x_15 <= 1
  0 <= x_16 <= 1
  0 <= x_17 <= 1
  0 <= x_18 <= 1
  0 <= x_19 <= 1
  0 <= x_20 <= 1
  0 <= x_21 <= 1
  0 <= x_22 <= 1
  0 <= x_23 <= 1
  0 <= x_24 <= 1
  0 <= x_25 <= 1
  0 <= x_26 <= 1
  0 <= x_27 <= 1
  0 <= x_28 <= 1
  0 <= x_29 <= 1
  0 <= x_30 <= 1
  0 <= x_31 <= 1
  0 <= x_32 <= 1
  0 <= x_33 <= 1
  0 <= x_34 <= 1
  0 <= x_35 <= 1
  0 <= x_36 <= 1
  0 <= x_37 <= 1
  0 <= x_38 <= 1
  0 <= x_39 <= 1
  0 <= x_40 <= 1
End
