Subject To
	c_1: + 12 x_1 + 47 x_2 + 22 x_3 + 11 x_4 + 43 x_5 + 28 x_6 + 39 x_7 + 4 x_8 + 15 x_9 + 32 x_10 + 29 x_11 + 34 x_12 + 32 x_13 + 18 x_14 + 41 x_15 + 7 x_16 + 46 x_17 + 33 x_18 + 41 x_19 + 20 x_20 + 31 x_21 + 18 x_22 + 33 x_23 + 24 x_24 + 40 x_25 + 2 x_26 + 16 x_27 + 18 x_28 + 35 x_29 + 28 x_30 + 15 x_31 + 18 x_32 + 23 x_33 + 14 x_34 + 5 x_35 + 14 x_36 + 20 x_37 + 32 x_38 + 42 x_39 + 25 x_40 = 686
	c_2: + 22 x_1 + 5 x_2 + 20 x_3 + 12 x_4 + 50 x_5 + 28 x_6 + 41 x_7 + 19 x_8 + 6 x_9 + 22 x_10 + 36 x_11 + 6 x_12 + 15 x_13 + 26 x_14 + 5 x_15 + 22 x_16 + 12 x_17 + 5 x_18 + 29 x_19 + 16 x_20 + 4 x_21 + 8 x_22 + 5 x_23 + 12 x_24 + 21 x_25 + 17 x_26 + 20 x_27 + 12 x_28 + 15 x_29 + 49 x_30 + 17 x_31 + 12 x_32 + 8 x_33 + 17 x_34 + 19 x_35 + 28 x_36 + 50 x_37 + 46 x_38 + 44 x_39 + 26 x_40 = 438
	c_3: + 17 x_1 + 26 x_2 + 42 x_3 + 48 x_4 + 32 x_5 + 19 x_6 + 4 x_7 + 36 x_8 + 8 x_9 + 49 x_10 + 1 x_11 + 38 x_12 + 35 x_13 + 13 x_14 + 18 x_15 + 11 x_16 + 16 x_17 + 18 x_18 + 27 x_19 + 4 x_20 + 15 x_21 + 47 x_22 + 40 x_23 + 2 x_24 + 15 x_25 + 5 x_26 + 25 x_27 + 42 x_28 + 28 x_29 + 41 x_30 + 12 x_31 + 21 x_32 + 5 x_33 + 12 x_34 + 14 x_35 + 4 x_36 + 13 x_37 + 49 x_38 + 6 x_39 + 42 x_40 = 477
	c_4: + 20 x_1 + 25 x_2 + 45 x_3 + 47 x_4 + 18 x_5 + 43 x_6 + 26 x_7 + 6 x_8 + 5 x_9 + 27 x_10 + 46 x_11 + 44 x_12 + 45 x_13 + 48 x_14 + 44 x_15 + 24 x_16 + 36 x_17 + 19 x_18 + 24 x_19 + 22 x_20 + 36 x_21 + 22 x_22 + 20 x_23 + 21 x_24 + 28 x_25 + 29 x_26 + 5 x_27 + 2 x_28 + 15 x_29 + 13 x_30 + 11 x_31 + 26 x_32 + 42 x_33 + 41 x_34 + 9 x_35 + 36 x_36 + 33 x_37 + 19 x_38 + 33 x_39 + 34 x_40 = 561
	c_5: + 39 x_1 + 24 x_2 + 20 x_3 + 24 x_4 + 49 x_5 + 23 x_6 + 39 x_7 + 24 x_8 + 29 x_9 + 37 x_10 + 27 x_11 + 43 x_12 + 10 x_13 + 29 x_14 + 27 x_15 + 11 x_16 + 45 x_17 + 41 x_18 + 16 x_19 + 5 x_20 + 10 x_21 + 7 x_22 + 3 x_23 + 22 x_24 + 47 x_25 + 23 x_26 + 31 x_27 + 42 x_28 + 14 x_29 + 22 x_30 + 8 x_31 + 10 x_32 + 50 x_33 + 27 x_34 + 45 x_35 + 36 x_36 + 40 x_37 + 16 x_38 + 29 x_39 + 28 x_40 = 522
	c_6: + 13 x_1 + 40 x_2 + 31 x_3 + 32 x_4 + 49 x_5 + 42 x_6 + 13 x_7 + 6 x_8 + 6 x_9 + 39 x_10 + 8 x_11 + 26 x_12 + 40 x_13 + 9 x_14 + 15 x_15 + 20 x_16 + 49 x_17 + 17 x_18 + 19 x_19 + 19 x_20 + 46 x_21 + 39 x_22 + 47 x_23 + 6 x_24 + 20 x_25 + 49 x_26 + 5 x_27 + 29 x_28 + 2 x_29 + 22 x_30 + 28 x_31 + 35 x_32 + 32 x_33 + 28 x_34 + 44 x_35 + 42 x_36 + 9 x_37 + 32 x_38 + 48 x_39 + 20 x_40 = 574
	c_7: + 38 x_1 + 44 x_2 + 1 x_3 + 19 x_4 + 21 x_5 + 32 x_6 + 24 x_7 + 20 x_8 + 19 x_9 + 23 x_10 + 40 x_11 + 14 x_12 + 2 x_13 + 28 x_14 + 31 x_15 + 27 x_16 + 9 x_17 + 34 x_18 + 21 x_19 + 18 x_20 + 13 x_21 + 35 x_22 + 32 x_23 + 48 x_24 + 1 x_25 + 37 x_26 + 27 x_27 + 38 x_28 + 42 x_29 + 36 x_30 + 45 x_31 + 1 x_32 + 18 x_33 + 42 x_34 + 20 x_35 + 46 x_36 + 11 x_37 + 19 x_38 + 24 x_39 + 16 x_40 = 462
	c_8: + 46 x_1 + 2 x_2 + 39 x_3 + 36 x_4 + 37 x_5 + 28 x_6 + 34 x_7 + 39 x_8 + 28 x_9 + 32 x_10 + 10 x_11 + 35 x_12 + 14 x_13 + 13 x_14 + 30 x_15 + 31 x_16 + 17 x_17 + 31 x_18 + 41 x_19 + 37 x_20 + 7 x_21 + 46 x_22 + 2 x_23 + 20 x_24 + 48 x_25 + 15 x_26 + 14 x_27 + 49 x_28 + 3 x_29 + 17 x_30 + 20 x_31 + 45 x_32 + 46 x_33 + 45 x_34 + 2 x_35 + 24 x_36 + 4 x_37 + 27 x_38 + 36 x_39 + 45 x_40 = 451
	c_9: + 12 x_1 + 3 x_2 + 28 x_3 + 47 x_4 + 42 x_5 + 18 x_6 + 19 x_7 + 47 x_8 + 36 x_9 + 17 x_10 + 42 x_11 + 33 x_12 + 21 x_13 + 33 x_14 + 9 x_15 + 11 x_16 + 35 x_17 + 24 x_18 + 8 x_19 + 23 x_20 + 46 x_21 + 12 x_22 + 13 x_23 + 35 x_24 + 11 x_25 + 45 x_26 + 16 x_27 + 24 x_28 + 29 x_29 + 19 x_30 + 7 x_31 + 10 x_32 + 36 x_33 + 9 x_34 + 41 x_35 + 7 x_36 + 5 x_37 + 35 x_38 + 35 x_39 + 35 x_40 = 459
	c_10: + 7 x_1 + 17 x_2 + 16 x_3 + 24 x_4 + 40 x_5 + 31 x_6 + 1 x_7 + 4 x_8 + 10 x_9 + 27 x_10 + 38 x_11 + 37 x_12 + 31 x_13 + 43 x_14 + 19 x_15 + 18 x_16 + 17 x_17 + 11 x_18 + 43 x_19 + 30 x_20 + 38 x_21 + 41 x_22 + 10 x_23 + 13 x_24 + 1 x_25 + 50 x_26 + 14 x_27 + 47 x_28 + 24 x_29 + 40 x_30 + 1 x_31 + 21 x_32 + 24 x_33 + 48 x_34 + 18 x_35 + 32 x_36 + 3 x_37 + 4 x_38 + 3 x_39 + 21 x_40 = 432
	c_11: + 14 x_1 + 19 x_2 + 15 x_3 + 29 x_4 + 13 x_5 + 24 x_6 + 17 x_7 + 4 x_8 + 39 x_9 + 3 x_10 + 30 x_11 + 22 x_12 + 29 x_13 + 46 x_14 + 2 x_15 + 40 x_16 + 46 x_17 + 11 x_18 + 18 x_19 + 15 x_20 + 19 x_21 + 13 x_22 + 26 x_23 + 48 x_24 + 6 x_25 + 32 x_26 + 49 x_27 + 33 x_28 + 27 x_29 + 40 x_30 + 29 x_31 + 10 x_32 + 45 x_33 + 48 x_34 + 22 x_35 + 48 x_36 + 42 x_37 + 42 x_38 + 23 x_39 + 14 x_40 = 417
	c_12: + 43 x_1 + 25 x_2 + 11 x_3 + 5 x_4 + 50 x_5 + 32 x_6 + 18 x_7 + 12 x_8 + 1 x_9 + 50 x_10 + 25 x_11 + 3 x_12 + 23 x_13 + 29 x_14 + 43 x_15 + 49 x_16 + 43 x_17 + 32 x_18 + 33 x_19 + 50 x_20 + 2 x_21 + 19 x_22 + 29 x_23 + 1 x_24 + 8 x_25 + 18 x_26 + 29 x_27 + 19 x_28 + 35 x_29 + 44 x_30 + 32 x_31 + 1 x_32 + 33 x_33 + 33 x_34 + 46 x_35 + 15 x_36 + 10 x_37 + 19 x_38 + 49 x_39 + 11 x_40 = 563
	c_13: + 37 x_1 + 32 x_2 + 11 x_3 + 4 x_4 + 30 x_5 + 46 x_6 + 30 x_7 + 21 x_8 + 45 x_9 + 41 x_10 + 12 x_11 + 8 x_12 + 50 x_13 + 5 x_14 + 36 x_15 + 46 x_16 + 42 x_17 + 23 x_18 + 50 x_19 + 31 x_20 + 33 x_21 + 40 x_22 + 29 x_23 + 21 x_24 + 44 x_25 + 49 x_26 + 13 x_27 + 42 x_28 + 23 x_29 + 49 x_30 + 47 x_31 + 40 x_32 + 35 x_33 + 27 x_34 + 41 x_35 + 16 x_36 + 3 x_37 + 44 x_38 + 10 x_39 + 46 x_40 = 632
	c_14: + 7 x_1 + 35 x_2 + 4 x_3 + 19 x_4 + 39 x_5 + 7 x_6 + 29 x_7 + 8 x_8 + 18 x_9 + 6 x_10 + 18 x_11 + 26 x_12 + 14 x_13 + 34 x_14 + 49 x_15 + 1 x_16 + 4 x_17 + 7 x_18 + 24 x_19 + 25 x_20 + 50 x_21 + 43 x_22 + 23 x_23 + 33 x_24 + 44 x_25 + 6 x_26 + 3 x_27 + 17 x_28 + 6 x_29 + 34 x_30 + 21 x_31 + 10 x_32 + 5 x_33 + 39 x_34 + 28 x_35 + 26 x_36 + 49 x_37 + 27 x_38 + 48 x_39 + 13 x_40 = 490
	c_15: + 27 x_1 + 1 x_2 + 6 x_3 + 5 x_4 + 21 x_5 + 50 x_6 + 21 x_7 + 41 x_8 + 19 x_9 + 36 x_10 + 45 x_11 + 46 x_12 + 10 x_13 + 10 x_14 + 48 x_15 + 15 x_16 + 41 x_17 + 42 x_18 + 8 x_19 + 50 x_20 + 46 x_21 + 4 x_22 + 31 x_23 + 23 x_24 + 11 x_25 + 49 x_26 + 35 x_27 + 10 x_28 + 15 x_29 + 4 x_30 + 48 x_31 + 12 x_32 + 17 x_33 + 38 x_34 + 48 x_35 + 29 x_36 + 41 x_37 + 23 x_38 + 44 x_39 + 28 x_40 = 543
Bounds
  0 <= x_1 <= 1
  0 <= x_2 <= 1
  0 <= x_3 <= 1
  0 <= x_4 <= 1
  0 <= x_5 <= 1
  0 <= x_6 <= 1
  0 <= x_7 <= 1
  0 <= x_8 <= 1
  0 <= x_9 <= 1
  0 <= x_10 <= 1
  0 <= x_11 <= 1
  0 <= x_12 <= 1
  0 <= x_13 <= 1
  0 <= x_14 <= 1
  0 <= x_15 <= 1
  0 <= x_16 <= 1
  0 <= x_17 <= 1
  0 <= x_18 <= 1
  0 <= x_19 <= 1
  0 <= x_20 <= 1
  0 <= x_21 <= 1
  0 <= x_22 <= 1
  0 <= x_23 <= 1
  0 <= x_24 <= 1
  0 <= x_25 <= 1
  0 <= x_26 <= 1
  0 <= x_27 <= 1
  0 <= x_28 <= 1
  0 <= x_29 <= 1
  0 <= x_30 <= 1
  0 <= x_31 <= 1
  0 <= x_32 <= 1
  0 <= x_33 <= 1
  0 <= x_34 <= 1
  0 <= x_35 <= 1
  0 <= x_36 <= 1
  0 <= x_37 <= 1
  0 <= x_38 <= 1
  0 <= x_39 <= 1
  0 <= x_40 <= 1
End
