Subject To
	c_1: + 26 x_1 + 24 x_2 + 18 x_3 + 29 x_4 + 13 x_5 + 37 x_6 + 4 x_7 + 25 x_8 + 13 x_9 + 34 x_10 + 34 x_11 + 11 x_12 + 25 x_13 + 37 x_14 + 28 x_15 + 48 x_16 + 5 x_17 + 31 x_18 + 43 x_19 + 23 x_20 + 12 x_21 + 28 x_22 + 33 x_23 + 3 x_24 + 50 x_25 + 21 x_26 + 1 x_27 + 8 x_28 + 24 x_29 + 16 x_30 + 37 x_31 + 5 x_32 + 36 x_33 + 21 x_34 + 7 x_35 + 50 x_36 + 30 x_37 + 36 x_38 + 35 x_39 + 8 x_40 = 682
	c_2: + 48 x_1 + 26 x_2 + 29 x_3 + 49 x_4 + 25 x_5 + 50 x_6 + 36 x_7 + 24 x_8 + 45 x_9 + 45 x_10 + 41 x_11 + 9 x_12 + 23 x_13 + 31 x_14 + 11 x_15 + 42 x_16 + 38 x_17 + 36 x_18 + 9 x_19 + 48 x_20 + 9 x_21 + 39 x_22 + 32 x_23 + 7 x_24 + 23 x_25 + 26 x_26 + 36 x_27 + 35 x_28 + 6 x_29 + 7 x_30 + 33 x_31 + 47 x_32 + 15 x_33 + 12 x_34 + 9 x_35 + 2 x_36 + 48 x_37 + 19 x_38 + 39 x_39 + 34 x_40 = 612
	c_3: + 18 x_1 + 28 x_2 + 37 x_3 + 26 x_4 + 20 x_5 + 18 x_6 + 29 x_7 + 18 x_8 + 10 x_9 + 35 x_10 + 46 x_11 + 46 x_12 + 31 x_13 + 39 x_14 + 20 x_15 + 7 x_16 + 29 x_17 + 45 x_18 + 35 x_19 + 18 x_20 + 50 x_21 + 18 x_22 + 6 x_23 + 19 x_24 + 34 x_25 + 27 x_26 + 43 x_27 + 33 x_28 + 38 x_29 + 5 x_30 + 20 x_31 + 41 x_32 + 2 x_33 + 15 x_34 + 36 x_35 + 19 x_36 + 26 x_37 + 5 x_38 + 46 x_39 + 39 x_40 = 465
	c_4: + 28 x_1 + 44 x_2 + 9 x_3 + 35 x_4 + 7 x_5 + 48 x_6 + 26 x_7 + 20 x_8 + 26 x_9 + 36 x_10 + 15 x_11 + 40 x_12 + 14 x_13 + 17 x_14 + 6 x_15 + 49 x_16 + 50 x_17 + 8 x_18 + 15 x_19 + 15 x_20 + 43 x_21 + 31 x_22 + 11 x_23 + 7 x_24 + 37 x_25 + 38 x_26 + 35 x_27 + 47 x_28 + 17 x_29 + 43 x_30 + 27 x_31 + 37 x_32 + 42 x_33 + 34 x_34 + 38 x_35 + 20 x_36 + 34 x_37 + 23 x_38 + 48 x_39 + 32 x_40 = 530
	c_5: + 46 x_1 + 31 x_2 + 11 x_3 + 38 x_4 + 21 x_5 + 19 x_6 + 5 x_7 + 20 x_8 + 27 x_9 + 33 x_10 + 21 x_11 + 49 x_12 + 49 x_13 + 30 x_14 + 14 x_15 + 35 x_16 + 49 x_17 + 23 x_18 + 30 x_19 + 38 x_20 + 22 x_21 + 42 x_22 + 1 x_23 + 47 x_24 + 50 x_25 + 14 x_26 + 27 x_27 + 38 x_28 + 24 x_29 + 10 x_30 + 32 x_31 + 36 x_32 + 15 x_33 + 48 x_34 + 3 x_35 + 23 x_36 + 28 x_37 + 3 x_38 + 38 x_39 + 21 x_40 = 521
	c_6: + 31 x_1 + 27 x_2 + 23 x_3 + 15 x_4 + 34 x_5 + 48 x_6 + 42 x_7 + 6 x_8 + 20 x_9 + 1 x_10 + 30 x_11 + 16 x_12 + 32 x_13 + 39 x_14 + 15 x_15 + 8 x_16 + 24 x_17 + 14 x_18 + 21 x_19 + 30 x_20 + 48 x_21 + 26 x_22 + 3 x_23 + 18 x_24 + 1 x_25 + 21 x_26 + 15 x_27 + 27 x_28 + 8 x_29 + 31 x_30 + 29 x_31 + 28 x_32 + 14 x_33 + 23 x_34 + 30 x_35 + 49 x_36 + 27 x_37 + 12 x_38 + 40 x_39 + 29 x_40 = 423
	c_7: + 3 x_1 + 34 x_2 + 32 x_3 + 25 x_4 + 49 x_5 + 10 x_6 + 27 x_7 + 10 x_8 + 35 x_9 + 43 x_10 + 12 x_11 + 22 x_12 + 29 x_13 + 34 x_14 + 12 x_15 + 8 x_16 + 47 x_17 + 26 x_18 + 23 x_19 + 7 x_20 + 2 x_21 + 50 x_22 + 13 x_23 + 40 x_24 + 8 x_25 + 17 x_26 + 12 x_27 + 5 x_28 + 39 x_29 + 48 x_30 + 48 x_31 + 16 x_32 + 26 x_33 + 22 x_34 + 2 x_35 + 12 x_36 + 39 x_37 + 10 x_38 + 45 x_39 + 45 x_40 = 447
	c_8: + 29 x_1 + 21 x_2 + 2 x_3 + 48 x_4 + 37 x_5 + 21 x_6 + 29 x_7 + 37 x_8 + 12 x_9 + 48 x_10 + 6 x_11 + 13 x_12 + 33 x_13 + 11 x_14 + 24 x_15 + 24 x_16 + 1 x_17 + 28 x_18 + 8 x_19 + 22 x_20 + 15 x_21 + 47 x_22 + 6 x_23 + 15 x_24 + 22 x_25 + 46 x_26 + 2 x_27 + 30 x_28 + 24 x_29 + 28 x_30 + 13 x_31 + 16 x_32 + 32 x_33 + 35 x_34 + 28 x_35 + 29 x_36 + 18 x_37 + 19 x_38 + 45 x_39 + 12 x_40 = 478
	c_9: + 50 x_1 + 13 x_2 + 36 x_3 + 18 x_4 + 49 x_5 + 5 x_6 + 36 x_7 + 43 x_8 + 50 x_9 + 17 x_10 + 16 x_11 + 13 x_12 + 30 x_13 + 45 x_14 + 32 x_15 + 18 x_16 + 34 x_17 + 10 x_18 + 39 x_19 + 26 x_20 + 25 x_21 + 5 x_22 + 30 x_23 + 8 x_24 + 12 x_25 + 18 x_26 + 37 x_27 + 50 x_28 + 2 x_29 + 34 x_30 + 30 x_31 + 17 x_32 + 37 x_33 + 18 x_34 + 28 x_35 + 10 x_36 + 24 x_37 + 40 x_38 + 24 x_39 + 41 x_40 = 462
	c_10: + 12 x_1 + 19 x_2 + 42 x_3 + 13 x_4 + 39 x_5 + 34 x_6 + 7 x_7 + 6 x_8 + 38 x_9 + 34 x_10 + 19 x_11 + 40 x_12 + 45 x_13 + 4 x_14 + 28 x_15 + 27 x_16 + 4 x_17 + 37 x_18 + 21 x_19 + 33 x_20 + 39 x_21 + 25 x_22 + 9 x_23 + 14 x_24 + 40 x_25 + 41 x_26 + 17 x_27 + 40 x_28 + 31 x_29 + 46 x_30 + 15 x_31 + 42 x_32 + 9 x_33 + 45 x_34 + 13 x_35 + 46 x_36 + 30 x_37 + 32 x_38 + 46 x_39 + 3 x_40 = 481
	c_11: + 24 x_1 + 47 x_2 + 48 x_3 + 13 x_4 + 16 x_5 + 43 x_6 + 30 x_7 + 44 x_8 + 13 x_9 + 38 x_10 + 45 x_11 + 32 x_12 + 13 x_13 + 42 x_14 + 24 x_15 + 50 x_16 + 13 x_17 + 15 x_18 + 12 x_19 + 43 x_20 + 34 x_21 + 50 x_22 + 7 x_23 + 19 x_24 + 36 x_25 + 10 x_26 + 46 x_27 + 18 x_28 + 24 x_29 + 12 x_30 + 15 x_31 + 4 x_32 + 42 x_33 + 23 x_34 + 3 x_35 + 43 x_36 + 3 x_37 + 37 x_38 + 17 x_39 + 10 x_40 = 556
	c_12: + 19 x_1 + 1 x_2 + 6 x_3 + 27 x_4 + 4 x_5 + 30 x_6 + 36 x_7 + 41 x_8 + 47 x_9 + 7 x_10 + 17 x_11 + 10 x_12 + 30 x_13 + 38 x_14 + 13 x_15 + 37 x_16 + 40 x_17 + 27 x_18 + 33 x_19 + 15 x_20 + 17 x_21 + 1 x_22 + 49 x_23 + 18 x_24 + 24 x_25 + 20 x_26 + 3 x_27 + 17 x_28 + 5 x_29 + 41 x_30 + 6 x_31 + 16 x_32 + 41 x_33 + 24 x_34 + 13 x_35 + 1 x_36 + 6 x_37 + 27 x_38 + 11 x_39 + 43 x_40 = 414
	c_13: + 47 x_1 + 10 x_2 + 5 x_3 + 20 x_4 + 48 x_5 + 15 x_6 + 5 x_7 + 1 x_8 + 5 x_9 + 29 x_10 + 21 x_11 + 26 x_12 + 14 x_13 + 5 x_14 + 13 x_15 + 31 x_16 + 41 x_17 + 13 x_18 + 42 x_19 + 1 x_20 + 38 x_21 + 10 x_22 + 10 x_23 + 34 x_24 + 21 x_25 + 40 x_26 + 32 x_27 + 18 x_28 + 13 x_29 + 24 x_30 + 8 x_31 + 45 x_32 + 40 x_33 + 42 x_34 + 19 x_35 + 16 x_36 + 25 x_37 + 50 x_38 + 13 x_39 + 18 x_40 = 429
	c_14: + 4 x_1 + 14 x_2 + 22 x_3 + 46 x_4 + 44 x_5 + 42 x_6 + 27 x_7 + 37 x_8 + 2 x_9 + 18 x_10 + 21 x_11 + 15 x_12 + 5 x_13 + 16 x_14 + 33 x_15 + 45 x_16 + 41 x_17 + 40 x_18 + 36 x_19 + 1 x_20 + 20 x_21 + 45 x_22 + 44 x_23 + 45 x_24 + 11 x_25 + 45 x_26 + 26 x_27 + 20 x_28 + 49 x_29 + 37 x_30 + 11 x_31 + 22 x_32 + 21 x_33 + 42 x_34 + 37 x_35 + 24 x_36 + 17 x_37 + 38 x_38 + 41 x_39 + 43 x_40 = 553
	c_15: + 34 x_1 + 31 x_2 + 13 x_3 + 43 x_4 + 26 x_5 + 37 x_6 + 41 x_7 + 23 x_8 + 40 x_9 + 22 x_10 + 41 x_11 + 20 x_12 + 20 x_13 + 37 x_14 + 10 x_15 + 10 x_16 + 41 x_17 + 5 x_18 + 9 x_19 + 31 x_20 + 19 x_21 + 8 x_22 + 17 x_23 + 40 x_24 + 2 x_25 + 39 x_26 + 28 x_27 + 1 x_28 + 33 x_29 + 29 x_30 + 10 x_31 + 4 x_32 + 38 x_33 + 45 x_34 + 41 x_35 + 25 x_36 + 46 x_37 + 46 x_38 + 47 x_39 + 29 x_40 = 487
Bounds
  0 <= x_1 <= 1
  0 <= x_2 <= 1
  0 <= x_3 <= 1
  0 <= x_4 <= 1
  0 <= x_5 <= 1
  0 <= x_6 <= 1
  0 <= x_7 <= 1
  0 <= x_8 <= 1
  0 <= x_9 <= 1
  0 <= x_10 <= 1
  0 <= x_11 <= 1
  0 <= x_12 <= 1
  0 <= x_13 <= 1
  0 <= x_14 <= 1
  0 <= x_15 <= 1
  0 <= x_16 <= 1
  0 <= x_17 <= 1
  0 <= x_18 <= 1
  0 <= x_19 <= 1
  0 <= x_20 <= 1
  0 <= x_21 <= 1
  0 <= x_22 <= 1
  0 <= x_23 <= 1
  0 <= x_24 <= 1
  0 <= x_25 <= 1
  0 <= x_26 <= 1
  0 <= x_27 <= 1
  0 <= x_28 <= 1
  0 <= x_29 <= 1
  0 <= x_30 <= 1
  0 <= x_31 <= 1
  0 <= x_32 <= 1
  0 <= x_33 <= 1
  0 <= x_34 <= 1
  0 <= x_35 <= 1
  0 <= x_36 <= 1
  0 <= x_37 <= 1
  0 <= x_38 <= 1
  0 <= x_39 <= 1
  0 <= x_40 <= 1
End
