Subject To
	c_1: + 44 x_1 + 3 x_2 + 8 x_3 + 8 x_4 + 27 x_5 + 27 x_6 + 42 x_7 + 35 x_8 + 44 x_9 + 29 x_10 + 44 x_11 + 20 x_12 + 16 x_13 + 2 x_14 + 13 x_15 + 23 x_16 + 5 x_17 + 8 x_18 + 6 x_19 + 11 x_20 + 37 x_21 + 14 x_22 + 5 x_23 + 43 x_24 + 9 x_25 + 17 x_26 + 45 x_27 + 17 x_28 + 50 x_29 + 21 x_30 + 47 x_31 + 41 x_32 + 43 x_33 + 32 x_34 + 22 x_35 + 20 x_36 + 40 x_37 + 50 x_38 + 46 x_39 + 17 x_40 = 766
	c_2: + 31 x_1 + 21 x_2 + 48 x_3 + 4 x_4 + 40 x_5 + 7 x_6 + 17 x_7 + 2 x_8 + 29 x_9 + 40 x_10 + 42 x_11 + 14 x_12 + 28 x_13 + 24 x_14 + 38 x_15 + 11 x_16 + 42 x_17 + 49 x_18 + 28 x_19 + 29 x_20 + 5 x_21 + 50 x_22 + 15 x_23 + 48 x_24 + 16 x_25 + 18 x_26 + 29 x_27 + 24 x_28 + 40 x_29 + 9 x_30 + 44 x_31 + 11 x_32 + 20 x_33 + 33 x_34 + 36 x_35 + 34 x_36 + 15 x_37 + 5 x_38 + 4 x_39 + 47 x_40 = 462
	c_3: + 38 x_1 + 3 x_2 + 11 x_3 + 6 x_4 + 45 x_5 + 24 x_6 + 19 x_7 + 20 x_8 + 1 x_9 + 29 x_10 + 27 x_11 + 5 x_12 + 21 x_13 + 41 x_14 + 30 x_15 + 21 x_16 + 13 x_17 + 4 x_18 + 22 x_19 + 15 x_20 + 3 x_21 + 27 x_22 + 24 x_23 + 49 x_24 + 47 x_25 + 47 x_26 + 46 x_27 + 1 x_28 + 20 x_29 + 12 x_30 + 10 x_31 + 31 x_32 + 7 x_33 + 6 x_34 + 46 x_35 + 10 x_36 + 13 x_37 + 39 x_38 + 28 x_39 + 34 x_40 = 455
	c_4: + 1 x_1 + 20 x_2 + 30 x_3 + 41 x_4 + 17 x_5 + 25 x_6 + 19 x_7 + 35 x_8 + 7 x_9 + 36 x_10 + 24 x_11 + 2 x_12 + 34 x_13 + 39 x_14 + 29 x_15 + 30 x_16 + 2 x_17 + 36 x_18 + 16 x_19 + 21 x_20 + 32 x_21 + 48 x_22 + 44 x_23 + 11 x_24 + 31 x_25 + 14 x_26 + 24 x_27 + 8 x_28 + 25 x_29 + 31 x_30 + 6 x_31 + 33 x_32 + 49 x_33 + 41 x_34 + 43 x_35 + 11 x_36 + 33 x_37 + 49 x_38 + 3 x_39 + 33 x_40 = 470
	c_5: + 49 x_1 + 36 x_2 + 32 x_3 + 35 x_4 + 21 x_5 + 49 x_6 + 27 x_7 + 6 x_8 + 41 x_9 + 16 x_10 + 47 x_11 + 36 x_12 + 45 x_13 + 42 x_14 + 6 x_15 + 24 x_16 + 39 x_17 + 7 x_18 + 32 x_19 + 48 x_20 + 6 x_21 + 6 x_22 + 27 x_23 + 10 x_24 + 35 x_25 + 31 x_26 + 21 x_27 + 22 x_28 + 24 x_29 + 12 x_30 + 8 x_31 + 39 x_32 + 18 x_33 + 26 x_34 + 34 x_35 + 20 x_36 + 46 x_37 + 1 x_38 + 19 x_39 + 47 x_40 = 474
	c_6: + 29 x_1 + 44 x_2 + 5 x_3 + 45 x_4 + 49 x_5 + 21 x_6 + 43 x_7 + 33 x_8 + 20 x_9 + 42 x_10 + 4 x_11 + 44 x_12 + 23 x_13 + 5 x_14 + 23 x_15 + 15 x_16 + 39 x_17 + 9 x_18 + 18 x_19 + 5 x_20 + 37 x_21 + 9 x_22 + 24 x_23 + 17 x_24 + 32 x_25 + 20 x_26 + 40 x_27 + 6 x_28 + 40 x_29 + 19 x_30 + 8 x_31 + 8 x_32 + 26 x_33 + 50 x_34 + 47 x_35 + 35 x_36 + 25 x_37 + 28 x_38 + 8 x_39 + 9 x_40 = 528
	c_7: + 43 x_1 + 36 x_2 + 26 x_3 + 1 x_4 + 7 x_5 + 31 x_6 + 19 x_7 + 20 x_8 + 12 x_9 + 28 x_10 + 14 x_11 + 36 x_12 + 17 x_13 + 43 x_14 + 10 x_15 + 36 x_16 + 31 x_17 + 50 x_18 + 46 x_19 + 15 x_20 + 30 x_21 + 24 x_22 + 16 x_23 + 22 x_24 + 42 x_25 + 39 x_26 + 12 x_27 + 17 x_28 + 17 x_29 + 4 x_30 + 22 x_31 + 7 x_32 + 36 x_33 + 25 x_34 + 7 x_35 + 42 x_36 + 3 x_37 + 26 x_38 + 34 x_39 + 45 x_40 = 408
	c_8: + 27 x_1 + 32 x_2 + 6 x_3 + 33 x_4 + 28 x_5 + 22 x_6 + 16 x_7 + 47 x_8 + 2 x_9 + 47 x_10 + 18 x_11 + 40 x_12 + 49 x_13 + 17 x_14 + 47 x_15 + 40 x_16 + 45 x_17 + 8 x_18 + 20 x_19 + 24 x_20 + 7 x_21 + 22 x_22 + 45 x_23 + 36 x_24 + 6 x_25 + 14 x_26 + 28 x_27 + 31 x_28 + 47 x_29 + 20 x_30 + 8 x_31 + 28 x_32 + 3 x_33 + 33 x_34 + 49 x_35 + 20 x_36 + 29 x_37 + 22 x_38 + 38 x_39 + 33 x_40 = 486
	c_9: + 50 x_1 + 50 x_2 + 15 x_3 + 11 x_4 + 38 x_5 + 47 x_6 + 43 x_7 + 4 x_8 + 7 x_9 + 40 x_10 + 22 x_11 + 6 x_12 + 49 x_13 + 16 x_14 + 15 x_15 + 16 x_16 + 37 x_17 + 10 x_18 + 23 x_19 + 44 x_20 + 18 x_21 + 3 x_22 + 35 x_23 + 41 x_24 + 15 x_25 + 4 x_26 + 44 x_27 + 34 x_28 + 48 x_29 + 9 x_30 + 9 x_31 + 35 x_32 + 6 x_33 + 29 x_34 + 2 x_35 + 30 x_36 + 42 x_37 + 11 x_38 + 44 x_39 + 9 x_40 = 578
	c_10: + 23 x_1 + 34 x_2 + 38 x_3 + 44 x_4 + 36 x_5 + 12 x_6 + 14 x_7 + 25 x_8 + 24 x_9 + 42 x_10 + 32 x_11 + 10 x_12 + 37 x_13 + 50 x_14 + 40 x_15 + 9 x_16 + 27 x_17 + 9 x_18 + 3 x_19 + 9 x_20 + 30 x_21 + 29 x_22 + 38 x_23 + 5 x_24 + 20 x_25 + 33 x_26 + 28 x_27 + 37 x_28 + 12 x_29 + 23 x_30 + 10 x_31 + 43 x_32 + 9 x_33 + 42 x_34 + 25 x_35 + 24 x_36 + 37 x_37 + 47 x_38 + 16 x_39 + 29 x_40 = 487
	c_11: + 3 x_1 + 38 x_2 + 23 x_3 + 48 x_4 + 26 x_5 + 27 x_6 + 15 x_7 + 40 x_8 + 24 x_9 + 6 x_10 + 37 x_11 + 11 x_12 + 44 x_13 + 10 x_14 + 28 x_15 + 37 x_16 + 43 x_17 + 38 x_18 + 13 x_19 + 36 x_20 + 29 x_21 + 21 x_22 + 2 x_23 + 35 x_24 + 8 x_25 + 11 x_26 + 25 x_27 + 23 x_28 + 37 x_29 + 23 x_30 + 44 x_31 + 6 x_32 + 21 x_33 + 13 x_34 + 30 x_35 + 9 x_36 + 26 x_37 + 39 x_38 + 38 x_39 + 25 x_40 = 491
	c_12: + 28 x_1 + 44 x_2 + 28 x_3 + 2 x_4 + 50 x_5 + 14 x_6 + 13 x_7 + 1 x_8 + 22 x_9 + 32 x_10 + 1 x_11 + 33 x_12 + 9 x_13 + 18 x_14 + 35 x_15 + 37 x_16 + 40 x_17 + 13 x_18 + 29 x_19 + 17 x_20 + 40 x_21 + 6 x_22 + 32 x_23 + 29 x_24 + 6 x_25 + 35 x_26 + 27 x_27 + 10 x_28 + 15 x_29 + 35 x_30 + 36 x_31 + 16 x_32 + 9 x_33 + 37 x_34 + 10 x_35 + 36 x_36 + 48 x_37 + 4 x_38 + 25 x_39 + 25 x_40 = 447
	c_13: + 45 x_1 + 44 x_2 + 22 x_3 + 41 x_4 + 28 x_5 + 18 x_6 + 43 x_7 + 41 x_8 + 25 x_9 + 3 x_10 + 30 x_11 + 24 x_12 + 13 x_13 + 1 x_14 + 49 x_15 + 45 x_16 + 41 x_17 + 26 x_18 + 50 x_19 + 30 x_20 + 40 x_21 + 22 x_22 + 48 x_23 + 30 x_24 + 29 x_25 + 43 x_26 + 5 x_27 + 38 x_28 + 28 x_29 + 26 x_30 + 8 x_31 + 34 x_32 + 47 x_33 + 24 x_34 + 25 x_35 + 8 x_36 + 31 x_37 + 43 x_38 + 30 x_39 + 45 x_40 = 553
	c_14: + 2 x_1 + 26 x_2 + 22 x_3 + 23 x_4 + 21 x_5 + 12 x_6 + 14 x_7 + 6 x_8 + 19 x_9 + 42 x_10 + 6 x_11 + 27 x_12 + 42 x_13 + 38 x_14 + 26 x_15 + 16 x_16 + 48 x_17 + 42 x_18 + 30 x_19 + 34 x_20 + 22 x_21 + 5 x_22 + 41 x_23 + 41 x_24 + 50 x_25 + 38 x_26 + 23 x_27 + 47 x_28 + 7 x_29 + 10 x_30 + 39 x_31 + 35 x_32 + 22 x_33 + 1 x_34 + 3 x_35 + 37 x_36 + 48 x_37 + 2 x_38 + 25 x_39 + 35 x_40 = 387
	c_15: + 28 x_1 + 10 x_2 + 1 x_3 + 3 x_4 + 31 x_5 + 45 x_6 + 38 x_7 + 16 x_8 + 2 x_9 + 13 x_10 + 44 x_11 + 24 x_12 + 50 x_13 + 28 x_14 + 4 x_15 + 20 x_16 + 8 x_17 + 44 x_18 + 14 x_19 + 3 x_20 + 50 x_21 + 41 x_22 + 16 x_23 + 8 x_24 + 4 x_25 + 23 x_26 + 29 x_27 + 37 x_28 + 10 x_29 + 24 x_30 + 31 x_31 + 41 x_32 + 38 x_33 + 41 x_34 + 6 x_35 + 22 x_36 + 30 x_37 + 31 x_38 + 11 x_39 + 42 x_40 = 537
Bounds
  0 <= x_1 <= 1
  0 <= x_2 <= 1
  0 <= x_3 <= 1
  0 <= x_4 <= 1
  0 <= x_5 <= 1
  0 <= x_6 <= 1
  0 <= x_7 <= 1
  0 <= x_8 <= 1
  0 <= x_9 <= 1
  0 <= x_10 <= 1
  0 <= x_11 <= 1
  0 <= x_12 <= 1
  0 <= x_13 <= 1
  0 <= x_14 <= 1
  0 <= x_15 <= 1
  0 <= x_16 <= 1
  0 <= x_17 <= 1
  0 <= x_18 <= 1
  0 <= x_19 <= 1
  0 <= x_20 <= 1
  0 <= x_21 <= 1
  0 <= x_22 <= 1
  0 <= x_23 <= 1
  0 <= x_24 <= 1
  0 <= x_25 <= 1
  0 <= x_26 <= 1
  0 <= x_27 <= 1
  0 <= x_28 <= 1
  0 <= x_29 <= 1
  0 <= x_30 <= 1
  0 <= x_31 <= 1
  0 <= x_32 <= 1
  0 <= x_33 <= 1
  0 <= x_34 <= 1
  0 <= x_35 <= 1
  0 <= x_36 <= 1
  0 <= x_37 <= 1
  0 <= x_38 <= 1
  0 <= x_39 <= 1
  0 <= x_40 <= 1
End
