Subject To
	c_1: + 11 x_1 + 13 x_2 + 1 x_3 + 1 x_4 + 31 x_5 + 15 x_6 + 14 x_7 + 22 x_8 + 11 x_9 + 23 x_10 + 11 x_11 + 9 x_12 + 33 x_13 + 43 x_14 + 20 x_15 + 13 x_16 + 19 x_17 + 20 x_18 + 4 x_19 + 2 x_20 + 25 x_21 + 24 x_22 + 20 x_23 + 17 x_24 + 2 x_25 + 11 x_26 + 26 x_27 + 43 x_28 + 42 x_29 + 49 x_30 + 1 x_31 + 3 x_32 + 47 x_33 + 10 x_34 + 15 x_35 + 9 x_36 + 27 x_37 + 13 x_38 + 25 x_39 + 38 x_40 = 379
	c_2: + 28 x_1 + 31 x_2 + 2 x_3 + 8 x_4 + 29 x_5 + 39 x_6 + 42 x_7 + 18 x_8 + 26 x_9 + 47 x_10 + 18 x_11 + 45 x_12 + 36 x_13 + 27 x_14 + 20 x_15 + 15 x_16 + 50 x_17 + 14 x_18 + 44 x_19 + 29 x_20 + 39 x_21 + 46 x_22 + 31 x_23 + 27 x_24 + 43 x_25 + 28 x_26 + 47 x_27 + 44 x_28 + 37 x_29 + 45 x_30 + 37 x_31 + 21 x_32 + 49 x_33 + 13 x_34 + 22 x_35 + 47 x_36 + 5 x_37 + 6 x_38 + 28 x_39 + 34 x_40 = 353
	c_3: + 35 x_1 + 43 x_2 + 36 x_3 + 19 x_4 + 4 x_5 + 1 x_6 + 15 x_7 + 46 x_8 + 46 x_9 + 48 x_10 + 1 x_11 + 50 x_12 + 47 x_13 + 19 x_14 + 2 x_15 + 30 x_16 + 18 x_17 + 10 x_18 + 22 x_19 + 37 x_20 + 35 x_21 + 46 x_22 + 12 x_23 + 8 x_24 + 20 x_25 + 25 x_26 + 9 x_27 + 22 x_28 + 44 x_29 + 20 x_30 + 3 x_31 + 6 x_32 + 21 x_33 + 31 x_34 + 13 x_35 + 50 x_36 + 5 x_37 + 28 x_38 + 42 x_39 + 11 x_40 = 202
	c_4: + 18 x_1 + 36 x_2 + 12 x_3 + 48 x_4 + 20 x_5 + 32 x_6 + 14 x_7 + 46 x_8 + 19 x_9 + 40 x_10 + 33 x_11 + 13 x_12 + 32 x_13 + 26 x_14 + 36 x_15 + 29 x_16 + 44 x_17 + 21 x_18 + 21 x_19 + 33 x_20 + 34 x_21 + 40 x_22 + 14 x_23 + 15 x_24 + 3 x_25 + 30 x_26 + 37 x_27 + 12 x_28 + 6 x_29 + 40 x_30 + 11 x_31 + 29 x_32 + 19 x_33 + 9 x_34 + 44 x_35 + 43 x_36 + 38 x_37 + 29 x_38 + 5 x_39 + 21 x_40 = 251
	c_5: + 21 x_1 + 34 x_2 + 25 x_3 + 2 x_4 + 20 x_5 + 44 x_6 + 18 x_7 + 45 x_8 + 40 x_9 + 41 x_10 + 45 x_11 + 31 x_12 + 21 x_13 + 47 x_14 + 36 x_15 + 14 x_16 + 49 x_17 + 18 x_18 + 11 x_19 + 24 x_20 + 22 x_21 + 28 x_22 + 26 x_23 + 21 x_24 + 38 x_25 + 49 x_26 + 14 x_27 + 28 x_28 + 14 x_29 + 10 x_30 + 45 x_31 + 19 x_32 + 20 x_33 + 37 x_34 + 40 x_35 + 32 x_36 + 35 x_37 + 11 x_38 + 44 x_39 + 37 x_40 = 246
	c_6: + 14 x_1 + 14 x_2 + 9 x_3 + 14 x_4 + 7 x_5 + 3 x_6 + 46 x_7 + 12 x_8 + 2 x_9 + 5 x_10 + 9 x_11 + 30 x_12 + 25 x_13 + 4 x_14 + 19 x_15 + 48 x_16 + 43 x_17 + 49 x_18 + 4 x_19 + 1 x_20 + 50 x_21 + 27 x_22 + 3 x_23 + 28 x_24 + 20 x_25 + 41 x_26 + 21 x_27 + 1 x_28 + 28 x_29 + 34 x_30 + 11 x_31 + 39 x_32 + 10 x_33 + 40 x_34 + 23 x_35 + 50 x_36 + 16 x_37 + 1 x_38 + 28 x_39 + 47 x_40 = 193
	c_7: + 49 x_1 + 4 x_2 + 20 x_3 + 37 x_4 + 42 x_5 + 32 x_6 + 12 x_7 + 17 x_8 + 4 x_9 + 24 x_10 + 33 x_11 + 39 x_12 + 12 x_13 + 27 x_14 + 2 x_15 + 36 x_16 + 16 x_17 + 3 x_18 + 42 x_19 + 2 x_20 + 44 x_21 + 21 x_22 + 15 x_23 + 33 x_24 + 6 x_25 + 3 x_26 + 25 x_27 + 34 x_28 + 44 x_29 + 13 x_30 + 31 x_31 + 13 x_32 + 24 x_33 + 42 x_34 + 13 x_35 + 15 x_36 + 45 x_37 + 24 x_38 + 30 x_39 + 43 x_40 = 309
	c_8: + 35 x_1 + 32 x_2 + 50 x_3 + 38 x_4 + 35 x_5 + 23 x_6 + 35 x_7 + 43 x_8 + 6 x_9 + 13 x_10 + 7 x_11 + 35 x_12 + 26 x_13 + 44 x_14 + 28 x_15 + 27 x_16 + 4 x_17 + 17 x_18 + 25 x_19 + 18 x_20 + 5 x_21 + 31 x_22 + 12 x_23 + 21 x_24 + 48 x_25 + 11 x_26 + 26 x_27 + 14 x_28 + 34 x_29 + 9 x_30 + 3 x_31 + 1 x_32 + 44 x_33 + 16 x_34 + 14 x_35 + 14 x_36 + 29 x_37 + 46 x_38 + 16 x_39 + 45 x_40 = 306
	c_9: + 13 x_1 + 26 x_2 + 26 x_3 + 46 x_4 + 34 x_5 + 19 x_6 + 36 x_7 + 48 x_8 + 24 x_9 + 14 x_10 + 2 x_11 + 43 x_12 + 6 x_13 + 3 x_14 + 12 x_15 + 23 x_16 + 12 x_17 + 29 x_18 + 25 x_19 + 27 x_20 + 32 x_21 + 20 x_22 + 35 x_23 + 8 x_24 + 13 x_25 + 20 x_26 + 2 x_27 + 11 x_28 + 34 x_29 + 31 x_30 + 11 x_31 + 13 x_32 + 41 x_33 + 13 x_34 + 33 x_35 + 49 x_36 + 21 x_37 + 47 x_38 + 30 x_39 + 6 x_40 = 189
	c_10: + 49 x_1 + 9 x_2 + 44 x_3 + 34 x_4 + 41 x_5 + 47 x_6 + 25 x_7 + 38 x_8 + 29 x_9 + 10 x_10 + 24 x_11 + 19 x_12 + 48 x_13 + 10 x_14 + 35 x_15 + 34 x_16 + 31 x_17 + 27 x_18 + 23 x_19 + 20 x_20 + 43 x_21 + 1 x_22 + 8 x_23 + 29 x_24 + 37 x_25 + 32 x_26 + 46 x_27 + 44 x_28 + 24 x_29 + 42 x_30 + 6 x_31 + 3 x_32 + 18 x_33 + 31 x_34 + 15 x_35 + 13 x_36 + 15 x_37 + 39 x_38 + 1 x_39 + 41 x_40 = 329
	c_11: + 9 x_1 + 14 x_2 + 36 x_3 + 48 x_4 + 25 x_5 + 43 x_6 + 28 x_7 + 42 x_8 + 20 x_9 + 19 x_10 + 42 x_11 + 6 x_12 + 22 x_13 + 25 x_14 + 22 x_15 + 19 x_16 + 11 x_17 + 8 x_18 + 13 x_19 + 41 x_20 + 20 x_21 + 16 x_22 + 30 x_23 + 50 x_24 + 32 x_25 + 45 x_26 + 33 x_27 + 36 x_28 + 35 x_29 + 13 x_30 + 36 x_31 + 36 x_32 + 43 x_33 + 26 x_34 + 6 x_35 + 48 x_36 + 19 x_37 + 13 x_38 + 39 x_39 + 36 x_40 = 287
	c_12: + 41 x_1 + 38 x_2 + 31 x_3 + 20 x_4 + 28 x_5 + 35 x_6 + 12 x_7 + 40 x_8 + 47 x_9 + 19 x_10 + 7 x_11 + 41 x_12 + 24 x_13 + 32 x_14 + 33 x_15 + 19 x_16 + 38 x_17 + 37 x_18 + 30 x_19 + 48 x_20 + 31 x_21 + 25 x_22 + 25 x_23 + 2 x_24 + 23 x_25 + 23 x_26 + 23 x_27 + 33 x_28 + 10 x_29 + 9 x_30 + 7 x_31 + 17 x_32 + 34 x_33 + 16 x_34 + 50 x_35 + 45 x_36 + 32 x_37 + 26 x_38 + 31 x_39 + 47 x_40 = 272
	c_13: + 34 x_1 + 15 x_2 + 17 x_3 + 1 x_4 + 14 x_5 + 4 x_6 + 47 x_7 + 5 x_8 + 36 x_9 + 32 x_10 + 1 x_11 + 9 x_12 + 10 x_13 + 50 x_14 + 12 x_15 + 34 x_16 + 48 x_17 + 43 x_18 + 23 x_19 + 45 x_20 + 43 x_21 + 4 x_22 + 40 x_23 + 34 x_24 + 32 x_25 + 12 x_26 + 21 x_27 + 12 x_28 + 21 x_29 + 45 x_30 + 19 x_31 + 15 x_32 + 17 x_33 + 46 x_34 + 4 x_35 + 16 x_36 + 15 x_37 + 27 x_38 + 4 x_39 + 13 x_40 = 218
	c_14: + 35 x_1 + 10 x_2 + 29 x_3 + 5 x_4 + 20 x_5 + 48 x_6 + 4 x_7 + 21 x_8 + 50 x_9 + 33 x_10 + 37 x_11 + 21 x_12 + 36 x_13 + 48 x_14 + 10 x_15 + 4 x_16 + 7 x_17 + 35 x_18 + 11 x_19 + 21 x_20 + 4 x_21 + 23 x_22 + 48 x_23 + 12 x_24 + 45 x_25 + 46 x_26 + 46 x_27 + 29 x_28 + 47 x_29 + 44 x_30 + 31 x_31 + 33 x_32 + 17 x_33 + 37 x_34 + 10 x_35 + 13 x_36 + 25 x_37 + 50 x_38 + 15 x_39 + 47 x_40 = 359
	c_15: + 34 x_1 + 34 x_2 + 42 x_3 + 49 x_4 + 45 x_5 + 9 x_6 + 25 x_7 + 45 x_8 + 22 x_9 + 25 x_10 + 37 x_11 + 14 x_12 + 50 x_13 + 6 x_14 + 30 x_15 + 30 x_16 + 3 x_17 + 19 x_18 + 3 x_19 + 21 x_20 + 37 x_21 + 42 x_22 + 17 x_23 + 18 x_24 + 7 x_25 + 11 x_26 + 29 x_27 + 36 x_28 + 12 x_29 + 38 x_30 + 31 x_31 + 26 x_32 + 50 x_33 + 30 x_34 + 10 x_35 + 30 x_36 + 34 x_37 + 8 x_38 + 28 x_39 + 30 x_40 = 330
Bounds
  0 <= x_1 <= 1
  0 <= x_2 <= 1
  0 <= x_3 <= 1
  0 <= x_4 <= 1
  0 <= x_5 <= 1
  0 <= x_6 <= 1
  0 <= x_7 <= 1
  0 <= x_8 <= 1
  0 <= x_9 <= 1
  0 <= x_10 <= 1
  0 <= x_11 <= 1
  0 <= x_12 <= 1
  0 <= x_13 <= 1
  0 <= x_14 <= 1
  0 <= x_15 <= 1
  0 <= x_16 <= 1
  0 <= x_17 <= 1
  0 <= x_18 <= 1
  0 <= x_19 <= 1
  0 <= x_20 <= 1
  0 <= x_21 <= 1
  0 <= x_22 <= 1
  0 <= x_23 <= 1
  0 <= x_24 <= 1
  0 <= x_25 <= 1
  0 <= x_26 <= 1
  0 <= x_27 <= 1
  0 <= x_28 <= 1
  0 <= x_29 <= 1
  0 <= x_30 <= 1
  0 <= x_31 <= 1
  0 <= x_32 <= 1
  0 <= x_33 <= 1
  0 <= x_34 <= 1
  0 <= x_35 <= 1
  0 <= x_36 <= 1
  0 <= x_37 <= 1
  0 <= x_38 <= 1
  0 <= x_39 <= 1
  0 <= x_40 <= 1
End
