Subject To
	c_1: + 45 x_1 + 31 x_2 + 7 x_3 + 42 x_4 + 21 x_5 + 30 x_6 + 50 x_7 + 26 x_8 + 35 x_9 + 9 x_10 + 41 x_11 + 26 x_12 + 50 x_13 + 42 x_14 + 47 x_15 + 38 x_16 + 41 x_17 + 9 x_18 + 42 x_19 + 4 x_20 + 3 x_21 + 42 x_22 + 21 x_23 + 28 x_24 + 22 x_25 + 23 x_26 + 23 x_27 + 18 x_28 + 13 x_29 + 20 x_30 + 26 x_31 + 48 x_32 + 40 x_33 + 41 x_34 + 49 x_35 + 23 x_36 + 31 x_37 + 3 x_38 + 46 x_39 + 38 x_40 = 975
	c_2: + 14 x_1 + 4 x_2 + 23 x_3 + 41 x_4 + 30 x_5 + 1 x_6 + 16 x_7 + 28 x_8 + 6 x_9 + 50 x_10 + 46 x_11 + 28 x_12 + 4 x_13 + 44 x_14 + 6 x_15 + 39 x_16 + 23 x_17 + 43 x_18 + 1 x_19 + 44 x_20 + 14 x_21 + 6 x_22 + 26 x_23 + 49 x_24 + 13 x_25 + 46 x_26 + 9 x_27 + 17 x_28 + 36 x_29 + 30 x_30 + 11 x_31 + 19 x_32 + 33 x_33 + 9 x_34 + 34 x_35 + 3 x_36 + 7 x_37 + 8 x_38 + 14 x_39 + 44 x_40 = 527
	c_3: + 29 x_1 + 30 x_2 + 21 x_3 + 43 x_4 + 26 x_5 + 24 x_6 + 28 x_7 + 39 x_8 + 36 x_9 + 5 x_10 + 30 x_11 + 44 x_12 + 44 x_13 + 48 x_14 + 1 x_15 + 44 x_16 + 5 x_17 + 49 x_18 + 4 x_19 + 3 x_20 + 37 x_21 + 18 x_22 + 13 x_23 + 19 x_24 + 10 x_25 + 30 x_26 + 41 x_27 + 36 x_28 + 26 x_29 + 46 x_30 + 7 x_31 + 13 x_32 + 20 x_33 + 17 x_34 + 3 x_35 + 4 x_36 + 45 x_37 + 16 x_38 + 16 x_39 + 48 x_40 = 655
	c_4: + 25 x_1 + 3 x_2 + 22 x_3 + 31 x_4 + 16 x_5 + 34 x_6 + 43 x_7 + 24 x_8 + 11 x_9 + 29 x_10 + 17 x_11 + 45 x_12 + 49 x_13 + 27 x_14 + 9 x_15 + 28 x_16 + 40 x_17 + 21 x_18 + 3 x_19 + 24 x_20 + 24 x_21 + 39 x_22 + 30 x_23 + 7 x_24 + 23 x_25 + 15 x_26 + 24 x_27 + 13 x_28 + 22 x_29 + 45 x_30 + 18 x_31 + 19 x_32 + 7 x_33 + 14 x_34 + 41 x_35 + 2 x_36 + 45 x_37 + 6 x_38 + 44 x_39 + 13 x_40 = 636
	c_5: + 14 x_1 + 25 x_2 + 13 x_3 + 46 x_4 + 45 x_5 + 10 x_6 + 6 x_7 + 20 x_8 + 23 x_9 + 11 x_10 + 13 x_11 + 50 x_12 + 46 x_13 + 16 x_14 + 37 x_15 + 38 x_16 + 6 x_17 + 49 x_18 + 10 x_19 + 36 x_20 + 33 x_21 + 7 x_22 + 47 x_23 + 20 x_24 + 27 x_25 + 30 x_26 + 37 x_27 + 14 x_28 + 26 x_29 + 36 x_30 + 18 x_31 + 13 x_32 + 39 x_33 + 38 x_34 + 50 x_35 + 2 x_36 + 13 x_37 + 31 x_38 + 1 x_39 + 42 x_40 = 601
	c_6: + 7 x_1 + 37 x_2 + 7 x_3 + 6 x_4 + 24 x_5 + 49 x_6 + 20 x_7 + 5 x_8 + 36 x_9 + 36 x_10 + 39 x_11 + 21 x_12 + 23 x_13 + 18 x_14 + 4 x_15 + 22 x_16 + 15 x_17 + 44 x_18 + 47 x_19 + 27 x_20 + 3 x_21 + 43 x_22 + 20 x_23 + 10 x_24 + 25 x_25 + 1 x_26 + 28 x_27 + 5 x_28 + 11 x_29 + 31 x_30 + 30 x_31 + 37 x_32 + 38 x_33 + 38 x_34 + 45 x_35 + 18 x_36 + 36 x_37 + 21 x_38 + 4 x_39 + 11 x_40 = 641
	c_7: + 9 x_1 + 16 x_2 + 8 x_3 + 6 x_4 + 31 x_5 + 18 x_6 + 50 x_7 + 34 x_8 + 18 x_9 + 10 x_10 + 31 x_11 + 22 x_12 + 38 x_13 + 2 x_14 + 25 x_15 + 33 x_16 + 13 x_17 + 22 x_18 + 8 x_19 + 32 x_20 + 30 x_21 + 23 x_22 + 5 x_23 + 37 x_24 + 43 x_25 + 43 x_26 + 11 x_27 + 16 x_28 + 45 x_29 + 27 x_30 + 4 x_31 + 32 x_32 + 8 x_33 + 11 x_34 + 37 x_35 + 49 x_36 + 19 x_37 + 46 x_38 + 29 x_39 + 17 x_40 = 540
	c_8: + 20 x_1 + 2 x_2 + 27 x_3 + 26 x_4 + 34 x_5 + 30 x_6 + 8 x_7 + 1 x_8 + 17 x_9 + 10 x_10 + 7 x_11 + 7 x_12 + 31 x_13 + 44 x_14 + 46 x_15 + 21 x_16 + 15 x_17 + 14 x_18 + 18 x_19 + 5 x_20 + 45 x_21 + 9 x_22 + 33 x_23 + 39 x_24 + 23 x_25 + 6 x_26 + 15 x_27 + 23 x_28 + 25 x_29 + 25 x_30 + 7 x_31 + 9 x_32 + 10 x_33 + 18 x_34 + 4 x_35 + 8 x_36 + 46 x_37 + 15 x_38 + 29 x_39 + 42 x_40 = 506
	c_9: + 29 x_1 + 26 x_2 + 9 x_3 + 42 x_4 + 3 x_5 + 17 x_6 + 40 x_7 + 27 x_8 + 2 x_9 + 20 x_10 + 40 x_11 + 39 x_12 + 7 x_13 + 23 x_14 + 25 x_15 + 50 x_16 + 28 x_17 + 41 x_18 + 31 x_19 + 27 x_20 + 30 x_21 + 49 x_22 + 7 x_23 + 24 x_24 + 24 x_25 + 16 x_26 + 49 x_27 + 41 x_28 + 46 x_29 + 17 x_30 + 17 x_31 + 42 x_32 + 40 x_33 + 47 x_34 + 22 x_35 + 9 x_36 + 25 x_37 + 26 x_38 + 35 x_39 + 16 x_40 = 743
	c_10: + 14 x_1 + 38 x_2 + 10 x_3 + 12 x_4 + 38 x_5 + 48 x_6 + 38 x_7 + 44 x_8 + 32 x_9 + 37 x_10 + 6 x_11 + 27 x_12 + 17 x_13 + 41 x_14 + 15 x_15 + 11 x_16 + 19 x_17 + 50 x_18 + 20 x_19 + 4 x_20 + 43 x_21 + 39 x_22 + 49 x_23 + 35 x_24 + 13 x_25 + 34 x_26 + 31 x_27 + 39 x_28 + 33 x_29 + 1 x_30 + 28 x_31 + 16 x_32 + 3 x_33 + 23 x_34 + 10 x_35 + 40 x_36 + 12 x_37 + 8 x_38 + 32 x_39 + 37 x_40 = 617
	c_11: + 47 x_1 + 36 x_2 + 22 x_3 + 32 x_4 + 47 x_5 + 15 x_6 + 22 x_7 + 49 x_8 + 45 x_9 + 31 x_10 + 46 x_11 + 33 x_12 + 23 x_13 + 4 x_14 + 32 x_15 + 9 x_16 + 2 x_17 + 37 x_18 + 42 x_19 + 49 x_20 + 32 x_21 + 49 x_22 + 10 x_23 + 18 x_24 + 33 x_25 + 44 x_26 + 25 x_27 + 19 x_28 + 8 x_29 + 33 x_30 + 42 x_31 + 47 x_32 + 15 x_33 + 9 x_34 + 23 x_35 + 7 x_36 + 34 x_37 + 6 x_38 + 27 x_39 + 31 x_40 = 732
	c_12: + 46 x_1 + 22 x_2 + 31 x_3 + 24 x_4 + 34 x_5 + 49 x_6 + 46 x_7 + 5 x_8 + 38 x_9 + 23 x_10 + 11 x_11 + 3 x_12 + 50 x_13 + 43 x_14 + 41 x_15 + 48 x_16 + 1 x_17 + 49 x_18 + 18 x_19 + 9 x_20 + 46 x_21 + 25 x_22 + 16 x_23 + 17 x_24 + 9 x_25 + 5 x_26 + 42 x_27 + 21 x_28 + 26 x_29 + 38 x_30 + 39 x_31 + 48 x_32 + 33 x_33 + 25 x_34 + 44 x_35 + 50 x_36 + 33 x_37 + 46 x_38 + 40 x_39 + 24 x_40 = 773
	c_13: + 14 x_1 + 33 x_2 + 34 x_3 + 45 x_4 + 12 x_5 + 15 x_6 + 42 x_7 + 6 x_8 + 49 x_9 + 10 x_10 + 38 x_11 + 12 x_12 + 4 x_13 + 28 x_14 + 20 x_15 + 47 x_16 + 34 x_17 + 26 x_18 + 28 x_19 + 17 x_20 + 27 x_21 + 13 x_22 + 18 x_23 + 14 x_24 + 14 x_25 + 46 x_26 + 43 x_27 + 47 x_28 + 49 x_29 + 47 x_30 + 14 x_31 + 17 x_32 + 24 x_33 + 29 x_34 + 50 x_35 + 37 x_36 + 13 x_37 + 18 x_38 + 17 x_39 + 21 x_40 = 627
	c_14: + 26 x_1 + 43 x_2 + 47 x_3 + 31 x_4 + 6 x_5 + 42 x_6 + 29 x_7 + 11 x_8 + 5 x_9 + 24 x_10 + 37 x_11 + 42 x_12 + 17 x_13 + 42 x_14 + 13 x_15 + 11 x_16 + 5 x_17 + 50 x_18 + 35 x_19 + 22 x_20 + 33 x_21 + 41 x_22 + 3 x_23 + 33 x_24 + 24 x_25 + 44 x_26 + 40 x_27 + 34 x_28 + 39 x_29 + 32 x_30 + 33 x_31 + 39 x_32 + 45 x_33 + 9 x_34 + 20 x_35 + 12 x_36 + 14 x_37 + 8 x_38 + 9 x_39 + 3 x_40 = 635
	c_15: + 16 x_1 + 29 x_2 + 22 x_3 + 49 x_4 + 27 x_5 + 5 x_6 + 15 x_7 + 43 x_8 + 11 x_9 + 14 x_10 + 38 x_11 + 38 x_12 + 26 x_13 + 23 x_14 + 20 x_15 + 23 x_16 + 2 x_17 + 31 x_18 + 16 x_19 + 40 x_20 + 30 x_21 + 41 x_22 + 7 x_23 + 12 x_24 + 2 x_25 + 49 x_26 + 19 x_27 + 17 x_28 + 50 x_29 + 28 x_30 + 49 x_31 + 28 x_32 + 17 x_33 + 35 x_34 + 37 x_35 + 42 x_36 + 37 x_37 + 12 x_38 + 9 x_39 + 36 x_40 = 655
Bounds
  0 <= x_1 <= 1
  0 <= x_2 <= 1
  0 <= x_3 <= 1
  0 <= x_4 <= 1
  0 <= x_5 <= 1
  0 <= x_6 <= 1
  0 <= x_7 <= 1
  0 <= x_8 <= 1
  0 <= x_9 <= 1
  0 <= x_10 <= 1
  0 <= x_11 <= 1
  0 <= x_12 <= 1
  0 <= x_13 <= 1
  0 <= x_14 <= 1
  0 <= x_15 <= 1
  0 <= x_16 <= 1
  0 <= x_17 <= 1
  0 <= x_18 <= 1
  0 <= x_19 <= 1
  0 <= x_20 <= 1
  0 <= x_21 <= 1
  0 <= x_22 <= 1
  0 <= x_23 <= 1
  0 <= x_24 <= 1
  0 <= x_25 <= 1
  0 <= x_26 <= 1
  0 <= x_27 <= 1
  0 <= x_28 <= 1
  0 <= x_29 <= 1
  0 <= x_30 <= 1
  0 <= x_31 <= 1
  0 <= x_32 <= 1
  0 <= x_33 <= 1
  0 <= x_34 <= 1
  0 <= x_35 <= 1
  0 <= x_36 <= 1
  0 <= x_37 <= 1
  0 <= x_38 <= 1
  0 <= x_39 <= 1
  0 <= x_40 <= 1
End
