Subject To
	c_1: + 15 x_1 + 47 x_2 + 14 x_3 + 41 x_4 + 44 x_5 + 26 x_6 + 27 x_7 + 27 x_8 + 11 x_9 + 11 x_10 + 39 x_11 + 41 x_12 + 49 x_13 + 37 x_14 + 50 x_15 + 31 x_16 + 4 x_17 + 29 x_18 + 34 x_19 + 17 x_20 + 39 x_21 + 35 x_22 + 27 x_23 + 3 x_24 + 9 x_25 + 26 x_26 + 2 x_27 + 6 x_28 + 11 x_29 + 6 x_30 + 41 x_31 + 6 x_32 + 19 x_33 + 40 x_34 + 40 x_35 + 28 x_36 + 19 x_37 + 41 x_38 + 22 x_39 + 7 x_40 = 839
	c_2: + 37 x_1 + 20 x_2 + 8 x_3 + 10 x_4 + 27 x_5 + 27 x_6 + 28 x_7 + 44 x_8 + 9 x_9 + 44 x_10 + 21 x_11 + 23 x_12 + 30 x_13 + 42 x_14 + 19 x_15 + 2 x_16 + 23 x_17 + 14 x_18 + 3 x_19 + 28 x_20 + 9 x_21 + 23 x_22 + 14 x_23 + 30 x_24 + 45 x_25 + 28 x_26 + 47 x_27 + 29 x_28 + 2 x_29 + 29 x_30 + 14 x_31 + 4 x_32 + 15 x_33 + 33 x_34 + 23 x_35 + 21 x_36 + 26 x_37 + 49 x_38 + 35 x_39 + 37 x_40 = 524
	c_3: + 1 x_1 + 49 x_2 + 8 x_3 + 1 x_4 + 19 x_5 + 34 x_6 + 16 x_7 + 36 x_8 + 29 x_9 + 35 x_10 + 32 x_11 + 45 x_12 + 28 x_13 + 28 x_14 + 26 x_15 + 40 x_16 + 22 x_17 + 2 x_18 + 25 x_19 + 42 x_20 + 3 x_21 + 28 x_22 + 36 x_23 + 39 x_24 + 8 x_25 + 31 x_26 + 37 x_27 + 47 x_28 + 34 x_29 + 8 x_30 + 37 x_31 + 26 x_32 + 26 x_33 + 38 x_34 + 6 x_35 + 14 x_36 + 34 x_37 + 1 x_38 + 4 x_39 + 39 x_40 = 575
	c_4: + 19 x_1 + 13 x_2 + 42 x_3 + 12 x_4 + 45 x_5 + 14 x_6 + 22 x_7 + 3 x_8 + 10 x_9 + 27 x_10 + 17 x_11 + 30 x_12 + 31 x_13 + 19 x_14 + 44 x_15 + 47 x_16 + 24 x_17 + 45 x_18 + 48 x_19 + 4 x_20 + 16 x_21 + 37 x_22 + 1 x_23 + 37 x_24 + 18 x_25 + 40 x_26 + 21 x_27 + 12 x_28 + 39 x_29 + 44 x_30 + 30 x_31 + 16 x_32 + 19 x_33 + 49 x_34 + 2 x_35 + 50 x_36 + 12 x_37 + 35 x_38 + 10 x_39 + 4 x_40 = 650
	c_5: + 48 x_1 + 18 x_2 + 49 x_3 + 5 x_4 + 39 x_5 + 45 x_6 + 48 x_7 + 17 x_8 + 28 x_9 + 39 x_10 + 12 x_11 + 22 x_12 + 3 x_13 + 9 x_14 + 32 x_15 + 16 x_16 + 15 x_17 + 47 x_18 + 38 x_19 + 1 x_20 + 36 x_21 + 30 x_22 + 32 x_23 + 31 x_24 + 24 x_25 + 34 x_26 + 45 x_27 + 48 x_28 + 27 x_29 + 15 x_30 + 9 x_31 + 33 x_32 + 34 x_33 + 39 x_34 + 45 x_35 + 10 x_36 + 33 x_37 + 13 x_38 + 10 x_39 + 8 x_40 = 599
	c_6: + 17 x_1 + 10 x_2 + 11 x_3 + 2 x_4 + 1 x_5 + 2 x_6 + 2 x_7 + 49 x_8 + 12 x_9 + 4 x_10 + 17 x_11 + 17 x_12 + 41 x_13 + 16 x_14 + 12 x_15 + 47 x_16 + 3 x_17 + 33 x_18 + 43 x_19 + 31 x_20 + 3 x_21 + 13 x_22 + 17 x_23 + 35 x_24 + 49 x_25 + 9 x_26 + 43 x_27 + 16 x_28 + 31 x_29 + 44 x_30 + 25 x_31 + 26 x_32 + 16 x_33 + 49 x_34 + 33 x_35 + 28 x_36 + 16 x_37 + 18 x_38 + 1 x_39 + 6 x_40 = 487
	c_7: + 31 x_1 + 26 x_2 + 12 x_3 + 18 x_4 + 27 x_5 + 1 x_6 + 20 x_7 + 9 x_8 + 42 x_9 + 15 x_10 + 32 x_11 + 31 x_12 + 28 x_13 + 47 x_14 + 7 x_15 + 5 x_16 + 28 x_17 + 26 x_18 + 19 x_19 + 35 x_20 + 24 x_21 + 26 x_22 + 29 x_23 + 38 x_24 + 18 x_25 + 47 x_26 + 30 x_27 + 27 x_28 + 32 x_29 + 15 x_30 + 14 x_31 + 30 x_32 + 16 x_33 + 30 x_34 + 8 x_35 + 24 x_36 + 38 x_37 + 37 x_38 + 31 x_39 + 12 x_40 = 535
	c_8: + 15 x_1 + 22 x_2 + 42 x_3 + 7 x_4 + 43 x_5 + 22 x_6 + 40 x_7 + 16 x_8 + 14 x_9 + 12 x_10 + 50 x_11 + 12 x_12 + 22 x_13 + 40 x_14 + 1 x_15 + 19 x_16 + 17 x_17 + 21 x_18 + 47 x_19 + 25 x_20 + 42 x_21 + 32 x_22 + 31 x_23 + 46 x_24 + 45 x_25 + 46 x_26 + 26 x_27 + 19 x_28 + 49 x_29 + 4 x_30 + 20 x_31 + 15 x_32 + 47 x_33 + 47 x_34 + 49 x_35 + 27 x_36 + 33 x_37 + 22 x_38 + 8 x_39 + 33 x_40 = 678
	c_9: + 19 x_1 + 6 x_2 + 27 x_3 + 8 x_4 + 1 x_5 + 5 x_6 + 38 x_7 + 7 x_8 + 16 x_9 + 7 x_10 + 21 x_11 + 16 x_12 + 31 x_13 + 28 x_14 + 23 x_15 + 12 x_16 + 16 x_17 + 28 x_18 + 32 x_19 + 25 x_20 + 30 x_21 + 45 x_22 + 27 x_23 + 4 x_24 + 19 x_25 + 10 x_26 + 31 x_27 + 38 x_28 + 3 x_29 + 20 x_30 + 8 x_31 + 46 x_32 + 36 x_33 + 29 x_34 + 45 x_35 + 31 x_36 + 23 x_37 + 1 x_38 + 20 x_39 + 5 x_40 = 482
	c_10: + 47 x_1 + 11 x_2 + 10 x_3 + 47 x_4 + 48 x_5 + 15 x_6 + 2 x_7 + 5 x_8 + 13 x_9 + 26 x_10 + 14 x_11 + 47 x_12 + 12 x_13 + 34 x_14 + 45 x_15 + 22 x_16 + 16 x_17 + 8 x_18 + 10 x_19 + 37 x_20 + 14 x_21 + 30 x_22 + 4 x_23 + 4 x_24 + 34 x_25 + 11 x_26 + 4 x_27 + 22 x_28 + 10 x_29 + 33 x_30 + 19 x_31 + 41 x_32 + 7 x_33 + 36 x_34 + 21 x_35 + 39 x_36 + 2 x_37 + 38 x_38 + 35 x_39 + 25 x_40 = 532
	c_11: + 22 x_1 + 31 x_2 + 44 x_3 + 35 x_4 + 27 x_5 + 20 x_6 + 2 x_7 + 16 x_8 + 46 x_9 + 32 x_10 + 1 x_11 + 2 x_12 + 30 x_13 + 35 x_14 + 9 x_15 + 25 x_16 + 38 x_17 + 44 x_18 + 25 x_19 + 12 x_20 + 36 x_21 + 31 x_22 + 4 x_23 + 19 x_24 + 44 x_25 + 14 x_26 + 48 x_27 + 50 x_28 + 40 x_29 + 34 x_30 + 10 x_31 + 42 x_32 + 45 x_33 + 7 x_34 + 1 x_35 + 37 x_36 + 22 x_37 + 28 x_38 + 13 x_39 + 43 x_40 = 470
	c_12: + 45 x_1 + 7 x_2 + 46 x_3 + 46 x_4 + 45 x_5 + 33 x_6 + 27 x_7 + 4 x_8 + 50 x_9 + 5 x_10 + 7 x_11 + 27 x_12 + 9 x_13 + 19 x_14 + 35 x_15 + 32 x_16 + 43 x_17 + 7 x_18 + 37 x_19 + 50 x_20 + 37 x_21 + 47 x_22 + 48 x_23 + 35 x_24 + 47 x_25 + 9 x_26 + 27 x_27 + 19 x_28 + 43 x_29 + 46 x_30 + 18 x_31 + 35 x_32 + 40 x_33 + 45 x_34 + 26 x_35 + 27 x_36 + 19 x_37 + 45 x_38 + 4 x_39 + 33 x_40 = 637
	c_13: + 25 x_1 + 36 x_2 + 23 x_3 + 23 x_4 + 10 x_5 + 45 x_6 + 18 x_7 + 1 x_8 + 10 x_9 + 33 x_10 + 14 x_11 + 29 x_12 + 18 x_13 + 11 x_14 + 13 x_15 + 8 x_16 + 1 x_17 + 47 x_18 + 20 x_19 + 48 x_20 + 9 x_21 + 1 x_22 + 44 x_23 + 35 x_24 + 49 x_25 + 32 x_26 + 21 x_27 + 24 x_28 + 40 x_29 + 31 x_30 + 34 x_31 + 50 x_32 + 17 x_33 + 17 x_34 + 46 x_35 + 38 x_36 + 32 x_37 + 42 x_38 + 49 x_39 + 8 x_40 = 556
	c_14: + 48 x_1 + 5 x_2 + 38 x_3 + 36 x_4 + 43 x_5 + 37 x_6 + 8 x_7 + 7 x_8 + 14 x_9 + 13 x_10 + 11 x_11 + 31 x_12 + 15 x_13 + 19 x_14 + 39 x_15 + 26 x_16 + 20 x_17 + 45 x_18 + 11 x_19 + 38 x_20 + 15 x_21 + 20 x_22 + 48 x_23 + 6 x_24 + 43 x_25 + 38 x_26 + 30 x_27 + 10 x_28 + 29 x_29 + 35 x_30 + 17 x_31 + 25 x_32 + 8 x_33 + 7 x_34 + 45 x_35 + 40 x_36 + 47 x_37 + 18 x_38 + 46 x_39 + 31 x_40 = 581
	c_15: + 42 x_1 + 48 x_2 + 33 x_3 + 48 x_4 + 14 x_5 + 39 x_6 + 8 x_7 + 15 x_8 + 20 x_9 + 41 x_10 + 44 x_11 + 9 x_12 + 40 x_13 + 20 x_14 + 5 x_15 + 27 x_16 + 16 x_17 + 35 x_18 + 43 x_19 + 39 x_20 + 48 x_21 + 50 x_22 + 25 x_23 + 6 x_24 + 48 x_25 + 48 x_26 + 1 x_27 + 19 x_28 + 25 x_29 + 15 x_30 + 26 x_31 + 37 x_32 + 30 x_33 + 15 x_34 + 14 x_35 + 47 x_36 + 48 x_37 + 18 x_38 + 41 x_39 + 16 x_40 = 686
Bounds
  0 <= x_1 <= 1
  0 <= x_2 <= 1
  0 <= x_3 <= 1
  0 <= x_4 <= 1
  0 <= x_5 <= 1
  0 <= x_6 <= 1
  0 <= x_7 <= 1
  0 <= x_8 <= 1
  0 <= x_9 <= 1
  0 <= x_10 <= 1
  0 <= x_11 <= 1
  0 <= x_12 <= 1
  0 <= x_13 <= 1
  0 <= x_14 <= 1
  0 <= x_15 <= 1
  0 <= x_16 <= 1
  0 <= x_17 <= 1
  0 <= x_18 <= 1
  0 <= x_19 <= 1
  0 <= x_20 <= 1
  0 <= x_21 <= 1
  0 <= x_22 <= 1
  0 <= x_23 <= 1
  0 <= x_24 <= 1
  0 <= x_25 <= 1
  0 <= x_26 <= 1
  0 <= x_27 <= 1
  0 <= x_28 <= 1
  0 <= x_29 <= 1
  0 <= x_30 <= 1
  0 <= x_31 <= 1
  0 <= x_32 <= 1
  0 <= x_33 <= 1
  0 <= x_34 <= 1
  0 <= x_35 <= 1
  0 <= x_36 <= 1
  0 <= x_37 <= 1
  0 <= x_38 <= 1
  0 <= x_39 <= 1
  0 <= x_40 <= 1
End
