Subject To
	c_1: + 2 x_1 + 10 x_2 + 19 x_3 + 3 x_4 + 35 x_5 + 2 x_6 + 10 x_7 + 10 x_8 + 37 x_9 + 11 x_10 + 37 x_11 + 4 x_12 + 21 x_13 + 16 x_14 + 27 x_15 + 44 x_16 + 29 x_17 + 11 x_18 + 7 x_19 + 43 x_20 + 26 x_21 + 39 x_22 + 26 x_23 + 47 x_24 + 35 x_25 + 46 x_26 + 16 x_27 + 42 x_28 + 15 x_29 + 15 x_30 + 3 x_31 + 19 x_32 + 5 x_33 + 21 x_34 + 23 x_35 + 34 x_36 + 36 x_37 + 6 x_38 + 19 x_39 + 1 x_40 = 583
	c_2: + 1 x_1 + 28 x_2 + 8 x_3 + 48 x_4 + 25 x_5 + 40 x_6 + 19 x_7 + 49 x_8 + 12 x_9 + 50 x_10 + 49 x_11 + 28 x_12 + 2 x_13 + 15 x_14 + 42 x_15 + 22 x_16 + 32 x_17 + 45 x_18 + 23 x_19 + 36 x_20 + 9 x_21 + 17 x_22 + 27 x_23 + 15 x_24 + 7 x_25 + 12 x_26 + 16 x_27 + 20 x_28 + 35 x_29 + 4 x_30 + 2 x_31 + 30 x_32 + 27 x_33 + 45 x_34 + 23 x_35 + 5 x_36 + 29 x_37 + 16 x_38 + 1 x_39 + 16 x_40 = 359
	c_3: + 41 x_1 + 36 x_2 + 22 x_3 + 8 x_4 + 30 x_5 + 26 x_6 + 25 x_7 + 48 x_8 + 19 x_9 + 5 x_10 + 13 x_11 + 17 x_12 + 36 x_13 + 8 x_14 + 44 x_15 + 43 x_16 + 39 x_17 + 5 x_18 + 26 x_19 + 14 x_20 + 2 x_21 + 11 x_22 + 6 x_23 + 32 x_24 + 14 x_25 + 46 x_26 + 43 x_27 + 8 x_28 + 48 x_29 + 6 x_30 + 48 x_31 + 3 x_32 + 39 x_33 + 30 x_34 + 47 x_35 + 19 x_36 + 40 x_37 + 12 x_38 + 31 x_39 + 34 x_40 = 380
	c_4: + 47 x_1 + 42 x_2 + 40 x_3 + 13 x_4 + 17 x_5 + 5 x_6 + 1 x_7 + 46 x_8 + 36 x_9 + 17 x_10 + 38 x_11 + 46 x_12 + 26 x_13 + 46 x_14 + 6 x_15 + 42 x_16 + 40 x_17 + 36 x_18 + 20 x_19 + 44 x_20 + 20 x_21 + 37 x_22 + 25 x_23 + 1 x_24 + 32 x_25 + 49 x_26 + 31 x_27 + 36 x_28 + 27 x_29 + 19 x_30 + 40 x_31 + 25 x_32 + 39 x_33 + 31 x_34 + 27 x_35 + 1 x_36 + 30 x_37 + 35 x_38 + 42 x_39 + 43 x_40 = 454
	c_5: + 36 x_1 + 28 x_2 + 47 x_3 + 46 x_4 + 45 x_5 + 24 x_6 + 6 x_7 + 18 x_8 + 8 x_9 + 26 x_10 + 42 x_11 + 39 x_12 + 24 x_13 + 42 x_14 + 48 x_15 + 30 x_16 + 30 x_17 + 18 x_18 + 4 x_19 + 19 x_20 + 33 x_21 + 38 x_22 + 2 x_23 + 32 x_24 + 15 x_25 + 1 x_26 + 39 x_27 + 23 x_28 + 22 x_29 + 27 x_30 + 26 x_31 + 29 x_32 + 43 x_33 + 1 x_34 + 31 x_35 + 26 x_36 + 6 x_37 + 28 x_38 + 24 x_39 + 46 x_40 = 398
	c_6: + 32 x_1 + 43 x_2 + 31 x_3 + 21 x_4 + 32 x_5 + 9 x_6 + 12 x_7 + 2 x_8 + 39 x_9 + 48 x_10 + 46 x_11 + 34 x_12 + 48 x_13 + 32 x_14 + 45 x_15 + 38 x_16 + 17 x_17 + 14 x_18 + 40 x_19 + 40 x_20 + 23 x_21 + 25 x_22 + 5 x_23 + 14 x_24 + 24 x_25 + 4 x_26 + 14 x_27 + 42 x_28 + 50 x_29 + 30 x_30 + 23 x_31 + 35 x_32 + 25 x_33 + 31 x_34 + 42 x_35 + 44 x_36 + 12 x_37 + 15 x_38 + 33 x_39 + 13 x_40 = 450
	c_7: + 36 x_1 + 32 x_2 + 23 x_3 + 9 x_4 + 20 x_5 + 40 x_6 + 41 x_7 + 8 x_8 + 29 x_9 + 39 x_10 + 43 x_11 + 47 x_12 + 10 x_13 + 40 x_14 + 35 x_15 + 10 x_16 + 17 x_17 + 29 x_18 + 40 x_19 + 17 x_20 + 4 x_21 + 13 x_22 + 9 x_23 + 24 x_24 + 31 x_25 + 31 x_26 + 36 x_27 + 8 x_28 + 31 x_29 + 21 x_30 + 36 x_31 + 23 x_32 + 1 x_33 + 11 x_34 + 46 x_35 + 34 x_36 + 15 x_37 + 6 x_38 + 10 x_39 + 47 x_40 = 340
	c_8: + 48 x_1 + 37 x_2 + 16 x_3 + 10 x_4 + 46 x_5 + 43 x_6 + 28 x_7 + 29 x_8 + 2 x_9 + 45 x_10 + 5 x_11 + 6 x_12 + 9 x_13 + 6 x_14 + 40 x_15 + 25 x_16 + 44 x_17 + 30 x_18 + 29 x_19 + 18 x_20 + 26 x_21 + 32 x_22 + 14 x_23 + 34 x_24 + 25 x_25 + 31 x_26 + 42 x_27 + 32 x_28 + 20 x_29 + 9 x_30 + 14 x_31 + 31 x_32 + 24 x_33 + 34 x_34 + 21 x_35 + 11 x_36 + 34 x_37 + 9 x_38 + 18 x_39 + 39 x_40 = 419
	c_9: + 35 x_1 + 21 x_2 + 36 x_3 + 27 x_4 + 44 x_5 + 11 x_6 + 16 x_7 + 44 x_8 + 19 x_9 + 39 x_10 + 32 x_11 + 37 x_12 + 7 x_13 + 22 x_14 + 19 x_15 + 36 x_16 + 32 x_17 + 44 x_18 + 11 x_19 + 17 x_20 + 19 x_21 + 13 x_22 + 45 x_23 + 4 x_24 + 37 x_25 + 34 x_26 + 46 x_27 + 40 x_28 + 16 x_29 + 47 x_30 + 48 x_31 + 47 x_32 + 16 x_33 + 44 x_34 + 50 x_35 + 5 x_36 + 27 x_37 + 36 x_38 + 37 x_39 + 17 x_40 = 423
	c_10: + 12 x_1 + 7 x_2 + 30 x_3 + 11 x_4 + 4 x_5 + 6 x_6 + 24 x_7 + 37 x_8 + 4 x_9 + 28 x_10 + 27 x_11 + 48 x_12 + 25 x_13 + 28 x_14 + 19 x_15 + 10 x_16 + 20 x_17 + 47 x_18 + 3 x_19 + 46 x_20 + 25 x_21 + 26 x_22 + 35 x_23 + 44 x_24 + 20 x_25 + 13 x_26 + 24 x_27 + 35 x_28 + 5 x_29 + 28 x_30 + 5 x_31 + 13 x_32 + 1 x_33 + 25 x_34 + 22 x_35 + 36 x_36 + 40 x_37 + 34 x_38 + 20 x_39 + 29 x_40 = 404
	c_11: + 49 x_1 + 32 x_2 + 33 x_3 + 44 x_4 + 10 x_5 + 2 x_6 + 27 x_7 + 24 x_8 + 10 x_9 + 14 x_10 + 42 x_11 + 28 x_12 + 45 x_13 + 20 x_14 + 44 x_15 + 31 x_16 + 28 x_17 + 32 x_18 + 23 x_19 + 34 x_20 + 50 x_21 + 16 x_22 + 6 x_23 + 26 x_24 + 16 x_25 + 45 x_26 + 43 x_27 + 48 x_28 + 48 x_29 + 43 x_30 + 24 x_31 + 31 x_32 + 30 x_33 + 49 x_34 + 6 x_35 + 11 x_36 + 35 x_37 + 31 x_38 + 26 x_39 + 10 x_40 = 452
	c_12: + 37 x_1 + 12 x_2 + 11 x_3 + 7 x_4 + 8 x_5 + 48 x_6 + 21 x_7 + 27 x_8 + 49 x_9 + 29 x_10 + 27 x_11 + 50 x_12 + 29 x_13 + 19 x_14 + 11 x_15 + 46 x_16 + 21 x_17 + 8 x_18 + 35 x_19 + 17 x_20 + 21 x_21 + 24 x_22 + 26 x_23 + 42 x_24 + 27 x_25 + 12 x_26 + 50 x_27 + 46 x_28 + 1 x_29 + 5 x_30 + 26 x_31 + 39 x_32 + 1 x_33 + 17 x_34 + 5 x_35 + 17 x_36 + 3 x_37 + 34 x_38 + 25 x_39 + 44 x_40 = 397
	c_13: + 2 x_1 + 37 x_2 + 27 x_3 + 24 x_4 + 44 x_5 + 50 x_6 + 44 x_7 + 36 x_8 + 10 x_9 + 2 x_10 + 14 x_11 + 37 x_12 + 6 x_13 + 21 x_14 + 32 x_15 + 6 x_16 + 18 x_17 + 48 x_18 + 24 x_19 + 26 x_20 + 42 x_21 + 36 x_22 + 4 x_23 + 50 x_24 + 22 x_25 + 29 x_26 + 4 x_27 + 21 x_28 + 38 x_29 + 29 x_30 + 45 x_31 + 4 x_32 + 29 x_33 + 23 x_34 + 36 x_35 + 18 x_36 + 15 x_37 + 18 x_38 + 50 x_39 + 8 x_40 = 387
	c_14: + 39 x_1 + 45 x_2 + 25 x_3 + 43 x_4 + 10 x_5 + 36 x_6 + 36 x_7 + 39 x_8 + 5 x_9 + 32 x_10 + 32 x_11 + 3 x_12 + 28 x_13 + 23 x_14 + 41 x_15 + 28 x_16 + 30 x_17 + 42 x_18 + 29 x_19 + 1 x_20 + 24 x_21 + 5 x_22 + 21 x_23 + 25 x_24 + 8 x_25 + 35 x_26 + 16 x_27 + 19 x_28 + 25 x_29 + 29 x_30 + 46 x_31 + 50 x_32 + 8 x_33 + 5 x_34 + 28 x_35 + 15 x_36 + 35 x_37 + 7 x_38 + 35 x_39 + 43 x_40 = 334
	c_15: + 11 x_1 + 21 x_2 + 6 x_3 + 38 x_4 + 34 x_5 + 1 x_6 + 37 x_7 + 24 x_8 + 23 x_9 + 36 x_10 + 25 x_11 + 34 x_12 + 11 x_13 + 11 x_14 + 29 x_15 + 32 x_16 + 34 x_17 + 5 x_18 + 40 x_19 + 34 x_20 + 44 x_21 + 50 x_22 + 5 x_23 + 3 x_24 + 5 x_25 + 5 x_26 + 48 x_27 + 3 x_28 + 38 x_29 + 1 x_30 + 25 x_31 + 7 x_32 + 28 x_33 + 7 x_34 + 40 x_35 + 30 x_36 + 34 x_37 + 6 x_38 + 1 x_39 + 49 x_40 = 390
Bounds
  0 <= x_1 <= 1
  0 <= x_2 <= 1
  0 <= x_3 <= 1
  0 <= x_4 <= 1
  0 <= x_5 <= 1
  0 <= x_6 <= 1
  0 <= x_7 <= 1
  0 <= x_8 <= 1
  0 <= x_9 <= 1
  0 <= x_10 <= 1
  0 <= x_11 <= 1
  0 <= x_12 <= 1
  0 <= x_13 <= 1
  0 <= x_14 <= 1
  0 <= x_15 <= 1
  0 <= x_16 <= 1
  0 <= x_17 <= 1
  0 <= x_18 <= 1
  0 <= x_19 <= 1
  0 <= x_20 <= 1
  0 <= x_21 <= 1
  0 <= x_22 <= 1
  0 <= x_23 <= 1
  0 <= x_24 <= 1
  0 <= x_25 <= 1
  0 <= x_26 <= 1
  0 <= x_27 <= 1
  0 <= x_28 <= 1
  0 <= x_29 <= 1
  0 <= x_30 <= 1
  0 <= x_31 <= 1
  0 <= x_32 <= 1
  0 <= x_33 <= 1
  0 <= x_34 <= 1
  0 <= x_35 <= 1
  0 <= x_36 <= 1
  0 <= x_37 <= 1
  0 <= x_38 <= 1
  0 <= x_39 <= 1
  0 <= x_40 <= 1
End
