Subject To
	c_1: + 46 x_1 + 34 x_2 + 45 x_3 + 32 x_4 + 10 x_5 + 16 x_6 + 9 x_7 + 41 x_8 + 46 x_9 + 10 x_10 + 30 x_11 + 28 x_12 + 32 x_13 + 6 x_14 + 20 x_15 + 14 x_16 + 12 x_17 + 30 x_18 + 39 x_19 + 28 x_20 + 25 x_21 + 5 x_22 + 30 x_23 + 22 x_24 + 40 x_25 + 44 x_26 + 24 x_27 + 21 x_28 + 34 x_29 + 27 x_30 + 44 x_31 + 40 x_32 + 21 x_33 + 4 x_34 + 41 x_35 + 41 x_36 + 32 x_37 + 43 x_38 + 34 x_39 + 35 x_40 = 916
	c_2: + 43 x_1 + 4 x_2 + 49 x_3 + 3 x_4 + 15 x_5 + 45 x_6 + 27 x_7 + 25 x_8 + 3 x_9 + 18 x_10 + 24 x_11 + 8 x_12 + 6 x_13 + 46 x_14 + 8 x_15 + 25 x_16 + 22 x_17 + 20 x_18 + 31 x_19 + 4 x_20 + 48 x_21 + 25 x_22 + 21 x_23 + 36 x_24 + 2 x_25 + 33 x_26 + 8 x_27 + 14 x_28 + 42 x_29 + 35 x_30 + 48 x_31 + 38 x_32 + 12 x_33 + 32 x_34 + 22 x_35 + 10 x_36 + 18 x_37 + 41 x_38 + 36 x_39 + 1 x_40 = 567
	c_3: + 43 x_1 + 13 x_2 + 4 x_3 + 45 x_4 + 17 x_5 + 48 x_6 + 11 x_7 + 12 x_8 + 25 x_9 + 13 x_10 + 32 x_11 + 4 x_12 + 17 x_13 + 33 x_14 + 13 x_15 + 2 x_16 + 2 x_17 + 11 x_18 + 41 x_19 + 11 x_20 + 12 x_21 + 36 x_22 + 33 x_23 + 35 x_24 + 24 x_25 + 45 x_26 + 31 x_27 + 42 x_28 + 42 x_29 + 21 x_30 + 10 x_31 + 9 x_32 + 22 x_33 + 43 x_34 + 48 x_35 + 39 x_36 + 23 x_37 + 15 x_38 + 36 x_39 + 8 x_40 = 611
	c_4: + 22 x_1 + 11 x_2 + 24 x_3 + 26 x_4 + 37 x_5 + 2 x_6 + 7 x_7 + 32 x_8 + 16 x_9 + 28 x_10 + 41 x_11 + 17 x_12 + 18 x_13 + 17 x_14 + 11 x_15 + 11 x_16 + 22 x_17 + 29 x_18 + 50 x_19 + 5 x_20 + 31 x_21 + 16 x_22 + 43 x_23 + 50 x_24 + 32 x_25 + 7 x_26 + 50 x_27 + 36 x_28 + 20 x_29 + 34 x_30 + 10 x_31 + 5 x_32 + 22 x_33 + 26 x_34 + 43 x_35 + 6 x_36 + 6 x_37 + 30 x_38 + 7 x_39 + 46 x_40 = 580
	c_5: + 49 x_1 + 29 x_2 + 24 x_3 + 37 x_4 + 7 x_5 + 45 x_6 + 45 x_7 + 18 x_8 + 25 x_9 + 36 x_10 + 14 x_11 + 38 x_12 + 33 x_13 + 40 x_14 + 26 x_15 + 47 x_16 + 39 x_17 + 8 x_18 + 30 x_19 + 46 x_20 + 6 x_21 + 16 x_22 + 6 x_23 + 33 x_24 + 26 x_25 + 48 x_26 + 14 x_27 + 3 x_28 + 23 x_29 + 44 x_30 + 6 x_31 + 13 x_32 + 47 x_33 + 3 x_34 + 48 x_35 + 16 x_36 + 28 x_37 + 32 x_38 + 31 x_39 + 38 x_40 = 710
	c_6: + 18 x_1 + 14 x_2 + 42 x_3 + 41 x_4 + 14 x_5 + 41 x_6 + 9 x_7 + 2 x_8 + 31 x_9 + 34 x_10 + 28 x_11 + 40 x_12 + 7 x_13 + 7 x_14 + 49 x_15 + 19 x_16 + 35 x_17 + 42 x_18 + 25 x_19 + 42 x_20 + 33 x_21 + 34 x_22 + 6 x_23 + 10 x_24 + 21 x_25 + 18 x_26 + 50 x_27 + 18 x_28 + 41 x_29 + 23 x_30 + 40 x_31 + 1 x_32 + 19 x_33 + 10 x_34 + 13 x_35 + 32 x_36 + 11 x_37 + 6 x_38 + 19 x_39 + 10 x_40 = 573
	c_7: + 20 x_1 + 50 x_2 + 35 x_3 + 22 x_4 + 32 x_5 + 13 x_6 + 30 x_7 + 5 x_8 + 1 x_9 + 40 x_10 + 27 x_11 + 34 x_12 + 36 x_13 + 4 x_14 + 41 x_15 + 15 x_16 + 49 x_17 + 48 x_18 + 37 x_19 + 41 x_20 + 5 x_21 + 39 x_22 + 24 x_23 + 15 x_24 + 15 x_25 + 17 x_26 + 22 x_27 + 45 x_28 + 46 x_29 + 23 x_30 + 44 x_31 + 38 x_32 + 19 x_33 + 41 x_34 + 2 x_35 + 12 x_36 + 28 x_37 + 10 x_38 + 50 x_39 + 16 x_40 = 681
	c_8: + 16 x_1 + 44 x_2 + 22 x_3 + 6 x_4 + 3 x_5 + 24 x_6 + 26 x_7 + 7 x_8 + 12 x_9 + 8 x_10 + 33 x_11 + 32 x_12 + 43 x_13 + 32 x_14 + 17 x_15 + 36 x_16 + 38 x_17 + 38 x_18 + 7 x_19 + 28 x_20 + 31 x_21 + 15 x_22 + 28 x_23 + 16 x_24 + 35 x_25 + 49 x_26 + 26 x_27 + 18 x_28 + 23 x_29 + 15 x_30 + 26 x_31 + 38 x_32 + 46 x_33 + 12 x_34 + 31 x_35 + 25 x_36 + 20 x_37 + 19 x_38 + 24 x_39 + 20 x_40 = 641
	c_9: + 32 x_1 + 39 x_2 + 46 x_3 + 5 x_4 + 20 x_5 + 6 x_6 + 32 x_7 + 26 x_8 + 44 x_9 + 26 x_10 + 27 x_11 + 43 x_12 + 9 x_13 + 43 x_14 + 3 x_15 + 47 x_16 + 38 x_17 + 11 x_18 + 32 x_19 + 26 x_20 + 22 x_21 + 36 x_22 + 34 x_23 + 35 x_24 + 13 x_25 + 26 x_26 + 46 x_27 + 22 x_28 + 48 x_29 + 34 x_30 + 8 x_31 + 41 x_32 + 40 x_33 + 36 x_34 + 17 x_35 + 27 x_36 + 45 x_37 + 50 x_38 + 10 x_39 + 27 x_40 = 720
	c_10: + 8 x_1 + 34 x_2 + 43 x_3 + 3 x_4 + 40 x_5 + 20 x_6 + 23 x_7 + 47 x_8 + 50 x_9 + 12 x_10 + 28 x_11 + 13 x_12 + 25 x_13 + 30 x_14 + 47 x_15 + 21 x_16 + 15 x_17 + 21 x_18 + 42 x_19 + 22 x_20 + 47 x_21 + 17 x_22 + 49 x_23 + 7 x_24 + 25 x_25 + 11 x_26 + 30 x_27 + 24 x_28 + 21 x_29 + 15 x_30 + 13 x_31 + 43 x_32 + 7 x_33 + 29 x_34 + 33 x_35 + 9 x_36 + 14 x_37 + 22 x_38 + 9 x_39 + 40 x_40 = 640
	c_11: + 6 x_1 + 28 x_2 + 37 x_3 + 27 x_4 + 25 x_5 + 4 x_6 + 45 x_7 + 27 x_8 + 25 x_9 + 2 x_10 + 28 x_11 + 16 x_12 + 41 x_13 + 31 x_14 + 48 x_15 + 1 x_16 + 12 x_17 + 48 x_18 + 22 x_19 + 47 x_20 + 48 x_21 + 11 x_22 + 32 x_23 + 9 x_24 + 2 x_25 + 33 x_26 + 15 x_27 + 45 x_28 + 19 x_29 + 10 x_30 + 34 x_31 + 23 x_32 + 48 x_33 + 34 x_34 + 42 x_35 + 28 x_36 + 22 x_37 + 35 x_38 + 12 x_39 + 46 x_40 = 690
	c_12: + 38 x_1 + 31 x_2 + 8 x_3 + 38 x_4 + 42 x_5 + 13 x_6 + 22 x_7 + 45 x_8 + 14 x_9 + 1 x_10 + 39 x_11 + 34 x_12 + 25 x_13 + 43 x_14 + 1 x_15 + 34 x_16 + 29 x_17 + 22 x_18 + 21 x_19 + 9 x_20 + 23 x_21 + 48 x_22 + 34 x_23 + 44 x_24 + 50 x_25 + 15 x_26 + 3 x_27 + 24 x_28 + 48 x_29 + 21 x_30 + 45 x_31 + 10 x_32 + 19 x_33 + 21 x_34 + 18 x_35 + 19 x_36 + 13 x_37 + 29 x_38 + 37 x_39 + 15 x_40 = 678
	c_13: + 17 x_1 + 50 x_2 + 28 x_3 + 29 x_4 + 42 x_5 + 10 x_6 + 26 x_7 + 7 x_8 + 24 x_9 + 19 x_10 + 29 x_11 + 22 x_12 + 20 x_13 + 23 x_14 + 1 x_15 + 29 x_16 + 42 x_17 + 11 x_18 + 6 x_19 + 32 x_20 + 45 x_21 + 10 x_22 + 34 x_23 + 34 x_24 + 11 x_25 + 34 x_26 + 44 x_27 + 2 x_28 + 37 x_29 + 46 x_30 + 1 x_31 + 10 x_32 + 39 x_33 + 36 x_34 + 41 x_35 + 39 x_36 + 19 x_37 + 50 x_38 + 30 x_39 + 36 x_40 = 663
	c_14: + 3 x_1 + 25 x_2 + 13 x_3 + 6 x_4 + 19 x_5 + 48 x_6 + 14 x_7 + 19 x_8 + 6 x_9 + 13 x_10 + 38 x_11 + 36 x_12 + 43 x_13 + 44 x_14 + 10 x_15 + 32 x_16 + 38 x_17 + 24 x_18 + 8 x_19 + 49 x_20 + 25 x_21 + 26 x_22 + 49 x_23 + 46 x_24 + 32 x_25 + 9 x_26 + 23 x_27 + 32 x_28 + 41 x_29 + 7 x_30 + 47 x_31 + 7 x_32 + 18 x_33 + 11 x_34 + 24 x_35 + 9 x_36 + 16 x_37 + 7 x_38 + 21 x_39 + 4 x_40 = 543
	c_15: + 3 x_1 + 48 x_2 + 30 x_3 + 28 x_4 + 1 x_5 + 44 x_6 + 39 x_7 + 1 x_8 + 27 x_9 + 1 x_10 + 37 x_11 + 7 x_12 + 3 x_13 + 12 x_14 + 15 x_15 + 42 x_16 + 25 x_17 + 35 x_18 + 48 x_19 + 6 x_20 + 2 x_21 + 42 x_22 + 39 x_23 + 14 x_24 + 23 x_25 + 47 x_26 + 13 x_27 + 35 x_28 + 39 x_29 + 33 x_30 + 1 x_31 + 16 x_32 + 41 x_33 + 19 x_34 + 6 x_35 + 17 x_36 + 2 x_37 + 3 x_38 + 44 x_39 + 19 x_40 = 562
Bounds
  0 <= x_1 <= 1
  0 <= x_2 <= 1
  0 <= x_3 <= 1
  0 <= x_4 <= 1
  0 <= x_5 <= 1
  0 <= x_6 <= 1
  0 <= x_7 <= 1
  0 <= x_8 <= 1
  0 <= x_9 <= 1
  0 <= x_10 <= 1
  0 <= x_11 <= 1
  0 <= x_12 <= 1
  0 <= x_13 <= 1
  0 <= x_14 <= 1
  0 <= x_15 <= 1
  0 <= x_16 <= 1
  0 <= x_17 <= 1
  0 <= x_18 <= 1
  0 <= x_19 <= 1
  0 <= x_20 <= 1
  0 <= x_21 <= 1
  0 <= x_22 <= 1
  0 <= x_23 <= 1
  0 <= x_24 <= 1
  0 <= x_25 <= 1
  0 <= x_26 <= 1
  0 <= x_27 <= 1
  0 <= x_28 <= 1
  0 <= x_29 <= 1
  0 <= x_30 <= 1
  0 <= x_31 <= 1
  0 <= x_32 <= 1
  0 <= x_33 <= 1
  0 <= x_34 <= 1
  0 <= x_35 <= 1
  0 <= x_36 <= 1
  0 <= x_37 <= 1
  0 <= x_38 <= 1
  0 <= x_39 <= 1
  0 <= x_40 <= 1
End
