Subject To
	c_1: + 30 x_1 + 2 x_2 + 48 x_3 + 35 x_4 + 25 x_5 + 42 x_6 + 9 x_7 + 45 x_8 + 33 x_9 + 46 x_10 + 17 x_11 + 41 x_12 + 34 x_13 + 20 x_14 + 7 x_15 + 26 x_16 + 7 x_17 + 14 x_18 + 8 x_19 + 6 x_20 + 16 x_21 + 31 x_22 + 50 x_23 + 47 x_24 + 2 x_25 + 23 x_26 + 39 x_27 + 4 x_28 + 24 x_29 + 16 x_30 + 19 x_31 + 32 x_32 + 36 x_33 + 49 x_34 + 12 x_35 + 37 x_36 + 30 x_37 + 46 x_38 + 35 x_39 + 11 x_40 = 812
	c_2: + 39 x_1 + 48 x_2 + 31 x_3 + 23 x_4 + 50 x_5 + 40 x_6 + 45 x_7 + 6 x_8 + 25 x_9 + 5 x_10 + 16 x_11 + 44 x_12 + 5 x_13 + 4 x_14 + 29 x_15 + 32 x_16 + 39 x_17 + 50 x_18 + 18 x_19 + 4 x_20 + 4 x_21 + 33 x_22 + 2 x_23 + 38 x_24 + 15 x_25 + 2 x_26 + 47 x_27 + 33 x_28 + 10 x_29 + 10 x_30 + 1 x_31 + 3 x_32 + 5 x_33 + 6 x_34 + 4 x_35 + 8 x_36 + 49 x_37 + 9 x_38 + 26 x_39 + 35 x_40 = 476
	c_3: + 24 x_1 + 42 x_2 + 45 x_3 + 32 x_4 + 9 x_5 + 5 x_6 + 16 x_7 + 27 x_8 + 46 x_9 + 18 x_10 + 37 x_11 + 1 x_12 + 9 x_13 + 6 x_14 + 33 x_15 + 47 x_16 + 33 x_17 + 43 x_18 + 35 x_19 + 49 x_20 + 6 x_21 + 26 x_22 + 4 x_23 + 7 x_24 + 48 x_25 + 15 x_26 + 27 x_27 + 47 x_28 + 14 x_29 + 29 x_30 + 49 x_31 + 13 x_32 + 8 x_33 + 35 x_34 + 45 x_35 + 47 x_36 + 24 x_37 + 2 x_38 + 12 x_39 + 1 x_40 = 459
	c_4: + 26 x_1 + 12 x_2 + 28 x_3 + 20 x_4 + 39 x_5 + 7 x_6 + 35 x_7 + 17 x_8 + 9 x_9 + 42 x_10 + 30 x_11 + 38 x_12 + 26 x_13 + 43 x_14 + 22 x_15 + 33 x_16 + 35 x_17 + 48 x_18 + 37 x_19 + 31 x_20 + 14 x_21 + 17 x_22 + 30 x_23 + 34 x_24 + 2 x_25 + 43 x_26 + 39 x_27 + 37 x_28 + 10 x_29 + 14 x_30 + 33 x_31 + 21 x_32 + 1 x_33 + 19 x_34 + 31 x_35 + 4 x_36 + 27 x_37 + 38 x_38 + 7 x_39 + 49 x_40 = 483
	c_5: + 25 x_1 + 33 x_2 + 10 x_3 + 42 x_4 + 25 x_5 + 40 x_6 + 35 x_7 + 43 x_8 + 29 x_9 + 13 x_10 + 44 x_11 + 19 x_12 + 35 x_13 + 14 x_14 + 25 x_15 + 17 x_16 + 32 x_17 + 42 x_18 + 15 x_19 + 50 x_20 + 1 x_21 + 16 x_22 + 3 x_23 + 33 x_24 + 33 x_25 + 13 x_26 + 50 x_27 + 38 x_28 + 10 x_29 + 11 x_30 + 48 x_31 + 33 x_32 + 23 x_33 + 39 x_34 + 49 x_35 + 47 x_36 + 20 x_37 + 9 x_38 + 42 x_39 + 6 x_40 = 588
	c_6: + 35 x_1 + 30 x_2 + 24 x_3 + 45 x_4 + 13 x_5 + 33 x_6 + 9 x_7 + 7 x_8 + 50 x_9 + 31 x_10 + 47 x_11 + 4 x_12 + 21 x_13 + 9 x_14 + 1 x_15 + 6 x_16 + 14 x_17 + 39 x_18 + 31 x_19 + 1 x_20 + 30 x_21 + 9 x_22 + 39 x_23 + 9 x_24 + 50 x_25 + 35 x_26 + 47 x_27 + 7 x_28 + 37 x_29 + 34 x_30 + 7 x_31 + 30 x_32 + 2 x_33 + 42 x_34 + 44 x_35 + 4 x_36 + 13 x_37 + 10 x_38 + 23 x_39 + 28 x_40 = 484
	c_7: + 26 x_1 + 23 x_2 + 33 x_3 + 24 x_4 + 7 x_5 + 23 x_6 + 40 x_7 + 12 x_8 + 14 x_9 + 32 x_10 + 37 x_11 + 44 x_12 + 16 x_13 + 44 x_14 + 14 x_15 + 10 x_16 + 29 x_17 + 39 x_18 + 23 x_19 + 15 x_20 + 12 x_21 + 38 x_22 + 14 x_23 + 34 x_24 + 42 x_25 + 10 x_26 + 3 x_27 + 31 x_28 + 6 x_29 + 28 x_30 + 40 x_31 + 49 x_32 + 44 x_33 + 26 x_34 + 4 x_35 + 13 x_36 + 33 x_37 + 12 x_38 + 4 x_39 + 32 x_40 = 504
	c_8: + 11 x_1 + 31 x_2 + 27 x_3 + 13 x_4 + 8 x_5 + 12 x_6 + 9 x_7 + 41 x_8 + 45 x_9 + 15 x_10 + 14 x_11 + 38 x_12 + 13 x_13 + 6 x_14 + 41 x_15 + 37 x_16 + 48 x_17 + 31 x_18 + 6 x_19 + 35 x_20 + 5 x_21 + 5 x_22 + 47 x_23 + 34 x_24 + 44 x_25 + 6 x_26 + 30 x_27 + 12 x_28 + 40 x_29 + 9 x_30 + 24 x_31 + 37 x_32 + 14 x_33 + 8 x_34 + 43 x_35 + 18 x_36 + 20 x_37 + 1 x_38 + 24 x_39 + 2 x_40 = 490
	c_9: + 33 x_1 + 14 x_2 + 38 x_3 + 30 x_4 + 38 x_5 + 35 x_6 + 45 x_7 + 8 x_8 + 39 x_9 + 44 x_10 + 24 x_11 + 9 x_12 + 31 x_13 + 19 x_14 + 18 x_15 + 20 x_16 + 6 x_17 + 2 x_18 + 26 x_19 + 25 x_20 + 42 x_21 + 20 x_22 + 46 x_23 + 18 x_24 + 21 x_25 + 33 x_26 + 25 x_27 + 42 x_28 + 33 x_29 + 25 x_30 + 2 x_31 + 42 x_32 + 45 x_33 + 6 x_34 + 15 x_35 + 27 x_36 + 25 x_37 + 40 x_38 + 14 x_39 + 48 x_40 = 595
	c_10: + 26 x_1 + 11 x_2 + 27 x_3 + 22 x_4 + 25 x_5 + 11 x_6 + 43 x_7 + 17 x_8 + 9 x_9 + 9 x_10 + 9 x_11 + 20 x_12 + 3 x_13 + 33 x_14 + 30 x_15 + 15 x_16 + 48 x_17 + 31 x_18 + 36 x_19 + 26 x_20 + 17 x_21 + 2 x_22 + 11 x_23 + 26 x_24 + 18 x_25 + 32 x_26 + 48 x_27 + 31 x_28 + 4 x_29 + 26 x_30 + 47 x_31 + 8 x_32 + 4 x_33 + 23 x_34 + 36 x_35 + 14 x_36 + 35 x_37 + 2 x_38 + 7 x_39 + 23 x_40 = 339
	c_11: + 42 x_1 + 22 x_2 + 22 x_3 + 24 x_4 + 7 x_5 + 32 x_6 + 5 x_7 + 22 x_8 + 50 x_9 + 23 x_10 + 14 x_11 + 8 x_12 + 6 x_13 + 27 x_14 + 16 x_15 + 29 x_16 + 1 x_17 + 43 x_18 + 1 x_19 + 46 x_20 + 22 x_21 + 14 x_22 + 16 x_23 + 17 x_24 + 3 x_25 + 41 x_26 + 19 x_27 + 7 x_28 + 35 x_29 + 24 x_30 + 44 x_31 + 47 x_32 + 46 x_33 + 38 x_34 + 40 x_35 + 5 x_36 + 12 x_37 + 23 x_38 + 46 x_39 + 46 x_40 = 541
	c_12: + 19 x_1 + 21 x_2 + 31 x_3 + 24 x_4 + 40 x_5 + 41 x_6 + 34 x_7 + 46 x_8 + 1 x_9 + 9 x_10 + 13 x_11 + 30 x_12 + 40 x_13 + 38 x_14 + 48 x_15 + 15 x_16 + 32 x_17 + 30 x_18 + 27 x_19 + 23 x_20 + 13 x_21 + 2 x_22 + 13 x_23 + 4 x_24 + 42 x_25 + 1 x_26 + 47 x_27 + 9 x_28 + 19 x_29 + 36 x_30 + 10 x_31 + 20 x_32 + 24 x_33 + 16 x_34 + 7 x_35 + 20 x_36 + 25 x_37 + 47 x_38 + 44 x_39 + 33 x_40 = 518
	c_13: + 39 x_1 + 18 x_2 + 28 x_3 + 14 x_4 + 27 x_5 + 49 x_6 + 42 x_7 + 1 x_8 + 27 x_9 + 41 x_10 + 39 x_11 + 25 x_12 + 32 x_13 + 12 x_14 + 10 x_15 + 41 x_16 + 26 x_17 + 50 x_18 + 11 x_19 + 35 x_20 + 9 x_21 + 8 x_22 + 42 x_23 + 36 x_24 + 35 x_25 + 41 x_26 + 29 x_27 + 43 x_28 + 48 x_29 + 36 x_30 + 6 x_31 + 18 x_32 + 21 x_33 + 25 x_34 + 32 x_35 + 26 x_36 + 50 x_37 + 17 x_38 + 2 x_39 + 10 x_40 = 571
	c_14: + 18 x_1 + 49 x_2 + 22 x_3 + 14 x_4 + 11 x_5 + 17 x_6 + 45 x_7 + 6 x_8 + 26 x_9 + 45 x_10 + 23 x_11 + 18 x_12 + 48 x_13 + 21 x_14 + 29 x_15 + 8 x_16 + 10 x_17 + 19 x_18 + 50 x_19 + 29 x_20 + 27 x_21 + 12 x_22 + 16 x_23 + 2 x_24 + 11 x_25 + 13 x_26 + 30 x_27 + 14 x_28 + 50 x_29 + 9 x_30 + 32 x_31 + 25 x_32 + 37 x_33 + 28 x_34 + 35 x_35 + 17 x_36 + 15 x_37 + 35 x_38 + 47 x_39 + 5 x_40 = 486
	c_15: + 40 x_1 + 43 x_2 + 46 x_3 + 11 x_4 + 43 x_5 + 11 x_6 + 50 x_7 + 10 x_8 + 16 x_9 + 4 x_10 + 38 x_11 + 37 x_12 + 47 x_13 + 4 x_14 + 7 x_15 + 42 x_16 + 17 x_17 + 39 x_18 + 17 x_19 + 3 x_20 + 30 x_21 + 26 x_22 + 32 x_23 + 34 x_24 + 8 x_25 + 11 x_26 + 46 x_27 + 4 x_28 + 23 x_29 + 35 x_30 + 40 x_31 + 20 x_32 + 38 x_33 + 39 x_34 + 8 x_35 + 35 x_36 + 36 x_37 + 37 x_38 + 8 x_39 + 2 x_40 = 615
Bounds
  0 <= x_1 <= 1
  0 <= x_2 <= 1
  0 <= x_3 <= 1
  0 <= x_4 <= 1
  0 <= x_5 <= 1
  0 <= x_6 <= 1
  0 <= x_7 <= 1
  0 <= x_8 <= 1
  0 <= x_9 <= 1
  0 <= x_10 <= 1
  0 <= x_11 <= 1
  0 <= x_12 <= 1
  0 <= x_13 <= 1
  0 <= x_14 <= 1
  0 <= x_15 <= 1
  0 <= x_16 <= 1
  0 <= x_17 <= 1
  0 <= x_18 <= 1
  0 <= x_19 <= 1
  0 <= x_20 <= 1
  0 <= x_21 <= 1
  0 <= x_22 <= 1
  0 <= x_23 <= 1
  0 <= x_24 <= 1
  0 <= x_25 <= 1
  0 <= x_26 <= 1
  0 <= x_27 <= 1
  0 <= x_28 <= 1
  0 <= x_29 <= 1
  0 <= x_30 <= 1
  0 <= x_31 <= 1
  0 <= x_32 <= 1
  0 <= x_33 <= 1
  0 <= x_34 <= 1
  0 <= x_35 <= 1
  0 <= x_36 <= 1
  0 <= x_37 <= 1
  0 <= x_38 <= 1
  0 <= x_39 <= 1
  0 <= x_40 <= 1
End
