Subject To
	c_1: + 38 x_1 + 2 x_2 + 31 x_3 + 40 x_4 + 14 x_5 + 35 x_6 + 16 x_7 + 45 x_8 + 20 x_9 + 35 x_10 + 30 x_11 + 3 x_12 + 10 x_13 + 6 x_14 + 32 x_15 + 36 x_16 + 40 x_17 + 7 x_18 + 3 x_19 + 50 x_20 + 30 x_21 + 22 x_22 + 29 x_23 + 29 x_24 + 28 x_25 + 19 x_26 + 20 x_27 + 21 x_28 + 5 x_29 + 36 x_30 + 2 x_31 + 13 x_32 + 25 x_33 + 42 x_34 + 33 x_35 + 45 x_36 + 9 x_37 + 18 x_38 + 42 x_39 + 26 x_40 = 752
	c_2: + 26 x_1 + 4 x_2 + 31 x_3 + 13 x_4 + 19 x_5 + 39 x_6 + 40 x_7 + 18 x_8 + 36 x_9 + 4 x_10 + 10 x_11 + 19 x_12 + 42 x_13 + 39 x_14 + 18 x_15 + 17 x_16 + 2 x_17 + 16 x_18 + 46 x_19 + 18 x_20 + 22 x_21 + 39 x_22 + 2 x_23 + 39 x_24 + 39 x_25 + 41 x_26 + 25 x_27 + 20 x_28 + 3 x_29 + 3 x_30 + 43 x_31 + 37 x_32 + 31 x_33 + 26 x_34 + 17 x_35 + 11 x_36 + 31 x_37 + 8 x_38 + 43 x_39 + 10 x_40 = 408
	c_3: + 35 x_1 + 45 x_2 + 28 x_3 + 37 x_4 + 14 x_5 + 38 x_6 + 49 x_7 + 21 x_8 + 30 x_9 + 12 x_10 + 3 x_11 + 12 x_12 + 13 x_13 + 12 x_14 + 6 x_15 + 21 x_16 + 39 x_17 + 3 x_18 + 19 x_19 + 42 x_20 + 20 x_21 + 20 x_22 + 18 x_23 + 2 x_24 + 42 x_25 + 44 x_26 + 45 x_27 + 1 x_28 + 1 x_29 + 1 x_30 + 13 x_31 + 42 x_32 + 30 x_33 + 45 x_34 + 42 x_35 + 20 x_36 + 21 x_37 + 15 x_38 + 40 x_39 + 27 x_40 = 539
	c_4: + 27 x_1 + 17 x_2 + 7 x_3 + 7 x_4 + 41 x_5 + 10 x_6 + 40 x_7 + 5 x_8 + 43 x_9 + 15 x_10 + 23 x_11 + 27 x_12 + 27 x_13 + 4 x_14 + 24 x_15 + 35 x_16 + 29 x_17 + 44 x_18 + 11 x_19 + 24 x_20 + 2 x_21 + 45 x_22 + 24 x_23 + 21 x_24 + 33 x_25 + 36 x_26 + 34 x_27 + 8 x_28 + 17 x_29 + 50 x_30 + 28 x_31 + 18 x_32 + 3 x_33 + 45 x_34 + 17 x_35 + 7 x_36 + 46 x_37 + 9 x_38 + 36 x_39 + 19 x_40 = 460
	c_5: + 16 x_1 + 4 x_2 + 43 x_3 + 40 x_4 + 40 x_5 + 24 x_6 + 44 x_7 + 47 x_8 + 4 x_9 + 22 x_10 + 20 x_11 + 17 x_12 + 48 x_13 + 40 x_14 + 42 x_15 + 15 x_16 + 22 x_17 + 7 x_18 + 9 x_19 + 35 x_20 + 14 x_21 + 29 x_22 + 32 x_23 + 50 x_24 + 28 x_25 + 42 x_26 + 34 x_27 + 38 x_28 + 28 x_29 + 12 x_30 + 35 x_31 + 27 x_32 + 17 x_33 + 17 x_34 + 1 x_35 + 9 x_36 + 15 x_37 + 30 x_38 + 41 x_39 + 7 x_40 = 537
	c_6: + 39 x_1 + 23 x_2 + 10 x_3 + 49 x_4 + 49 x_5 + 7 x_6 + 29 x_7 + 2 x_8 + 41 x_9 + 27 x_10 + 17 x_11 + 27 x_12 + 18 x_13 + 4 x_14 + 32 x_15 + 19 x_16 + 23 x_17 + 1 x_18 + 49 x_19 + 45 x_20 + 3 x_21 + 20 x_22 + 46 x_23 + 49 x_24 + 40 x_25 + 41 x_26 + 33 x_27 + 21 x_28 + 20 x_29 + 2 x_30 + 6 x_31 + 40 x_32 + 17 x_33 + 10 x_34 + 24 x_35 + 11 x_36 + 41 x_37 + 9 x_38 + 8 x_39 + 28 x_40 = 491
	c_7: + 16 x_1 + 22 x_2 + 35 x_3 + 30 x_4 + 26 x_5 + 49 x_6 + 46 x_7 + 40 x_8 + 14 x_9 + 7 x_10 + 40 x_11 + 20 x_12 + 23 x_13 + 17 x_14 + 4 x_15 + 7 x_16 + 45 x_17 + 33 x_18 + 5 x_19 + 42 x_20 + 13 x_21 + 19 x_22 + 36 x_23 + 23 x_24 + 18 x_25 + 22 x_26 + 29 x_27 + 17 x_28 + 33 x_29 + 29 x_30 + 23 x_31 + 4 x_32 + 27 x_33 + 29 x_34 + 6 x_35 + 46 x_36 + 49 x_37 + 46 x_38 + 44 x_39 + 5 x_40 = 564
	c_8: + 39 x_1 + 45 x_2 + 8 x_3 + 4 x_4 + 33 x_5 + 49 x_6 + 50 x_7 + 21 x_8 + 40 x_9 + 38 x_10 + 24 x_11 + 24 x_12 + 49 x_13 + 26 x_14 + 8 x_15 + 43 x_16 + 2 x_17 + 30 x_18 + 42 x_19 + 28 x_20 + 47 x_21 + 11 x_22 + 3 x_23 + 25 x_24 + 36 x_25 + 50 x_26 + 2 x_27 + 12 x_28 + 5 x_29 + 20 x_30 + 28 x_31 + 4 x_32 + 29 x_33 + 4 x_34 + 18 x_35 + 9 x_36 + 19 x_37 + 4 x_38 + 1 x_39 + 4 x_40 = 431
	c_9: + 12 x_1 + 23 x_2 + 44 x_3 + 10 x_4 + 47 x_5 + 15 x_6 + 50 x_7 + 1 x_8 + 15 x_9 + 36 x_10 + 33 x_11 + 40 x_12 + 9 x_13 + 35 x_14 + 27 x_15 + 39 x_16 + 25 x_17 + 6 x_18 + 40 x_19 + 25 x_20 + 31 x_21 + 21 x_22 + 37 x_23 + 47 x_24 + 42 x_25 + 42 x_26 + 41 x_27 + 25 x_28 + 28 x_29 + 45 x_30 + 47 x_31 + 1 x_32 + 14 x_33 + 16 x_34 + 20 x_35 + 12 x_36 + 7 x_37 + 37 x_38 + 29 x_39 + 15 x_40 = 561
	c_10: + 42 x_1 + 26 x_2 + 12 x_3 + 20 x_4 + 35 x_5 + 28 x_6 + 14 x_7 + 44 x_8 + 18 x_9 + 12 x_10 + 6 x_11 + 15 x_12 + 13 x_13 + 11 x_14 + 43 x_15 + 35 x_16 + 50 x_17 + 19 x_18 + 25 x_19 + 42 x_20 + 39 x_21 + 41 x_22 + 14 x_23 + 46 x_24 + 29 x_25 + 49 x_26 + 11 x_27 + 4 x_28 + 35 x_29 + 15 x_30 + 28 x_31 + 5 x_32 + 33 x_33 + 37 x_34 + 43 x_35 + 11 x_36 + 39 x_37 + 40 x_38 + 30 x_39 + 35 x_40 = 633
	c_11: + 21 x_1 + 46 x_2 + 43 x_3 + 10 x_4 + 37 x_5 + 28 x_6 + 34 x_7 + 41 x_8 + 3 x_9 + 40 x_10 + 3 x_11 + 31 x_12 + 11 x_13 + 36 x_14 + 31 x_15 + 28 x_16 + 45 x_17 + 32 x_18 + 50 x_19 + 11 x_20 + 30 x_21 + 34 x_22 + 36 x_23 + 50 x_24 + 33 x_25 + 22 x_26 + 3 x_27 + 4 x_28 + 31 x_29 + 1 x_30 + 46 x_31 + 18 x_32 + 38 x_33 + 48 x_34 + 6 x_35 + 4 x_36 + 14 x_37 + 42 x_38 + 38 x_39 + 3 x_40 = 550
	c_12: + 26 x_1 + 47 x_2 + 3 x_3 + 45 x_4 + 48 x_5 + 6 x_6 + 47 x_7 + 38 x_8 + 23 x_9 + 15 x_10 + 47 x_11 + 45 x_12 + 18 x_13 + 14 x_14 + 25 x_15 + 18 x_16 + 13 x_17 + 32 x_18 + 36 x_19 + 48 x_20 + 18 x_21 + 48 x_22 + 29 x_23 + 7 x_24 + 18 x_25 + 21 x_26 + 28 x_27 + 1 x_28 + 43 x_29 + 30 x_30 + 23 x_31 + 25 x_32 + 28 x_33 + 34 x_34 + 13 x_35 + 15 x_36 + 19 x_37 + 32 x_38 + 42 x_39 + 32 x_40 = 522
	c_13: + 12 x_1 + 34 x_2 + 34 x_3 + 44 x_4 + 37 x_5 + 36 x_6 + 36 x_7 + 23 x_8 + 40 x_9 + 32 x_10 + 23 x_11 + 27 x_12 + 12 x_13 + 29 x_14 + 9 x_15 + 35 x_16 + 6 x_17 + 30 x_18 + 22 x_19 + 28 x_20 + 9 x_21 + 18 x_22 + 2 x_23 + 12 x_24 + 48 x_25 + 6 x_26 + 15 x_27 + 49 x_28 + 21 x_29 + 46 x_30 + 50 x_31 + 33 x_32 + 26 x_33 + 48 x_34 + 47 x_35 + 18 x_36 + 16 x_37 + 48 x_38 + 38 x_39 + 43 x_40 = 593
	c_14: + 24 x_1 + 37 x_2 + 36 x_3 + 46 x_4 + 43 x_5 + 7 x_6 + 7 x_7 + 46 x_8 + 17 x_9 + 4 x_10 + 40 x_11 + 14 x_12 + 32 x_13 + 20 x_14 + 34 x_15 + 2 x_16 + 19 x_17 + 49 x_18 + 36 x_19 + 47 x_20 + 9 x_21 + 10 x_22 + 33 x_23 + 15 x_24 + 17 x_25 + 48 x_26 + 49 x_27 + 21 x_28 + 26 x_29 + 32 x_30 + 4 x_31 + 39 x_32 + 24 x_33 + 39 x_34 + 22 x_35 + 33 x_36 + 4 x_37 + 45 x_38 + 39 x_39 + 29 x_40 = 573
	c_15: + 34 x_1 + 33 x_2 + 33 x_3 + 3 x_4 + 5 x_5 + 31 x_6 + 47 x_7 + 38 x_8 + 38 x_9 + 28 x_10 + 3 x_11 + 6 x_12 + 16 x_13 + 17 x_14 + 25 x_15 + 2 x_16 + 14 x_17 + 48 x_18 + 43 x_19 + 21 x_20 + 11 x_21 + 48 x_22 + 40 x_23 + 46 x_24 + 9 x_25 + 41 x_26 + 9 x_27 + 2 x_28 + 43 x_29 + 16 x_30 + 6 x_31 + 7 x_32 + 13 x_33 + 22 x_34 + 20 x_35 + 39 x_36 + 44 x_37 + 24 x_38 + 5 x_39 + 25 x_40 = 465
Bounds
  0 <= x_1 <= 1
  0 <= x_2 <= 1
  0 <= x_3 <= 1
  0 <= x_4 <= 1
  0 <= x_5 <= 1
  0 <= x_6 <= 1
  0 <= x_7 <= 1
  0 <= x_8 <= 1
  0 <= x_9 <= 1
  0 <= x_10 <= 1
  0 <= x_11 <= 1
  0 <= x_12 <= 1
  0 <= x_13 <= 1
  0 <= x_14 <= 1
  0 <= x_15 <= 1
  0 <= x_16 <= 1
  0 <= x_17 <= 1
  0 <= x_18 <= 1
  0 <= x_19 <= 1
  0 <= x_20 <= 1
  0 <= x_21 <= 1
  0 <= x_22 <= 1
  0 <= x_23 <= 1
  0 <= x_24 <= 1
  0 <= x_25 <= 1
  0 <= x_26 <= 1
  0 <= x_27 <= 1
  0 <= x_28 <= 1
  0 <= x_29 <= 1
  0 <= x_30 <= 1
  0 <= x_31 <= 1
  0 <= x_32 <= 1
  0 <= x_33 <= 1
  0 <= x_34 <= 1
  0 <= x_35 <= 1
  0 <= x_36 <= 1
  0 <= x_37 <= 1
  0 <= x_38 <= 1
  0 <= x_39 <= 1
  0 <= x_40 <= 1
End
