Subject To
	c_1: + 28 x_1 + 34 x_2 + 6 x_3 + 25 x_4 + 27 x_5 + 34 x_6 + 48 x_7 + 22 x_8 + 29 x_9 + 10 x_10 + 29 x_11 + 45 x_12 + 44 x_13 + 13 x_14 + 18 x_15 + 35 x_16 + 37 x_17 + 43 x_18 + 8 x_19 + 47 x_20 + 50 x_21 + 48 x_22 + 27 x_23 + 27 x_24 + 39 x_25 + 16 x_26 + 35 x_27 + 46 x_28 + 10 x_29 + 7 x_30 + 39 x_31 + 37 x_32 + 30 x_33 + 41 x_34 + 23 x_35 + 18 x_36 + 20 x_37 + 23 x_38 + 42 x_39 + 47 x_40 = 988
	c_2: + 47 x_1 + 26 x_2 + 2 x_3 + 6 x_4 + 2 x_5 + 37 x_6 + 18 x_7 + 32 x_8 + 17 x_9 + 37 x_10 + 18 x_11 + 7 x_12 + 41 x_13 + 43 x_14 + 18 x_15 + 4 x_16 + 11 x_17 + 17 x_18 + 40 x_19 + 10 x_20 + 45 x_21 + 22 x_22 + 4 x_23 + 28 x_24 + 33 x_25 + 29 x_26 + 47 x_27 + 3 x_28 + 37 x_29 + 43 x_30 + 15 x_31 + 42 x_32 + 25 x_33 + 46 x_34 + 19 x_35 + 21 x_36 + 24 x_37 + 47 x_38 + 38 x_39 + 44 x_40 = 647
	c_3: + 24 x_1 + 45 x_2 + 21 x_3 + 40 x_4 + 3 x_5 + 26 x_6 + 30 x_7 + 20 x_8 + 47 x_9 + 39 x_10 + 1 x_11 + 3 x_12 + 17 x_13 + 10 x_14 + 21 x_15 + 15 x_16 + 49 x_17 + 32 x_18 + 48 x_19 + 36 x_20 + 31 x_21 + 5 x_22 + 4 x_23 + 30 x_24 + 20 x_25 + 21 x_26 + 41 x_27 + 49 x_28 + 6 x_29 + 34 x_30 + 36 x_31 + 35 x_32 + 50 x_33 + 37 x_34 + 40 x_35 + 41 x_36 + 21 x_37 + 44 x_38 + 9 x_39 + 26 x_40 = 701
	c_4: + 1 x_1 + 5 x_2 + 28 x_3 + 23 x_4 + 33 x_5 + 36 x_6 + 37 x_7 + 47 x_8 + 33 x_9 + 11 x_10 + 33 x_11 + 34 x_12 + 20 x_13 + 8 x_14 + 17 x_15 + 14 x_16 + 27 x_17 + 50 x_18 + 31 x_19 + 19 x_20 + 40 x_21 + 1 x_22 + 40 x_23 + 4 x_24 + 35 x_25 + 39 x_26 + 34 x_27 + 29 x_28 + 29 x_29 + 13 x_30 + 8 x_31 + 25 x_32 + 37 x_33 + 1 x_34 + 8 x_35 + 28 x_36 + 48 x_37 + 20 x_38 + 28 x_39 + 49 x_40 = 673
	c_5: + 19 x_1 + 15 x_2 + 10 x_3 + 37 x_4 + 46 x_5 + 47 x_6 + 24 x_7 + 50 x_8 + 9 x_9 + 46 x_10 + 47 x_11 + 15 x_12 + 30 x_13 + 4 x_14 + 4 x_15 + 39 x_16 + 23 x_17 + 4 x_18 + 6 x_19 + 6 x_20 + 40 x_21 + 28 x_22 + 45 x_23 + 11 x_24 + 28 x_25 + 20 x_26 + 10 x_27 + 16 x_28 + 17 x_29 + 48 x_30 + 8 x_31 + 5 x_32 + 3 x_33 + 35 x_34 + 27 x_35 + 19 x_36 + 28 x_37 + 43 x_38 + 29 x_39 + 17 x_40 = 599
	c_6: + 6 x_1 + 10 x_2 + 35 x_3 + 35 x_4 + 2 x_5 + 47 x_6 + 36 x_7 + 31 x_8 + 13 x_9 + 16 x_10 + 36 x_11 + 43 x_12 + 48 x_13 + 1 x_14 + 5 x_15 + 49 x_16 + 13 x_17 + 12 x_18 + 8 x_19 + 20 x_20 + 37 x_21 + 43 x_22 + 34 x_23 + 41 x_24 + 40 x_25 + 27 x_26 + 3 x_27 + 27 x_28 + 14 x_29 + 7 x_30 + 28 x_31 + 39 x_32 + 41 x_33 + 40 x_34 + 45 x_35 + 48 x_36 + 26 x_37 + 47 x_38 + 9 x_39 + 38 x_40 = 755
	c_7: + 47 x_1 + 30 x_2 + 44 x_3 + 38 x_4 + 2 x_5 + 10 x_6 + 47 x_7 + 35 x_8 + 19 x_9 + 8 x_10 + 49 x_11 + 21 x_12 + 22 x_13 + 12 x_14 + 34 x_15 + 32 x_16 + 21 x_17 + 40 x_18 + 44 x_19 + 15 x_20 + 16 x_21 + 4 x_22 + 15 x_23 + 22 x_24 + 18 x_25 + 20 x_26 + 43 x_27 + 13 x_28 + 13 x_29 + 29 x_30 + 31 x_31 + 28 x_32 + 27 x_33 + 9 x_34 + 40 x_35 + 6 x_36 + 3 x_37 + 43 x_38 + 5 x_39 + 16 x_40 = 602
	c_8: + 16 x_1 + 45 x_2 + 37 x_3 + 1 x_4 + 23 x_5 + 27 x_6 + 10 x_7 + 12 x_8 + 9 x_9 + 14 x_10 + 46 x_11 + 29 x_12 + 35 x_13 + 33 x_14 + 2 x_15 + 30 x_16 + 23 x_17 + 28 x_18 + 23 x_19 + 24 x_20 + 30 x_21 + 42 x_22 + 49 x_23 + 35 x_24 + 17 x_25 + 9 x_26 + 20 x_27 + 37 x_28 + 42 x_29 + 49 x_30 + 20 x_31 + 35 x_32 + 23 x_33 + 29 x_34 + 38 x_35 + 34 x_36 + 24 x_37 + 40 x_38 + 25 x_39 + 24 x_40 = 731
	c_9: + 44 x_1 + 18 x_2 + 2 x_3 + 1 x_4 + 12 x_5 + 9 x_6 + 17 x_7 + 44 x_8 + 36 x_9 + 23 x_10 + 40 x_11 + 9 x_12 + 14 x_13 + 18 x_14 + 17 x_15 + 9 x_16 + 7 x_17 + 7 x_18 + 18 x_19 + 46 x_20 + 8 x_21 + 12 x_22 + 46 x_23 + 3 x_24 + 47 x_25 + 34 x_26 + 12 x_27 + 2 x_28 + 11 x_29 + 25 x_30 + 28 x_31 + 21 x_32 + 50 x_33 + 5 x_34 + 48 x_35 + 48 x_36 + 9 x_37 + 23 x_38 + 41 x_39 + 45 x_40 = 588
	c_10: + 43 x_1 + 8 x_2 + 5 x_3 + 45 x_4 + 32 x_5 + 41 x_6 + 34 x_7 + 32 x_8 + 43 x_9 + 14 x_10 + 43 x_11 + 6 x_12 + 11 x_13 + 45 x_14 + 34 x_15 + 3 x_16 + 41 x_17 + 41 x_18 + 13 x_19 + 1 x_20 + 30 x_21 + 32 x_22 + 14 x_23 + 26 x_24 + 32 x_25 + 16 x_26 + 20 x_27 + 30 x_28 + 46 x_29 + 11 x_30 + 40 x_31 + 28 x_32 + 17 x_33 + 33 x_34 + 21 x_35 + 40 x_36 + 2 x_37 + 33 x_38 + 5 x_39 + 21 x_40 = 675
	c_11: + 36 x_1 + 35 x_2 + 37 x_3 + 21 x_4 + 34 x_5 + 40 x_6 + 6 x_7 + 27 x_8 + 41 x_9 + 25 x_10 + 34 x_11 + 34 x_12 + 31 x_13 + 13 x_14 + 41 x_15 + 16 x_16 + 41 x_17 + 48 x_18 + 5 x_19 + 33 x_20 + 31 x_21 + 16 x_22 + 10 x_23 + 38 x_24 + 46 x_25 + 44 x_26 + 35 x_27 + 36 x_28 + 17 x_29 + 2 x_30 + 6 x_31 + 34 x_32 + 48 x_33 + 40 x_34 + 9 x_35 + 7 x_36 + 47 x_37 + 35 x_38 + 37 x_39 + 34 x_40 = 840
	c_12: + 10 x_1 + 22 x_2 + 50 x_3 + 18 x_4 + 31 x_5 + 27 x_6 + 9 x_7 + 37 x_8 + 35 x_9 + 47 x_10 + 11 x_11 + 3 x_12 + 43 x_13 + 3 x_14 + 18 x_15 + 32 x_16 + 33 x_17 + 11 x_18 + 41 x_19 + 23 x_20 + 35 x_21 + 40 x_22 + 21 x_23 + 43 x_24 + 13 x_25 + 5 x_26 + 1 x_27 + 37 x_28 + 16 x_29 + 42 x_30 + 23 x_31 + 46 x_32 + 12 x_33 + 35 x_34 + 11 x_35 + 30 x_36 + 21 x_37 + 15 x_38 + 25 x_39 + 48 x_40 = 669
	c_13: + 27 x_1 + 46 x_2 + 9 x_3 + 21 x_4 + 19 x_5 + 3 x_6 + 9 x_7 + 15 x_8 + 47 x_9 + 9 x_10 + 24 x_11 + 49 x_12 + 20 x_13 + 15 x_14 + 33 x_15 + 2 x_16 + 25 x_17 + 42 x_18 + 40 x_19 + 40 x_20 + 6 x_21 + 37 x_22 + 48 x_23 + 47 x_24 + 12 x_25 + 29 x_26 + 30 x_27 + 12 x_28 + 1 x_29 + 24 x_30 + 25 x_31 + 8 x_32 + 26 x_33 + 35 x_34 + 19 x_35 + 35 x_36 + 38 x_37 + 34 x_38 + 50 x_39 + 3 x_40 = 692
	c_14: + 3 x_1 + 3 x_2 + 11 x_3 + 39 x_4 + 11 x_5 + 14 x_6 + 36 x_7 + 10 x_8 + 44 x_9 + 40 x_10 + 40 x_11 + 8 x_12 + 21 x_13 + 26 x_14 + 23 x_15 + 39 x_16 + 34 x_17 + 25 x_18 + 38 x_19 + 3 x_20 + 26 x_21 + 6 x_22 + 36 x_23 + 47 x_24 + 50 x_25 + 25 x_26 + 16 x_27 + 17 x_28 + 1 x_29 + 16 x_30 + 49 x_31 + 31 x_32 + 12 x_33 + 23 x_34 + 8 x_35 + 5 x_36 + 4 x_37 + 29 x_38 + 44 x_39 + 24 x_40 = 662
	c_15: + 42 x_1 + 3 x_2 + 39 x_3 + 31 x_4 + 11 x_5 + 1 x_6 + 7 x_7 + 13 x_8 + 50 x_9 + 16 x_10 + 9 x_11 + 21 x_12 + 15 x_13 + 47 x_14 + 6 x_15 + 46 x_16 + 48 x_17 + 22 x_18 + 29 x_19 + 5 x_20 + 12 x_21 + 42 x_22 + 50 x_23 + 4 x_24 + 32 x_25 + 28 x_26 + 10 x_27 + 1 x_28 + 36 x_29 + 5 x_30 + 6 x_31 + 19 x_32 + 31 x_33 + 18 x_34 + 29 x_35 + 31 x_36 + 18 x_37 + 35 x_38 + 19 x_39 + 43 x_40 = 567
Bounds
  0 <= x_1 <= 1
  0 <= x_2 <= 1
  0 <= x_3 <= 1
  0 <= x_4 <= 1
  0 <= x_5 <= 1
  0 <= x_6 <= 1
  0 <= x_7 <= 1
  0 <= x_8 <= 1
  0 <= x_9 <= 1
  0 <= x_10 <= 1
  0 <= x_11 <= 1
  0 <= x_12 <= 1
  0 <= x_13 <= 1
  0 <= x_14 <= 1
  0 <= x_15 <= 1
  0 <= x_16 <= 1
  0 <= x_17 <= 1
  0 <= x_18 <= 1
  0 <= x_19 <= 1
  0 <= x_20 <= 1
  0 <= x_21 <= 1
  0 <= x_22 <= 1
  0 <= x_23 <= 1
  0 <= x_24 <= 1
  0 <= x_25 <= 1
  0 <= x_26 <= 1
  0 <= x_27 <= 1
  0 <= x_28 <= 1
  0 <= x_29 <= 1
  0 <= x_30 <= 1
  0 <= x_31 <= 1
  0 <= x_32 <= 1
  0 <= x_33 <= 1
  0 <= x_34 <= 1
  0 <= x_35 <= 1
  0 <= x_36 <= 1
  0 <= x_37 <= 1
  0 <= x_38 <= 1
  0 <= x_39 <= 1
  0 <= x_40 <= 1
End
