Subject To
	w1: + 10 x_1 + 4 x_2 + 46 x_3 + 22 x_4 + 10 x_5 + 7 x_6 + 44 x_7 + 20 x_8 + 44 x_9 + 3 x_10 <= 900
	w2: + 30 x_1 + 13 x_2 + 47 x_3 + 29 x_4 + 31 x_5 + 7 x_6 + 13 x_7 + 10 x_8 + 31 x_9 + 18 x_10 <= 980
	w3: + 24 x_1 + 12 x_2 + 47 x_3 + 13 x_4 + 3 x_5 + 32 x_6 + 10 x_7 + 22 x_8 + 8 x_9 + 39 x_10 <= 900
	w4: + 14 x_1 + 34 x_2 + 10 x_3 + 41 x_4 + 7 x_5 + 42 x_6 + 44 x_7 + 30 x_8 + 3 x_9 + 34 x_10 <= 1110
	w5: + 1 x_1 + 35 x_2 + 13 x_3 + 32 x_4 + 47 x_5 + 1 x_6 + 32 x_7 + 49 x_8 + 33 x_9 + 3 x_10 <= 1060
	w6: + 9 x_1 + 27 x_2 + 39 x_3 + 17 x_4 + 3 x_5 + 16 x_6 + 22 x_7 + 16 x_8 + 31 x_9 + 9 x_10 <= 810
	w7: + 40 x_1 + 38 x_2 + 47 x_3 + 15 x_4 + 13 x_5 + 21 x_6 + 4 x_7 + 11 x_8 + 34 x_9 + 30 x_10 <= 1090
	w8: + 40 x_1 + 13 x_2 + 25 x_3 + 36 x_4 + 33 x_5 + 29 x_6 + 40 x_7 + 49 x_8 + 6 x_9 + 25 x_10 <= 1270
	w9: + 41 x_1 + 35 x_2 + 6 x_3 + 3 x_4 + 23 x_5 + 39 x_6 + 7 x_7 + 12 x_8 + 43 x_9 + 46 x_10 <= 1100
	w10: + 49 x_1 + 33 x_2 + 20 x_3 + 8 x_4 + 34 x_5 + 9 x_6 + 40 x_7 + 42 x_8 + 45 x_9 + 22 x_10 <= 1300
	w11: + 33 x_1 + 11 x_2 + 1 x_3 + 22 x_4 + 28 x_5 + 49 x_6 + 41 x_7 + 15 x_8 + 2 x_9 + 13 x_10 <= 920
	w12: + 48 x_1 + 14 x_2 + 8 x_3 + 14 x_4 + 16 x_5 + 37 x_6 + 10 x_7 + 35 x_8 + 40 x_9 + 17 x_10 <= 1030
	w13: + 11 x_1 + 35 x_2 + 29 x_3 + 10 x_4 + 31 x_5 + 37 x_6 + 43 x_7 + 30 x_8 + 20 x_9 + 43 x_10 <= 1240
	w14: + 37 x_1 + 11 x_2 + 8 x_3 + 42 x_4 + 26 x_5 + 10 x_6 + 45 x_7 + 27 x_8 + 33 x_9 + 33 x_10 <= 1170
	w15: + 49 x_1 + 33 x_2 + 35 x_3 + 25 x_4 + 22 x_5 + 5 x_6 + 9 x_7 + 49 x_8 + 41 x_9 + 21 x_10 <= 1240
	w16: + 4 x_1 + 31 x_2 + 45 x_3 + 41 x_4 + 11 x_5 + 37 x_6 + 21 x_7 + 22 x_8 + 7 x_9 + 35 x_10 <= 1090
	w17: + 21 x_1 + 1 x_2 + 40 x_3 + 42 x_4 + 6 x_5 + 20 x_6 + 13 x_7 + 4 x_8 + 44 x_9 + 9 x_10 <= 860
	w18: + 13 x_1 + 5 x_2 + 32 x_3 + 37 x_4 + 6 x_5 + 18 x_6 + 41 x_7 + 35 x_8 + 27 x_9 + 17 x_10 <= 990
	w19: + 17 x_1 + 4 x_2 + 47 x_3 + 8 x_4 + 19 x_5 + 14 x_6 + 24 x_7 + 48 x_8 + 5 x_9 + 10 x_10 <= 840
	w20: + 27 x_1 + 19 x_2 + 33 x_3 + 8 x_4 + 3 x_5 + 46 x_6 + 10 x_7 + 26 x_8 + 38 x_9 + 15 x_10 <= 970
	w21: + 7 x_1 + 5 x_2 + 44 x_3 + 8 x_4 + 26 x_5 + 36 x_6 + 11 x_7 + 28 x_8 + 13 x_9 + 47 x_10 <= 970
	w22: + 12 x_1 + 4 x_2 + 8 x_3 + 17 x_4 + 46 x_5 + 26 x_6 + 29 x_7 + 33 x_8 + 17 x_9 + 18 x_10 <= 900
	w23: + 4 x_1 + 2 x_2 + 42 x_3 + 30 x_4 + 27 x_5 + 9 x_6 + 6 x_7 + 19 x_8 + 7 x_9 + 17 x_10 <= 700
	w24: + 32 x_1 + 38 x_2 + 4 x_3 + 32 x_4 + 4 x_5 + 47 x_6 + 9 x_7 + 21 x_8 + 39 x_9 + 8 x_10 <= 1010
	w25: + 28 x_1 + 39 x_2 + 24 x_3 + 21 x_4 + 7 x_5 + 28 x_6 + 41 x_7 + 5 x_8 + 15 x_9 + 41 x_10 <= 1070
	w26: + 8 x_1 + 45 x_2 + 32 x_3 + 25 x_4 + 8 x_5 + 27 x_6 + 42 x_7 + 15 x_8 + 44 x_9 + 3 x_10 <= 1070
	w27: + 12 x_1 + 16 x_2 + 16 x_3 + 8 x_4 + 5 x_5 + 6 x_6 + 21 x_7 + 40 x_8 + 18 x_9 + 7 x_10 <= 640
	w28: + 27 x_1 + 19 x_2 + 35 x_3 + 40 x_4 + 6 x_5 + 46 x_6 + 3 x_7 + 19 x_8 + 22 x_9 + 33 x_10 <= 1080
	w29: + 3 x_1 + 9 x_2 + 14 x_3 + 32 x_4 + 41 x_5 + 45 x_6 + 14 x_7 + 44 x_8 + 46 x_9 + 31 x_10 <= 1200
	w30: + 8 x_1 + 35 x_2 + 1 x_3 + 16 x_4 + 48 x_5 + 32 x_6 + 26 x_7 + 14 x_8 + 22 x_9 + 17 x_10 <= 940
	w31: + 39 x_1 + 33 x_2 + 4 x_3 + 23 x_4 + 43 x_5 + 4 x_6 + 7 x_7 + 21 x_8 + 28 x_9 + 2 x_10 <= 880
	w32: + 39 x_1 + 11 x_2 + 24 x_3 + 10 x_4 + 1 x_5 + 8 x_6 + 28 x_7 + 15 x_8 + 1 x_9 + 48 x_10 <= 790
	w33: + 31 x_1 + 47 x_2 + 39 x_3 + 38 x_4 + 30 x_5 + 36 x_6 + 39 x_7 + 19 x_8 + 3 x_9 + 27 x_10 <= 1330
	w34: + 38 x_1 + 39 x_2 + 23 x_3 + 23 x_4 + 20 x_5 + 35 x_6 + 34 x_7 + 21 x_8 + 3 x_9 + 35 x_10 <= 1170
	w35: + 39 x_1 + 31 x_2 + 32 x_3 + 3 x_4 + 46 x_5 + 2 x_6 + 22 x_7 + 29 x_8 + 10 x_9 + 10 x_10 <= 960
	w36: + 25 x_1 + 29 x_2 + 18 x_3 + 28 x_4 + 25 x_5 + 27 x_6 + 37 x_7 + 39 x_8 + 4 x_9 + 21 x_10 <= 1090
	w37: + 17 x_1 + 4 x_2 + 2 x_3 + 6 x_4 + 16 x_5 + 38 x_6 + 2 x_7 + 4 x_8 + 20 x_9 + 21 x_10 <= 560
	w38: + 13 x_1 + 43 x_2 + 6 x_3 + 22 x_4 + 23 x_5 + 7 x_6 + 14 x_7 + 27 x_8 + 4 x_9 + 20 x_10 <= 770
	w39: + 22 x_1 + 31 x_2 + 21 x_3 + 15 x_4 + 22 x_5 + 41 x_6 + 40 x_7 + 45 x_8 + 45 x_9 + 25 x_10 <= 1320
	w40: + 34 x_1 + 46 x_2 + 32 x_3 + 3 x_4 + 35 x_5 + 16 x_6 + 43 x_7 + 41 x_8 + 13 x_9 + 18 x_10 <= 1210
	w41: + 41 x_1 + 4 x_2 + 2 x_3 + 31 x_4 + 22 x_5 + 7 x_6 + 18 x_7 + 4 x_8 + 12 x_9 + 49 x_10 <= 820
	w42: + 49 x_1 + 42 x_2 + 25 x_3 + 20 x_4 + 41 x_5 + 19 x_6 + 45 x_7 + 14 x_8 + 16 x_9 + 36 x_10 <= 1320
	w43: + 15 x_1 + 43 x_2 + 17 x_3 + 6 x_4 + 46 x_5 + 28 x_6 + 1 x_7 + 48 x_8 + 30 x_9 + 16 x_10 <= 1080
	w44: + 48 x_1 + 35 x_2 + 32 x_3 + 49 x_4 + 35 x_5 + 15 x_6 + 30 x_7 + 21 x_8 + 23 x_9 + 25 x_10 <= 1350
	w45: + 28 x_1 + 18 x_2 + 25 x_3 + 27 x_4 + 29 x_5 + 46 x_6 + 34 x_7 + 11 x_8 + 31 x_9 + 49 x_10 <= 1280
	w46: + 37 x_1 + 33 x_2 + 27 x_3 + 11 x_4 + 13 x_5 + 12 x_6 + 19 x_7 + 20 x_8 + 30 x_9 + 27 x_10 <= 980
	w47: + 11 x_1 + 37 x_2 + 18 x_3 + 21 x_4 + 48 x_5 + 17 x_6 + 26 x_7 + 19 x_8 + 26 x_9 + 21 x_10 <= 1050
	w48: + 15 x_1 + 35 x_2 + 6 x_3 + 27 x_4 + 19 x_5 + 9 x_6 + 30 x_7 + 24 x_8 + 35 x_9 + 8 x_10 <= 890
	w49: + 43 x_1 + 49 x_2 + 8 x_3 + 26 x_4 + 7 x_5 + 38 x_6 + 33 x_7 + 9 x_8 + 35 x_9 + 39 x_10 <= 1230
	w50: + 13 x_1 + 6 x_2 + 47 x_3 + 27 x_4 + 1 x_5 + 27 x_6 + 33 x_7 + 5 x_8 + 44 x_9 + 39 x_10 <= 1040
	w51: + 31 x_1 + 8 x_2 + 42 x_3 + 29 x_4 + 23 x_5 + 2 x_6 + 34 x_7 + 5 x_8 + 20 x_9 + 14 x_10 <= 890
	w52: + 20 x_1 + 42 x_2 + 2 x_3 + 36 x_4 + 21 x_5 + 35 x_6 + 43 x_7 + 19 x_8 + 20 x_9 + 48 x_10 <= 1230
	w53: + 47 x_1 + 40 x_2 + 6 x_3 + 41 x_4 + 10 x_5 + 5 x_6 + 42 x_7 + 47 x_8 + 11 x_9 + 47 x_10 <= 1270
	w54: + 43 x_1 + 24 x_2 + 24 x_3 + 20 x_4 + 11 x_5 + 8 x_6 + 29 x_7 + 6 x_8 + 13 x_9 + 27 x_10 <= 880
	w55: + 15 x_1 + 22 x_2 + 5 x_3 + 19 x_4 + 17 x_5 + 12 x_6 + 17 x_7 + 8 x_8 + 40 x_9 + 49 x_10 <= 880
	w56: + 13 x_1 + 29 x_2 + 36 x_3 + 10 x_4 + 23 x_5 + 11 x_6 + 14 x_7 + 34 x_8 + 26 x_9 + 3 x_10 <= 850
	w57: + 1 x_1 + 24 x_2 + 47 x_3 + 46 x_4 + 21 x_5 + 17 x_6 + 45 x_7 + 5 x_8 + 4 x_9 + 7 x_10 <= 930
	w58: + 6 x_1 + 39 x_2 + 34 x_3 + 34 x_4 + 48 x_5 + 10 x_6 + 44 x_7 + 17 x_8 + 14 x_9 + 26 x_10 <= 1170
	w59: + 35 x_1 + 45 x_2 + 41 x_3 + 47 x_4 + 12 x_5 + 29 x_6 + 34 x_7 + 19 x_8 + 24 x_9 + 4 x_10 <= 1250
	w60: + 20 x_1 + 44 x_2 + 32 x_3 + 32 x_4 + 20 x_5 + 25 x_6 + 27 x_7 + 48 x_8 + 9 x_9 + 6 x_10 <= 1130
	w61: + 6 x_1 + 6 x_2 + 33 x_3 + 20 x_4 + 16 x_5 + 43 x_6 + 24 x_7 + 14 x_8 + 47 x_9 + 45 x_10 <= 1090
	w62: + 48 x_1 + 29 x_2 + 28 x_3 + 7 x_4 + 13 x_5 + 48 x_6 + 16 x_7 + 17 x_8 + 13 x_9 + 26 x_10 <= 1050
	w63: + 35 x_1 + 30 x_2 + 20 x_3 + 29 x_4 + 48 x_5 + 14 x_6 + 46 x_7 + 23 x_8 + 30 x_9 + 16 x_10 <= 1250
	w64: + 45 x_1 + 49 x_2 + 1 x_3 + 24 x_4 + 25 x_5 + 25 x_6 + 47 x_7 + 24 x_8 + 31 x_9 + 24 x_10 <= 1270
	w65: + 10 x_1 + 45 x_2 + 40 x_3 + 47 x_4 + 46 x_5 + 48 x_6 + 27 x_7 + 23 x_8 + 19 x_9 + 35 x_10 <= 1460
	w66: + 25 x_1 + 12 x_2 + 29 x_3 + 37 x_4 + 35 x_5 + 7 x_6 + 12 x_7 + 35 x_8 + 48 x_9 + 5 x_10 <= 1050
	w67: + 24 x_1 + 40 x_2 + 6 x_3 + 13 x_4 + 24 x_5 + 3 x_6 + 29 x_7 + 49 x_8 + 28 x_9 + 25 x_10 <= 1040
	w68: + 40 x_1 + 22 x_2 + 4 x_3 + 11 x_4 + 28 x_5 + 38 x_6 + 36 x_7 + 39 x_8 + 35 x_9 + 23 x_10 <= 1190
	w69: + 6 x_1 + 48 x_2 + 40 x_3 + 42 x_4 + 10 x_5 + 28 x_6 + 15 x_7 + 29 x_8 + 35 x_9 + 16 x_10 <= 1160
	w70: + 25 x_1 + 19 x_2 + 45 x_3 + 43 x_4 + 27 x_5 + 44 x_6 + 30 x_7 + 15 x_8 + 19 x_9 + 19 x_10 <= 1230
	w71: + 16 x_1 + 18 x_2 + 18 x_3 + 42 x_4 + 29 x_5 + 17 x_6 + 43 x_7 + 30 x_8 + 45 x_9 + 35 x_10 <= 1260
	w72: + 42 x_1 + 36 x_2 + 47 x_3 + 20 x_4 + 26 x_5 + 49 x_6 + 39 x_7 + 19 x_8 + 10 x_9 + 38 x_10 <= 1400
	w73: + 9 x_1 + 5 x_2 + 5 x_3 + 30 x_4 + 17 x_5 + 49 x_6 + 29 x_7 + 10 x_8 + 7 x_9 + 47 x_10 <= 890
	w74: + 47 x_1 + 23 x_2 + 17 x_3 + 8 x_4 + 6 x_5 + 45 x_6 + 11 x_7 + 25 x_8 + 34 x_9 + 3 x_10 <= 940
	w75: + 22 x_1 + 1 x_2 + 21 x_3 + 10 x_4 + 1 x_5 + 46 x_6 + 31 x_7 + 10 x_8 + 16 x_9 + 47 x_10 <= 880
	w76: + 12 x_1 + 2 x_2 + 36 x_3 + 28 x_4 + 5 x_5 + 34 x_6 + 3 x_7 + 21 x_8 + 32 x_9 + 13 x_10 <= 800
	w77: + 26 x_1 + 27 x_2 + 9 x_3 + 42 x_4 + 25 x_5 + 14 x_6 + 46 x_7 + 41 x_8 + 15 x_9 + 38 x_10 <= 1220
	w78: + 12 x_1 + 16 x_2 + 44 x_3 + 40 x_4 + 23 x_5 + 27 x_6 + 14 x_7 + 47 x_8 + 9 x_9 + 21 x_10 <= 1090
	w79: + 47 x_1 + 33 x_2 + 41 x_3 + 31 x_4 + 9 x_5 + 4 x_6 + 26 x_7 + 47 x_8 + 41 x_9 + 40 x_10 <= 1370
	w80: + 31 x_1 + 47 x_2 + 45 x_3 + 34 x_4 + 45 x_5 + 32 x_6 + 32 x_7 + 47 x_8 + 46 x_9 + 15 x_10 <= 1610
	w81: + 38 x_1 + 44 x_2 + 30 x_3 + 33 x_4 + 32 x_5 + 13 x_6 + 10 x_7 + 14 x_8 + 47 x_9 + 17 x_10 <= 1200
	w82: + 3 x_1 + 29 x_2 + 4 x_3 + 20 x_4 + 7 x_5 + 5 x_6 + 14 x_7 + 49 x_8 + 4 x_9 + 46 x_10 <= 780
	w83: + 32 x_1 + 30 x_2 + 25 x_3 + 10 x_4 + 16 x_5 + 45 x_6 + 5 x_7 + 5 x_8 + 22 x_9 + 5 x_10 <= 840
	w84: + 43 x_1 + 44 x_2 + 37 x_3 + 25 x_4 + 38 x_5 + 26 x_6 + 13 x_7 + 9 x_8 + 10 x_9 + 36 x_10 <= 1210
	w85: + 32 x_1 + 6 x_2 + 37 x_3 + 17 x_4 + 25 x_5 + 18 x_6 + 42 x_7 + 34 x_8 + 25 x_9 + 20 x_10 <= 1100
	w86: + 42 x_1 + 22 x_2 + 42 x_3 + 24 x_4 + 7 x_5 + 18 x_6 + 14 x_7 + 9 x_8 + 39 x_9 + 43 x_10 <= 1120
	w87: + 17 x_1 + 4 x_2 + 38 x_3 + 11 x_4 + 28 x_5 + 11 x_6 + 15 x_7 + 28 x_8 + 17 x_9 + 4 x_10 <= 740
	w88: + 46 x_1 + 36 x_2 + 6 x_3 + 43 x_4 + 21 x_5 + 37 x_6 + 33 x_7 + 39 x_8 + 39 x_9 + 24 x_10 <= 1390
	w89: + 44 x_1 + 16 x_2 + 4 x_3 + 1 x_4 + 24 x_5 + 1 x_6 + 11 x_7 + 49 x_8 + 16 x_9 + 7 x_10 <= 740
	w90: + 7 x_1 + 4 x_2 + 38 x_3 + 38 x_4 + 45 x_5 + 3 x_6 + 47 x_7 + 32 x_8 + 8 x_9 + 14 x_10 <= 1010
	w91: + 30 x_1 + 12 x_2 + 27 x_3 + 1 x_4 + 32 x_5 + 39 x_6 + 6 x_7 + 2 x_8 + 43 x_9 + 27 x_10 <= 940
	w92: + 31 x_1 + 8 x_2 + 35 x_3 + 48 x_4 + 32 x_5 + 6 x_6 + 21 x_7 + 30 x_8 + 26 x_9 + 1 x_10 <= 1020
	w93: + 37 x_1 + 23 x_2 + 45 x_3 + 15 x_4 + 12 x_5 + 39 x_6 + 19 x_7 + 42 x_8 + 25 x_9 + 48 x_10 <= 1310
	w94: + 28 x_1 + 45 x_2 + 34 x_3 + 5 x_4 + 30 x_5 + 1 x_6 + 29 x_7 + 38 x_8 + 2 x_9 + 10 x_10 <= 950
	w95: + 44 x_1 + 43 x_2 + 15 x_3 + 49 x_4 + 17 x_5 + 23 x_6 + 2 x_7 + 42 x_8 + 24 x_9 + 23 x_10 <= 1210
	w96: + 41 x_1 + 33 x_2 + 18 x_3 + 30 x_4 + 4 x_5 + 41 x_6 + 5 x_7 + 30 x_8 + 43 x_9 + 27 x_10 <= 1170
	w97: + 25 x_1 + 17 x_2 + 9 x_3 + 25 x_4 + 46 x_5 + 38 x_6 + 9 x_7 + 9 x_8 + 7 x_9 + 11 x_10 <= 840
	w98: + 35 x_1 + 8 x_2 + 49 x_3 + 37 x_4 + 28 x_5 + 22 x_6 + 30 x_7 + 11 x_8 + 32 x_9 + 24 x_10 <= 1190
	w99: + 11 x_1 + 41 x_2 + 37 x_3 + 13 x_4 + 48 x_5 + 37 x_6 + 14 x_7 + 8 x_8 + 13 x_9 + 41 x_10 <= 1130
	w100: + 40 x_1 + 27 x_2 + 27 x_3 + 12 x_4 + 36 x_5 + 4 x_6 + 3 x_7 + 47 x_8 + 26 x_9 + 10 x_10 <= 1000
	w101: + 13 x_1 + 40 x_2 + 27 x_3 + 48 x_4 + 26 x_5 + 19 x_6 + 39 x_7 + 46 x_8 + 35 x_9 + 23 x_10 <= 1360
	w102: + 38 x_1 + 17 x_2 + 24 x_3 + 32 x_4 + 39 x_5 + 13 x_6 + 21 x_7 + 36 x_8 + 9 x_9 + 13 x_10 <= 1040
	w103: + 11 x_1 + 8 x_2 + 23 x_3 + 40 x_4 + 10 x_5 + 46 x_6 + 46 x_7 + 29 x_8 + 38 x_9 + 17 x_10 <= 1150
	w104: + 35 x_1 + 46 x_2 + 38 x_3 + 36 x_4 + 27 x_5 + 31 x_6 + 6 x_7 + 10 x_8 + 44 x_9 + 43 x_10 <= 1360
	w105: + 36 x_1 + 25 x_2 + 26 x_3 + 9 x_4 + 38 x_5 + 24 x_6 + 15 x_7 + 32 x_8 + 33 x_9 + 46 x_10 <= 1220
	w106: + 26 x_1 + 6 x_2 + 20 x_3 + 39 x_4 + 43 x_5 + 49 x_6 + 39 x_7 + 11 x_8 + 22 x_9 + 30 x_10 <= 1230
	w107: + 45 x_1 + 37 x_2 + 7 x_3 + 32 x_4 + 23 x_5 + 27 x_6 + 49 x_7 + 5 x_8 + 40 x_9 + 40 x_10 <= 1310
	w108: + 19 x_1 + 8 x_2 + 35 x_3 + 6 x_4 + 28 x_5 + 47 x_6 + 37 x_7 + 7 x_8 + 17 x_9 + 6 x_10 <= 900
	w109: + 44 x_1 + 30 x_2 + 11 x_3 + 19 x_4 + 36 x_5 + 37 x_6 + 1 x_7 + 27 x_8 + 29 x_9 + 19 x_10 <= 1090
	w110: + 10 x_1 + 25 x_2 + 47 x_3 + 30 x_4 + 48 x_5 + 35 x_6 + 23 x_7 + 47 x_8 + 19 x_9 + 21 x_10 <= 1310
	w111: + 23 x_1 + 22 x_2 + 8 x_3 + 15 x_4 + 11 x_5 + 36 x_6 + 42 x_7 + 42 x_8 + 26 x_9 + 37 x_10 <= 1130
	w112: + 19 x_1 + 34 x_2 + 24 x_3 + 28 x_4 + 34 x_5 + 43 x_6 + 2 x_7 + 29 x_8 + 18 x_9 + 18 x_10 <= 1070
	w113: + 29 x_1 + 48 x_2 + 33 x_3 + 26 x_4 + 5 x_5 + 19 x_6 + 41 x_7 + 7 x_8 + 23 x_9 + 5 x_10 <= 1010
	w114: + 29 x_1 + 7 x_2 + 44 x_3 + 12 x_4 + 38 x_5 + 48 x_6 + 16 x_7 + 17 x_8 + 11 x_9 + 48 x_10 <= 1160
	w115: + 38 x_1 + 29 x_2 + 9 x_3 + 46 x_4 + 42 x_5 + 35 x_6 + 18 x_7 + 49 x_8 + 32 x_9 + 47 x_10 <= 1490
	w116: + 5 x_1 + 28 x_2 + 35 x_3 + 28 x_4 + 5 x_5 + 10 x_6 + 8 x_7 + 26 x_8 + 41 x_9 + 30 x_10 <= 930
	w117: + 28 x_1 + 31 x_2 + 32 x_3 + 26 x_4 + 44 x_5 + 5 x_6 + 14 x_7 + 16 x_8 + 31 x_9 + 4 x_10 <= 990
	w118: + 5 x_1 + 25 x_2 + 48 x_3 + 6 x_4 + 24 x_5 + 15 x_6 + 15 x_7 + 43 x_8 + 15 x_9 + 2 x_10 <= 850
	w119: + 9 x_1 + 13 x_2 + 10 x_3 + 47 x_4 + 23 x_5 + 22 x_6 + 38 x_7 + 41 x_8 + 40 x_9 + 4 x_10 <= 1060
	w120: + 40 x_1 + 25 x_2 + 7 x_3 + 25 x_4 + 42 x_5 + 49 x_6 + 34 x_7 + 39 x_8 + 41 x_9 + 10 x_10 <= 1340
	w121: + 20 x_1 + 7 x_2 + 18 x_3 + 17 x_4 + 39 x_5 + 10 x_6 + 26 x_7 + 28 x_8 + 27 x_9 + 44 x_10 <= 1010
	w122: + 9 x_1 + 18 x_2 + 41 x_3 + 33 x_4 + 42 x_5 + 2 x_6 + 44 x_7 + 25 x_8 + 23 x_9 + 24 x_10 <= 1120
	w123: + 34 x_1 + 17 x_2 + 28 x_3 + 27 x_4 + 34 x_5 + 41 x_6 + 45 x_7 + 7 x_8 + 9 x_9 + 6 x_10 <= 1070
	w124: + 23 x_1 + 46 x_2 + 3 x_3 + 41 x_4 + 5 x_5 + 44 x_6 + 48 x_7 + 34 x_8 + 44 x_9 + 24 x_10 <= 1340
	w125: + 18 x_1 + 33 x_2 + 4 x_3 + 21 x_4 + 12 x_5 + 27 x_6 + 18 x_7 + 39 x_8 + 1 x_9 + 43 x_10 <= 930
	w126: + 45 x_1 + 36 x_2 + 5 x_3 + 35 x_4 + 32 x_5 + 47 x_6 + 18 x_7 + 44 x_8 + 48 x_9 + 42 x_10 <= 1520
	w127: + 17 x_1 + 39 x_2 + 18 x_3 + 2 x_4 + 4 x_5 + 10 x_6 + 15 x_7 + 24 x_8 + 15 x_9 + 2 x_10 <= 630
	w128: + 6 x_1 + 20 x_2 + 35 x_3 + 45 x_4 + 7 x_5 + 16 x_6 + 19 x_7 + 9 x_8 + 11 x_9 + 47 x_10 <= 920
	w129: + 42 x_1 + 49 x_2 + 8 x_3 + 2 x_4 + 3 x_5 + 28 x_6 + 48 x_7 + 47 x_8 + 48 x_9 + 7 x_10 <= 1210
	w130: + 42 x_1 + 8 x_2 + 24 x_3 + 31 x_4 + 23 x_5 + 5 x_6 + 42 x_7 + 3 x_8 + 24 x_9 + 23 x_10 <= 970
	w131: + 13 x_1 + 38 x_2 + 48 x_3 + 7 x_4 + 43 x_5 + 33 x_6 + 16 x_7 + 46 x_8 + 21 x_9 + 19 x_10 <= 1220
	w132: + 16 x_1 + 1 x_2 + 48 x_3 + 28 x_4 + 1 x_5 + 16 x_6 + 29 x_7 + 26 x_8 + 47 x_9 + 29 x_10 <= 1040
	w133: + 4 x_1 + 3 x_2 + 34 x_3 + 23 x_4 + 20 x_5 + 47 x_6 + 13 x_7 + 30 x_8 + 37 x_9 + 2 x_10 <= 920
	w134: + 30 x_1 + 1 x_2 + 30 x_3 + 47 x_4 + 47 x_5 + 21 x_6 + 19 x_7 + 31 x_8 + 28 x_9 + 15 x_10 <= 1160
	w135: + 1 x_1 + 2 x_2 + 14 x_3 + 14 x_4 + 28 x_5 + 42 x_6 + 41 x_7 + 31 x_8 + 40 x_9 + 36 x_10 <= 1070
	w136: + 47 x_1 + 24 x_2 + 4 x_3 + 13 x_4 + 5 x_5 + 22 x_6 + 28 x_7 + 29 x_8 + 42 x_9 + 9 x_10 <= 960
	w137: + 12 x_1 + 40 x_2 + 22 x_3 + 43 x_4 + 31 x_5 + 11 x_6 + 23 x_7 + 34 x_8 + 44 x_9 + 16 x_10 <= 1190
	w138: + 36 x_1 + 24 x_2 + 2 x_3 + 42 x_4 + 16 x_5 + 7 x_6 + 40 x_7 + 16 x_8 + 22 x_9 + 5 x_10 <= 900
	w139: + 39 x_1 + 1 x_2 + 39 x_3 + 31 x_4 + 28 x_5 + 23 x_6 + 29 x_7 + 32 x_8 + 38 x_9 + 4 x_10 <= 1140
	w140: + 37 x_1 + 33 x_2 + 30 x_3 + 15 x_4 + 25 x_5 + 46 x_6 + 39 x_7 + 45 x_8 + 47 x_9 + 31 x_10 <= 1500
	w141: + 13 x_1 + 24 x_2 + 24 x_3 + 18 x_4 + 33 x_5 + 39 x_6 + 44 x_7 + 19 x_8 + 30 x_9 + 41 x_10 <= 1230
	w142: + 2 x_1 + 30 x_2 + 36 x_3 + 17 x_4 + 40 x_5 + 48 x_6 + 22 x_7 + 38 x_8 + 12 x_9 + 4 x_10 <= 1070
	w143: + 29 x_1 + 39 x_2 + 16 x_3 + 44 x_4 + 16 x_5 + 35 x_6 + 28 x_7 + 22 x_8 + 39 x_9 + 8 x_10 <= 1190
	w144: + 40 x_1 + 23 x_2 + 20 x_3 + 22 x_4 + 19 x_5 + 2 x_6 + 11 x_7 + 14 x_8 + 48 x_9 + 10 x_10 <= 900
	w145: + 21 x_1 + 34 x_2 + 1 x_3 + 37 x_4 + 25 x_5 + 14 x_6 + 16 x_7 + 38 x_8 + 10 x_9 + 6 x_10 <= 870
	w146: + 35 x_1 + 14 x_2 + 39 x_3 + 37 x_4 + 25 x_5 + 31 x_6 + 27 x_7 + 47 x_8 + 18 x_9 + 37 x_10 <= 1330
	w147: + 26 x_1 + 12 x_2 + 21 x_3 + 18 x_4 + 45 x_5 + 37 x_6 + 34 x_7 + 19 x_8 + 6 x_9 + 29 x_10 <= 1060
	w148: + 6 x_1 + 3 x_2 + 35 x_3 + 24 x_4 + 19 x_5 + 40 x_6 + 2 x_7 + 32 x_8 + 45 x_9 + 19 x_10 <= 970
	w149: + 46 x_1 + 12 x_2 + 38 x_3 + 9 x_4 + 3 x_5 + 34 x_6 + 22 x_7 + 35 x_8 + 27 x_9 + 30 x_10 <= 1100
	w150: + 32 x_1 + 6 x_2 + 41 x_3 + 2 x_4 + 5 x_5 + 30 x_6 + 13 x_7 + 11 x_8 + 26 x_9 + 11 x_10 <= 760
	w151: + 3 x_1 + 34 x_2 + 14 x_3 + 16 x_4 + 31 x_5 + 33 x_6 + 26 x_7 + 18 x_8 + 32 x_9 + 36 x_10 <= 1040
	w152: + 45 x_1 + 19 x_2 + 6 x_3 + 46 x_4 + 19 x_5 + 49 x_6 + 34 x_7 + 40 x_8 + 5 x_9 + 41 x_10 <= 1310
	w153: + 27 x_1 + 34 x_2 + 44 x_3 + 14 x_4 + 15 x_5 + 25 x_6 + 33 x_7 + 42 x_8 + 9 x_9 + 11 x_10 <= 1090
	w154: + 16 x_1 + 2 x_2 + 5 x_3 + 5 x_4 + 30 x_5 + 15 x_6 + 16 x_7 + 25 x_8 + 11 x_9 + 39 x_10 <= 700
	w155: + 24 x_1 + 6 x_2 + 40 x_3 + 2 x_4 + 33 x_5 + 17 x_6 + 40 x_7 + 25 x_8 + 33 x_9 + 2 x_10 <= 950
	w156: + 34 x_1 + 23 x_2 + 47 x_3 + 15 x_4 + 10 x_5 + 45 x_6 + 20 x_7 + 26 x_8 + 12 x_9 + 8 x_10 <= 1030
	w157: + 46 x_1 + 25 x_2 + 44 x_3 + 12 x_4 + 12 x_5 + 10 x_6 + 41 x_7 + 41 x_8 + 13 x_9 + 12 x_10 <= 1100
	w158: + 11 x_1 + 48 x_2 + 17 x_3 + 35 x_4 + 21 x_5 + 20 x_6 + 37 x_7 + 28 x_8 + 43 x_9 + 30 x_10 <= 1250
	w159: + 49 x_1 + 38 x_2 + 19 x_3 + 46 x_4 + 47 x_5 + 35 x_6 + 23 x_7 + 13 x_8 + 8 x_9 + 24 x_10 <= 1300
	w160: + 24 x_1 + 19 x_2 + 18 x_3 + 41 x_4 + 29 x_5 + 31 x_6 + 20 x_7 + 28 x_8 + 32 x_9 + 31 x_10 <= 1170
	w161: + 38 x_1 + 34 x_2 + 22 x_3 + 48 x_4 + 40 x_5 + 30 x_6 + 18 x_7 + 9 x_8 + 22 x_9 + 27 x_10 <= 1240
	w162: + 22 x_1 + 25 x_2 + 6 x_3 + 3 x_4 + 15 x_5 + 43 x_6 + 24 x_7 + 29 x_8 + 23 x_9 + 30 x_10 <= 950
	w163: + 21 x_1 + 22 x_2 + 30 x_3 + 48 x_4 + 46 x_5 + 27 x_6 + 18 x_7 + 16 x_8 + 22 x_9 + 28 x_10 <= 1200
	w164: + 24 x_1 + 18 x_2 + 27 x_3 + 16 x_4 + 1 x_5 + 25 x_6 + 22 x_7 + 8 x_8 + 9 x_9 + 30 x_10 <= 770
	w165: + 32 x_1 + 14 x_2 + 19 x_3 + 42 x_4 + 29 x_5 + 4 x_6 + 20 x_7 + 44 x_8 + 18 x_9 + 18 x_10 <= 1030
	w166: + 30 x_1 + 46 x_2 + 37 x_3 + 16 x_4 + 37 x_5 + 16 x_6 + 22 x_7 + 26 x_8 + 43 x_9 + 30 x_10 <= 1300
	w167: + 2 x_1 + 43 x_2 + 20 x_3 + 14 x_4 + 48 x_5 + 25 x_6 + 7 x_7 + 18 x_8 + 12 x_9 + 12 x_10 <= 860
	w168: + 43 x_1 + 13 x_2 + 28 x_3 + 44 x_4 + 26 x_5 + 17 x_6 + 42 x_7 + 4 x_8 + 6 x_9 + 12 x_10 <= 1010
	w169: + 32 x_1 + 46 x_2 + 18 x_3 + 47 x_4 + 43 x_5 + 26 x_6 + 31 x_7 + 49 x_8 + 25 x_9 + 30 x_10 <= 1490
	w170: + 41 x_1 + 29 x_2 + 30 x_3 + 22 x_4 + 21 x_5 + 15 x_6 + 4 x_7 + 18 x_8 + 12 x_9 + 25 x_10 <= 930
	w171: + 20 x_1 + 22 x_2 + 15 x_3 + 9 x_4 + 38 x_5 + 3 x_6 + 28 x_7 + 46 x_8 + 11 x_9 + 7 x_10 <= 850
	w172: + 6 x_1 + 47 x_2 + 28 x_3 + 42 x_4 + 22 x_5 + 12 x_6 + 46 x_7 + 26 x_8 + 43 x_9 + 25 x_10 <= 1280
	w173: + 48 x_1 + 29 x_2 + 47 x_3 + 46 x_4 + 16 x_5 + 24 x_6 + 13 x_7 + 21 x_8 + 21 x_9 + 22 x_10 <= 1230
	w174: + 5 x_1 + 26 x_2 + 13 x_3 + 35 x_4 + 16 x_5 + 22 x_6 + 33 x_7 + 28 x_8 + 22 x_9 + 20 x_10 <= 950
	w175: + 21 x_1 + 28 x_2 + 33 x_3 + 49 x_4 + 18 x_5 + 45 x_6 + 36 x_7 + 47 x_8 + 13 x_9 + 16 x_10 <= 1320
	w176: + 20 x_1 + 3 x_2 + 39 x_3 + 32 x_4 + 44 x_5 + 33 x_6 + 32 x_7 + 6 x_8 + 36 x_9 + 8 x_10 <= 1090
	w177: + 27 x_1 + 38 x_2 + 21 x_3 + 42 x_4 + 11 x_5 + 12 x_6 + 8 x_7 + 29 x_8 + 22 x_9 + 18 x_10 <= 980
	w178: + 23 x_1 + 2 x_2 + 33 x_3 + 31 x_4 + 36 x_5 + 5 x_6 + 45 x_7 + 23 x_8 + 11 x_9 + 17 x_10 <= 970
	w179: + 23 x_1 + 15 x_2 + 37 x_3 + 36 x_4 + 32 x_5 + 24 x_6 + 17 x_7 + 31 x_8 + 9 x_9 + 8 x_10 <= 1000
	w180: + 22 x_1 + 17 x_2 + 35 x_3 + 29 x_4 + 49 x_5 + 30 x_6 + 8 x_7 + 20 x_8 + 2 x_9 + 33 x_10 <= 1050
	w181: + 31 x_1 + 35 x_2 + 15 x_3 + 5 x_4 + 16 x_5 + 41 x_6 + 39 x_7 + 45 x_8 + 35 x_9 + 17 x_10 <= 1200
	w182: + 28 x_1 + 37 x_2 + 21 x_3 + 47 x_4 + 48 x_5 + 31 x_6 + 9 x_7 + 7 x_8 + 30 x_9 + 35 x_10 <= 1260
	w183: + 41 x_1 + 41 x_2 + 31 x_3 + 32 x_4 + 12 x_5 + 14 x_6 + 30 x_7 + 46 x_8 + 22 x_9 + 20 x_10 <= 1240
	w184: + 1 x_1 + 31 x_2 + 23 x_3 + 48 x_4 + 34 x_5 + 3 x_6 + 22 x_7 + 39 x_8 + 44 x_9 + 9 x_10 <= 1090
	w185: + 10 x_1 + 41 x_2 + 17 x_3 + 6 x_4 + 38 x_5 + 2 x_6 + 42 x_7 + 26 x_8 + 34 x_9 + 28 x_10 <= 1050
	w186: + 40 x_1 + 38 x_2 + 5 x_3 + 19 x_4 + 35 x_5 + 47 x_6 + 44 x_7 + 3 x_8 + 15 x_9 + 35 x_10 <= 1210
	w187: + 1 x_1 + 39 x_2 + 2 x_3 + 26 x_4 + 46 x_5 + 23 x_6 + 11 x_7 + 44 x_8 + 2 x_9 + 32 x_10 <= 970
	w188: + 37 x_1 + 24 x_2 + 27 x_3 + 41 x_4 + 5 x_5 + 15 x_6 + 45 x_7 + 12 x_8 + 13 x_9 + 33 x_10 <= 1080
	w189: + 14 x_1 + 5 x_2 + 5 x_3 + 14 x_4 + 28 x_5 + 19 x_6 + 28 x_7 + 46 x_8 + 21 x_9 + 43 x_10 <= 960
	w190: + 35 x_1 + 42 x_2 + 46 x_3 + 8 x_4 + 3 x_5 + 36 x_6 + 40 x_7 + 41 x_8 + 39 x_9 + 16 x_10 <= 1320
	w191: + 20 x_1 + 20 x_2 + 33 x_3 + 16 x_4 + 16 x_5 + 26 x_6 + 5 x_7 + 14 x_8 + 12 x_9 + 37 x_10 <= 850
	w192: + 8 x_1 + 7 x_2 + 38 x_3 + 18 x_4 + 39 x_5 + 32 x_6 + 31 x_7 + 2 x_8 + 3 x_9 + 23 x_10 <= 860
	w193: + 42 x_1 + 35 x_2 + 39 x_3 + 18 x_4 + 17 x_5 + 20 x_6 + 47 x_7 + 31 x_8 + 35 x_9 + 29 x_10 <= 1350
	w194: + 10 x_1 + 19 x_2 + 35 x_3 + 42 x_4 + 16 x_5 + 27 x_6 + 12 x_7 + 3 x_8 + 12 x_9 + 48 x_10 <= 960
	w195: + 7 x_1 + 33 x_2 + 49 x_3 + 32 x_4 + 27 x_5 + 22 x_6 + 17 x_7 + 2 x_8 + 14 x_9 + 34 x_10 <= 1020
	w196: + 26 x_1 + 49 x_2 + 49 x_3 + 15 x_4 + 10 x_5 + 36 x_6 + 7 x_7 + 10 x_8 + 11 x_9 + 38 x_10 <= 1080
	w197: + 42 x_1 + 16 x_2 + 23 x_3 + 22 x_4 + 3 x_5 + 34 x_6 + 35 x_7 + 43 x_8 + 22 x_9 + 7 x_10 <= 1060
	w198: + 2 x_1 + 20 x_2 + 16 x_3 + 27 x_4 + 31 x_5 + 14 x_6 + 27 x_7 + 44 x_8 + 34 x_9 + 36 x_10 <= 1080
	w199: + 35 x_1 + 6 x_2 + 42 x_3 + 1 x_4 + 30 x_5 + 13 x_6 + 14 x_7 + 42 x_8 + 11 x_9 + 46 x_10 <= 1030
	w200: + 6 x_1 + 14 x_2 + 48 x_3 + 4 x_4 + 16 x_5 + 35 x_6 + 24 x_7 + 25 x_8 + 34 x_9 + 7 x_10 <= 920
	profits: + 48 x_1 + 34 x_2 + 21 x_3 + 9 x_4 + 13 x_5 + 48 x_6 + 20 x_7 + 35 x_8 + 26 x_9 + 19 x_10 >= 1550
Bounds
  0 <= x_1 <= 10
  0 <= x_2 <= 10
  0 <= x_3 <= 10
  0 <= x_4 <= 10
  0 <= x_5 <= 10
  0 <= x_6 <= 10
  0 <= x_7 <= 10
  0 <= x_8 <= 10
  0 <= x_9 <= 10
  0 <= x_10 <= 10
End
