Subject To
	w1: + 22 x_1 + 44 x_2 + 4 x_3 + 30 x_4 + 45 x_5 + 17 x_6 + 49 x_7 + 1 x_8 + 7 x_9 + 38 x_10 <= 1450
	w2: + 31 x_1 + 31 x_2 + 32 x_3 + 36 x_4 + 31 x_5 + 47 x_6 + 15 x_7 + 2 x_8 + 20 x_9 + 11 x_10 <= 1450
	w3: + 44 x_1 + 18 x_2 + 44 x_3 + 17 x_4 + 17 x_5 + 13 x_6 + 10 x_7 + 47 x_8 + 26 x_9 + 5 x_10 <= 1360
	w4: + 5 x_1 + 38 x_2 + 3 x_3 + 21 x_4 + 29 x_5 + 49 x_6 + 46 x_7 + 22 x_8 + 11 x_9 + 41 x_10 <= 1500
	w5: + 47 x_1 + 48 x_2 + 47 x_3 + 5 x_4 + 49 x_5 + 6 x_6 + 39 x_7 + 6 x_8 + 29 x_9 + 36 x_10 <= 1770
	w6: + 43 x_1 + 40 x_2 + 11 x_3 + 48 x_4 + 21 x_5 + 13 x_6 + 43 x_7 + 6 x_8 + 19 x_9 + 47 x_10 <= 1650
	w7: + 11 x_1 + 33 x_2 + 5 x_3 + 33 x_4 + 45 x_5 + 45 x_6 + 41 x_7 + 14 x_8 + 31 x_9 + 27 x_10 <= 1610
	w8: + 8 x_1 + 44 x_2 + 16 x_3 + 9 x_4 + 43 x_5 + 33 x_6 + 31 x_7 + 10 x_8 + 1 x_9 + 24 x_10 <= 1240
	w9: + 48 x_1 + 28 x_2 + 27 x_3 + 23 x_4 + 10 x_5 + 13 x_6 + 24 x_7 + 47 x_8 + 4 x_9 + 6 x_10 <= 1300
	w10: + 46 x_1 + 42 x_2 + 2 x_3 + 34 x_4 + 16 x_5 + 37 x_6 + 11 x_7 + 8 x_8 + 35 x_9 + 1 x_10 <= 1310
	w11: + 11 x_1 + 49 x_2 + 21 x_3 + 21 x_4 + 12 x_5 + 28 x_6 + 22 x_7 + 44 x_8 + 22 x_9 + 13 x_10 <= 1380
	w12: + 7 x_1 + 46 x_2 + 27 x_3 + 5 x_4 + 5 x_5 + 29 x_6 + 5 x_7 + 45 x_8 + 8 x_9 + 1 x_10 <= 1010
	w13: + 1 x_1 + 18 x_2 + 46 x_3 + 36 x_4 + 21 x_5 + 12 x_6 + 43 x_7 + 2 x_8 + 40 x_9 + 47 x_10 <= 1510
	w14: + 26 x_1 + 28 x_2 + 20 x_3 + 1 x_4 + 21 x_5 + 27 x_6 + 7 x_7 + 23 x_8 + 26 x_9 + 30 x_10 <= 1180
	w15: + 34 x_1 + 1 x_2 + 17 x_3 + 13 x_4 + 2 x_5 + 4 x_6 + 9 x_7 + 30 x_8 + 16 x_9 + 16 x_10 <= 800
	w16: + 21 x_1 + 25 x_2 + 17 x_3 + 31 x_4 + 27 x_5 + 20 x_6 + 43 x_7 + 26 x_8 + 9 x_9 + 32 x_10 <= 1420
	w17: + 1 x_1 + 23 x_2 + 43 x_3 + 26 x_4 + 49 x_5 + 17 x_6 + 24 x_7 + 10 x_8 + 16 x_9 + 7 x_10 <= 1220
	w18: + 1 x_1 + 37 x_2 + 49 x_3 + 39 x_4 + 46 x_5 + 31 x_6 + 46 x_7 + 16 x_8 + 18 x_9 + 15 x_10 <= 1690
	w19: + 20 x_1 + 19 x_2 + 1 x_3 + 27 x_4 + 34 x_5 + 34 x_6 + 42 x_7 + 43 x_8 + 27 x_9 + 22 x_10 <= 1520
	w20: + 25 x_1 + 17 x_2 + 17 x_3 + 9 x_4 + 11 x_5 + 20 x_6 + 16 x_7 + 1 x_8 + 49 x_9 + 28 x_10 <= 1090
	w21: + 24 x_1 + 24 x_2 + 8 x_3 + 17 x_4 + 43 x_5 + 7 x_6 + 28 x_7 + 27 x_8 + 26 x_9 + 42 x_10 <= 1390
	w22: + 25 x_1 + 4 x_2 + 24 x_3 + 38 x_4 + 43 x_5 + 12 x_6 + 22 x_7 + 48 x_8 + 11 x_9 + 27 x_10 <= 1440
	w23: + 28 x_1 + 23 x_2 + 21 x_3 + 10 x_4 + 13 x_5 + 46 x_6 + 3 x_7 + 14 x_8 + 46 x_9 + 32 x_10 <= 1340
	w24: + 6 x_1 + 7 x_2 + 25 x_3 + 6 x_4 + 14 x_5 + 34 x_6 + 19 x_7 + 9 x_8 + 48 x_9 + 37 x_10 <= 1160
	w25: + 3 x_1 + 33 x_2 + 13 x_3 + 2 x_4 + 24 x_5 + 16 x_6 + 27 x_7 + 47 x_8 + 22 x_9 + 15 x_10 <= 1140
	w26: + 48 x_1 + 38 x_2 + 34 x_3 + 16 x_4 + 34 x_5 + 43 x_6 + 47 x_7 + 41 x_8 + 27 x_9 + 38 x_10 <= 2070
	w27: + 48 x_1 + 35 x_2 + 13 x_3 + 29 x_4 + 5 x_5 + 23 x_6 + 16 x_7 + 29 x_8 + 32 x_9 + 9 x_10 <= 1350
	w28: + 38 x_1 + 18 x_2 + 14 x_3 + 32 x_4 + 1 x_5 + 41 x_6 + 10 x_7 + 5 x_8 + 40 x_9 + 19 x_10 <= 1230
	w29: + 46 x_1 + 12 x_2 + 23 x_3 + 3 x_4 + 39 x_5 + 9 x_6 + 39 x_7 + 14 x_8 + 37 x_9 + 15 x_10 <= 1340
	w30: + 6 x_1 + 33 x_2 + 28 x_3 + 46 x_4 + 6 x_5 + 1 x_6 + 20 x_7 + 30 x_8 + 43 x_9 + 33 x_10 <= 1390
	w31: + 9 x_1 + 7 x_2 + 16 x_3 + 13 x_4 + 41 x_5 + 15 x_6 + 32 x_7 + 20 x_8 + 40 x_9 + 40 x_10 <= 1320
	w32: + 40 x_1 + 35 x_2 + 13 x_3 + 23 x_4 + 25 x_5 + 26 x_6 + 24 x_7 + 24 x_8 + 37 x_9 + 9 x_10 <= 1450
	w33: + 2 x_1 + 7 x_2 + 40 x_3 + 23 x_4 + 19 x_5 + 31 x_6 + 17 x_7 + 4 x_8 + 28 x_9 + 18 x_10 <= 1070
	w34: + 13 x_1 + 35 x_2 + 36 x_3 + 36 x_4 + 15 x_5 + 27 x_6 + 25 x_7 + 32 x_8 + 31 x_9 + 10 x_10 <= 1470
	w35: + 25 x_1 + 32 x_2 + 9 x_3 + 5 x_4 + 36 x_5 + 22 x_6 + 38 x_7 + 36 x_8 + 2 x_9 + 43 x_10 <= 1400
	w36: + 43 x_1 + 40 x_2 + 38 x_3 + 6 x_4 + 22 x_5 + 10 x_6 + 19 x_7 + 48 x_8 + 24 x_9 + 36 x_10 <= 1620
	w37: + 17 x_1 + 25 x_2 + 4 x_3 + 44 x_4 + 15 x_5 + 12 x_6 + 40 x_7 + 32 x_8 + 46 x_9 + 12 x_10 <= 1400
	w38: + 38 x_1 + 28 x_2 + 36 x_3 + 16 x_4 + 45 x_5 + 41 x_6 + 41 x_7 + 32 x_8 + 34 x_9 + 1 x_10 <= 1770
	w39: + 11 x_1 + 31 x_2 + 1 x_3 + 36 x_4 + 39 x_5 + 25 x_6 + 22 x_7 + 29 x_8 + 47 x_9 + 30 x_10 <= 1530
	w40: + 35 x_1 + 26 x_2 + 9 x_3 + 19 x_4 + 37 x_5 + 14 x_6 + 32 x_7 + 9 x_8 + 18 x_9 + 13 x_10 <= 1200
	w41: + 9 x_1 + 22 x_2 + 32 x_3 + 8 x_4 + 9 x_5 + 28 x_6 + 49 x_7 + 44 x_8 + 31 x_9 + 11 x_10 <= 1380
	w42: + 19 x_1 + 27 x_2 + 12 x_3 + 22 x_4 + 32 x_5 + 43 x_6 + 39 x_7 + 13 x_8 + 34 x_9 + 48 x_10 <= 1640
	w43: + 12 x_1 + 19 x_2 + 35 x_3 + 8 x_4 + 16 x_5 + 31 x_6 + 30 x_7 + 6 x_8 + 42 x_9 + 1 x_10 <= 1130
	w44: + 11 x_1 + 19 x_2 + 2 x_3 + 31 x_4 + 5 x_5 + 40 x_6 + 25 x_7 + 35 x_8 + 31 x_9 + 3 x_10 <= 1140
	w45: + 4 x_1 + 22 x_2 + 39 x_3 + 26 x_4 + 48 x_5 + 14 x_6 + 3 x_7 + 39 x_8 + 29 x_9 + 30 x_10 <= 1440
	w46: + 45 x_1 + 6 x_2 + 8 x_3 + 38 x_4 + 23 x_5 + 43 x_6 + 48 x_7 + 33 x_8 + 47 x_9 + 44 x_10 <= 1900
	w47: + 25 x_1 + 46 x_2 + 25 x_3 + 5 x_4 + 18 x_5 + 21 x_6 + 8 x_7 + 11 x_8 + 43 x_9 + 16 x_10 <= 1230
	w48: + 15 x_1 + 38 x_2 + 18 x_3 + 26 x_4 + 28 x_5 + 37 x_6 + 4 x_7 + 28 x_8 + 40 x_9 + 20 x_10 <= 1440
	w49: + 41 x_1 + 36 x_2 + 42 x_3 + 47 x_4 + 31 x_5 + 15 x_6 + 12 x_7 + 18 x_8 + 25 x_9 + 32 x_10 <= 1690
	w50: + 40 x_1 + 46 x_2 + 39 x_3 + 45 x_4 + 38 x_5 + 7 x_6 + 24 x_7 + 42 x_8 + 19 x_9 + 32 x_10 <= 1880
	w51: + 8 x_1 + 48 x_2 + 6 x_3 + 35 x_4 + 8 x_5 + 18 x_6 + 35 x_7 + 32 x_8 + 24 x_9 + 12 x_10 <= 1280
	w52: + 25 x_1 + 42 x_2 + 46 x_3 + 46 x_4 + 25 x_5 + 46 x_6 + 30 x_7 + 7 x_8 + 25 x_9 + 13 x_10 <= 1730
	w53: + 12 x_1 + 21 x_2 + 11 x_3 + 6 x_4 + 23 x_5 + 17 x_6 + 22 x_7 + 44 x_8 + 6 x_9 + 1 x_10 <= 920
	w54: + 5 x_1 + 15 x_2 + 3 x_3 + 4 x_4 + 38 x_5 + 29 x_6 + 11 x_7 + 25 x_8 + 28 x_9 + 19 x_10 <= 1000
	w55: + 27 x_1 + 12 x_2 + 17 x_3 + 28 x_4 + 1 x_5 + 33 x_6 + 17 x_7 + 20 x_8 + 8 x_9 + 9 x_10 <= 970
	w56: + 24 x_1 + 8 x_2 + 29 x_3 + 29 x_4 + 15 x_5 + 41 x_6 + 13 x_7 + 20 x_8 + 30 x_9 + 26 x_10 <= 1330
	w57: + 10 x_1 + 40 x_2 + 41 x_3 + 44 x_4 + 40 x_5 + 12 x_6 + 28 x_7 + 10 x_8 + 5 x_9 + 20 x_10 <= 1420
	w58: + 37 x_1 + 40 x_2 + 23 x_3 + 48 x_4 + 45 x_5 + 3 x_6 + 48 x_7 + 33 x_8 + 18 x_9 + 25 x_10 <= 1810
	w59: + 13 x_1 + 12 x_2 + 39 x_3 + 49 x_4 + 49 x_5 + 25 x_6 + 7 x_7 + 4 x_8 + 32 x_9 + 29 x_10 <= 1470
	w60: + 48 x_1 + 24 x_2 + 6 x_3 + 17 x_4 + 22 x_5 + 22 x_6 + 47 x_7 + 22 x_8 + 39 x_9 + 8 x_10 <= 1440
	w61: + 15 x_1 + 23 x_2 + 10 x_3 + 30 x_4 + 3 x_5 + 2 x_6 + 7 x_7 + 28 x_8 + 14 x_9 + 26 x_10 <= 890
	w62: + 1 x_1 + 7 x_2 + 28 x_3 + 23 x_4 + 30 x_5 + 35 x_6 + 40 x_7 + 3 x_8 + 47 x_9 + 44 x_10 <= 1460
	w63: + 30 x_1 + 36 x_2 + 43 x_3 + 18 x_4 + 4 x_5 + 48 x_6 + 34 x_7 + 36 x_8 + 42 x_9 + 43 x_10 <= 1890
	w64: + 45 x_1 + 26 x_2 + 7 x_3 + 24 x_4 + 16 x_5 + 46 x_6 + 26 x_7 + 33 x_8 + 32 x_9 + 43 x_10 <= 1690
	w65: + 45 x_1 + 18 x_2 + 48 x_3 + 1 x_4 + 13 x_5 + 13 x_6 + 19 x_7 + 14 x_8 + 47 x_9 + 34 x_10 <= 1430
	w66: + 40 x_1 + 18 x_2 + 17 x_3 + 46 x_4 + 20 x_5 + 2 x_6 + 38 x_7 + 20 x_8 + 4 x_9 + 9 x_10 <= 1210
	w67: + 42 x_1 + 43 x_2 + 49 x_3 + 35 x_4 + 21 x_5 + 34 x_6 + 17 x_7 + 49 x_8 + 30 x_9 + 47 x_10 <= 2080
	w68: + 25 x_1 + 20 x_2 + 28 x_3 + 27 x_4 + 3 x_5 + 6 x_6 + 23 x_7 + 23 x_8 + 43 x_9 + 9 x_10 <= 1170
	w69: + 16 x_1 + 22 x_2 + 15 x_3 + 40 x_4 + 17 x_5 + 30 x_6 + 11 x_7 + 1 x_8 + 44 x_9 + 42 x_10 <= 1350
	w70: + 46 x_1 + 31 x_2 + 30 x_3 + 2 x_4 + 17 x_5 + 20 x_6 + 7 x_7 + 46 x_8 + 13 x_9 + 9 x_10 <= 1250
	w71: + 45 x_1 + 24 x_2 + 26 x_3 + 32 x_4 + 26 x_5 + 8 x_6 + 2 x_7 + 20 x_8 + 34 x_9 + 8 x_10 <= 1270
	w72: + 14 x_1 + 33 x_2 + 42 x_3 + 16 x_4 + 42 x_5 + 15 x_6 + 23 x_7 + 40 x_8 + 30 x_9 + 4 x_10 <= 1470
	w73: + 15 x_1 + 41 x_2 + 8 x_3 + 8 x_4 + 16 x_5 + 23 x_6 + 41 x_7 + 9 x_8 + 10 x_9 + 23 x_10 <= 1100
	w74: + 39 x_1 + 17 x_2 + 29 x_3 + 13 x_4 + 48 x_5 + 27 x_6 + 32 x_7 + 33 x_8 + 39 x_9 + 34 x_10 <= 1760
	w75: + 9 x_1 + 29 x_2 + 32 x_3 + 9 x_4 + 33 x_5 + 34 x_6 + 2 x_7 + 40 x_8 + 42 x_9 + 30 x_10 <= 1470
	w76: + 42 x_1 + 18 x_2 + 32 x_3 + 14 x_4 + 43 x_5 + 13 x_6 + 41 x_7 + 48 x_8 + 29 x_9 + 39 x_10 <= 1810
	w77: + 11 x_1 + 49 x_2 + 39 x_3 + 19 x_4 + 17 x_5 + 7 x_6 + 15 x_7 + 7 x_8 + 22 x_9 + 16 x_10 <= 1140
	w78: + 18 x_1 + 22 x_2 + 14 x_3 + 42 x_4 + 37 x_5 + 27 x_6 + 11 x_7 + 24 x_8 + 46 x_9 + 9 x_10 <= 1420
	w79: + 31 x_1 + 44 x_2 + 1 x_3 + 2 x_4 + 41 x_5 + 14 x_6 + 3 x_7 + 4 x_8 + 12 x_9 + 12 x_10 <= 930
	w80: + 11 x_1 + 20 x_2 + 28 x_3 + 27 x_4 + 21 x_5 + 13 x_6 + 33 x_7 + 16 x_8 + 42 x_9 + 17 x_10 <= 1290
	w81: + 30 x_1 + 23 x_2 + 34 x_3 + 25 x_4 + 21 x_5 + 35 x_6 + 11 x_7 + 39 x_8 + 46 x_9 + 22 x_10 <= 1620
	w82: + 31 x_1 + 42 x_2 + 36 x_3 + 47 x_4 + 7 x_5 + 21 x_6 + 37 x_7 + 39 x_8 + 3 x_9 + 48 x_10 <= 1760
	w83: + 23 x_1 + 47 x_2 + 22 x_3 + 23 x_4 + 5 x_5 + 42 x_6 + 37 x_7 + 16 x_8 + 24 x_9 + 13 x_10 <= 1430
	w84: + 17 x_1 + 44 x_2 + 28 x_3 + 45 x_4 + 24 x_5 + 43 x_6 + 23 x_7 + 25 x_8 + 3 x_9 + 30 x_10 <= 1600
	w85: + 15 x_1 + 34 x_2 + 17 x_3 + 49 x_4 + 31 x_5 + 14 x_6 + 1 x_7 + 23 x_8 + 36 x_9 + 40 x_10 <= 1470
	w86: + 6 x_1 + 47 x_2 + 42 x_3 + 46 x_4 + 23 x_5 + 9 x_6 + 48 x_7 + 1 x_8 + 3 x_9 + 19 x_10 <= 1380
	w87: + 28 x_1 + 16 x_2 + 20 x_3 + 8 x_4 + 22 x_5 + 28 x_6 + 5 x_7 + 22 x_8 + 33 x_9 + 6 x_10 <= 1060
	w88: + 19 x_1 + 5 x_2 + 22 x_3 + 40 x_4 + 6 x_5 + 45 x_6 + 25 x_7 + 38 x_8 + 12 x_9 + 8 x_10 <= 1240
	w89: + 41 x_1 + 14 x_2 + 8 x_3 + 1 x_4 + 32 x_5 + 36 x_6 + 27 x_7 + 4 x_8 + 33 x_9 + 43 x_10 <= 1350
	w90: + 39 x_1 + 24 x_2 + 35 x_3 + 3 x_4 + 28 x_5 + 43 x_6 + 19 x_7 + 13 x_8 + 43 x_9 + 48 x_10 <= 1670
	w91: + 16 x_1 + 13 x_2 + 35 x_3 + 11 x_4 + 26 x_5 + 47 x_6 + 47 x_7 + 19 x_8 + 11 x_9 + 15 x_10 <= 1360
	w92: + 23 x_1 + 13 x_2 + 37 x_3 + 30 x_4 + 13 x_5 + 44 x_6 + 8 x_7 + 27 x_8 + 2 x_9 + 30 x_10 <= 1280
	w93: + 4 x_1 + 7 x_2 + 9 x_3 + 33 x_4 + 31 x_5 + 49 x_6 + 13 x_7 + 16 x_8 + 30 x_9 + 4 x_10 <= 1110
	w94: + 10 x_1 + 46 x_2 + 24 x_3 + 13 x_4 + 15 x_5 + 46 x_6 + 24 x_7 + 34 x_8 + 4 x_9 + 14 x_10 <= 1300
	w95: + 24 x_1 + 44 x_2 + 22 x_3 + 13 x_4 + 26 x_5 + 3 x_6 + 48 x_7 + 18 x_8 + 36 x_9 + 46 x_10 <= 1590
	w96: + 49 x_1 + 12 x_2 + 11 x_3 + 27 x_4 + 23 x_5 + 14 x_6 + 49 x_7 + 23 x_8 + 12 x_9 + 43 x_10 <= 1490
	w97: + 18 x_1 + 31 x_2 + 49 x_3 + 33 x_4 + 7 x_5 + 24 x_6 + 41 x_7 + 30 x_8 + 4 x_9 + 22 x_10 <= 1470
	w98: + 42 x_1 + 42 x_2 + 35 x_3 + 29 x_4 + 16 x_5 + 9 x_6 + 34 x_7 + 9 x_8 + 33 x_9 + 47 x_10 <= 1680
	w99: + 25 x_1 + 20 x_2 + 47 x_3 + 23 x_4 + 3 x_5 + 16 x_6 + 12 x_7 + 42 x_8 + 43 x_9 + 35 x_10 <= 1510
	w100: + 26 x_1 + 19 x_2 + 25 x_3 + 4 x_4 + 36 x_5 + 5 x_6 + 36 x_7 + 22 x_8 + 24 x_9 + 20 x_10 <= 1230
	w101: + 41 x_1 + 27 x_2 + 32 x_3 + 15 x_4 + 32 x_5 + 40 x_6 + 1 x_7 + 19 x_8 + 48 x_9 + 47 x_10 <= 1710
	w102: + 18 x_1 + 25 x_2 + 29 x_3 + 48 x_4 + 28 x_5 + 33 x_6 + 2 x_7 + 35 x_8 + 47 x_9 + 25 x_10 <= 1640
	w103: + 47 x_1 + 49 x_2 + 31 x_3 + 4 x_4 + 9 x_5 + 41 x_6 + 35 x_7 + 6 x_8 + 20 x_9 + 41 x_10 <= 1600
	w104: + 45 x_1 + 25 x_2 + 9 x_3 + 38 x_4 + 2 x_5 + 47 x_6 + 26 x_7 + 20 x_8 + 30 x_9 + 17 x_10 <= 1470
	w105: + 30 x_1 + 10 x_2 + 26 x_3 + 30 x_4 + 41 x_5 + 26 x_6 + 48 x_7 + 15 x_8 + 46 x_9 + 48 x_10 <= 1810
	w106: + 37 x_1 + 32 x_2 + 19 x_3 + 8 x_4 + 37 x_5 + 32 x_6 + 47 x_7 + 47 x_8 + 42 x_9 + 45 x_10 <= 1960
	w107: + 2 x_1 + 39 x_2 + 45 x_3 + 30 x_4 + 20 x_5 + 15 x_6 + 7 x_7 + 49 x_8 + 26 x_9 + 32 x_10 <= 1500
	w108: + 13 x_1 + 8 x_2 + 45 x_3 + 21 x_4 + 45 x_5 + 42 x_6 + 17 x_7 + 20 x_8 + 10 x_9 + 23 x_10 <= 1380
	w109: + 42 x_1 + 39 x_2 + 21 x_3 + 40 x_4 + 9 x_5 + 34 x_6 + 9 x_7 + 32 x_8 + 40 x_9 + 35 x_10 <= 1700
	w110: + 45 x_1 + 41 x_2 + 40 x_3 + 19 x_4 + 7 x_5 + 26 x_6 + 44 x_7 + 12 x_8 + 9 x_9 + 46 x_10 <= 1640
	w111: + 7 x_1 + 35 x_2 + 26 x_3 + 42 x_4 + 6 x_5 + 24 x_6 + 49 x_7 + 13 x_8 + 18 x_9 + 32 x_10 <= 1430
	w112: + 44 x_1 + 36 x_2 + 46 x_3 + 44 x_4 + 44 x_5 + 22 x_6 + 31 x_7 + 25 x_8 + 41 x_9 + 21 x_10 <= 2010
	w113: + 7 x_1 + 13 x_2 + 34 x_3 + 32 x_4 + 4 x_5 + 20 x_6 + 29 x_7 + 31 x_8 + 47 x_9 + 8 x_10 <= 1270
	w114: + 42 x_1 + 16 x_2 + 34 x_3 + 3 x_4 + 2 x_5 + 24 x_6 + 8 x_7 + 46 x_8 + 12 x_9 + 30 x_10 <= 1230
	w115: + 39 x_1 + 41 x_2 + 46 x_3 + 46 x_4 + 12 x_5 + 13 x_6 + 6 x_7 + 39 x_8 + 25 x_9 + 45 x_10 <= 1770
	w116: + 12 x_1 + 25 x_2 + 11 x_3 + 26 x_4 + 24 x_5 + 8 x_6 + 42 x_7 + 29 x_8 + 16 x_9 + 3 x_10 <= 1110
	w117: + 36 x_1 + 26 x_2 + 14 x_3 + 36 x_4 + 24 x_5 + 8 x_6 + 20 x_7 + 45 x_8 + 17 x_9 + 35 x_10 <= 1480
	w118: + 28 x_1 + 49 x_2 + 2 x_3 + 8 x_4 + 48 x_5 + 38 x_6 + 36 x_7 + 17 x_8 + 44 x_9 + 28 x_10 <= 1690
	w119: + 38 x_1 + 18 x_2 + 38 x_3 + 46 x_4 + 6 x_5 + 16 x_6 + 34 x_7 + 21 x_8 + 2 x_9 + 28 x_10 <= 1400
	w120: + 15 x_1 + 36 x_2 + 26 x_3 + 37 x_4 + 36 x_5 + 21 x_6 + 21 x_7 + 40 x_8 + 13 x_9 + 23 x_10 <= 1520
	w121: + 25 x_1 + 30 x_2 + 30 x_3 + 27 x_4 + 20 x_5 + 33 x_6 + 45 x_7 + 40 x_8 + 19 x_9 + 34 x_10 <= 1720
	w122: + 23 x_1 + 38 x_2 + 22 x_3 + 38 x_4 + 24 x_5 + 24 x_6 + 25 x_7 + 24 x_8 + 28 x_9 + 40 x_10 <= 1620
	w123: + 47 x_1 + 34 x_2 + 17 x_3 + 48 x_4 + 32 x_5 + 46 x_6 + 38 x_7 + 46 x_8 + 5 x_9 + 32 x_10 <= 1950
	w124: + 49 x_1 + 10 x_2 + 40 x_3 + 5 x_4 + 26 x_5 + 43 x_6 + 14 x_7 + 48 x_8 + 33 x_9 + 29 x_10 <= 1680
	w125: + 39 x_1 + 27 x_2 + 29 x_3 + 20 x_4 + 42 x_5 + 25 x_6 + 27 x_7 + 7 x_8 + 44 x_9 + 36 x_10 <= 1680
	w126: + 47 x_1 + 34 x_2 + 23 x_3 + 7 x_4 + 8 x_5 + 34 x_6 + 23 x_7 + 24 x_8 + 14 x_9 + 29 x_10 <= 1380
	w127: + 49 x_1 + 16 x_2 + 19 x_3 + 47 x_4 + 10 x_5 + 6 x_6 + 3 x_7 + 26 x_8 + 36 x_9 + 27 x_10 <= 1350
	w128: + 29 x_1 + 16 x_2 + 26 x_3 + 17 x_4 + 36 x_5 + 7 x_6 + 9 x_7 + 26 x_8 + 13 x_9 + 3 x_10 <= 1030
	w129: + 1 x_1 + 23 x_2 + 46 x_3 + 8 x_4 + 31 x_5 + 33 x_6 + 46 x_7 + 15 x_8 + 3 x_9 + 26 x_10 <= 1310
	w130: + 5 x_1 + 21 x_2 + 15 x_3 + 46 x_4 + 47 x_5 + 16 x_6 + 47 x_7 + 42 x_8 + 18 x_9 + 16 x_10 <= 1550
	w131: + 48 x_1 + 9 x_2 + 2 x_3 + 12 x_4 + 27 x_5 + 9 x_6 + 20 x_7 + 47 x_8 + 9 x_9 + 45 x_10 <= 1290
	w132: + 34 x_1 + 43 x_2 + 9 x_3 + 14 x_4 + 15 x_5 + 19 x_6 + 32 x_7 + 16 x_8 + 10 x_9 + 28 x_10 <= 1240
	w133: + 3 x_1 + 20 x_2 + 24 x_3 + 2 x_4 + 48 x_5 + 44 x_6 + 19 x_7 + 9 x_8 + 29 x_9 + 22 x_10 <= 1240
	w134: + 11 x_1 + 16 x_2 + 47 x_3 + 35 x_4 + 47 x_5 + 22 x_6 + 13 x_7 + 14 x_8 + 13 x_9 + 45 x_10 <= 1490
	w135: + 40 x_1 + 16 x_2 + 36 x_3 + 33 x_4 + 28 x_5 + 37 x_6 + 41 x_7 + 40 x_8 + 48 x_9 + 24 x_10 <= 1940
	w136: + 1 x_1 + 14 x_2 + 26 x_3 + 41 x_4 + 3 x_5 + 7 x_6 + 5 x_7 + 13 x_8 + 14 x_9 + 7 x_10 <= 740
	w137: + 24 x_1 + 12 x_2 + 24 x_3 + 48 x_4 + 44 x_5 + 29 x_6 + 8 x_7 + 40 x_8 + 5 x_9 + 41 x_10 <= 1560
	w138: + 22 x_1 + 48 x_2 + 14 x_3 + 35 x_4 + 19 x_5 + 28 x_6 + 42 x_7 + 15 x_8 + 47 x_9 + 49 x_10 <= 1810
	w139: + 29 x_1 + 18 x_2 + 35 x_3 + 32 x_4 + 15 x_5 + 44 x_6 + 24 x_7 + 17 x_8 + 25 x_9 + 6 x_10 <= 1390
	w140: + 27 x_1 + 22 x_2 + 43 x_3 + 19 x_4 + 1 x_5 + 40 x_6 + 46 x_7 + 16 x_8 + 45 x_9 + 49 x_10 <= 1740
	w141: + 1 x_1 + 28 x_2 + 44 x_3 + 12 x_4 + 13 x_5 + 29 x_6 + 8 x_7 + 33 x_8 + 43 x_9 + 41 x_10 <= 1430
	w142: + 22 x_1 + 43 x_2 + 23 x_3 + 28 x_4 + 9 x_5 + 4 x_6 + 27 x_7 + 42 x_8 + 26 x_9 + 26 x_10 <= 1420
	w143: + 5 x_1 + 24 x_2 + 5 x_3 + 2 x_4 + 30 x_5 + 24 x_6 + 15 x_7 + 43 x_8 + 26 x_9 + 3 x_10 <= 1000
	w144: + 15 x_1 + 16 x_2 + 14 x_3 + 5 x_4 + 43 x_5 + 10 x_6 + 49 x_7 + 30 x_8 + 14 x_9 + 12 x_10 <= 1180
	w145: + 1 x_1 + 13 x_2 + 15 x_3 + 25 x_4 + 26 x_5 + 14 x_6 + 23 x_7 + 48 x_8 + 27 x_9 + 35 x_10 <= 1280
	w146: + 20 x_1 + 32 x_2 + 36 x_3 + 4 x_4 + 46 x_5 + 4 x_6 + 41 x_7 + 23 x_8 + 19 x_9 + 12 x_10 <= 1340
	w147: + 38 x_1 + 16 x_2 + 1 x_3 + 37 x_4 + 1 x_5 + 19 x_6 + 14 x_7 + 3 x_8 + 15 x_9 + 48 x_10 <= 1090
	w148: + 17 x_1 + 32 x_2 + 46 x_3 + 35 x_4 + 28 x_5 + 48 x_6 + 35 x_7 + 6 x_8 + 12 x_9 + 18 x_10 <= 1570
	w149: + 35 x_1 + 37 x_2 + 42 x_3 + 35 x_4 + 25 x_5 + 31 x_6 + 40 x_7 + 10 x_8 + 21 x_9 + 30 x_10 <= 1730
	w150: + 27 x_1 + 2 x_2 + 29 x_3 + 42 x_4 + 24 x_5 + 27 x_6 + 45 x_7 + 19 x_8 + 24 x_9 + 41 x_10 <= 1590
	w151: + 25 x_1 + 35 x_2 + 24 x_3 + 29 x_4 + 7 x_5 + 1 x_6 + 48 x_7 + 7 x_8 + 37 x_9 + 45 x_10 <= 1460
	w152: + 15 x_1 + 5 x_2 + 41 x_3 + 42 x_4 + 38 x_5 + 39 x_6 + 4 x_7 + 8 x_8 + 23 x_9 + 6 x_10 <= 1250
	w153: + 44 x_1 + 5 x_2 + 24 x_3 + 36 x_4 + 29 x_5 + 10 x_6 + 22 x_7 + 28 x_8 + 34 x_9 + 20 x_10 <= 1430
	w154: + 26 x_1 + 1 x_2 + 47 x_3 + 19 x_4 + 21 x_5 + 38 x_6 + 7 x_7 + 17 x_8 + 31 x_9 + 35 x_10 <= 1370
	w155: + 26 x_1 + 12 x_2 + 31 x_3 + 48 x_4 + 38 x_5 + 1 x_6 + 14 x_7 + 16 x_8 + 20 x_9 + 10 x_10 <= 1220
	w156: + 19 x_1 + 17 x_2 + 22 x_3 + 18 x_4 + 13 x_5 + 5 x_6 + 39 x_7 + 35 x_8 + 38 x_9 + 47 x_10 <= 1430
	w157: + 12 x_1 + 31 x_2 + 18 x_3 + 27 x_4 + 36 x_5 + 30 x_6 + 7 x_7 + 36 x_8 + 24 x_9 + 16 x_10 <= 1340
	w158: + 49 x_1 + 34 x_2 + 17 x_3 + 37 x_4 + 23 x_5 + 8 x_6 + 18 x_7 + 5 x_8 + 38 x_9 + 34 x_10 <= 1490
	w159: + 38 x_1 + 2 x_2 + 45 x_3 + 4 x_4 + 22 x_5 + 26 x_6 + 26 x_7 + 5 x_8 + 45 x_9 + 7 x_10 <= 1240
	w160: + 48 x_1 + 17 x_2 + 48 x_3 + 26 x_4 + 27 x_5 + 48 x_6 + 2 x_7 + 37 x_8 + 6 x_9 + 4 x_10 <= 1490
	w161: + 19 x_1 + 21 x_2 + 1 x_3 + 36 x_4 + 31 x_5 + 22 x_6 + 23 x_7 + 11 x_8 + 8 x_9 + 12 x_10 <= 1040
	w162: + 12 x_1 + 44 x_2 + 21 x_3 + 30 x_4 + 8 x_5 + 4 x_6 + 38 x_7 + 12 x_8 + 27 x_9 + 21 x_10 <= 1230
	w163: + 26 x_1 + 44 x_2 + 27 x_3 + 15 x_4 + 37 x_5 + 21 x_6 + 2 x_7 + 9 x_8 + 38 x_9 + 9 x_10 <= 1290
	w164: + 17 x_1 + 41 x_2 + 22 x_3 + 41 x_4 + 32 x_5 + 24 x_6 + 19 x_7 + 38 x_8 + 41 x_9 + 29 x_10 <= 1720
	w165: + 48 x_1 + 34 x_2 + 44 x_3 + 17 x_4 + 45 x_5 + 41 x_6 + 6 x_7 + 29 x_8 + 24 x_9 + 34 x_10 <= 1820
	w166: + 17 x_1 + 11 x_2 + 39 x_3 + 6 x_4 + 31 x_5 + 6 x_6 + 13 x_7 + 48 x_8 + 46 x_9 + 44 x_10 <= 1480
	w167: + 29 x_1 + 28 x_2 + 4 x_3 + 17 x_4 + 10 x_5 + 31 x_6 + 27 x_7 + 38 x_8 + 25 x_9 + 3 x_10 <= 1200
	w168: + 34 x_1 + 21 x_2 + 23 x_3 + 46 x_4 + 5 x_5 + 48 x_6 + 7 x_7 + 37 x_8 + 9 x_9 + 23 x_10 <= 1430
	w169: + 8 x_1 + 22 x_2 + 2 x_3 + 41 x_4 + 35 x_5 + 22 x_6 + 49 x_7 + 45 x_8 + 6 x_9 + 1 x_10 <= 1310
	w170: + 20 x_1 + 43 x_2 + 31 x_3 + 33 x_4 + 9 x_5 + 5 x_6 + 48 x_7 + 43 x_8 + 12 x_9 + 19 x_10 <= 1490
	w171: + 38 x_1 + 30 x_2 + 27 x_3 + 7 x_4 + 38 x_5 + 3 x_6 + 34 x_7 + 32 x_8 + 5 x_9 + 9 x_10 <= 1260
	w172: + 14 x_1 + 45 x_2 + 5 x_3 + 39 x_4 + 24 x_5 + 27 x_6 + 23 x_7 + 39 x_8 + 27 x_9 + 37 x_10 <= 1590
	w173: + 10 x_1 + 21 x_2 + 11 x_3 + 33 x_4 + 31 x_5 + 45 x_6 + 42 x_7 + 8 x_8 + 35 x_9 + 10 x_10 <= 1390
	w174: + 23 x_1 + 18 x_2 + 27 x_3 + 20 x_4 + 18 x_5 + 9 x_6 + 10 x_7 + 6 x_8 + 20 x_9 + 2 x_10 <= 860
	w175: + 27 x_1 + 27 x_2 + 30 x_3 + 29 x_4 + 42 x_5 + 17 x_6 + 6 x_7 + 8 x_8 + 30 x_9 + 25 x_10 <= 1360
	w176: + 42 x_1 + 44 x_2 + 22 x_3 + 29 x_4 + 1 x_5 + 25 x_6 + 44 x_7 + 6 x_8 + 38 x_9 + 3 x_10 <= 1440
	w177: + 16 x_1 + 5 x_2 + 45 x_3 + 32 x_4 + 14 x_5 + 47 x_6 + 32 x_7 + 41 x_8 + 18 x_9 + 25 x_10 <= 1560
	w178: + 10 x_1 + 44 x_2 + 37 x_3 + 24 x_4 + 41 x_5 + 8 x_6 + 9 x_7 + 36 x_8 + 21 x_9 + 34 x_10 <= 1490
	w179: + 3 x_1 + 41 x_2 + 1 x_3 + 15 x_4 + 49 x_5 + 49 x_6 + 18 x_7 + 10 x_8 + 12 x_9 + 14 x_10 <= 1200
	w180: + 18 x_1 + 12 x_2 + 34 x_3 + 31 x_4 + 16 x_5 + 15 x_6 + 40 x_7 + 43 x_8 + 49 x_9 + 38 x_10 <= 1680
	w181: + 26 x_1 + 30 x_2 + 23 x_3 + 42 x_4 + 3 x_5 + 4 x_6 + 18 x_7 + 40 x_8 + 1 x_9 + 34 x_10 <= 1250
	w182: + 19 x_1 + 24 x_2 + 10 x_3 + 17 x_4 + 27 x_5 + 46 x_6 + 21 x_7 + 9 x_8 + 10 x_9 + 34 x_10 <= 1230
	w183: + 34 x_1 + 48 x_2 + 40 x_3 + 29 x_4 + 28 x_5 + 10 x_6 + 31 x_7 + 3 x_8 + 28 x_9 + 21 x_10 <= 1540
	w184: + 21 x_1 + 21 x_2 + 5 x_3 + 32 x_4 + 9 x_5 + 16 x_6 + 18 x_7 + 38 x_8 + 40 x_9 + 43 x_10 <= 1380
	w185: + 19 x_1 + 39 x_2 + 41 x_3 + 38 x_4 + 7 x_5 + 4 x_6 + 19 x_7 + 26 x_8 + 28 x_9 + 32 x_10 <= 1430
	w186: + 34 x_1 + 4 x_2 + 45 x_3 + 38 x_4 + 18 x_5 + 17 x_6 + 26 x_7 + 18 x_8 + 22 x_9 + 38 x_10 <= 1470
	w187: + 22 x_1 + 31 x_2 + 43 x_3 + 34 x_4 + 37 x_5 + 36 x_6 + 37 x_7 + 10 x_8 + 8 x_9 + 36 x_10 <= 1660
	w188: + 44 x_1 + 30 x_2 + 44 x_3 + 41 x_4 + 49 x_5 + 41 x_6 + 41 x_7 + 34 x_8 + 16 x_9 + 5 x_10 <= 1950
	w189: + 18 x_1 + 3 x_2 + 33 x_3 + 36 x_4 + 42 x_5 + 25 x_6 + 33 x_7 + 10 x_8 + 49 x_9 + 41 x_10 <= 1640
	w190: + 45 x_1 + 19 x_2 + 30 x_3 + 33 x_4 + 27 x_5 + 31 x_6 + 46 x_7 + 24 x_8 + 46 x_9 + 40 x_10 <= 1930
	w191: + 28 x_1 + 44 x_2 + 36 x_3 + 25 x_4 + 7 x_5 + 24 x_6 + 12 x_7 + 37 x_8 + 27 x_9 + 23 x_10 <= 1490
	w192: + 1 x_1 + 35 x_2 + 43 x_3 + 5 x_4 + 26 x_5 + 41 x_6 + 4 x_7 + 37 x_8 + 10 x_9 + 24 x_10 <= 1280
	w193: + 42 x_1 + 27 x_2 + 30 x_3 + 9 x_4 + 6 x_5 + 42 x_6 + 9 x_7 + 26 x_8 + 3 x_9 + 1 x_10 <= 1100
	w194: + 18 x_1 + 17 x_2 + 29 x_3 + 31 x_4 + 24 x_5 + 15 x_6 + 27 x_7 + 48 x_8 + 19 x_9 + 22 x_10 <= 1420
	w195: + 33 x_1 + 31 x_2 + 37 x_3 + 29 x_4 + 11 x_5 + 23 x_6 + 16 x_7 + 1 x_8 + 4 x_9 + 22 x_10 <= 1170
	w196: + 4 x_1 + 27 x_2 + 15 x_3 + 35 x_4 + 1 x_5 + 14 x_6 + 46 x_7 + 31 x_8 + 30 x_9 + 23 x_10 <= 1280
	w197: + 39 x_1 + 35 x_2 + 23 x_3 + 37 x_4 + 43 x_5 + 11 x_6 + 29 x_7 + 24 x_8 + 23 x_9 + 16 x_10 <= 1590
	w198: + 31 x_1 + 37 x_2 + 28 x_3 + 13 x_4 + 14 x_5 + 5 x_6 + 3 x_7 + 5 x_8 + 11 x_9 + 37 x_10 <= 1040
	w199: + 47 x_1 + 26 x_2 + 33 x_3 + 31 x_4 + 23 x_5 + 30 x_6 + 42 x_7 + 17 x_8 + 18 x_9 + 11 x_10 <= 1570
	w200: + 38 x_1 + 22 x_2 + 22 x_3 + 45 x_4 + 32 x_5 + 27 x_6 + 22 x_7 + 31 x_8 + 5 x_9 + 40 x_10 <= 1610
	profits: + 27 x_1 + 33 x_2 + 29 x_3 + 29 x_4 + 31 x_5 + 48 x_6 + 33 x_7 + 16 x_8 + 19 x_9 + 18 x_10 >= 1220
Bounds
  0 <= x_1 <= 10
  0 <= x_2 <= 10
  0 <= x_3 <= 10
  0 <= x_4 <= 10
  0 <= x_5 <= 10
  0 <= x_6 <= 10
  0 <= x_7 <= 10
  0 <= x_8 <= 10
  0 <= x_9 <= 10
  0 <= x_10 <= 10
End
