Subject To
	c_1: + 5 x_1 + 18 x_2 + 10 x_3 + 22 x_4 + 13 x_5 + 21 x_6 + 18 x_7 + 33 x_8 + 25 x_9 + 49 x_10 + 27 x_11 + 28 x_12 + 47 x_13 + 46 x_14 + 8 x_15 + 31 x_16 + 38 x_17 + 35 x_18 + 46 x_19 + 17 x_20 + 29 x_21 + 45 x_22 + 10 x_23 + 13 x_24 + 42 x_25 + 39 x_26 + 38 x_27 + 30 x_28 + 1 x_29 + 22 x_30 + 46 x_31 + 41 x_32 + 25 x_33 + 36 x_34 + 42 x_35 + 8 x_36 + 42 x_37 + 29 x_38 + 10 x_39 + 37 x_40 = 876
	c_2: + 7 x_1 + 45 x_2 + 47 x_3 + 49 x_4 + 27 x_5 + 46 x_6 + 22 x_7 + 30 x_8 + 34 x_9 + 47 x_10 + 44 x_11 + 44 x_12 + 25 x_13 + 13 x_14 + 44 x_15 + 34 x_16 + 23 x_17 + 39 x_18 + 17 x_19 + 38 x_20 + 40 x_21 + 50 x_22 + 10 x_23 + 16 x_24 + 34 x_25 + 43 x_26 + 44 x_27 + 11 x_28 + 9 x_29 + 49 x_30 + 26 x_31 + 50 x_32 + 17 x_33 + 22 x_34 + 21 x_35 + 50 x_36 + 28 x_37 + 25 x_38 + 37 x_39 + 31 x_40 = 741
	c_3: + 48 x_1 + 12 x_2 + 5 x_3 + 30 x_4 + 8 x_5 + 36 x_6 + 13 x_7 + 44 x_8 + 46 x_9 + 36 x_10 + 49 x_11 + 19 x_12 + 34 x_13 + 43 x_14 + 5 x_15 + 46 x_16 + 17 x_17 + 32 x_18 + 34 x_19 + 4 x_20 + 28 x_21 + 7 x_22 + 48 x_23 + 17 x_24 + 30 x_25 + 10 x_26 + 4 x_27 + 27 x_28 + 25 x_29 + 49 x_30 + 37 x_31 + 24 x_32 + 35 x_33 + 32 x_34 + 44 x_35 + 22 x_36 + 17 x_37 + 24 x_38 + 33 x_39 + 11 x_40 = 649
	c_4: + 6 x_1 + 23 x_2 + 12 x_3 + 37 x_4 + 37 x_5 + 14 x_6 + 24 x_7 + 43 x_8 + 5 x_9 + 30 x_10 + 27 x_11 + 9 x_12 + 16 x_13 + 29 x_14 + 28 x_15 + 39 x_16 + 46 x_17 + 38 x_18 + 43 x_19 + 13 x_20 + 13 x_21 + 45 x_22 + 45 x_23 + 44 x_24 + 49 x_25 + 6 x_26 + 48 x_27 + 15 x_28 + 11 x_29 + 19 x_30 + 32 x_31 + 30 x_32 + 17 x_33 + 49 x_34 + 49 x_35 + 19 x_36 + 39 x_37 + 11 x_38 + 32 x_39 + 3 x_40 = 709
	c_5: + 27 x_1 + 7 x_2 + 44 x_3 + 19 x_4 + 36 x_5 + 37 x_6 + 13 x_7 + 9 x_8 + 48 x_9 + 36 x_10 + 5 x_11 + 4 x_12 + 4 x_13 + 15 x_14 + 36 x_15 + 24 x_16 + 45 x_17 + 12 x_18 + 24 x_19 + 16 x_20 + 37 x_21 + 30 x_22 + 6 x_23 + 34 x_24 + 37 x_25 + 23 x_26 + 44 x_27 + 9 x_28 + 1 x_29 + 31 x_30 + 19 x_31 + 47 x_32 + 29 x_33 + 8 x_34 + 14 x_35 + 15 x_36 + 15 x_37 + 37 x_38 + 33 x_39 + 3 x_40 = 501
	c_6: + 15 x_1 + 24 x_2 + 46 x_3 + 31 x_4 + 44 x_5 + 41 x_6 + 20 x_7 + 25 x_8 + 10 x_9 + 13 x_10 + 15 x_11 + 24 x_12 + 48 x_13 + 36 x_14 + 3 x_15 + 15 x_16 + 35 x_17 + 35 x_18 + 33 x_19 + 42 x_20 + 39 x_21 + 38 x_22 + 36 x_23 + 11 x_24 + 10 x_25 + 1 x_26 + 28 x_27 + 48 x_28 + 36 x_29 + 20 x_30 + 3 x_31 + 49 x_32 + 42 x_33 + 35 x_34 + 5 x_35 + 43 x_36 + 7 x_37 + 36 x_38 + 46 x_39 + 24 x_40 = 602
	c_7: + 43 x_1 + 28 x_2 + 40 x_3 + 49 x_4 + 37 x_5 + 26 x_6 + 48 x_7 + 28 x_8 + 7 x_9 + 47 x_10 + 38 x_11 + 34 x_12 + 2 x_13 + 35 x_14 + 44 x_15 + 32 x_16 + 30 x_17 + 29 x_18 + 29 x_19 + 26 x_20 + 36 x_21 + 49 x_22 + 39 x_23 + 23 x_24 + 3 x_25 + 46 x_26 + 2 x_27 + 8 x_28 + 25 x_29 + 46 x_30 + 4 x_31 + 20 x_32 + 2 x_33 + 39 x_34 + 20 x_35 + 44 x_36 + 41 x_37 + 29 x_38 + 9 x_39 + 20 x_40 = 621
	c_8: + 42 x_1 + 11 x_2 + 15 x_3 + 13 x_4 + 13 x_5 + 12 x_6 + 39 x_7 + 21 x_8 + 1 x_9 + 7 x_10 + 39 x_11 + 49 x_12 + 38 x_13 + 42 x_14 + 13 x_15 + 19 x_16 + 13 x_17 + 11 x_18 + 4 x_19 + 19 x_20 + 14 x_21 + 34 x_22 + 28 x_23 + 18 x_24 + 10 x_25 + 25 x_26 + 38 x_27 + 39 x_28 + 21 x_29 + 47 x_30 + 12 x_31 + 2 x_32 + 20 x_33 + 50 x_34 + 39 x_35 + 7 x_36 + 3 x_37 + 9 x_38 + 28 x_39 + 40 x_40 = 558
	c_9: + 4 x_1 + 42 x_2 + 35 x_3 + 46 x_4 + 1 x_5 + 6 x_6 + 48 x_7 + 37 x_8 + 22 x_9 + 31 x_10 + 19 x_11 + 48 x_12 + 24 x_13 + 4 x_14 + 44 x_15 + 9 x_16 + 50 x_17 + 11 x_18 + 18 x_19 + 7 x_20 + 48 x_21 + 14 x_22 + 50 x_23 + 21 x_24 + 11 x_25 + 25 x_26 + 49 x_27 + 39 x_28 + 45 x_29 + 41 x_30 + 24 x_31 + 4 x_32 + 3 x_33 + 1 x_34 + 23 x_35 + 42 x_36 + 30 x_37 + 45 x_38 + 3 x_39 + 43 x_40 = 607
	c_10: + 15 x_1 + 43 x_2 + 2 x_3 + 33 x_4 + 48 x_5 + 3 x_6 + 47 x_7 + 19 x_8 + 6 x_9 + 5 x_10 + 8 x_11 + 32 x_12 + 2 x_13 + 15 x_14 + 35 x_15 + 26 x_16 + 39 x_17 + 18 x_18 + 20 x_19 + 7 x_20 + 49 x_21 + 10 x_22 + 16 x_23 + 15 x_24 + 1 x_25 + 25 x_26 + 35 x_27 + 38 x_28 + 46 x_29 + 32 x_30 + 17 x_31 + 6 x_32 + 31 x_33 + 16 x_34 + 7 x_35 + 37 x_36 + 25 x_37 + 33 x_38 + 2 x_39 + 28 x_40 = 474
	c_11: + 10 x_1 + 1 x_2 + 39 x_3 + 28 x_4 + 41 x_5 + 45 x_6 + 10 x_7 + 7 x_8 + 32 x_9 + 38 x_10 + 42 x_11 + 1 x_12 + 26 x_13 + 40 x_14 + 11 x_15 + 12 x_16 + 33 x_17 + 43 x_18 + 30 x_19 + 9 x_20 + 10 x_21 + 49 x_22 + 13 x_23 + 16 x_24 + 38 x_25 + 8 x_26 + 13 x_27 + 23 x_28 + 26 x_29 + 47 x_30 + 8 x_31 + 5 x_32 + 46 x_33 + 28 x_34 + 8 x_35 + 50 x_36 + 43 x_37 + 22 x_38 + 13 x_39 + 12 x_40 = 539
	c_12: + 37 x_1 + 25 x_2 + 13 x_3 + 17 x_4 + 40 x_5 + 18 x_6 + 6 x_7 + 5 x_8 + 31 x_9 + 15 x_10 + 10 x_11 + 14 x_12 + 18 x_13 + 10 x_14 + 41 x_15 + 4 x_16 + 38 x_17 + 26 x_18 + 1 x_19 + 20 x_20 + 16 x_21 + 50 x_22 + 6 x_23 + 1 x_24 + 12 x_25 + 13 x_26 + 14 x_27 + 3 x_28 + 49 x_29 + 43 x_30 + 48 x_31 + 23 x_32 + 3 x_33 + 7 x_34 + 23 x_35 + 22 x_36 + 38 x_37 + 47 x_38 + 27 x_39 + 4 x_40 = 439
	c_13: + 13 x_1 + 10 x_2 + 33 x_3 + 8 x_4 + 50 x_5 + 14 x_6 + 9 x_7 + 3 x_8 + 39 x_9 + 34 x_10 + 34 x_11 + 50 x_12 + 12 x_13 + 5 x_14 + 11 x_15 + 3 x_16 + 26 x_17 + 19 x_18 + 12 x_19 + 21 x_20 + 10 x_21 + 25 x_22 + 31 x_23 + 24 x_24 + 19 x_25 + 36 x_26 + 12 x_27 + 39 x_28 + 47 x_29 + 10 x_30 + 47 x_31 + 31 x_32 + 21 x_33 + 38 x_34 + 29 x_35 + 19 x_36 + 19 x_37 + 6 x_38 + 2 x_39 + 15 x_40 = 524
	c_14: + 5 x_1 + 24 x_2 + 31 x_3 + 9 x_4 + 49 x_5 + 21 x_6 + 34 x_7 + 2 x_8 + 30 x_9 + 12 x_10 + 13 x_11 + 38 x_12 + 50 x_13 + 35 x_14 + 8 x_15 + 45 x_16 + 5 x_17 + 44 x_18 + 48 x_19 + 22 x_20 + 11 x_21 + 43 x_22 + 44 x_23 + 45 x_24 + 41 x_25 + 43 x_26 + 8 x_27 + 18 x_28 + 11 x_29 + 40 x_30 + 12 x_31 + 13 x_32 + 27 x_33 + 37 x_34 + 1 x_35 + 36 x_36 + 18 x_37 + 32 x_38 + 1 x_39 + 6 x_40 = 575
	c_15: + 43 x_1 + 16 x_2 + 9 x_3 + 12 x_4 + 39 x_5 + 9 x_6 + 19 x_7 + 12 x_8 + 43 x_9 + 23 x_10 + 32 x_11 + 45 x_12 + 38 x_13 + 34 x_14 + 36 x_15 + 38 x_16 + 49 x_17 + 42 x_18 + 23 x_19 + 3 x_20 + 35 x_21 + 36 x_22 + 5 x_23 + 41 x_24 + 48 x_25 + 37 x_26 + 9 x_27 + 44 x_28 + 46 x_29 + 15 x_30 + 38 x_31 + 32 x_32 + 46 x_33 + 2 x_34 + 49 x_35 + 47 x_36 + 48 x_37 + 27 x_38 + 4 x_39 + 31 x_40 = 772
Bounds
  0 <= x_1 <= 1
  0 <= x_2 <= 1
  0 <= x_3 <= 1
  0 <= x_4 <= 1
  0 <= x_5 <= 1
  0 <= x_6 <= 1
  0 <= x_7 <= 1
  0 <= x_8 <= 1
  0 <= x_9 <= 1
  0 <= x_10 <= 1
  0 <= x_11 <= 1
  0 <= x_12 <= 1
  0 <= x_13 <= 1
  0 <= x_14 <= 1
  0 <= x_15 <= 1
  0 <= x_16 <= 1
  0 <= x_17 <= 1
  0 <= x_18 <= 1
  0 <= x_19 <= 1
  0 <= x_20 <= 1
  0 <= x_21 <= 1
  0 <= x_22 <= 1
  0 <= x_23 <= 1
  0 <= x_24 <= 1
  0 <= x_25 <= 1
  0 <= x_26 <= 1
  0 <= x_27 <= 1
  0 <= x_28 <= 1
  0 <= x_29 <= 1
  0 <= x_30 <= 1
  0 <= x_31 <= 1
  0 <= x_32 <= 1
  0 <= x_33 <= 1
  0 <= x_34 <= 1
  0 <= x_35 <= 1
  0 <= x_36 <= 1
  0 <= x_37 <= 1
  0 <= x_38 <= 1
  0 <= x_39 <= 1
  0 <= x_40 <= 1
End
