Subject To
	c_1: + 17 x_1 + 35 x_2 + 41 x_3 + 44 x_4 + 13 x_5 + 26 x_6 + 27 x_7 + 45 x_8 + 41 x_9 + 7 x_10 + 42 x_11 + 2 x_12 + 49 x_13 + 33 x_14 + 15 x_15 + 20 x_16 + 35 x_17 + 21 x_18 + 46 x_19 + 7 x_20 + 16 x_21 + 43 x_22 + 44 x_23 + 14 x_24 + 25 x_25 + 43 x_26 + 50 x_27 + 4 x_28 + 50 x_29 + 13 x_30 + 45 x_31 + 48 x_32 + 44 x_33 + 19 x_34 + 21 x_35 + 35 x_36 + 36 x_37 + 43 x_38 + 29 x_39 + 45 x_40 = 1019
	c_2: + 3 x_1 + 17 x_2 + 23 x_3 + 11 x_4 + 16 x_5 + 17 x_6 + 10 x_7 + 18 x_8 + 31 x_9 + 29 x_10 + 17 x_11 + 10 x_12 + 7 x_13 + 1 x_14 + 5 x_15 + 10 x_16 + 10 x_17 + 49 x_18 + 10 x_19 + 31 x_20 + 46 x_21 + 37 x_22 + 19 x_23 + 32 x_24 + 9 x_25 + 15 x_26 + 6 x_27 + 1 x_28 + 41 x_29 + 7 x_30 + 34 x_31 + 20 x_32 + 46 x_33 + 44 x_34 + 18 x_35 + 29 x_36 + 43 x_37 + 28 x_38 + 5 x_39 + 18 x_40 = 513
	c_3: + 9 x_1 + 8 x_2 + 31 x_3 + 34 x_4 + 46 x_5 + 50 x_6 + 3 x_7 + 28 x_8 + 32 x_9 + 1 x_10 + 44 x_11 + 22 x_12 + 31 x_13 + 39 x_14 + 25 x_15 + 5 x_16 + 6 x_17 + 7 x_18 + 23 x_19 + 28 x_20 + 49 x_21 + 44 x_22 + 47 x_23 + 32 x_24 + 14 x_25 + 10 x_26 + 15 x_27 + 8 x_28 + 20 x_29 + 32 x_30 + 6 x_31 + 42 x_32 + 25 x_33 + 31 x_34 + 49 x_35 + 2 x_36 + 28 x_37 + 42 x_38 + 19 x_39 + 21 x_40 = 650
	c_4: + 21 x_1 + 1 x_2 + 4 x_3 + 19 x_4 + 45 x_5 + 49 x_6 + 1 x_7 + 30 x_8 + 44 x_9 + 3 x_10 + 42 x_11 + 46 x_12 + 26 x_13 + 29 x_14 + 11 x_15 + 22 x_16 + 17 x_17 + 18 x_18 + 3 x_19 + 49 x_20 + 18 x_21 + 49 x_22 + 10 x_23 + 22 x_24 + 9 x_25 + 11 x_26 + 41 x_27 + 4 x_28 + 9 x_29 + 47 x_30 + 1 x_31 + 50 x_32 + 29 x_33 + 4 x_34 + 46 x_35 + 39 x_36 + 28 x_37 + 46 x_38 + 8 x_39 + 15 x_40 = 601
	c_5: + 12 x_1 + 37 x_2 + 30 x_3 + 31 x_4 + 13 x_5 + 41 x_6 + 15 x_7 + 10 x_8 + 25 x_9 + 27 x_10 + 45 x_11 + 29 x_12 + 39 x_13 + 2 x_14 + 6 x_15 + 41 x_16 + 26 x_17 + 4 x_18 + 37 x_19 + 44 x_20 + 11 x_21 + 8 x_22 + 16 x_23 + 32 x_24 + 4 x_25 + 41 x_26 + 42 x_27 + 38 x_28 + 8 x_29 + 37 x_30 + 37 x_31 + 29 x_32 + 11 x_33 + 31 x_34 + 11 x_35 + 9 x_36 + 29 x_37 + 7 x_38 + 22 x_39 + 7 x_40 = 604
	c_6: + 26 x_1 + 14 x_2 + 20 x_3 + 38 x_4 + 48 x_5 + 4 x_6 + 1 x_7 + 29 x_8 + 16 x_9 + 28 x_10 + 43 x_11 + 34 x_12 + 27 x_13 + 49 x_14 + 16 x_15 + 35 x_16 + 44 x_17 + 48 x_18 + 18 x_19 + 14 x_20 + 36 x_21 + 3 x_22 + 28 x_23 + 43 x_24 + 20 x_25 + 25 x_26 + 30 x_27 + 13 x_28 + 40 x_29 + 35 x_30 + 36 x_31 + 28 x_32 + 27 x_33 + 22 x_34 + 18 x_35 + 31 x_36 + 1 x_37 + 44 x_38 + 10 x_39 + 6 x_40 = 612
	c_7: + 15 x_1 + 28 x_2 + 37 x_3 + 13 x_4 + 45 x_5 + 3 x_6 + 30 x_7 + 8 x_8 + 48 x_9 + 29 x_10 + 11 x_11 + 17 x_12 + 34 x_13 + 17 x_14 + 42 x_15 + 36 x_16 + 32 x_17 + 23 x_18 + 31 x_19 + 47 x_20 + 35 x_21 + 12 x_22 + 24 x_23 + 15 x_24 + 50 x_25 + 41 x_26 + 10 x_27 + 39 x_28 + 50 x_29 + 15 x_30 + 28 x_31 + 1 x_32 + 7 x_33 + 50 x_34 + 7 x_35 + 31 x_36 + 20 x_37 + 18 x_38 + 13 x_39 + 44 x_40 = 591
	c_8: + 21 x_1 + 48 x_2 + 7 x_3 + 16 x_4 + 21 x_5 + 26 x_6 + 4 x_7 + 39 x_8 + 16 x_9 + 22 x_10 + 1 x_11 + 11 x_12 + 50 x_13 + 17 x_14 + 4 x_15 + 44 x_16 + 7 x_17 + 29 x_18 + 39 x_19 + 21 x_20 + 1 x_21 + 6 x_22 + 21 x_23 + 6 x_24 + 17 x_25 + 33 x_26 + 4 x_27 + 8 x_28 + 38 x_29 + 27 x_30 + 9 x_31 + 19 x_32 + 38 x_33 + 31 x_34 + 27 x_35 + 29 x_36 + 24 x_37 + 21 x_38 + 10 x_39 + 4 x_40 = 526
	c_9: + 29 x_1 + 17 x_2 + 32 x_3 + 13 x_4 + 8 x_5 + 8 x_6 + 45 x_7 + 39 x_8 + 15 x_9 + 8 x_10 + 29 x_11 + 19 x_12 + 39 x_13 + 15 x_14 + 33 x_15 + 49 x_16 + 16 x_17 + 30 x_18 + 32 x_19 + 39 x_20 + 42 x_21 + 22 x_22 + 19 x_23 + 19 x_24 + 38 x_25 + 16 x_26 + 9 x_27 + 18 x_28 + 21 x_29 + 26 x_30 + 26 x_31 + 18 x_32 + 15 x_33 + 10 x_34 + 43 x_35 + 20 x_36 + 42 x_37 + 47 x_38 + 1 x_39 + 31 x_40 = 587
	c_10: + 49 x_1 + 20 x_2 + 44 x_3 + 15 x_4 + 35 x_5 + 43 x_6 + 17 x_7 + 9 x_8 + 33 x_9 + 18 x_10 + 2 x_11 + 25 x_12 + 16 x_13 + 22 x_14 + 3 x_15 + 27 x_16 + 22 x_17 + 37 x_18 + 45 x_19 + 26 x_20 + 45 x_21 + 20 x_22 + 39 x_23 + 18 x_24 + 26 x_25 + 22 x_26 + 22 x_27 + 48 x_28 + 19 x_29 + 39 x_30 + 33 x_31 + 44 x_32 + 11 x_33 + 37 x_34 + 7 x_35 + 4 x_36 + 18 x_37 + 35 x_38 + 44 x_39 + 21 x_40 = 620
	c_11: + 11 x_1 + 50 x_2 + 36 x_3 + 35 x_4 + 13 x_5 + 7 x_6 + 47 x_7 + 39 x_8 + 28 x_9 + 29 x_10 + 35 x_11 + 13 x_12 + 24 x_13 + 22 x_14 + 34 x_15 + 17 x_16 + 48 x_17 + 46 x_18 + 15 x_19 + 43 x_20 + 26 x_21 + 2 x_22 + 29 x_23 + 5 x_24 + 13 x_25 + 14 x_26 + 31 x_27 + 25 x_28 + 48 x_29 + 14 x_30 + 31 x_31 + 32 x_32 + 32 x_33 + 20 x_34 + 34 x_35 + 19 x_36 + 41 x_37 + 39 x_38 + 26 x_39 + 43 x_40 = 773
	c_12: + 45 x_1 + 30 x_2 + 44 x_3 + 29 x_4 + 18 x_5 + 31 x_6 + 42 x_7 + 43 x_8 + 6 x_9 + 44 x_10 + 43 x_11 + 37 x_12 + 6 x_13 + 8 x_14 + 36 x_15 + 40 x_16 + 38 x_17 + 24 x_18 + 15 x_19 + 23 x_20 + 41 x_21 + 40 x_22 + 6 x_23 + 24 x_24 + 37 x_25 + 9 x_26 + 27 x_27 + 43 x_28 + 20 x_29 + 23 x_30 + 22 x_31 + 36 x_32 + 39 x_33 + 11 x_34 + 46 x_35 + 43 x_36 + 10 x_37 + 50 x_38 + 16 x_39 + 26 x_40 = 679
	c_13: + 2 x_1 + 15 x_2 + 14 x_3 + 38 x_4 + 8 x_5 + 44 x_6 + 44 x_7 + 31 x_8 + 15 x_9 + 36 x_10 + 21 x_11 + 38 x_12 + 27 x_13 + 12 x_14 + 7 x_15 + 26 x_16 + 17 x_17 + 16 x_18 + 28 x_19 + 43 x_20 + 18 x_21 + 16 x_22 + 15 x_23 + 46 x_24 + 44 x_25 + 37 x_26 + 36 x_27 + 23 x_28 + 46 x_29 + 19 x_30 + 40 x_31 + 20 x_32 + 3 x_33 + 41 x_34 + 30 x_35 + 50 x_36 + 43 x_37 + 10 x_38 + 45 x_39 + 50 x_40 = 717
	c_14: + 36 x_1 + 39 x_2 + 12 x_3 + 8 x_4 + 6 x_5 + 42 x_6 + 39 x_7 + 21 x_8 + 4 x_9 + 30 x_10 + 32 x_11 + 40 x_12 + 3 x_13 + 47 x_14 + 47 x_15 + 47 x_16 + 34 x_17 + 34 x_18 + 22 x_19 + 22 x_20 + 22 x_21 + 6 x_22 + 34 x_23 + 3 x_24 + 39 x_25 + 31 x_26 + 12 x_27 + 44 x_28 + 37 x_29 + 24 x_30 + 34 x_31 + 39 x_32 + 25 x_33 + 45 x_34 + 26 x_35 + 20 x_36 + 21 x_37 + 9 x_38 + 18 x_39 + 33 x_40 = 622
	c_15: + 43 x_1 + 25 x_2 + 39 x_3 + 10 x_4 + 9 x_5 + 11 x_6 + 20 x_7 + 9 x_8 + 1 x_9 + 24 x_10 + 26 x_11 + 13 x_12 + 6 x_13 + 13 x_14 + 19 x_15 + 21 x_16 + 12 x_17 + 42 x_18 + 17 x_19 + 31 x_20 + 39 x_21 + 26 x_22 + 41 x_23 + 37 x_24 + 24 x_25 + 44 x_26 + 21 x_27 + 2 x_28 + 46 x_29 + 27 x_30 + 47 x_31 + 4 x_32 + 43 x_33 + 15 x_34 + 33 x_35 + 3 x_36 + 41 x_37 + 4 x_38 + 39 x_39 + 3 x_40 = 551
Bounds
  0 <= x_1 <= 1
  0 <= x_2 <= 1
  0 <= x_3 <= 1
  0 <= x_4 <= 1
  0 <= x_5 <= 1
  0 <= x_6 <= 1
  0 <= x_7 <= 1
  0 <= x_8 <= 1
  0 <= x_9 <= 1
  0 <= x_10 <= 1
  0 <= x_11 <= 1
  0 <= x_12 <= 1
  0 <= x_13 <= 1
  0 <= x_14 <= 1
  0 <= x_15 <= 1
  0 <= x_16 <= 1
  0 <= x_17 <= 1
  0 <= x_18 <= 1
  0 <= x_19 <= 1
  0 <= x_20 <= 1
  0 <= x_21 <= 1
  0 <= x_22 <= 1
  0 <= x_23 <= 1
  0 <= x_24 <= 1
  0 <= x_25 <= 1
  0 <= x_26 <= 1
  0 <= x_27 <= 1
  0 <= x_28 <= 1
  0 <= x_29 <= 1
  0 <= x_30 <= 1
  0 <= x_31 <= 1
  0 <= x_32 <= 1
  0 <= x_33 <= 1
  0 <= x_34 <= 1
  0 <= x_35 <= 1
  0 <= x_36 <= 1
  0 <= x_37 <= 1
  0 <= x_38 <= 1
  0 <= x_39 <= 1
  0 <= x_40 <= 1
End
