Subject To
	c_1: + 18 x_1 + 39 x_2 + 50 x_3 + 23 x_4 + 31 x_5 + 10 x_6 + 33 x_7 + 14 x_8 + 22 x_9 + 44 x_10 + 4 x_11 + 24 x_12 + 4 x_13 + 16 x_14 + 7 x_15 + 1 x_16 + 10 x_17 + 18 x_18 + 6 x_19 + 49 x_20 + 37 x_21 + 48 x_22 + 28 x_23 + 38 x_24 + 35 x_25 + 23 x_26 + 36 x_27 + 38 x_28 + 22 x_29 + 25 x_30 + 23 x_31 + 45 x_32 + 12 x_33 + 23 x_34 + 24 x_35 + 20 x_36 + 38 x_37 + 43 x_38 + 35 x_39 + 17 x_40 = 667
	c_2: + 37 x_1 + 46 x_2 + 7 x_3 + 9 x_4 + 10 x_5 + 4 x_6 + 15 x_7 + 49 x_8 + 20 x_9 + 9 x_10 + 22 x_11 + 7 x_12 + 50 x_13 + 50 x_14 + 2 x_15 + 11 x_16 + 41 x_17 + 22 x_18 + 29 x_19 + 8 x_20 + 50 x_21 + 26 x_22 + 12 x_23 + 27 x_24 + 9 x_25 + 1 x_26 + 40 x_27 + 50 x_28 + 21 x_29 + 47 x_30 + 15 x_31 + 5 x_32 + 42 x_33 + 47 x_34 + 43 x_35 + 20 x_36 + 21 x_37 + 20 x_38 + 9 x_39 + 11 x_40 = 364
	c_3: + 49 x_1 + 38 x_2 + 38 x_3 + 32 x_4 + 18 x_5 + 5 x_6 + 4 x_7 + 49 x_8 + 46 x_9 + 44 x_10 + 20 x_11 + 27 x_12 + 50 x_13 + 36 x_14 + 15 x_15 + 15 x_16 + 4 x_17 + 27 x_18 + 25 x_19 + 28 x_20 + 26 x_21 + 48 x_22 + 38 x_23 + 7 x_24 + 40 x_25 + 11 x_26 + 25 x_27 + 4 x_28 + 3 x_29 + 32 x_30 + 6 x_31 + 9 x_32 + 46 x_33 + 38 x_34 + 34 x_35 + 25 x_36 + 44 x_37 + 25 x_38 + 26 x_39 + 25 x_40 = 462
	c_4: + 33 x_1 + 21 x_2 + 10 x_3 + 3 x_4 + 34 x_5 + 3 x_6 + 49 x_7 + 33 x_8 + 43 x_9 + 19 x_10 + 31 x_11 + 29 x_12 + 40 x_13 + 32 x_14 + 21 x_15 + 46 x_16 + 15 x_17 + 42 x_18 + 6 x_19 + 49 x_20 + 47 x_21 + 8 x_22 + 19 x_23 + 34 x_24 + 46 x_25 + 25 x_26 + 10 x_27 + 19 x_28 + 50 x_29 + 43 x_30 + 13 x_31 + 46 x_32 + 9 x_33 + 33 x_34 + 49 x_35 + 11 x_36 + 20 x_37 + 32 x_38 + 25 x_39 + 3 x_40 = 488
	c_5: + 41 x_1 + 18 x_2 + 15 x_3 + 6 x_4 + 29 x_5 + 11 x_6 + 19 x_7 + 39 x_8 + 43 x_9 + 4 x_10 + 7 x_11 + 25 x_12 + 1 x_13 + 40 x_14 + 46 x_15 + 13 x_16 + 39 x_17 + 41 x_18 + 6 x_19 + 18 x_20 + 44 x_21 + 7 x_22 + 44 x_23 + 44 x_24 + 9 x_25 + 34 x_26 + 5 x_27 + 45 x_28 + 1 x_29 + 26 x_30 + 33 x_31 + 30 x_32 + 15 x_33 + 43 x_34 + 22 x_35 + 28 x_36 + 27 x_37 + 33 x_38 + 19 x_39 + 38 x_40 = 410
	c_6: + 4 x_1 + 25 x_2 + 16 x_3 + 35 x_4 + 41 x_5 + 11 x_6 + 31 x_7 + 32 x_8 + 38 x_9 + 46 x_10 + 26 x_11 + 36 x_12 + 3 x_13 + 10 x_14 + 22 x_15 + 35 x_16 + 22 x_17 + 34 x_18 + 24 x_19 + 45 x_20 + 15 x_21 + 32 x_22 + 15 x_23 + 38 x_24 + 13 x_25 + 30 x_26 + 29 x_27 + 31 x_28 + 29 x_29 + 32 x_30 + 41 x_31 + 26 x_32 + 31 x_33 + 36 x_34 + 48 x_35 + 8 x_36 + 39 x_37 + 45 x_38 + 12 x_39 + 30 x_40 = 499
	c_7: + 10 x_1 + 22 x_2 + 5 x_3 + 19 x_4 + 21 x_5 + 9 x_6 + 29 x_7 + 7 x_8 + 42 x_9 + 6 x_10 + 45 x_11 + 34 x_12 + 4 x_13 + 11 x_14 + 20 x_15 + 13 x_16 + 40 x_17 + 45 x_18 + 16 x_19 + 8 x_20 + 36 x_21 + 39 x_22 + 44 x_23 + 16 x_24 + 15 x_25 + 49 x_26 + 9 x_27 + 14 x_28 + 44 x_29 + 21 x_30 + 32 x_31 + 29 x_32 + 40 x_33 + 5 x_34 + 35 x_35 + 31 x_36 + 32 x_37 + 42 x_38 + 27 x_39 + 20 x_40 = 394
	c_8: + 41 x_1 + 34 x_2 + 4 x_3 + 37 x_4 + 49 x_5 + 24 x_6 + 27 x_7 + 44 x_8 + 11 x_9 + 23 x_10 + 21 x_11 + 48 x_12 + 21 x_13 + 50 x_14 + 41 x_15 + 29 x_16 + 10 x_17 + 6 x_18 + 44 x_19 + 25 x_20 + 49 x_21 + 6 x_22 + 4 x_23 + 40 x_24 + 3 x_25 + 6 x_26 + 8 x_27 + 41 x_28 + 8 x_29 + 23 x_30 + 39 x_31 + 45 x_32 + 1 x_33 + 9 x_34 + 48 x_35 + 11 x_36 + 26 x_37 + 8 x_38 + 28 x_39 + 13 x_40 = 420
	c_9: + 32 x_1 + 19 x_2 + 50 x_3 + 35 x_4 + 29 x_5 + 25 x_6 + 5 x_7 + 36 x_8 + 38 x_9 + 18 x_10 + 23 x_11 + 49 x_12 + 3 x_13 + 45 x_14 + 15 x_15 + 27 x_16 + 10 x_17 + 14 x_18 + 37 x_19 + 38 x_20 + 37 x_21 + 45 x_22 + 28 x_23 + 11 x_24 + 38 x_25 + 29 x_26 + 28 x_27 + 9 x_28 + 27 x_29 + 21 x_30 + 48 x_31 + 18 x_32 + 25 x_33 + 11 x_34 + 33 x_35 + 48 x_36 + 42 x_37 + 35 x_38 + 15 x_39 + 6 x_40 = 465
	c_10: + 24 x_1 + 47 x_2 + 34 x_3 + 7 x_4 + 43 x_5 + 13 x_6 + 20 x_7 + 14 x_8 + 23 x_9 + 1 x_10 + 31 x_11 + 4 x_12 + 36 x_13 + 5 x_14 + 44 x_15 + 10 x_16 + 49 x_17 + 9 x_18 + 32 x_19 + 12 x_20 + 8 x_21 + 34 x_22 + 36 x_23 + 45 x_24 + 18 x_25 + 42 x_26 + 42 x_27 + 18 x_28 + 32 x_29 + 31 x_30 + 25 x_31 + 47 x_32 + 20 x_33 + 32 x_34 + 13 x_35 + 33 x_36 + 26 x_37 + 33 x_38 + 10 x_39 + 45 x_40 = 474
	c_11: + 4 x_1 + 12 x_2 + 25 x_3 + 28 x_4 + 6 x_5 + 38 x_6 + 24 x_7 + 42 x_8 + 4 x_9 + 16 x_10 + 28 x_11 + 23 x_12 + 11 x_13 + 44 x_14 + 50 x_15 + 37 x_16 + 23 x_17 + 22 x_18 + 38 x_19 + 40 x_20 + 13 x_21 + 1 x_22 + 45 x_23 + 15 x_24 + 28 x_25 + 7 x_26 + 13 x_27 + 1 x_28 + 38 x_29 + 6 x_30 + 2 x_31 + 32 x_32 + 17 x_33 + 25 x_34 + 42 x_35 + 16 x_36 + 27 x_37 + 13 x_38 + 16 x_39 + 42 x_40 = 327
	c_12: + 40 x_1 + 33 x_2 + 46 x_3 + 42 x_4 + 44 x_5 + 25 x_6 + 22 x_7 + 18 x_8 + 23 x_9 + 18 x_10 + 21 x_11 + 22 x_12 + 28 x_13 + 12 x_14 + 48 x_15 + 24 x_16 + 42 x_17 + 29 x_18 + 32 x_19 + 17 x_20 + 49 x_21 + 17 x_22 + 42 x_23 + 5 x_24 + 31 x_25 + 31 x_26 + 38 x_27 + 20 x_28 + 29 x_29 + 45 x_30 + 26 x_31 + 44 x_32 + 40 x_33 + 11 x_34 + 46 x_35 + 36 x_36 + 41 x_37 + 26 x_38 + 12 x_39 + 17 x_40 = 505
	c_13: + 11 x_1 + 34 x_2 + 14 x_3 + 20 x_4 + 22 x_5 + 46 x_6 + 31 x_7 + 35 x_8 + 30 x_9 + 43 x_10 + 18 x_11 + 14 x_12 + 10 x_13 + 30 x_14 + 39 x_15 + 44 x_16 + 32 x_17 + 3 x_18 + 22 x_19 + 14 x_20 + 48 x_21 + 43 x_22 + 40 x_23 + 28 x_24 + 41 x_25 + 13 x_26 + 32 x_27 + 8 x_28 + 9 x_29 + 30 x_30 + 26 x_31 + 44 x_32 + 33 x_33 + 17 x_34 + 15 x_35 + 4 x_36 + 28 x_37 + 13 x_38 + 15 x_39 + 46 x_40 = 498
	c_14: + 29 x_1 + 35 x_2 + 35 x_3 + 10 x_4 + 10 x_5 + 37 x_6 + 21 x_7 + 50 x_8 + 25 x_9 + 23 x_10 + 25 x_11 + 32 x_12 + 2 x_13 + 44 x_14 + 49 x_15 + 29 x_16 + 50 x_17 + 14 x_18 + 9 x_19 + 28 x_20 + 45 x_21 + 14 x_22 + 24 x_23 + 22 x_24 + 5 x_25 + 29 x_26 + 5 x_27 + 15 x_28 + 15 x_29 + 46 x_30 + 30 x_31 + 3 x_32 + 40 x_33 + 30 x_34 + 45 x_35 + 42 x_36 + 32 x_37 + 31 x_38 + 21 x_39 + 37 x_40 = 369
	c_15: + 44 x_1 + 37 x_2 + 19 x_3 + 48 x_4 + 30 x_5 + 44 x_6 + 4 x_7 + 8 x_8 + 44 x_9 + 18 x_10 + 21 x_11 + 37 x_12 + 45 x_13 + 12 x_14 + 25 x_15 + 4 x_16 + 5 x_17 + 27 x_18 + 23 x_19 + 45 x_20 + 25 x_21 + 31 x_22 + 39 x_23 + 46 x_24 + 2 x_25 + 11 x_26 + 5 x_27 + 6 x_28 + 19 x_29 + 29 x_30 + 2 x_31 + 33 x_32 + 3 x_33 + 23 x_34 + 10 x_35 + 2 x_36 + 10 x_37 + 42 x_38 + 1 x_39 + 49 x_40 = 393
Bounds
  0 <= x_1 <= 1
  0 <= x_2 <= 1
  0 <= x_3 <= 1
  0 <= x_4 <= 1
  0 <= x_5 <= 1
  0 <= x_6 <= 1
  0 <= x_7 <= 1
  0 <= x_8 <= 1
  0 <= x_9 <= 1
  0 <= x_10 <= 1
  0 <= x_11 <= 1
  0 <= x_12 <= 1
  0 <= x_13 <= 1
  0 <= x_14 <= 1
  0 <= x_15 <= 1
  0 <= x_16 <= 1
  0 <= x_17 <= 1
  0 <= x_18 <= 1
  0 <= x_19 <= 1
  0 <= x_20 <= 1
  0 <= x_21 <= 1
  0 <= x_22 <= 1
  0 <= x_23 <= 1
  0 <= x_24 <= 1
  0 <= x_25 <= 1
  0 <= x_26 <= 1
  0 <= x_27 <= 1
  0 <= x_28 <= 1
  0 <= x_29 <= 1
  0 <= x_30 <= 1
  0 <= x_31 <= 1
  0 <= x_32 <= 1
  0 <= x_33 <= 1
  0 <= x_34 <= 1
  0 <= x_35 <= 1
  0 <= x_36 <= 1
  0 <= x_37 <= 1
  0 <= x_38 <= 1
  0 <= x_39 <= 1
  0 <= x_40 <= 1
End
