Subject To
	c_1: + 43 x_1 + 7 x_2 + 6 x_3 + 22 x_4 + 3 x_5 + 48 x_6 + 16 x_7 + 24 x_8 + 38 x_9 + 16 x_10 + 46 x_11 + 14 x_12 + 3 x_13 + 44 x_14 + 9 x_15 + 20 x_16 + 14 x_17 + 21 x_18 + 34 x_19 + 47 x_20 + 8 x_21 + 41 x_22 + 32 x_23 + 32 x_24 + 22 x_25 + 22 x_26 + 46 x_27 + 40 x_28 + 46 x_29 + 16 x_30 + 18 x_31 + 26 x_32 + 13 x_33 + 30 x_34 + 20 x_35 + 24 x_36 + 21 x_37 + 11 x_38 + 6 x_39 + 8 x_40 = 593
	c_2: + 19 x_1 + 6 x_2 + 22 x_3 + 43 x_4 + 30 x_5 + 30 x_6 + 27 x_7 + 4 x_8 + 25 x_9 + 47 x_10 + 2 x_11 + 46 x_12 + 40 x_13 + 36 x_14 + 21 x_15 + 16 x_16 + 2 x_17 + 10 x_18 + 40 x_19 + 1 x_20 + 30 x_21 + 10 x_22 + 14 x_23 + 43 x_24 + 25 x_25 + 42 x_26 + 9 x_27 + 21 x_28 + 27 x_29 + 22 x_30 + 48 x_31 + 20 x_32 + 24 x_33 + 10 x_34 + 36 x_35 + 21 x_36 + 10 x_37 + 34 x_38 + 36 x_39 + 15 x_40 = 307
	c_3: + 41 x_1 + 3 x_2 + 28 x_3 + 31 x_4 + 13 x_5 + 42 x_6 + 12 x_7 + 50 x_8 + 38 x_9 + 22 x_10 + 38 x_11 + 5 x_12 + 22 x_13 + 43 x_14 + 49 x_15 + 21 x_16 + 19 x_17 + 38 x_18 + 37 x_19 + 19 x_20 + 35 x_21 + 26 x_22 + 19 x_23 + 30 x_24 + 34 x_25 + 43 x_26 + 46 x_27 + 43 x_28 + 30 x_29 + 50 x_30 + 4 x_31 + 45 x_32 + 7 x_33 + 38 x_34 + 14 x_35 + 21 x_36 + 32 x_37 + 49 x_38 + 29 x_39 + 47 x_40 = 535
	c_4: + 9 x_1 + 33 x_2 + 1 x_3 + 22 x_4 + 34 x_5 + 14 x_6 + 14 x_7 + 26 x_8 + 47 x_9 + 39 x_10 + 33 x_11 + 49 x_12 + 45 x_13 + 17 x_14 + 28 x_15 + 18 x_16 + 16 x_17 + 4 x_18 + 13 x_19 + 15 x_20 + 16 x_21 + 31 x_22 + 24 x_23 + 43 x_24 + 10 x_25 + 47 x_26 + 11 x_27 + 30 x_28 + 7 x_29 + 30 x_30 + 23 x_31 + 50 x_32 + 20 x_33 + 9 x_34 + 49 x_35 + 41 x_36 + 47 x_37 + 44 x_38 + 10 x_39 + 4 x_40 = 353
	c_5: + 7 x_1 + 6 x_2 + 21 x_3 + 5 x_4 + 43 x_5 + 42 x_6 + 28 x_7 + 37 x_8 + 36 x_9 + 5 x_10 + 1 x_11 + 35 x_12 + 41 x_13 + 25 x_14 + 31 x_15 + 42 x_16 + 47 x_17 + 49 x_18 + 7 x_19 + 48 x_20 + 11 x_21 + 45 x_22 + 34 x_23 + 42 x_24 + 36 x_25 + 47 x_26 + 50 x_27 + 13 x_28 + 10 x_29 + 6 x_30 + 26 x_31 + 17 x_32 + 7 x_33 + 42 x_34 + 16 x_35 + 11 x_36 + 43 x_37 + 47 x_38 + 45 x_39 + 26 x_40 = 419
	c_6: + 27 x_1 + 15 x_2 + 27 x_3 + 6 x_4 + 25 x_5 + 43 x_6 + 45 x_7 + 10 x_8 + 13 x_9 + 32 x_10 + 36 x_11 + 14 x_12 + 4 x_13 + 36 x_14 + 22 x_15 + 23 x_16 + 28 x_17 + 11 x_18 + 3 x_19 + 45 x_20 + 20 x_21 + 11 x_22 + 5 x_23 + 16 x_24 + 5 x_25 + 28 x_26 + 45 x_27 + 15 x_28 + 47 x_29 + 24 x_30 + 44 x_31 + 48 x_32 + 21 x_33 + 36 x_34 + 7 x_35 + 34 x_36 + 17 x_37 + 39 x_38 + 45 x_39 + 12 x_40 = 426
	c_7: + 12 x_1 + 46 x_2 + 40 x_3 + 19 x_4 + 5 x_5 + 41 x_6 + 42 x_7 + 27 x_8 + 47 x_9 + 16 x_10 + 19 x_11 + 47 x_12 + 12 x_13 + 5 x_14 + 7 x_15 + 17 x_16 + 20 x_17 + 37 x_18 + 31 x_19 + 26 x_20 + 26 x_21 + 27 x_22 + 13 x_23 + 42 x_24 + 13 x_25 + 15 x_26 + 44 x_27 + 10 x_28 + 27 x_29 + 16 x_30 + 13 x_31 + 20 x_32 + 18 x_33 + 4 x_34 + 50 x_35 + 9 x_36 + 2 x_37 + 43 x_38 + 8 x_39 + 30 x_40 = 368
	c_8: + 17 x_1 + 28 x_2 + 5 x_3 + 27 x_4 + 3 x_5 + 39 x_6 + 17 x_7 + 43 x_8 + 12 x_9 + 18 x_10 + 32 x_11 + 5 x_12 + 22 x_13 + 26 x_14 + 47 x_15 + 35 x_16 + 10 x_17 + 38 x_18 + 34 x_19 + 17 x_20 + 33 x_21 + 37 x_22 + 6 x_23 + 18 x_24 + 12 x_25 + 27 x_26 + 5 x_27 + 38 x_28 + 30 x_29 + 26 x_30 + 20 x_31 + 4 x_32 + 45 x_33 + 16 x_34 + 1 x_35 + 29 x_36 + 43 x_37 + 46 x_38 + 15 x_39 + 11 x_40 = 331
	c_9: + 14 x_1 + 42 x_2 + 21 x_3 + 35 x_4 + 4 x_5 + 9 x_6 + 5 x_7 + 38 x_8 + 35 x_9 + 13 x_10 + 45 x_11 + 26 x_12 + 3 x_13 + 49 x_14 + 14 x_15 + 42 x_16 + 21 x_17 + 10 x_18 + 33 x_19 + 41 x_20 + 5 x_21 + 3 x_22 + 3 x_23 + 1 x_24 + 15 x_25 + 22 x_26 + 1 x_27 + 50 x_28 + 33 x_29 + 49 x_30 + 25 x_31 + 16 x_32 + 1 x_33 + 17 x_34 + 24 x_35 + 24 x_36 + 47 x_37 + 10 x_38 + 23 x_39 + 39 x_40 = 350
	c_10: + 17 x_1 + 42 x_2 + 49 x_3 + 28 x_4 + 40 x_5 + 20 x_6 + 18 x_7 + 32 x_8 + 5 x_9 + 5 x_10 + 27 x_11 + 44 x_12 + 4 x_13 + 22 x_14 + 25 x_15 + 12 x_16 + 23 x_17 + 6 x_18 + 6 x_19 + 45 x_20 + 36 x_21 + 36 x_22 + 9 x_23 + 33 x_24 + 49 x_25 + 40 x_26 + 42 x_27 + 34 x_28 + 13 x_29 + 44 x_30 + 28 x_31 + 31 x_32 + 8 x_33 + 38 x_34 + 30 x_35 + 39 x_36 + 32 x_37 + 48 x_38 + 13 x_39 + 50 x_40 = 378
	c_11: + 1 x_1 + 41 x_2 + 47 x_3 + 21 x_4 + 21 x_5 + 26 x_6 + 26 x_7 + 12 x_8 + 46 x_9 + 16 x_10 + 44 x_11 + 28 x_12 + 18 x_13 + 1 x_14 + 8 x_15 + 43 x_16 + 18 x_17 + 24 x_18 + 41 x_19 + 48 x_20 + 38 x_21 + 44 x_22 + 1 x_23 + 7 x_24 + 19 x_25 + 15 x_26 + 13 x_27 + 16 x_28 + 12 x_29 + 8 x_30 + 8 x_31 + 9 x_32 + 27 x_33 + 45 x_34 + 12 x_35 + 44 x_36 + 50 x_37 + 1 x_38 + 1 x_39 + 29 x_40 = 354
	c_12: + 24 x_1 + 44 x_2 + 9 x_3 + 22 x_4 + 7 x_5 + 10 x_6 + 24 x_7 + 34 x_8 + 19 x_9 + 12 x_10 + 26 x_11 + 31 x_12 + 38 x_13 + 46 x_14 + 42 x_15 + 9 x_16 + 4 x_17 + 48 x_18 + 5 x_19 + 17 x_20 + 14 x_21 + 26 x_22 + 32 x_23 + 31 x_24 + 37 x_25 + 36 x_26 + 23 x_27 + 30 x_28 + 43 x_29 + 10 x_30 + 32 x_31 + 8 x_32 + 19 x_33 + 25 x_34 + 49 x_35 + 12 x_36 + 48 x_37 + 1 x_38 + 15 x_39 + 42 x_40 = 365
	c_13: + 49 x_1 + 27 x_2 + 40 x_3 + 20 x_4 + 30 x_5 + 25 x_6 + 34 x_7 + 37 x_8 + 32 x_9 + 13 x_10 + 47 x_11 + 33 x_12 + 39 x_13 + 36 x_14 + 30 x_15 + 32 x_16 + 34 x_17 + 16 x_18 + 24 x_19 + 19 x_20 + 2 x_21 + 17 x_22 + 49 x_23 + 47 x_24 + 13 x_25 + 10 x_26 + 26 x_27 + 14 x_28 + 25 x_29 + 6 x_30 + 29 x_31 + 8 x_32 + 37 x_33 + 18 x_34 + 23 x_35 + 50 x_36 + 23 x_37 + 33 x_38 + 1 x_39 + 46 x_40 = 436
	c_14: + 28 x_1 + 27 x_2 + 16 x_3 + 17 x_4 + 40 x_5 + 12 x_6 + 36 x_7 + 39 x_8 + 16 x_9 + 7 x_10 + 29 x_11 + 3 x_12 + 33 x_13 + 15 x_14 + 3 x_15 + 5 x_16 + 2 x_17 + 26 x_18 + 22 x_19 + 40 x_20 + 29 x_21 + 6 x_22 + 23 x_23 + 38 x_24 + 42 x_25 + 14 x_26 + 45 x_27 + 26 x_28 + 14 x_29 + 17 x_30 + 27 x_31 + 23 x_32 + 4 x_33 + 33 x_34 + 1 x_35 + 21 x_36 + 35 x_37 + 41 x_38 + 38 x_39 + 49 x_40 = 370
	c_15: + 36 x_1 + 39 x_2 + 30 x_3 + 37 x_4 + 1 x_5 + 35 x_6 + 4 x_7 + 7 x_8 + 21 x_9 + 8 x_10 + 22 x_11 + 40 x_12 + 4 x_13 + 48 x_14 + 28 x_15 + 25 x_16 + 17 x_17 + 42 x_18 + 6 x_19 + 13 x_20 + 22 x_21 + 44 x_22 + 44 x_23 + 31 x_24 + 17 x_25 + 15 x_26 + 28 x_27 + 5 x_28 + 22 x_29 + 21 x_30 + 46 x_31 + 41 x_32 + 27 x_33 + 44 x_34 + 7 x_35 + 21 x_36 + 25 x_37 + 32 x_38 + 32 x_39 + 6 x_40 = 440
Bounds
  0 <= x_1 <= 1
  0 <= x_2 <= 1
  0 <= x_3 <= 1
  0 <= x_4 <= 1
  0 <= x_5 <= 1
  0 <= x_6 <= 1
  0 <= x_7 <= 1
  0 <= x_8 <= 1
  0 <= x_9 <= 1
  0 <= x_10 <= 1
  0 <= x_11 <= 1
  0 <= x_12 <= 1
  0 <= x_13 <= 1
  0 <= x_14 <= 1
  0 <= x_15 <= 1
  0 <= x_16 <= 1
  0 <= x_17 <= 1
  0 <= x_18 <= 1
  0 <= x_19 <= 1
  0 <= x_20 <= 1
  0 <= x_21 <= 1
  0 <= x_22 <= 1
  0 <= x_23 <= 1
  0 <= x_24 <= 1
  0 <= x_25 <= 1
  0 <= x_26 <= 1
  0 <= x_27 <= 1
  0 <= x_28 <= 1
  0 <= x_29 <= 1
  0 <= x_30 <= 1
  0 <= x_31 <= 1
  0 <= x_32 <= 1
  0 <= x_33 <= 1
  0 <= x_34 <= 1
  0 <= x_35 <= 1
  0 <= x_36 <= 1
  0 <= x_37 <= 1
  0 <= x_38 <= 1
  0 <= x_39 <= 1
  0 <= x_40 <= 1
End
