Subject To
	c_1: + 21 x_1 + 11 x_2 + 33 x_3 + 26 x_4 + 2 x_5 + 5 x_6 + 19 x_7 + 30 x_8 + 9 x_9 + 26 x_10 + 14 x_11 + 28 x_12 + 9 x_13 + 36 x_14 + 32 x_15 + 33 x_16 + 6 x_17 + 35 x_18 + 41 x_19 + 13 x_20 + 23 x_21 + 41 x_22 + 38 x_23 + 48 x_24 + 13 x_25 + 20 x_26 + 27 x_27 + 41 x_28 + 42 x_29 + 17 x_30 + 47 x_31 + 10 x_32 + 22 x_33 + 46 x_34 + 44 x_35 + 38 x_36 + 9 x_37 + 5 x_38 + 33 x_39 + 26 x_40 = 791
	c_2: + 27 x_1 + 25 x_2 + 38 x_3 + 12 x_4 + 32 x_5 + 17 x_6 + 27 x_7 + 26 x_8 + 9 x_9 + 20 x_10 + 30 x_11 + 39 x_12 + 23 x_13 + 5 x_14 + 48 x_15 + 5 x_16 + 47 x_17 + 23 x_18 + 2 x_19 + 48 x_20 + 38 x_21 + 23 x_22 + 32 x_23 + 15 x_24 + 32 x_25 + 35 x_26 + 13 x_27 + 47 x_28 + 4 x_29 + 47 x_30 + 16 x_31 + 2 x_32 + 9 x_33 + 33 x_34 + 22 x_35 + 23 x_36 + 16 x_37 + 20 x_38 + 31 x_39 + 31 x_40 = 508
	c_3: + 23 x_1 + 22 x_2 + 38 x_3 + 12 x_4 + 27 x_5 + 40 x_6 + 24 x_7 + 38 x_8 + 12 x_9 + 44 x_10 + 25 x_11 + 20 x_12 + 32 x_13 + 18 x_14 + 5 x_15 + 16 x_16 + 37 x_17 + 48 x_18 + 8 x_19 + 25 x_20 + 9 x_21 + 47 x_22 + 33 x_23 + 22 x_24 + 43 x_25 + 27 x_26 + 42 x_27 + 2 x_28 + 14 x_29 + 33 x_30 + 21 x_31 + 24 x_32 + 14 x_33 + 30 x_34 + 45 x_35 + 29 x_36 + 3 x_37 + 4 x_38 + 18 x_39 + 17 x_40 = 567
	c_4: + 19 x_1 + 22 x_2 + 2 x_3 + 5 x_4 + 5 x_5 + 10 x_6 + 3 x_7 + 39 x_8 + 13 x_9 + 7 x_10 + 42 x_11 + 40 x_12 + 24 x_13 + 48 x_14 + 11 x_15 + 24 x_16 + 26 x_17 + 30 x_18 + 28 x_19 + 31 x_20 + 10 x_21 + 40 x_22 + 9 x_23 + 2 x_24 + 18 x_25 + 29 x_26 + 47 x_27 + 25 x_28 + 27 x_29 + 9 x_30 + 14 x_31 + 1 x_32 + 23 x_33 + 16 x_34 + 18 x_35 + 24 x_36 + 17 x_37 + 9 x_38 + 39 x_39 + 24 x_40 = 519
	c_5: + 18 x_1 + 12 x_2 + 30 x_3 + 49 x_4 + 2 x_5 + 40 x_6 + 41 x_7 + 26 x_8 + 34 x_9 + 42 x_10 + 10 x_11 + 33 x_12 + 29 x_13 + 3 x_14 + 24 x_15 + 17 x_16 + 8 x_17 + 23 x_18 + 32 x_19 + 36 x_20 + 37 x_21 + 18 x_22 + 50 x_23 + 32 x_24 + 45 x_25 + 29 x_26 + 21 x_27 + 15 x_28 + 40 x_29 + 45 x_30 + 22 x_31 + 1 x_32 + 26 x_33 + 7 x_34 + 11 x_35 + 19 x_36 + 23 x_37 + 18 x_38 + 12 x_39 + 21 x_40 = 547
	c_6: + 32 x_1 + 17 x_2 + 18 x_3 + 46 x_4 + 22 x_5 + 4 x_6 + 50 x_7 + 44 x_8 + 28 x_9 + 22 x_10 + 38 x_11 + 6 x_12 + 17 x_13 + 15 x_14 + 3 x_15 + 29 x_16 + 10 x_17 + 47 x_18 + 33 x_19 + 48 x_20 + 50 x_21 + 35 x_22 + 37 x_23 + 27 x_24 + 9 x_25 + 2 x_26 + 1 x_27 + 38 x_28 + 8 x_29 + 27 x_30 + 26 x_31 + 26 x_32 + 20 x_33 + 10 x_34 + 21 x_35 + 3 x_36 + 6 x_37 + 46 x_38 + 35 x_39 + 3 x_40 = 507
	c_7: + 48 x_1 + 25 x_2 + 21 x_3 + 36 x_4 + 28 x_5 + 29 x_6 + 38 x_7 + 40 x_8 + 15 x_9 + 31 x_10 + 11 x_11 + 21 x_12 + 20 x_13 + 20 x_14 + 19 x_15 + 48 x_16 + 50 x_17 + 40 x_18 + 3 x_19 + 3 x_20 + 17 x_21 + 17 x_22 + 19 x_23 + 32 x_24 + 41 x_25 + 9 x_26 + 2 x_27 + 28 x_28 + 37 x_29 + 24 x_30 + 19 x_31 + 9 x_32 + 49 x_33 + 21 x_34 + 49 x_35 + 18 x_36 + 4 x_37 + 1 x_38 + 10 x_39 + 19 x_40 = 550
	c_8: + 32 x_1 + 20 x_2 + 40 x_3 + 15 x_4 + 9 x_5 + 11 x_6 + 31 x_7 + 6 x_8 + 18 x_9 + 25 x_10 + 14 x_11 + 11 x_12 + 14 x_13 + 20 x_14 + 1 x_15 + 19 x_16 + 19 x_17 + 44 x_18 + 20 x_19 + 13 x_20 + 7 x_21 + 18 x_22 + 25 x_23 + 25 x_24 + 10 x_25 + 19 x_26 + 44 x_27 + 41 x_28 + 3 x_29 + 16 x_30 + 11 x_31 + 25 x_32 + 41 x_33 + 13 x_34 + 17 x_35 + 40 x_36 + 47 x_37 + 13 x_38 + 49 x_39 + 43 x_40 = 530
	c_9: + 30 x_1 + 17 x_2 + 28 x_3 + 31 x_4 + 22 x_5 + 32 x_6 + 36 x_7 + 28 x_8 + 30 x_9 + 2 x_10 + 29 x_11 + 9 x_12 + 17 x_13 + 21 x_14 + 23 x_15 + 36 x_16 + 16 x_17 + 17 x_18 + 33 x_19 + 48 x_20 + 28 x_21 + 49 x_22 + 47 x_23 + 42 x_24 + 6 x_25 + 4 x_26 + 10 x_27 + 26 x_28 + 30 x_29 + 4 x_30 + 41 x_31 + 3 x_32 + 46 x_33 + 31 x_34 + 6 x_35 + 21 x_36 + 20 x_37 + 4 x_38 + 47 x_39 + 46 x_40 = 624
	c_10: + 26 x_1 + 2 x_2 + 25 x_3 + 28 x_4 + 1 x_5 + 37 x_6 + 33 x_7 + 18 x_8 + 11 x_9 + 38 x_10 + 36 x_11 + 16 x_12 + 3 x_13 + 30 x_14 + 44 x_15 + 12 x_16 + 3 x_17 + 28 x_18 + 46 x_19 + 11 x_20 + 21 x_21 + 13 x_22 + 50 x_23 + 9 x_24 + 38 x_25 + 17 x_26 + 4 x_27 + 43 x_28 + 36 x_29 + 29 x_30 + 14 x_31 + 20 x_32 + 35 x_33 + 38 x_34 + 9 x_35 + 5 x_36 + 23 x_37 + 41 x_38 + 9 x_39 + 44 x_40 = 559
	c_11: + 15 x_1 + 39 x_2 + 49 x_3 + 36 x_4 + 42 x_5 + 14 x_6 + 14 x_7 + 37 x_8 + 17 x_9 + 27 x_10 + 21 x_11 + 1 x_12 + 48 x_13 + 17 x_14 + 9 x_15 + 32 x_16 + 25 x_17 + 24 x_18 + 37 x_19 + 5 x_20 + 21 x_21 + 12 x_22 + 34 x_23 + 32 x_24 + 30 x_25 + 37 x_26 + 49 x_27 + 49 x_28 + 46 x_29 + 33 x_30 + 33 x_31 + 7 x_32 + 12 x_33 + 22 x_34 + 33 x_35 + 23 x_36 + 10 x_37 + 19 x_38 + 50 x_39 + 8 x_40 = 660
	c_12: + 28 x_1 + 38 x_2 + 25 x_3 + 27 x_4 + 40 x_5 + 6 x_6 + 23 x_7 + 10 x_8 + 25 x_9 + 31 x_10 + 32 x_11 + 36 x_12 + 35 x_13 + 3 x_14 + 9 x_15 + 28 x_16 + 31 x_17 + 23 x_18 + 47 x_19 + 23 x_20 + 45 x_21 + 32 x_22 + 39 x_23 + 31 x_24 + 29 x_25 + 2 x_26 + 29 x_27 + 14 x_28 + 26 x_29 + 6 x_30 + 24 x_31 + 26 x_32 + 17 x_33 + 6 x_34 + 36 x_35 + 38 x_36 + 20 x_37 + 36 x_38 + 15 x_39 + 20 x_40 = 549
	c_13: + 11 x_1 + 13 x_2 + 39 x_3 + 37 x_4 + 40 x_5 + 46 x_6 + 45 x_7 + 21 x_8 + 36 x_9 + 13 x_10 + 6 x_11 + 10 x_12 + 37 x_13 + 22 x_14 + 36 x_15 + 42 x_16 + 46 x_17 + 41 x_18 + 8 x_19 + 18 x_20 + 32 x_21 + 24 x_22 + 29 x_23 + 42 x_24 + 16 x_25 + 49 x_26 + 26 x_27 + 6 x_28 + 11 x_29 + 38 x_30 + 19 x_31 + 15 x_32 + 33 x_33 + 6 x_34 + 50 x_35 + 16 x_36 + 13 x_37 + 46 x_38 + 8 x_39 + 19 x_40 = 525
	c_14: + 30 x_1 + 47 x_2 + 22 x_3 + 38 x_4 + 34 x_5 + 48 x_6 + 28 x_7 + 29 x_8 + 19 x_9 + 43 x_10 + 29 x_11 + 40 x_12 + 7 x_13 + 29 x_14 + 29 x_15 + 24 x_16 + 11 x_17 + 13 x_18 + 2 x_19 + 48 x_20 + 13 x_21 + 2 x_22 + 34 x_23 + 47 x_24 + 48 x_25 + 6 x_26 + 16 x_27 + 31 x_28 + 39 x_29 + 37 x_30 + 13 x_31 + 46 x_32 + 41 x_33 + 41 x_34 + 48 x_35 + 10 x_36 + 42 x_37 + 43 x_38 + 10 x_39 + 32 x_40 = 592
	c_15: + 20 x_1 + 11 x_2 + 35 x_3 + 37 x_4 + 37 x_5 + 24 x_6 + 46 x_7 + 7 x_8 + 25 x_9 + 45 x_10 + 7 x_11 + 31 x_12 + 45 x_13 + 25 x_14 + 48 x_15 + 33 x_16 + 19 x_17 + 5 x_18 + 43 x_19 + 45 x_20 + 18 x_21 + 43 x_22 + 35 x_23 + 49 x_24 + 44 x_25 + 10 x_26 + 13 x_27 + 45 x_28 + 45 x_29 + 1 x_30 + 7 x_31 + 36 x_32 + 43 x_33 + 24 x_34 + 27 x_35 + 11 x_36 + 23 x_37 + 5 x_38 + 26 x_39 + 3 x_40 = 637
Bounds
  0 <= x_1 <= 1
  0 <= x_2 <= 1
  0 <= x_3 <= 1
  0 <= x_4 <= 1
  0 <= x_5 <= 1
  0 <= x_6 <= 1
  0 <= x_7 <= 1
  0 <= x_8 <= 1
  0 <= x_9 <= 1
  0 <= x_10 <= 1
  0 <= x_11 <= 1
  0 <= x_12 <= 1
  0 <= x_13 <= 1
  0 <= x_14 <= 1
  0 <= x_15 <= 1
  0 <= x_16 <= 1
  0 <= x_17 <= 1
  0 <= x_18 <= 1
  0 <= x_19 <= 1
  0 <= x_20 <= 1
  0 <= x_21 <= 1
  0 <= x_22 <= 1
  0 <= x_23 <= 1
  0 <= x_24 <= 1
  0 <= x_25 <= 1
  0 <= x_26 <= 1
  0 <= x_27 <= 1
  0 <= x_28 <= 1
  0 <= x_29 <= 1
  0 <= x_30 <= 1
  0 <= x_31 <= 1
  0 <= x_32 <= 1
  0 <= x_33 <= 1
  0 <= x_34 <= 1
  0 <= x_35 <= 1
  0 <= x_36 <= 1
  0 <= x_37 <= 1
  0 <= x_38 <= 1
  0 <= x_39 <= 1
  0 <= x_40 <= 1
End
