Subject To
	c_1: + 33 x_1 + 17 x_2 + 34 x_3 + 37 x_4 + 19 x_5 + 20 x_6 + 44 x_7 + 40 x_8 + 9 x_9 + 31 x_10 + 46 x_11 + 50 x_12 + 32 x_13 + 29 x_14 + 30 x_15 + 6 x_16 + 34 x_17 + 29 x_18 + 35 x_19 + 50 x_20 + 14 x_21 + 9 x_22 + 30 x_23 + 2 x_24 + 1 x_25 + 3 x_26 + 17 x_27 + 36 x_28 + 45 x_29 + 19 x_30 + 36 x_31 + 35 x_32 + 31 x_33 + 4 x_34 + 46 x_35 + 26 x_36 + 14 x_37 + 42 x_38 + 46 x_39 + 39 x_40 = 966
	c_2: + 43 x_1 + 13 x_2 + 10 x_3 + 2 x_4 + 38 x_5 + 19 x_6 + 29 x_7 + 42 x_8 + 27 x_9 + 10 x_10 + 36 x_11 + 46 x_12 + 11 x_13 + 21 x_14 + 18 x_15 + 16 x_16 + 27 x_17 + 20 x_18 + 38 x_19 + 16 x_20 + 27 x_21 + 22 x_22 + 32 x_23 + 45 x_24 + 7 x_25 + 1 x_26 + 40 x_27 + 9 x_28 + 35 x_29 + 3 x_30 + 8 x_31 + 28 x_32 + 23 x_33 + 48 x_34 + 47 x_35 + 22 x_36 + 13 x_37 + 6 x_38 + 10 x_39 + 23 x_40 = 612
	c_3: + 10 x_1 + 33 x_2 + 37 x_3 + 43 x_4 + 48 x_5 + 39 x_6 + 2 x_7 + 49 x_8 + 6 x_9 + 32 x_10 + 48 x_11 + 43 x_12 + 23 x_13 + 44 x_14 + 2 x_15 + 15 x_16 + 22 x_17 + 19 x_18 + 37 x_19 + 1 x_20 + 36 x_21 + 20 x_22 + 4 x_23 + 37 x_24 + 31 x_25 + 37 x_26 + 17 x_27 + 13 x_28 + 8 x_29 + 42 x_30 + 46 x_31 + 30 x_32 + 33 x_33 + 43 x_34 + 26 x_35 + 19 x_36 + 32 x_37 + 39 x_38 + 9 x_39 + 20 x_40 = 659
	c_4: + 28 x_1 + 26 x_2 + 8 x_3 + 20 x_4 + 23 x_5 + 27 x_6 + 20 x_7 + 27 x_8 + 47 x_9 + 8 x_10 + 37 x_11 + 44 x_12 + 3 x_13 + 9 x_14 + 25 x_15 + 8 x_16 + 1 x_17 + 29 x_18 + 49 x_19 + 44 x_20 + 47 x_21 + 15 x_22 + 27 x_23 + 48 x_24 + 35 x_25 + 42 x_26 + 4 x_27 + 18 x_28 + 39 x_29 + 32 x_30 + 13 x_31 + 12 x_32 + 18 x_33 + 6 x_34 + 1 x_35 + 19 x_36 + 40 x_37 + 33 x_38 + 20 x_39 + 38 x_40 = 590
	c_5: + 17 x_1 + 2 x_2 + 19 x_3 + 35 x_4 + 32 x_5 + 30 x_6 + 11 x_7 + 9 x_8 + 13 x_9 + 9 x_10 + 16 x_11 + 16 x_12 + 16 x_13 + 7 x_14 + 26 x_15 + 12 x_16 + 18 x_17 + 44 x_18 + 32 x_19 + 24 x_20 + 39 x_21 + 8 x_22 + 25 x_23 + 11 x_24 + 47 x_25 + 48 x_26 + 17 x_27 + 10 x_28 + 1 x_29 + 28 x_30 + 45 x_31 + 11 x_32 + 11 x_33 + 19 x_34 + 40 x_35 + 32 x_36 + 42 x_37 + 4 x_38 + 21 x_39 + 30 x_40 = 529
	c_6: + 22 x_1 + 29 x_2 + 42 x_3 + 8 x_4 + 6 x_5 + 26 x_6 + 33 x_7 + 5 x_8 + 18 x_9 + 39 x_10 + 33 x_11 + 7 x_12 + 50 x_13 + 39 x_14 + 31 x_15 + 46 x_16 + 37 x_17 + 12 x_18 + 42 x_19 + 24 x_20 + 19 x_21 + 9 x_22 + 44 x_23 + 31 x_24 + 16 x_25 + 29 x_26 + 1 x_27 + 47 x_28 + 28 x_29 + 6 x_30 + 12 x_31 + 34 x_32 + 25 x_33 + 41 x_34 + 40 x_35 + 10 x_36 + 4 x_37 + 37 x_38 + 44 x_39 + 48 x_40 = 793
	c_7: + 29 x_1 + 31 x_2 + 34 x_3 + 21 x_4 + 3 x_5 + 22 x_6 + 23 x_7 + 6 x_8 + 31 x_9 + 34 x_10 + 21 x_11 + 46 x_12 + 1 x_13 + 5 x_14 + 35 x_15 + 32 x_16 + 33 x_17 + 20 x_18 + 12 x_19 + 1 x_20 + 11 x_21 + 12 x_22 + 6 x_23 + 16 x_24 + 10 x_25 + 26 x_26 + 35 x_27 + 16 x_28 + 45 x_29 + 41 x_30 + 20 x_31 + 40 x_32 + 32 x_33 + 12 x_34 + 24 x_35 + 25 x_36 + 8 x_37 + 30 x_38 + 48 x_39 + 38 x_40 = 645
	c_8: + 15 x_1 + 40 x_2 + 41 x_3 + 29 x_4 + 1 x_5 + 22 x_6 + 18 x_7 + 20 x_8 + 31 x_9 + 5 x_10 + 15 x_11 + 38 x_12 + 8 x_13 + 30 x_14 + 14 x_15 + 42 x_16 + 12 x_17 + 27 x_18 + 26 x_19 + 14 x_20 + 29 x_21 + 38 x_22 + 32 x_23 + 23 x_24 + 35 x_25 + 6 x_26 + 22 x_27 + 11 x_28 + 31 x_29 + 47 x_30 + 9 x_31 + 47 x_32 + 44 x_33 + 17 x_34 + 30 x_35 + 14 x_36 + 31 x_37 + 36 x_38 + 44 x_39 + 42 x_40 = 652
	c_9: + 20 x_1 + 49 x_2 + 8 x_3 + 14 x_4 + 8 x_5 + 39 x_6 + 5 x_7 + 20 x_8 + 7 x_9 + 6 x_10 + 40 x_11 + 39 x_12 + 36 x_13 + 24 x_14 + 20 x_15 + 15 x_16 + 43 x_17 + 50 x_18 + 13 x_19 + 11 x_20 + 30 x_21 + 46 x_22 + 19 x_23 + 4 x_24 + 1 x_25 + 36 x_26 + 42 x_27 + 13 x_28 + 50 x_29 + 41 x_30 + 16 x_31 + 47 x_32 + 26 x_33 + 9 x_34 + 6 x_35 + 13 x_36 + 3 x_37 + 42 x_38 + 41 x_39 + 2 x_40 = 624
	c_10: + 39 x_1 + 30 x_2 + 31 x_3 + 17 x_4 + 23 x_5 + 7 x_6 + 11 x_7 + 24 x_8 + 50 x_9 + 9 x_10 + 30 x_11 + 20 x_12 + 39 x_13 + 21 x_14 + 24 x_15 + 8 x_16 + 42 x_17 + 45 x_18 + 3 x_19 + 4 x_20 + 17 x_21 + 1 x_22 + 24 x_23 + 42 x_24 + 26 x_25 + 18 x_26 + 25 x_27 + 42 x_28 + 44 x_29 + 42 x_30 + 10 x_31 + 27 x_32 + 6 x_33 + 18 x_34 + 24 x_35 + 6 x_36 + 3 x_37 + 16 x_38 + 37 x_39 + 13 x_40 = 608
	c_11: + 32 x_1 + 46 x_2 + 2 x_3 + 24 x_4 + 8 x_5 + 29 x_6 + 2 x_7 + 37 x_8 + 2 x_9 + 19 x_10 + 33 x_11 + 12 x_12 + 28 x_13 + 19 x_14 + 36 x_15 + 26 x_16 + 7 x_17 + 15 x_18 + 43 x_19 + 35 x_20 + 5 x_21 + 36 x_22 + 36 x_23 + 4 x_24 + 17 x_25 + 3 x_26 + 1 x_27 + 38 x_28 + 27 x_29 + 38 x_30 + 26 x_31 + 50 x_32 + 27 x_33 + 23 x_34 + 14 x_35 + 21 x_36 + 23 x_37 + 39 x_38 + 11 x_39 + 16 x_40 = 649
	c_12: + 23 x_1 + 13 x_2 + 46 x_3 + 39 x_4 + 12 x_5 + 46 x_6 + 14 x_7 + 5 x_8 + 45 x_9 + 14 x_10 + 23 x_11 + 6 x_12 + 30 x_13 + 20 x_14 + 35 x_15 + 48 x_16 + 20 x_17 + 29 x_18 + 27 x_19 + 49 x_20 + 24 x_21 + 26 x_22 + 24 x_23 + 12 x_24 + 5 x_25 + 19 x_26 + 41 x_27 + 28 x_28 + 30 x_29 + 7 x_30 + 19 x_31 + 44 x_32 + 26 x_33 + 31 x_34 + 50 x_35 + 33 x_36 + 24 x_37 + 32 x_38 + 6 x_39 + 17 x_40 = 689
	c_13: + 10 x_1 + 5 x_2 + 46 x_3 + 28 x_4 + 15 x_5 + 40 x_6 + 44 x_7 + 24 x_8 + 3 x_9 + 19 x_10 + 10 x_11 + 49 x_12 + 31 x_13 + 24 x_14 + 36 x_15 + 10 x_16 + 17 x_17 + 39 x_18 + 15 x_19 + 25 x_20 + 3 x_21 + 6 x_22 + 17 x_23 + 4 x_24 + 22 x_25 + 5 x_26 + 14 x_27 + 50 x_28 + 44 x_29 + 35 x_30 + 18 x_31 + 37 x_32 + 44 x_33 + 7 x_34 + 8 x_35 + 45 x_36 + 50 x_37 + 21 x_38 + 31 x_39 + 22 x_40 = 754
	c_14: + 8 x_1 + 36 x_2 + 2 x_3 + 47 x_4 + 36 x_5 + 5 x_6 + 3 x_7 + 12 x_8 + 27 x_9 + 7 x_10 + 22 x_11 + 16 x_12 + 30 x_13 + 13 x_14 + 28 x_15 + 12 x_16 + 22 x_17 + 39 x_18 + 12 x_19 + 33 x_20 + 17 x_21 + 43 x_22 + 32 x_23 + 16 x_24 + 36 x_25 + 5 x_26 + 34 x_27 + 2 x_28 + 47 x_29 + 37 x_30 + 14 x_31 + 28 x_32 + 14 x_33 + 17 x_34 + 14 x_35 + 33 x_36 + 48 x_37 + 15 x_38 + 24 x_39 + 17 x_40 = 534
	c_15: + 26 x_1 + 6 x_2 + 30 x_3 + 12 x_4 + 19 x_5 + 42 x_6 + 43 x_7 + 14 x_8 + 40 x_9 + 30 x_10 + 15 x_11 + 15 x_12 + 41 x_13 + 10 x_14 + 25 x_15 + 47 x_16 + 4 x_17 + 6 x_18 + 12 x_19 + 48 x_20 + 30 x_21 + 50 x_22 + 17 x_23 + 35 x_24 + 4 x_25 + 34 x_26 + 30 x_27 + 39 x_28 + 12 x_29 + 30 x_30 + 11 x_31 + 37 x_32 + 45 x_33 + 32 x_34 + 38 x_35 + 46 x_36 + 7 x_37 + 8 x_38 + 10 x_39 + 20 x_40 = 614
Bounds
  0 <= x_1 <= 1
  0 <= x_2 <= 1
  0 <= x_3 <= 1
  0 <= x_4 <= 1
  0 <= x_5 <= 1
  0 <= x_6 <= 1
  0 <= x_7 <= 1
  0 <= x_8 <= 1
  0 <= x_9 <= 1
  0 <= x_10 <= 1
  0 <= x_11 <= 1
  0 <= x_12 <= 1
  0 <= x_13 <= 1
  0 <= x_14 <= 1
  0 <= x_15 <= 1
  0 <= x_16 <= 1
  0 <= x_17 <= 1
  0 <= x_18 <= 1
  0 <= x_19 <= 1
  0 <= x_20 <= 1
  0 <= x_21 <= 1
  0 <= x_22 <= 1
  0 <= x_23 <= 1
  0 <= x_24 <= 1
  0 <= x_25 <= 1
  0 <= x_26 <= 1
  0 <= x_27 <= 1
  0 <= x_28 <= 1
  0 <= x_29 <= 1
  0 <= x_30 <= 1
  0 <= x_31 <= 1
  0 <= x_32 <= 1
  0 <= x_33 <= 1
  0 <= x_34 <= 1
  0 <= x_35 <= 1
  0 <= x_36 <= 1
  0 <= x_37 <= 1
  0 <= x_38 <= 1
  0 <= x_39 <= 1
  0 <= x_40 <= 1
End
