Subject To
	c_1: + 11 x_1 + 37 x_2 + 41 x_3 + 12 x_4 + 37 x_5 + 47 x_6 + 5 x_7 + 38 x_8 + 26 x_9 + 39 x_10 + 8 x_11 + 46 x_12 + 1 x_13 + 20 x_14 + 4 x_15 + 7 x_16 + 19 x_17 + 13 x_18 + 21 x_19 + 16 x_20 + 27 x_21 + 40 x_22 + 30 x_23 + 45 x_24 + 21 x_25 + 40 x_26 + 23 x_27 + 13 x_28 + 15 x_29 + 24 x_30 + 9 x_31 + 26 x_32 + 21 x_33 + 6 x_34 + 7 x_35 + 5 x_36 + 32 x_37 + 23 x_38 + 38 x_39 + 20 x_40 = 589
	c_2: + 16 x_1 + 21 x_2 + 6 x_3 + 37 x_4 + 12 x_5 + 43 x_6 + 33 x_7 + 33 x_8 + 50 x_9 + 5 x_10 + 10 x_11 + 5 x_12 + 5 x_13 + 10 x_14 + 35 x_15 + 39 x_16 + 16 x_17 + 39 x_18 + 43 x_19 + 8 x_20 + 48 x_21 + 31 x_22 + 8 x_23 + 21 x_24 + 50 x_25 + 48 x_26 + 8 x_27 + 4 x_28 + 35 x_29 + 33 x_30 + 30 x_31 + 28 x_32 + 30 x_33 + 11 x_34 + 47 x_35 + 45 x_36 + 18 x_37 + 47 x_38 + 45 x_39 + 46 x_40 = 422
	c_3: + 20 x_1 + 21 x_2 + 44 x_3 + 39 x_4 + 13 x_5 + 5 x_6 + 15 x_7 + 14 x_8 + 36 x_9 + 17 x_10 + 18 x_11 + 28 x_12 + 43 x_13 + 16 x_14 + 48 x_15 + 40 x_16 + 6 x_17 + 41 x_18 + 13 x_19 + 46 x_20 + 36 x_21 + 32 x_22 + 16 x_23 + 36 x_24 + 4 x_25 + 7 x_26 + 50 x_27 + 24 x_28 + 7 x_29 + 37 x_30 + 12 x_31 + 6 x_32 + 48 x_33 + 17 x_34 + 42 x_35 + 5 x_36 + 49 x_37 + 45 x_38 + 2 x_39 + 26 x_40 = 362
	c_4: + 5 x_1 + 11 x_2 + 22 x_3 + 31 x_4 + 36 x_5 + 22 x_6 + 45 x_7 + 13 x_8 + 7 x_9 + 28 x_10 + 31 x_11 + 28 x_12 + 33 x_13 + 23 x_14 + 24 x_15 + 36 x_16 + 5 x_17 + 8 x_18 + 26 x_19 + 14 x_20 + 21 x_21 + 49 x_22 + 20 x_23 + 21 x_24 + 45 x_25 + 26 x_26 + 4 x_27 + 28 x_28 + 33 x_29 + 5 x_30 + 48 x_31 + 21 x_32 + 36 x_33 + 50 x_34 + 6 x_35 + 6 x_36 + 35 x_37 + 27 x_38 + 22 x_39 + 3 x_40 = 382
	c_5: + 33 x_1 + 40 x_2 + 41 x_3 + 36 x_4 + 22 x_5 + 8 x_6 + 17 x_7 + 40 x_8 + 35 x_9 + 19 x_10 + 9 x_11 + 21 x_12 + 41 x_13 + 46 x_14 + 35 x_15 + 27 x_16 + 37 x_17 + 19 x_18 + 30 x_19 + 5 x_20 + 44 x_21 + 37 x_22 + 24 x_23 + 31 x_24 + 50 x_25 + 7 x_26 + 43 x_27 + 15 x_28 + 29 x_29 + 13 x_30 + 10 x_31 + 24 x_32 + 44 x_33 + 43 x_34 + 31 x_35 + 4 x_36 + 18 x_37 + 18 x_38 + 18 x_39 + 9 x_40 = 429
	c_6: + 30 x_1 + 37 x_2 + 41 x_3 + 48 x_4 + 17 x_5 + 29 x_6 + 25 x_7 + 4 x_8 + 20 x_9 + 46 x_10 + 39 x_11 + 9 x_12 + 27 x_13 + 50 x_14 + 10 x_15 + 42 x_16 + 49 x_17 + 47 x_18 + 46 x_19 + 35 x_20 + 34 x_21 + 45 x_22 + 48 x_23 + 8 x_24 + 7 x_25 + 19 x_26 + 31 x_27 + 2 x_28 + 7 x_29 + 17 x_30 + 45 x_31 + 3 x_32 + 38 x_33 + 37 x_34 + 14 x_35 + 6 x_36 + 17 x_37 + 21 x_38 + 42 x_39 + 44 x_40 = 419
	c_7: + 14 x_1 + 24 x_2 + 37 x_3 + 15 x_4 + 17 x_5 + 44 x_6 + 39 x_7 + 27 x_8 + 34 x_9 + 16 x_10 + 23 x_11 + 26 x_12 + 1 x_13 + 5 x_14 + 6 x_15 + 8 x_16 + 10 x_17 + 36 x_18 + 1 x_19 + 8 x_20 + 47 x_21 + 3 x_22 + 5 x_23 + 41 x_24 + 38 x_25 + 29 x_26 + 9 x_27 + 43 x_28 + 47 x_29 + 49 x_30 + 31 x_31 + 49 x_32 + 33 x_33 + 9 x_34 + 45 x_35 + 22 x_36 + 47 x_37 + 48 x_38 + 20 x_39 + 36 x_40 = 466
	c_8: + 7 x_1 + 21 x_2 + 6 x_3 + 32 x_4 + 32 x_5 + 5 x_6 + 35 x_7 + 42 x_8 + 2 x_9 + 16 x_10 + 23 x_11 + 36 x_12 + 9 x_13 + 41 x_14 + 8 x_15 + 9 x_16 + 48 x_17 + 12 x_18 + 45 x_19 + 35 x_20 + 38 x_21 + 36 x_22 + 4 x_23 + 41 x_24 + 35 x_25 + 10 x_26 + 23 x_27 + 5 x_28 + 35 x_29 + 10 x_30 + 48 x_31 + 43 x_32 + 34 x_33 + 2 x_34 + 45 x_35 + 32 x_36 + 10 x_37 + 26 x_38 + 29 x_39 + 15 x_40 = 371
	c_9: + 30 x_1 + 37 x_2 + 45 x_3 + 27 x_4 + 4 x_5 + 13 x_6 + 9 x_7 + 19 x_8 + 30 x_9 + 47 x_10 + 40 x_11 + 35 x_12 + 30 x_13 + 6 x_14 + 39 x_15 + 3 x_16 + 40 x_17 + 44 x_18 + 6 x_19 + 19 x_20 + 13 x_21 + 47 x_22 + 19 x_23 + 11 x_24 + 50 x_25 + 20 x_26 + 16 x_27 + 40 x_28 + 46 x_29 + 40 x_30 + 24 x_31 + 33 x_32 + 17 x_33 + 33 x_34 + 34 x_35 + 14 x_36 + 32 x_37 + 46 x_38 + 44 x_39 + 7 x_40 = 449
	c_10: + 24 x_1 + 6 x_2 + 10 x_3 + 33 x_4 + 18 x_5 + 35 x_6 + 10 x_7 + 23 x_8 + 7 x_9 + 21 x_10 + 26 x_11 + 9 x_12 + 29 x_13 + 8 x_14 + 13 x_15 + 43 x_16 + 49 x_17 + 12 x_18 + 17 x_19 + 13 x_20 + 8 x_21 + 12 x_22 + 21 x_23 + 30 x_24 + 31 x_25 + 22 x_26 + 46 x_27 + 50 x_28 + 36 x_29 + 43 x_30 + 4 x_31 + 26 x_32 + 28 x_33 + 48 x_34 + 46 x_35 + 31 x_36 + 47 x_37 + 14 x_38 + 44 x_39 + 11 x_40 = 339
	c_11: + 28 x_1 + 7 x_2 + 26 x_3 + 35 x_4 + 33 x_5 + 12 x_6 + 30 x_7 + 8 x_8 + 38 x_9 + 24 x_10 + 45 x_11 + 35 x_12 + 28 x_13 + 33 x_14 + 32 x_15 + 41 x_16 + 16 x_17 + 43 x_18 + 10 x_19 + 20 x_20 + 16 x_21 + 5 x_22 + 4 x_23 + 20 x_24 + 49 x_25 + 43 x_26 + 28 x_27 + 12 x_28 + 46 x_29 + 49 x_30 + 27 x_31 + 5 x_32 + 27 x_33 + 46 x_34 + 49 x_35 + 48 x_36 + 7 x_37 + 40 x_38 + 41 x_39 + 48 x_40 = 324
	c_12: + 36 x_1 + 23 x_2 + 12 x_3 + 35 x_4 + 22 x_5 + 1 x_6 + 3 x_7 + 5 x_8 + 46 x_9 + 5 x_10 + 45 x_11 + 22 x_12 + 25 x_13 + 27 x_14 + 14 x_15 + 45 x_16 + 47 x_17 + 22 x_18 + 41 x_19 + 27 x_20 + 32 x_21 + 45 x_22 + 11 x_23 + 40 x_24 + 32 x_25 + 19 x_26 + 41 x_27 + 24 x_28 + 20 x_29 + 24 x_30 + 38 x_31 + 24 x_32 + 3 x_33 + 13 x_34 + 41 x_35 + 36 x_36 + 21 x_37 + 18 x_38 + 38 x_39 + 11 x_40 = 366
	c_13: + 31 x_1 + 26 x_2 + 18 x_3 + 32 x_4 + 43 x_5 + 6 x_6 + 18 x_7 + 28 x_8 + 11 x_9 + 33 x_10 + 35 x_11 + 45 x_12 + 18 x_13 + 48 x_14 + 2 x_15 + 29 x_16 + 1 x_17 + 29 x_18 + 49 x_19 + 43 x_20 + 23 x_21 + 47 x_22 + 50 x_23 + 1 x_24 + 39 x_25 + 45 x_26 + 47 x_27 + 13 x_28 + 10 x_29 + 44 x_30 + 30 x_31 + 48 x_32 + 27 x_33 + 50 x_34 + 26 x_35 + 40 x_36 + 28 x_37 + 8 x_38 + 43 x_39 + 12 x_40 = 495
	c_14: + 31 x_1 + 31 x_2 + 2 x_3 + 35 x_4 + 33 x_5 + 16 x_6 + 24 x_7 + 28 x_8 + 3 x_9 + 42 x_10 + 20 x_11 + 15 x_12 + 9 x_13 + 21 x_14 + 48 x_15 + 29 x_16 + 38 x_17 + 40 x_18 + 1 x_19 + 34 x_20 + 49 x_21 + 34 x_22 + 27 x_23 + 23 x_24 + 12 x_25 + 33 x_26 + 42 x_27 + 11 x_28 + 31 x_29 + 26 x_30 + 30 x_31 + 3 x_32 + 1 x_33 + 15 x_34 + 8 x_35 + 3 x_36 + 26 x_37 + 2 x_38 + 41 x_39 + 50 x_40 = 406
	c_15: + 33 x_1 + 22 x_2 + 41 x_3 + 19 x_4 + 11 x_5 + 5 x_6 + 25 x_7 + 13 x_8 + 16 x_9 + 11 x_10 + 1 x_11 + 1 x_12 + 46 x_13 + 28 x_14 + 18 x_15 + 41 x_16 + 2 x_17 + 27 x_18 + 41 x_19 + 18 x_20 + 18 x_21 + 15 x_22 + 15 x_23 + 16 x_24 + 46 x_25 + 9 x_26 + 15 x_27 + 14 x_28 + 13 x_29 + 32 x_30 + 41 x_31 + 31 x_32 + 23 x_33 + 45 x_34 + 23 x_35 + 7 x_36 + 46 x_37 + 38 x_38 + 50 x_39 + 21 x_40 = 320
Bounds
  0 <= x_1 <= 1
  0 <= x_2 <= 1
  0 <= x_3 <= 1
  0 <= x_4 <= 1
  0 <= x_5 <= 1
  0 <= x_6 <= 1
  0 <= x_7 <= 1
  0 <= x_8 <= 1
  0 <= x_9 <= 1
  0 <= x_10 <= 1
  0 <= x_11 <= 1
  0 <= x_12 <= 1
  0 <= x_13 <= 1
  0 <= x_14 <= 1
  0 <= x_15 <= 1
  0 <= x_16 <= 1
  0 <= x_17 <= 1
  0 <= x_18 <= 1
  0 <= x_19 <= 1
  0 <= x_20 <= 1
  0 <= x_21 <= 1
  0 <= x_22 <= 1
  0 <= x_23 <= 1
  0 <= x_24 <= 1
  0 <= x_25 <= 1
  0 <= x_26 <= 1
  0 <= x_27 <= 1
  0 <= x_28 <= 1
  0 <= x_29 <= 1
  0 <= x_30 <= 1
  0 <= x_31 <= 1
  0 <= x_32 <= 1
  0 <= x_33 <= 1
  0 <= x_34 <= 1
  0 <= x_35 <= 1
  0 <= x_36 <= 1
  0 <= x_37 <= 1
  0 <= x_38 <= 1
  0 <= x_39 <= 1
  0 <= x_40 <= 1
End
