Subject To
	c_1: + 14 x_1 + 1 x_2 + 7 x_3 + 30 x_4 + 2 x_5 + 16 x_6 + 6 x_7 + 21 x_8 + 14 x_9 + 34 x_10 + 11 x_11 + 13 x_12 + 23 x_13 + 24 x_14 + 7 x_15 + 49 x_16 + 18 x_17 + 46 x_18 + 8 x_19 + 9 x_20 + 6 x_21 + 37 x_22 + 31 x_23 + 10 x_24 + 47 x_25 + 7 x_26 + 21 x_27 + 18 x_28 + 18 x_29 + 11 x_30 + 47 x_31 + 30 x_32 + 23 x_33 + 39 x_34 + 7 x_35 + 4 x_36 + 34 x_37 + 17 x_38 + 32 x_39 + 43 x_40 = 499
	c_2: + 30 x_1 + 43 x_2 + 37 x_3 + 32 x_4 + 39 x_5 + 36 x_6 + 2 x_7 + 10 x_8 + 7 x_9 + 34 x_10 + 20 x_11 + 45 x_12 + 25 x_13 + 48 x_14 + 49 x_15 + 50 x_16 + 20 x_17 + 26 x_18 + 24 x_19 + 14 x_20 + 34 x_21 + 42 x_22 + 44 x_23 + 19 x_24 + 34 x_25 + 32 x_26 + 49 x_27 + 45 x_28 + 42 x_29 + 13 x_30 + 18 x_31 + 35 x_32 + 32 x_33 + 19 x_34 + 35 x_35 + 29 x_36 + 47 x_37 + 30 x_38 + 11 x_39 + 10 x_40 = 402
	c_3: + 19 x_1 + 38 x_2 + 30 x_3 + 40 x_4 + 22 x_5 + 25 x_6 + 17 x_7 + 23 x_8 + 15 x_9 + 36 x_10 + 7 x_11 + 35 x_12 + 4 x_13 + 50 x_14 + 12 x_15 + 30 x_16 + 20 x_17 + 8 x_18 + 8 x_19 + 30 x_20 + 1 x_21 + 28 x_22 + 40 x_23 + 2 x_24 + 41 x_25 + 48 x_26 + 30 x_27 + 36 x_28 + 44 x_29 + 45 x_30 + 49 x_31 + 31 x_32 + 35 x_33 + 42 x_34 + 29 x_35 + 11 x_36 + 17 x_37 + 5 x_38 + 42 x_39 + 48 x_40 = 452
	c_4: + 37 x_1 + 7 x_2 + 29 x_3 + 44 x_4 + 24 x_5 + 48 x_6 + 4 x_7 + 49 x_8 + 15 x_9 + 3 x_10 + 23 x_11 + 10 x_12 + 4 x_13 + 9 x_14 + 6 x_15 + 34 x_16 + 7 x_17 + 19 x_18 + 15 x_19 + 13 x_20 + 14 x_21 + 31 x_22 + 14 x_23 + 5 x_24 + 9 x_25 + 23 x_26 + 3 x_27 + 23 x_28 + 26 x_29 + 24 x_30 + 20 x_31 + 22 x_32 + 26 x_33 + 15 x_34 + 18 x_35 + 7 x_36 + 15 x_37 + 29 x_38 + 2 x_39 + 42 x_40 = 270
	c_5: + 16 x_1 + 44 x_2 + 34 x_3 + 10 x_4 + 50 x_5 + 42 x_6 + 42 x_7 + 44 x_8 + 19 x_9 + 8 x_10 + 39 x_11 + 47 x_12 + 34 x_13 + 1 x_14 + 49 x_15 + 6 x_16 + 26 x_17 + 32 x_18 + 8 x_19 + 43 x_20 + 20 x_21 + 44 x_22 + 13 x_23 + 26 x_24 + 25 x_25 + 37 x_26 + 13 x_27 + 45 x_28 + 43 x_29 + 40 x_30 + 48 x_31 + 21 x_32 + 27 x_33 + 28 x_34 + 19 x_35 + 20 x_36 + 47 x_37 + 26 x_38 + 11 x_39 + 25 x_40 = 318
	c_6: + 24 x_1 + 17 x_2 + 32 x_3 + 5 x_4 + 24 x_5 + 7 x_6 + 12 x_7 + 50 x_8 + 21 x_9 + 19 x_10 + 23 x_11 + 24 x_12 + 48 x_13 + 2 x_14 + 18 x_15 + 16 x_16 + 29 x_17 + 49 x_18 + 2 x_19 + 46 x_20 + 8 x_21 + 47 x_22 + 43 x_23 + 1 x_24 + 39 x_25 + 10 x_26 + 27 x_27 + 15 x_28 + 19 x_29 + 9 x_30 + 34 x_31 + 22 x_32 + 33 x_33 + 43 x_34 + 17 x_35 + 49 x_36 + 8 x_37 + 23 x_38 + 36 x_39 + 42 x_40 = 403
	c_7: + 47 x_1 + 8 x_2 + 46 x_3 + 40 x_4 + 30 x_5 + 3 x_6 + 43 x_7 + 38 x_8 + 31 x_9 + 35 x_10 + 18 x_11 + 23 x_12 + 29 x_13 + 47 x_14 + 35 x_15 + 34 x_16 + 5 x_17 + 2 x_18 + 2 x_19 + 32 x_20 + 31 x_21 + 45 x_22 + 46 x_23 + 5 x_24 + 32 x_25 + 1 x_26 + 38 x_27 + 26 x_28 + 47 x_29 + 49 x_30 + 26 x_31 + 16 x_32 + 30 x_33 + 21 x_34 + 34 x_35 + 32 x_36 + 31 x_37 + 47 x_38 + 2 x_39 + 29 x_40 = 359
	c_8: + 38 x_1 + 38 x_2 + 33 x_3 + 35 x_4 + 2 x_5 + 4 x_6 + 25 x_7 + 8 x_8 + 22 x_9 + 2 x_10 + 9 x_11 + 21 x_12 + 29 x_13 + 11 x_14 + 1 x_15 + 31 x_16 + 1 x_17 + 10 x_18 + 12 x_19 + 4 x_20 + 29 x_21 + 20 x_22 + 37 x_23 + 46 x_24 + 2 x_25 + 34 x_26 + 35 x_27 + 24 x_28 + 23 x_29 + 46 x_30 + 9 x_31 + 10 x_32 + 27 x_33 + 6 x_34 + 38 x_35 + 30 x_36 + 27 x_37 + 36 x_38 + 39 x_39 + 45 x_40 = 273
	c_9: + 8 x_1 + 39 x_2 + 49 x_3 + 32 x_4 + 41 x_5 + 34 x_6 + 38 x_7 + 21 x_8 + 19 x_9 + 10 x_10 + 49 x_11 + 27 x_12 + 29 x_13 + 24 x_14 + 38 x_15 + 46 x_16 + 5 x_17 + 8 x_18 + 15 x_19 + 33 x_20 + 29 x_21 + 38 x_22 + 18 x_23 + 4 x_24 + 2 x_25 + 18 x_26 + 5 x_27 + 43 x_28 + 7 x_29 + 28 x_30 + 43 x_31 + 39 x_32 + 23 x_33 + 23 x_34 + 7 x_35 + 5 x_36 + 23 x_37 + 7 x_38 + 8 x_39 + 16 x_40 = 306
	c_10: + 36 x_1 + 40 x_2 + 44 x_3 + 38 x_4 + 2 x_5 + 4 x_6 + 9 x_7 + 14 x_8 + 43 x_9 + 39 x_10 + 41 x_11 + 2 x_12 + 18 x_13 + 12 x_14 + 15 x_15 + 36 x_16 + 17 x_17 + 22 x_18 + 47 x_19 + 7 x_20 + 25 x_21 + 3 x_22 + 7 x_23 + 49 x_24 + 9 x_25 + 31 x_26 + 29 x_27 + 38 x_28 + 15 x_29 + 30 x_30 + 15 x_31 + 14 x_32 + 22 x_33 + 27 x_34 + 37 x_35 + 13 x_36 + 12 x_37 + 32 x_38 + 25 x_39 + 14 x_40 = 261
	c_11: + 6 x_1 + 28 x_2 + 36 x_3 + 37 x_4 + 47 x_5 + 1 x_6 + 36 x_7 + 36 x_8 + 47 x_9 + 20 x_10 + 4 x_11 + 36 x_12 + 47 x_13 + 50 x_14 + 42 x_15 + 20 x_16 + 38 x_17 + 12 x_18 + 6 x_19 + 23 x_20 + 48 x_21 + 46 x_22 + 2 x_23 + 21 x_24 + 19 x_25 + 1 x_26 + 47 x_27 + 16 x_28 + 19 x_29 + 47 x_30 + 16 x_31 + 22 x_32 + 14 x_33 + 25 x_34 + 10 x_35 + 10 x_36 + 9 x_37 + 1 x_38 + 44 x_39 + 44 x_40 = 316
	c_12: + 23 x_1 + 12 x_2 + 1 x_3 + 29 x_4 + 35 x_5 + 24 x_6 + 1 x_7 + 45 x_8 + 41 x_9 + 18 x_10 + 49 x_11 + 8 x_12 + 11 x_13 + 13 x_14 + 14 x_15 + 12 x_16 + 18 x_17 + 28 x_18 + 20 x_19 + 42 x_20 + 35 x_21 + 16 x_22 + 17 x_23 + 5 x_24 + 13 x_25 + 42 x_26 + 31 x_27 + 34 x_28 + 38 x_29 + 44 x_30 + 12 x_31 + 47 x_32 + 22 x_33 + 8 x_34 + 47 x_35 + 22 x_36 + 5 x_37 + 30 x_38 + 48 x_39 + 30 x_40 = 283
	c_13: + 4 x_1 + 44 x_2 + 44 x_3 + 22 x_4 + 18 x_5 + 34 x_6 + 6 x_7 + 50 x_8 + 16 x_9 + 27 x_10 + 34 x_11 + 20 x_12 + 26 x_13 + 22 x_14 + 45 x_15 + 16 x_16 + 15 x_17 + 4 x_18 + 10 x_19 + 2 x_20 + 13 x_21 + 23 x_22 + 5 x_23 + 35 x_24 + 44 x_25 + 8 x_26 + 35 x_27 + 4 x_28 + 24 x_29 + 24 x_30 + 35 x_31 + 24 x_32 + 12 x_33 + 2 x_34 + 30 x_35 + 10 x_36 + 20 x_37 + 34 x_38 + 36 x_39 + 32 x_40 = 290
	c_14: + 43 x_1 + 27 x_2 + 11 x_3 + 2 x_4 + 50 x_5 + 2 x_6 + 1 x_7 + 38 x_8 + 5 x_9 + 28 x_10 + 6 x_11 + 2 x_12 + 32 x_13 + 25 x_14 + 25 x_15 + 25 x_16 + 8 x_17 + 15 x_18 + 42 x_19 + 36 x_20 + 32 x_21 + 44 x_22 + 50 x_23 + 35 x_24 + 20 x_25 + 24 x_26 + 49 x_27 + 21 x_28 + 23 x_29 + 22 x_30 + 29 x_31 + 22 x_32 + 2 x_33 + 7 x_34 + 22 x_35 + 5 x_36 + 5 x_37 + 17 x_38 + 3 x_39 + 8 x_40 = 258
	c_15: + 9 x_1 + 44 x_2 + 32 x_3 + 1 x_4 + 41 x_5 + 21 x_6 + 19 x_7 + 43 x_8 + 13 x_9 + 36 x_10 + 5 x_11 + 25 x_12 + 50 x_13 + 19 x_14 + 42 x_15 + 37 x_16 + 46 x_17 + 4 x_18 + 29 x_19 + 40 x_20 + 38 x_21 + 35 x_22 + 47 x_23 + 13 x_24 + 38 x_25 + 47 x_26 + 15 x_27 + 10 x_28 + 25 x_29 + 2 x_30 + 26 x_31 + 38 x_32 + 33 x_33 + 48 x_34 + 19 x_35 + 27 x_36 + 44 x_37 + 12 x_38 + 15 x_39 + 24 x_40 = 393
Bounds
  0 <= x_1 <= 1
  0 <= x_2 <= 1
  0 <= x_3 <= 1
  0 <= x_4 <= 1
  0 <= x_5 <= 1
  0 <= x_6 <= 1
  0 <= x_7 <= 1
  0 <= x_8 <= 1
  0 <= x_9 <= 1
  0 <= x_10 <= 1
  0 <= x_11 <= 1
  0 <= x_12 <= 1
  0 <= x_13 <= 1
  0 <= x_14 <= 1
  0 <= x_15 <= 1
  0 <= x_16 <= 1
  0 <= x_17 <= 1
  0 <= x_18 <= 1
  0 <= x_19 <= 1
  0 <= x_20 <= 1
  0 <= x_21 <= 1
  0 <= x_22 <= 1
  0 <= x_23 <= 1
  0 <= x_24 <= 1
  0 <= x_25 <= 1
  0 <= x_26 <= 1
  0 <= x_27 <= 1
  0 <= x_28 <= 1
  0 <= x_29 <= 1
  0 <= x_30 <= 1
  0 <= x_31 <= 1
  0 <= x_32 <= 1
  0 <= x_33 <= 1
  0 <= x_34 <= 1
  0 <= x_35 <= 1
  0 <= x_36 <= 1
  0 <= x_37 <= 1
  0 <= x_38 <= 1
  0 <= x_39 <= 1
  0 <= x_40 <= 1
End
