Subject To
	c_1: + 16 x_1 + 44 x_2 + 14 x_3 + 24 x_4 + 44 x_5 + 46 x_6 + 44 x_7 + 1 x_8 + 23 x_9 + 18 x_10 + 19 x_11 + 43 x_12 + 11 x_13 + 50 x_14 + 47 x_15 + 38 x_16 + 46 x_17 + 13 x_18 + 19 x_19 + 26 x_20 + 9 x_21 + 32 x_22 + 14 x_23 + 21 x_24 + 18 x_25 + 4 x_26 + 2 x_27 + 37 x_28 + 46 x_29 + 29 x_30 + 44 x_31 + 20 x_32 + 38 x_33 + 44 x_34 + 3 x_35 + 31 x_36 + 8 x_37 + 19 x_38 + 32 x_39 + 23 x_40 = 761
	c_2: + 13 x_1 + 5 x_2 + 26 x_3 + 49 x_4 + 14 x_5 + 45 x_6 + 22 x_7 + 10 x_8 + 37 x_9 + 28 x_10 + 2 x_11 + 39 x_12 + 3 x_13 + 9 x_14 + 49 x_15 + 7 x_16 + 43 x_17 + 20 x_18 + 24 x_19 + 15 x_20 + 5 x_21 + 2 x_22 + 12 x_23 + 42 x_24 + 7 x_25 + 28 x_26 + 5 x_27 + 6 x_28 + 49 x_29 + 28 x_30 + 33 x_31 + 13 x_32 + 20 x_33 + 22 x_34 + 47 x_35 + 45 x_36 + 48 x_37 + 47 x_38 + 44 x_39 + 42 x_40 = 497
	c_3: + 49 x_1 + 20 x_2 + 8 x_3 + 2 x_4 + 38 x_5 + 18 x_6 + 40 x_7 + 30 x_8 + 2 x_9 + 25 x_10 + 47 x_11 + 11 x_12 + 18 x_13 + 20 x_14 + 47 x_15 + 21 x_16 + 22 x_17 + 50 x_18 + 36 x_19 + 43 x_20 + 13 x_21 + 35 x_22 + 33 x_23 + 41 x_24 + 45 x_25 + 30 x_26 + 1 x_27 + 39 x_28 + 44 x_29 + 44 x_30 + 9 x_31 + 5 x_32 + 16 x_33 + 12 x_34 + 33 x_35 + 5 x_36 + 40 x_37 + 17 x_38 + 26 x_39 + 36 x_40 = 510
	c_4: + 19 x_1 + 37 x_2 + 24 x_3 + 49 x_4 + 16 x_5 + 10 x_6 + 47 x_7 + 16 x_8 + 14 x_9 + 32 x_10 + 32 x_11 + 34 x_12 + 31 x_13 + 4 x_14 + 29 x_15 + 46 x_16 + 44 x_17 + 41 x_18 + 33 x_19 + 39 x_20 + 24 x_21 + 17 x_22 + 33 x_23 + 40 x_24 + 43 x_25 + 46 x_26 + 26 x_27 + 47 x_28 + 17 x_29 + 38 x_30 + 7 x_31 + 13 x_32 + 3 x_33 + 38 x_34 + 39 x_35 + 2 x_36 + 26 x_37 + 37 x_38 + 23 x_39 + 39 x_40 = 498
	c_5: + 49 x_1 + 34 x_2 + 24 x_3 + 45 x_4 + 2 x_5 + 14 x_6 + 15 x_7 + 29 x_8 + 41 x_9 + 31 x_10 + 31 x_11 + 23 x_12 + 36 x_13 + 29 x_14 + 19 x_15 + 2 x_16 + 30 x_17 + 6 x_18 + 23 x_19 + 18 x_20 + 2 x_21 + 28 x_22 + 4 x_23 + 16 x_24 + 21 x_25 + 44 x_26 + 49 x_27 + 8 x_28 + 17 x_29 + 6 x_30 + 46 x_31 + 7 x_32 + 42 x_33 + 2 x_34 + 22 x_35 + 50 x_36 + 31 x_37 + 44 x_38 + 12 x_39 + 41 x_40 = 397
	c_6: + 36 x_1 + 6 x_2 + 22 x_3 + 31 x_4 + 3 x_5 + 19 x_6 + 19 x_7 + 28 x_8 + 12 x_9 + 1 x_10 + 4 x_11 + 40 x_12 + 49 x_13 + 16 x_14 + 4 x_15 + 47 x_16 + 12 x_17 + 25 x_18 + 28 x_19 + 45 x_20 + 22 x_21 + 1 x_22 + 25 x_23 + 26 x_24 + 29 x_25 + 8 x_26 + 5 x_27 + 8 x_28 + 9 x_29 + 8 x_30 + 49 x_31 + 41 x_32 + 19 x_33 + 21 x_34 + 36 x_35 + 18 x_36 + 26 x_37 + 4 x_38 + 17 x_39 + 1 x_40 = 361
	c_7: + 10 x_1 + 30 x_2 + 26 x_3 + 17 x_4 + 18 x_5 + 38 x_6 + 45 x_7 + 33 x_8 + 30 x_9 + 8 x_10 + 32 x_11 + 20 x_12 + 46 x_13 + 27 x_14 + 21 x_15 + 16 x_16 + 19 x_17 + 48 x_18 + 27 x_19 + 16 x_20 + 45 x_21 + 34 x_22 + 39 x_23 + 15 x_24 + 8 x_25 + 34 x_26 + 27 x_27 + 14 x_28 + 39 x_29 + 26 x_30 + 9 x_31 + 40 x_32 + 21 x_33 + 41 x_34 + 44 x_35 + 2 x_36 + 47 x_37 + 33 x_38 + 35 x_39 + 33 x_40 = 471
	c_8: + 23 x_1 + 1 x_2 + 43 x_3 + 21 x_4 + 30 x_5 + 47 x_6 + 6 x_7 + 3 x_8 + 11 x_9 + 4 x_10 + 45 x_11 + 39 x_12 + 43 x_13 + 32 x_14 + 25 x_15 + 30 x_16 + 9 x_17 + 14 x_18 + 45 x_19 + 35 x_20 + 15 x_21 + 7 x_22 + 16 x_23 + 9 x_24 + 8 x_25 + 26 x_26 + 21 x_27 + 44 x_28 + 46 x_29 + 1 x_30 + 3 x_31 + 9 x_32 + 19 x_33 + 8 x_34 + 26 x_35 + 32 x_36 + 14 x_37 + 14 x_38 + 5 x_39 + 3 x_40 = 419
	c_9: + 25 x_1 + 3 x_2 + 38 x_3 + 35 x_4 + 23 x_5 + 10 x_6 + 39 x_7 + 43 x_8 + 5 x_9 + 46 x_10 + 40 x_11 + 15 x_12 + 18 x_13 + 20 x_14 + 40 x_15 + 5 x_16 + 24 x_17 + 32 x_18 + 8 x_19 + 32 x_20 + 43 x_21 + 46 x_22 + 5 x_23 + 44 x_24 + 30 x_25 + 18 x_26 + 33 x_27 + 8 x_28 + 21 x_29 + 5 x_30 + 25 x_31 + 24 x_32 + 25 x_33 + 28 x_34 + 37 x_35 + 38 x_36 + 24 x_37 + 12 x_38 + 29 x_39 + 21 x_40 = 436
	c_10: + 1 x_1 + 10 x_2 + 37 x_3 + 20 x_4 + 4 x_5 + 1 x_6 + 32 x_7 + 10 x_8 + 35 x_9 + 39 x_10 + 27 x_11 + 21 x_12 + 26 x_13 + 2 x_14 + 18 x_15 + 40 x_16 + 42 x_17 + 48 x_18 + 8 x_19 + 7 x_20 + 25 x_21 + 12 x_22 + 39 x_23 + 40 x_24 + 37 x_25 + 25 x_26 + 4 x_27 + 19 x_28 + 39 x_29 + 42 x_30 + 19 x_31 + 37 x_32 + 11 x_33 + 25 x_34 + 46 x_35 + 25 x_36 + 45 x_37 + 50 x_38 + 2 x_39 + 16 x_40 = 371
	c_11: + 32 x_1 + 50 x_2 + 29 x_3 + 10 x_4 + 26 x_5 + 22 x_6 + 28 x_7 + 2 x_8 + 28 x_9 + 42 x_10 + 5 x_11 + 27 x_12 + 17 x_13 + 7 x_14 + 47 x_15 + 48 x_16 + 24 x_17 + 31 x_18 + 1 x_19 + 17 x_20 + 26 x_21 + 21 x_22 + 3 x_23 + 33 x_24 + 8 x_25 + 50 x_26 + 49 x_27 + 35 x_28 + 45 x_29 + 43 x_30 + 22 x_31 + 6 x_32 + 14 x_33 + 44 x_34 + 43 x_35 + 16 x_36 + 17 x_37 + 9 x_38 + 15 x_39 + 1 x_40 = 551
	c_12: + 42 x_1 + 20 x_2 + 5 x_3 + 22 x_4 + 48 x_5 + 48 x_6 + 50 x_7 + 19 x_8 + 11 x_9 + 48 x_10 + 26 x_11 + 8 x_12 + 13 x_13 + 26 x_14 + 45 x_15 + 44 x_16 + 35 x_17 + 8 x_18 + 1 x_19 + 6 x_20 + 36 x_21 + 21 x_22 + 11 x_23 + 30 x_24 + 3 x_25 + 39 x_26 + 34 x_27 + 12 x_28 + 39 x_29 + 20 x_30 + 2 x_31 + 6 x_32 + 4 x_33 + 16 x_34 + 19 x_35 + 22 x_36 + 7 x_37 + 12 x_38 + 33 x_39 + 18 x_40 = 499
	c_13: + 28 x_1 + 9 x_2 + 3 x_3 + 16 x_4 + 11 x_5 + 17 x_6 + 31 x_7 + 16 x_8 + 34 x_9 + 16 x_10 + 48 x_11 + 37 x_12 + 15 x_13 + 37 x_14 + 16 x_15 + 8 x_16 + 19 x_17 + 6 x_18 + 31 x_19 + 19 x_20 + 16 x_21 + 24 x_22 + 23 x_23 + 23 x_24 + 25 x_25 + 48 x_26 + 17 x_27 + 20 x_28 + 7 x_29 + 36 x_30 + 34 x_31 + 15 x_32 + 23 x_33 + 10 x_34 + 38 x_35 + 30 x_36 + 45 x_37 + 49 x_38 + 15 x_39 + 29 x_40 = 403
	c_14: + 33 x_1 + 39 x_2 + 48 x_3 + 11 x_4 + 27 x_5 + 3 x_6 + 21 x_7 + 21 x_8 + 16 x_9 + 25 x_10 + 46 x_11 + 26 x_12 + 30 x_13 + 37 x_14 + 16 x_15 + 40 x_16 + 1 x_17 + 50 x_18 + 39 x_19 + 16 x_20 + 3 x_21 + 25 x_22 + 1 x_23 + 36 x_24 + 10 x_25 + 25 x_26 + 32 x_27 + 24 x_28 + 25 x_29 + 36 x_30 + 9 x_31 + 5 x_32 + 29 x_33 + 28 x_34 + 29 x_35 + 17 x_36 + 31 x_37 + 28 x_38 + 11 x_39 + 21 x_40 = 430
	c_15: + 36 x_1 + 14 x_2 + 20 x_3 + 6 x_4 + 28 x_5 + 11 x_6 + 29 x_7 + 40 x_8 + 3 x_9 + 38 x_10 + 4 x_11 + 11 x_12 + 8 x_13 + 22 x_14 + 42 x_15 + 41 x_16 + 47 x_17 + 20 x_18 + 50 x_19 + 41 x_20 + 8 x_21 + 1 x_22 + 45 x_23 + 44 x_24 + 46 x_25 + 44 x_26 + 23 x_27 + 20 x_28 + 24 x_29 + 14 x_30 + 25 x_31 + 16 x_32 + 39 x_33 + 28 x_34 + 46 x_35 + 5 x_36 + 41 x_37 + 28 x_38 + 30 x_39 + 49 x_40 = 472
Bounds
  0 <= x_1 <= 1
  0 <= x_2 <= 1
  0 <= x_3 <= 1
  0 <= x_4 <= 1
  0 <= x_5 <= 1
  0 <= x_6 <= 1
  0 <= x_7 <= 1
  0 <= x_8 <= 1
  0 <= x_9 <= 1
  0 <= x_10 <= 1
  0 <= x_11 <= 1
  0 <= x_12 <= 1
  0 <= x_13 <= 1
  0 <= x_14 <= 1
  0 <= x_15 <= 1
  0 <= x_16 <= 1
  0 <= x_17 <= 1
  0 <= x_18 <= 1
  0 <= x_19 <= 1
  0 <= x_20 <= 1
  0 <= x_21 <= 1
  0 <= x_22 <= 1
  0 <= x_23 <= 1
  0 <= x_24 <= 1
  0 <= x_25 <= 1
  0 <= x_26 <= 1
  0 <= x_27 <= 1
  0 <= x_28 <= 1
  0 <= x_29 <= 1
  0 <= x_30 <= 1
  0 <= x_31 <= 1
  0 <= x_32 <= 1
  0 <= x_33 <= 1
  0 <= x_34 <= 1
  0 <= x_35 <= 1
  0 <= x_36 <= 1
  0 <= x_37 <= 1
  0 <= x_38 <= 1
  0 <= x_39 <= 1
  0 <= x_40 <= 1
End
