Subject To
	c_1: + 32 x_1 + 33 x_2 + 7 x_3 + 7 x_4 + 29 x_5 + 10 x_6 + 2 x_7 + 15 x_8 + 32 x_9 + 41 x_10 + 32 x_11 + 39 x_12 + 18 x_13 + 31 x_14 + 11 x_15 + 25 x_16 + 43 x_17 + 43 x_18 + 16 x_19 + 17 x_20 + 36 x_21 + 40 x_22 + 9 x_23 + 12 x_24 + 31 x_25 + 18 x_26 + 45 x_27 + 48 x_28 + 30 x_29 + 29 x_30 + 15 x_31 + 15 x_32 + 2 x_33 + 6 x_34 + 13 x_35 + 6 x_36 + 41 x_37 + 34 x_38 + 49 x_39 + 45 x_40 = 783
	c_2: + 31 x_1 + 21 x_2 + 42 x_3 + 24 x_4 + 31 x_5 + 2 x_6 + 4 x_7 + 9 x_8 + 4 x_9 + 48 x_10 + 45 x_11 + 1 x_12 + 32 x_13 + 9 x_14 + 34 x_15 + 19 x_16 + 36 x_17 + 37 x_18 + 11 x_19 + 29 x_20 + 17 x_21 + 1 x_22 + 7 x_23 + 23 x_24 + 37 x_25 + 14 x_26 + 50 x_27 + 34 x_28 + 47 x_29 + 14 x_30 + 30 x_31 + 20 x_32 + 12 x_33 + 3 x_34 + 9 x_35 + 42 x_36 + 6 x_37 + 42 x_38 + 2 x_39 + 31 x_40 = 544
	c_3: + 45 x_1 + 20 x_2 + 22 x_3 + 39 x_4 + 8 x_5 + 13 x_6 + 2 x_7 + 4 x_8 + 43 x_9 + 14 x_10 + 19 x_11 + 5 x_12 + 44 x_13 + 30 x_14 + 5 x_15 + 19 x_16 + 13 x_17 + 30 x_18 + 11 x_19 + 12 x_20 + 32 x_21 + 11 x_22 + 15 x_23 + 37 x_24 + 19 x_25 + 36 x_26 + 16 x_27 + 41 x_28 + 19 x_29 + 12 x_30 + 47 x_31 + 48 x_32 + 34 x_33 + 7 x_34 + 29 x_35 + 32 x_36 + 9 x_37 + 40 x_38 + 30 x_39 + 30 x_40 = 486
	c_4: + 17 x_1 + 47 x_2 + 2 x_3 + 47 x_4 + 36 x_5 + 5 x_6 + 3 x_7 + 19 x_8 + 35 x_9 + 4 x_10 + 7 x_11 + 38 x_12 + 50 x_13 + 29 x_14 + 48 x_15 + 20 x_16 + 31 x_17 + 15 x_18 + 28 x_19 + 39 x_20 + 16 x_21 + 21 x_22 + 30 x_23 + 9 x_24 + 22 x_25 + 34 x_26 + 16 x_27 + 2 x_28 + 9 x_29 + 3 x_30 + 17 x_31 + 42 x_32 + 46 x_33 + 27 x_34 + 2 x_35 + 7 x_36 + 24 x_37 + 16 x_38 + 28 x_39 + 18 x_40 = 434
	c_5: + 40 x_1 + 50 x_2 + 25 x_3 + 37 x_4 + 19 x_5 + 14 x_6 + 10 x_7 + 14 x_8 + 36 x_9 + 42 x_10 + 31 x_11 + 15 x_12 + 25 x_13 + 31 x_14 + 21 x_15 + 28 x_16 + 50 x_17 + 42 x_18 + 42 x_19 + 44 x_20 + 19 x_21 + 19 x_22 + 15 x_23 + 49 x_24 + 7 x_25 + 19 x_26 + 47 x_27 + 6 x_28 + 49 x_29 + 41 x_30 + 11 x_31 + 25 x_32 + 14 x_33 + 17 x_34 + 17 x_35 + 25 x_36 + 14 x_37 + 14 x_38 + 12 x_39 + 24 x_40 = 608
	c_6: + 47 x_1 + 8 x_2 + 34 x_3 + 4 x_4 + 35 x_5 + 38 x_6 + 10 x_7 + 38 x_8 + 5 x_9 + 4 x_10 + 49 x_11 + 49 x_12 + 39 x_13 + 9 x_14 + 11 x_15 + 50 x_16 + 17 x_17 + 43 x_18 + 26 x_19 + 28 x_20 + 12 x_21 + 1 x_22 + 44 x_23 + 18 x_24 + 20 x_25 + 11 x_26 + 21 x_27 + 37 x_28 + 45 x_29 + 18 x_30 + 31 x_31 + 20 x_32 + 27 x_33 + 14 x_34 + 6 x_35 + 27 x_36 + 47 x_37 + 33 x_38 + 13 x_39 + 14 x_40 = 527
	c_7: + 23 x_1 + 50 x_2 + 19 x_3 + 15 x_4 + 6 x_5 + 36 x_6 + 16 x_7 + 48 x_8 + 6 x_9 + 13 x_10 + 5 x_11 + 44 x_12 + 19 x_13 + 47 x_14 + 17 x_15 + 43 x_16 + 29 x_17 + 36 x_18 + 40 x_19 + 50 x_20 + 2 x_21 + 37 x_22 + 18 x_23 + 25 x_24 + 17 x_25 + 8 x_26 + 1 x_27 + 19 x_28 + 27 x_29 + 27 x_30 + 43 x_31 + 12 x_32 + 42 x_33 + 42 x_34 + 49 x_35 + 45 x_36 + 24 x_37 + 45 x_38 + 14 x_39 + 5 x_40 = 477
	c_8: + 22 x_1 + 44 x_2 + 22 x_3 + 11 x_4 + 6 x_5 + 3 x_6 + 28 x_7 + 38 x_8 + 37 x_9 + 27 x_10 + 28 x_11 + 2 x_12 + 20 x_13 + 47 x_14 + 48 x_15 + 16 x_16 + 32 x_17 + 50 x_18 + 29 x_19 + 32 x_20 + 26 x_21 + 18 x_22 + 25 x_23 + 24 x_24 + 9 x_25 + 39 x_26 + 14 x_27 + 17 x_28 + 30 x_29 + 43 x_30 + 31 x_31 + 11 x_32 + 11 x_33 + 6 x_34 + 18 x_35 + 42 x_36 + 31 x_37 + 44 x_38 + 2 x_39 + 37 x_40 = 566
	c_9: + 10 x_1 + 36 x_2 + 30 x_3 + 32 x_4 + 40 x_5 + 48 x_6 + 47 x_7 + 45 x_8 + 31 x_9 + 44 x_10 + 16 x_11 + 36 x_12 + 5 x_13 + 6 x_14 + 12 x_15 + 34 x_16 + 32 x_17 + 43 x_18 + 2 x_19 + 23 x_20 + 5 x_21 + 7 x_22 + 4 x_23 + 23 x_24 + 17 x_25 + 49 x_26 + 25 x_27 + 50 x_28 + 16 x_29 + 36 x_30 + 48 x_31 + 40 x_32 + 28 x_33 + 13 x_34 + 21 x_35 + 12 x_36 + 25 x_37 + 21 x_38 + 48 x_39 + 21 x_40 = 565
	c_10: + 1 x_1 + 29 x_2 + 6 x_3 + 22 x_4 + 3 x_5 + 19 x_6 + 36 x_7 + 16 x_8 + 16 x_9 + 36 x_10 + 41 x_11 + 45 x_12 + 29 x_13 + 21 x_14 + 12 x_15 + 45 x_16 + 14 x_17 + 41 x_18 + 8 x_19 + 14 x_20 + 18 x_21 + 24 x_22 + 11 x_23 + 2 x_24 + 15 x_25 + 20 x_26 + 45 x_27 + 5 x_28 + 10 x_29 + 19 x_30 + 35 x_31 + 31 x_32 + 34 x_33 + 23 x_34 + 45 x_35 + 25 x_36 + 27 x_37 + 12 x_38 + 18 x_39 + 49 x_40 = 489
	c_11: + 3 x_1 + 39 x_2 + 23 x_3 + 35 x_4 + 15 x_5 + 20 x_6 + 43 x_7 + 11 x_8 + 33 x_9 + 32 x_10 + 26 x_11 + 17 x_12 + 8 x_13 + 43 x_14 + 29 x_15 + 48 x_16 + 14 x_17 + 28 x_18 + 47 x_19 + 50 x_20 + 31 x_21 + 16 x_22 + 9 x_23 + 38 x_24 + 17 x_25 + 50 x_26 + 26 x_27 + 19 x_28 + 36 x_29 + 2 x_30 + 12 x_31 + 14 x_32 + 2 x_33 + 10 x_34 + 25 x_35 + 39 x_36 + 43 x_37 + 1 x_38 + 16 x_39 + 38 x_40 = 495
	c_12: + 21 x_1 + 48 x_2 + 4 x_3 + 25 x_4 + 4 x_5 + 37 x_6 + 21 x_7 + 3 x_8 + 4 x_9 + 36 x_10 + 18 x_11 + 48 x_12 + 46 x_13 + 25 x_14 + 24 x_15 + 6 x_16 + 11 x_17 + 45 x_18 + 17 x_19 + 36 x_20 + 21 x_21 + 25 x_22 + 28 x_23 + 42 x_24 + 44 x_25 + 46 x_26 + 33 x_27 + 33 x_28 + 23 x_29 + 2 x_30 + 43 x_31 + 48 x_32 + 3 x_33 + 24 x_34 + 1 x_35 + 34 x_36 + 49 x_37 + 23 x_38 + 5 x_39 + 20 x_40 = 538
	c_13: + 10 x_1 + 28 x_2 + 8 x_3 + 46 x_4 + 15 x_5 + 23 x_6 + 17 x_7 + 36 x_8 + 1 x_9 + 41 x_10 + 43 x_11 + 32 x_12 + 47 x_13 + 5 x_14 + 47 x_15 + 17 x_16 + 16 x_17 + 9 x_18 + 31 x_19 + 19 x_20 + 41 x_21 + 8 x_22 + 49 x_23 + 16 x_24 + 13 x_25 + 2 x_26 + 36 x_27 + 48 x_28 + 6 x_29 + 11 x_30 + 17 x_31 + 12 x_32 + 11 x_33 + 32 x_34 + 46 x_35 + 12 x_36 + 50 x_37 + 8 x_38 + 1 x_39 + 49 x_40 = 471
	c_14: + 39 x_1 + 20 x_2 + 17 x_3 + 45 x_4 + 4 x_5 + 32 x_6 + 9 x_7 + 2 x_8 + 33 x_9 + 40 x_10 + 17 x_11 + 18 x_12 + 50 x_13 + 18 x_14 + 31 x_15 + 26 x_16 + 45 x_17 + 40 x_18 + 11 x_19 + 27 x_20 + 20 x_21 + 21 x_22 + 45 x_23 + 43 x_24 + 2 x_25 + 5 x_26 + 33 x_27 + 32 x_28 + 32 x_29 + 12 x_30 + 43 x_31 + 40 x_32 + 20 x_33 + 8 x_34 + 10 x_35 + 49 x_36 + 34 x_37 + 32 x_38 + 45 x_39 + 19 x_40 = 556
	c_15: + 31 x_1 + 40 x_2 + 9 x_3 + 11 x_4 + 22 x_5 + 47 x_6 + 1 x_7 + 45 x_8 + 17 x_9 + 27 x_10 + 14 x_11 + 15 x_12 + 14 x_13 + 17 x_14 + 44 x_15 + 36 x_16 + 33 x_17 + 3 x_18 + 3 x_19 + 50 x_20 + 8 x_21 + 45 x_22 + 47 x_23 + 4 x_24 + 26 x_25 + 22 x_26 + 21 x_27 + 8 x_28 + 33 x_29 + 45 x_30 + 29 x_31 + 11 x_32 + 24 x_33 + 50 x_34 + 27 x_35 + 7 x_36 + 14 x_37 + 3 x_38 + 31 x_39 + 20 x_40 = 473
Bounds
  0 <= x_1 <= 1
  0 <= x_2 <= 1
  0 <= x_3 <= 1
  0 <= x_4 <= 1
  0 <= x_5 <= 1
  0 <= x_6 <= 1
  0 <= x_7 <= 1
  0 <= x_8 <= 1
  0 <= x_9 <= 1
  0 <= x_10 <= 1
  0 <= x_11 <= 1
  0 <= x_12 <= 1
  0 <= x_13 <= 1
  0 <= x_14 <= 1
  0 <= x_15 <= 1
  0 <= x_16 <= 1
  0 <= x_17 <= 1
  0 <= x_18 <= 1
  0 <= x_19 <= 1
  0 <= x_20 <= 1
  0 <= x_21 <= 1
  0 <= x_22 <= 1
  0 <= x_23 <= 1
  0 <= x_24 <= 1
  0 <= x_25 <= 1
  0 <= x_26 <= 1
  0 <= x_27 <= 1
  0 <= x_28 <= 1
  0 <= x_29 <= 1
  0 <= x_30 <= 1
  0 <= x_31 <= 1
  0 <= x_32 <= 1
  0 <= x_33 <= 1
  0 <= x_34 <= 1
  0 <= x_35 <= 1
  0 <= x_36 <= 1
  0 <= x_37 <= 1
  0 <= x_38 <= 1
  0 <= x_39 <= 1
  0 <= x_40 <= 1
End
