Subject To
	c_1: + 38 x_1 + 4 x_2 + 44 x_3 + 48 x_4 + 50 x_5 + 16 x_6 + 50 x_7 + 43 x_8 + 2 x_9 + 27 x_10 + 45 x_11 + 46 x_12 + 33 x_13 + 47 x_14 + 23 x_15 + 28 x_16 + 40 x_17 + 22 x_18 + 42 x_19 + 41 x_20 + 22 x_21 + 22 x_22 + 49 x_23 + 3 x_24 + 36 x_25 + 23 x_26 + 25 x_27 + 49 x_28 + 29 x_29 + 39 x_30 + 9 x_31 + 24 x_32 + 31 x_33 + 27 x_34 + 26 x_35 + 37 x_36 + 12 x_37 + 41 x_38 + 48 x_39 + 25 x_40 = 1034
	c_2: + 43 x_1 + 12 x_2 + 2 x_3 + 3 x_4 + 46 x_5 + 39 x_6 + 20 x_7 + 19 x_8 + 27 x_9 + 18 x_10 + 37 x_11 + 39 x_12 + 21 x_13 + 2 x_14 + 49 x_15 + 36 x_16 + 4 x_17 + 19 x_18 + 42 x_19 + 1 x_20 + 29 x_21 + 28 x_22 + 28 x_23 + 8 x_24 + 35 x_25 + 16 x_26 + 40 x_27 + 15 x_28 + 4 x_29 + 24 x_30 + 20 x_31 + 46 x_32 + 14 x_33 + 9 x_34 + 17 x_35 + 49 x_36 + 44 x_37 + 10 x_38 + 28 x_39 + 31 x_40 = 566
	c_3: + 44 x_1 + 2 x_2 + 41 x_3 + 29 x_4 + 31 x_5 + 22 x_6 + 40 x_7 + 48 x_8 + 47 x_9 + 1 x_10 + 24 x_11 + 5 x_12 + 17 x_13 + 28 x_14 + 2 x_15 + 27 x_16 + 10 x_17 + 6 x_18 + 9 x_19 + 15 x_20 + 45 x_21 + 41 x_22 + 49 x_23 + 50 x_24 + 37 x_25 + 23 x_26 + 41 x_27 + 44 x_28 + 6 x_29 + 45 x_30 + 22 x_31 + 36 x_32 + 28 x_33 + 28 x_34 + 24 x_35 + 11 x_36 + 29 x_37 + 21 x_38 + 48 x_39 + 43 x_40 = 710
	c_4: + 42 x_1 + 1 x_2 + 19 x_3 + 30 x_4 + 37 x_5 + 23 x_6 + 19 x_7 + 13 x_8 + 34 x_9 + 10 x_10 + 7 x_11 + 45 x_12 + 21 x_13 + 20 x_14 + 23 x_15 + 22 x_16 + 42 x_17 + 29 x_18 + 23 x_19 + 10 x_20 + 17 x_21 + 8 x_22 + 19 x_23 + 17 x_24 + 22 x_25 + 43 x_26 + 5 x_27 + 26 x_28 + 14 x_29 + 2 x_30 + 19 x_31 + 45 x_32 + 36 x_33 + 15 x_34 + 39 x_35 + 34 x_36 + 28 x_37 + 4 x_38 + 43 x_39 + 34 x_40 = 614
	c_5: + 9 x_1 + 23 x_2 + 11 x_3 + 9 x_4 + 42 x_5 + 29 x_6 + 20 x_7 + 47 x_8 + 17 x_9 + 27 x_10 + 1 x_11 + 39 x_12 + 18 x_13 + 23 x_14 + 27 x_15 + 44 x_16 + 29 x_17 + 21 x_18 + 48 x_19 + 37 x_20 + 11 x_21 + 37 x_22 + 6 x_23 + 35 x_24 + 24 x_25 + 7 x_26 + 16 x_27 + 34 x_28 + 27 x_29 + 6 x_30 + 20 x_31 + 20 x_32 + 7 x_33 + 14 x_34 + 35 x_35 + 22 x_36 + 45 x_37 + 21 x_38 + 24 x_39 + 27 x_40 = 624
	c_6: + 18 x_1 + 22 x_2 + 42 x_3 + 8 x_4 + 38 x_5 + 32 x_6 + 32 x_7 + 19 x_8 + 26 x_9 + 12 x_10 + 17 x_11 + 42 x_12 + 8 x_13 + 46 x_14 + 41 x_15 + 20 x_16 + 10 x_17 + 10 x_18 + 11 x_19 + 31 x_20 + 36 x_21 + 33 x_22 + 27 x_23 + 24 x_24 + 37 x_25 + 30 x_26 + 39 x_27 + 11 x_28 + 46 x_29 + 17 x_30 + 13 x_31 + 48 x_32 + 48 x_33 + 8 x_34 + 6 x_35 + 15 x_36 + 15 x_37 + 20 x_38 + 40 x_39 + 3 x_40 = 629
	c_7: + 7 x_1 + 29 x_2 + 28 x_3 + 8 x_4 + 15 x_5 + 27 x_6 + 50 x_7 + 27 x_8 + 25 x_9 + 5 x_10 + 33 x_11 + 12 x_12 + 10 x_13 + 2 x_14 + 29 x_15 + 29 x_16 + 15 x_17 + 42 x_18 + 31 x_19 + 28 x_20 + 33 x_21 + 37 x_22 + 34 x_23 + 6 x_24 + 40 x_25 + 18 x_26 + 41 x_27 + 24 x_28 + 24 x_29 + 1 x_30 + 8 x_31 + 7 x_32 + 18 x_33 + 12 x_34 + 24 x_35 + 22 x_36 + 9 x_37 + 46 x_38 + 1 x_39 + 22 x_40 = 546
	c_8: + 8 x_1 + 2 x_2 + 36 x_3 + 27 x_4 + 33 x_5 + 32 x_6 + 42 x_7 + 4 x_8 + 28 x_9 + 8 x_10 + 12 x_11 + 38 x_12 + 3 x_13 + 30 x_14 + 22 x_15 + 12 x_16 + 2 x_17 + 30 x_18 + 7 x_19 + 21 x_20 + 31 x_21 + 20 x_22 + 3 x_23 + 40 x_24 + 40 x_25 + 22 x_26 + 20 x_27 + 4 x_28 + 12 x_29 + 33 x_30 + 32 x_31 + 43 x_32 + 23 x_33 + 43 x_34 + 46 x_35 + 30 x_36 + 11 x_37 + 18 x_38 + 3 x_39 + 39 x_40 = 538
	c_9: + 3 x_1 + 30 x_2 + 6 x_3 + 48 x_4 + 32 x_5 + 10 x_6 + 9 x_7 + 20 x_8 + 50 x_9 + 41 x_10 + 46 x_11 + 10 x_12 + 46 x_13 + 45 x_14 + 11 x_15 + 33 x_16 + 37 x_17 + 28 x_18 + 44 x_19 + 4 x_20 + 6 x_21 + 10 x_22 + 25 x_23 + 4 x_24 + 24 x_25 + 49 x_26 + 44 x_27 + 33 x_28 + 40 x_29 + 29 x_30 + 49 x_31 + 37 x_32 + 37 x_33 + 43 x_34 + 9 x_35 + 26 x_36 + 20 x_37 + 34 x_38 + 8 x_39 + 24 x_40 = 732
	c_10: + 44 x_1 + 42 x_2 + 40 x_3 + 14 x_4 + 2 x_5 + 41 x_6 + 49 x_7 + 4 x_8 + 8 x_9 + 13 x_10 + 21 x_11 + 43 x_12 + 26 x_13 + 7 x_14 + 46 x_15 + 44 x_16 + 40 x_17 + 44 x_18 + 48 x_19 + 44 x_20 + 34 x_21 + 28 x_22 + 41 x_23 + 21 x_24 + 43 x_25 + 15 x_26 + 41 x_27 + 9 x_28 + 25 x_29 + 13 x_30 + 27 x_31 + 46 x_32 + 50 x_33 + 13 x_34 + 35 x_35 + 41 x_36 + 13 x_37 + 10 x_38 + 49 x_39 + 34 x_40 = 768
	c_11: + 8 x_1 + 35 x_2 + 14 x_3 + 39 x_4 + 19 x_5 + 1 x_6 + 31 x_7 + 30 x_8 + 4 x_9 + 29 x_10 + 7 x_11 + 40 x_12 + 36 x_13 + 38 x_14 + 8 x_15 + 13 x_16 + 1 x_17 + 48 x_18 + 49 x_19 + 17 x_20 + 44 x_21 + 25 x_22 + 9 x_23 + 45 x_24 + 49 x_25 + 41 x_26 + 9 x_27 + 15 x_28 + 3 x_29 + 24 x_30 + 5 x_31 + 48 x_32 + 28 x_33 + 29 x_34 + 47 x_35 + 17 x_36 + 13 x_37 + 11 x_38 + 29 x_39 + 39 x_40 = 632
	c_12: + 15 x_1 + 25 x_2 + 14 x_3 + 24 x_4 + 1 x_5 + 21 x_6 + 30 x_7 + 31 x_8 + 44 x_9 + 20 x_10 + 20 x_11 + 11 x_12 + 17 x_13 + 23 x_14 + 2 x_15 + 45 x_16 + 28 x_17 + 10 x_18 + 26 x_19 + 8 x_20 + 15 x_21 + 31 x_22 + 5 x_23 + 21 x_24 + 35 x_25 + 15 x_26 + 12 x_27 + 30 x_28 + 8 x_29 + 1 x_30 + 27 x_31 + 20 x_32 + 41 x_33 + 44 x_34 + 20 x_35 + 10 x_36 + 8 x_37 + 13 x_38 + 42 x_39 + 45 x_40 = 562
	c_13: + 4 x_1 + 49 x_2 + 4 x_3 + 30 x_4 + 30 x_5 + 44 x_6 + 26 x_7 + 3 x_8 + 50 x_9 + 10 x_10 + 38 x_11 + 6 x_12 + 41 x_13 + 42 x_14 + 42 x_15 + 12 x_16 + 33 x_17 + 3 x_18 + 2 x_19 + 7 x_20 + 7 x_21 + 16 x_22 + 41 x_23 + 32 x_24 + 11 x_25 + 29 x_26 + 13 x_27 + 26 x_28 + 50 x_29 + 22 x_30 + 28 x_31 + 10 x_32 + 3 x_33 + 28 x_34 + 39 x_35 + 7 x_36 + 40 x_37 + 33 x_38 + 47 x_39 + 23 x_40 = 595
	c_14: + 21 x_1 + 10 x_2 + 6 x_3 + 31 x_4 + 29 x_5 + 20 x_6 + 19 x_7 + 4 x_8 + 12 x_9 + 16 x_10 + 15 x_11 + 14 x_12 + 5 x_13 + 34 x_14 + 48 x_15 + 45 x_16 + 2 x_17 + 49 x_18 + 5 x_19 + 33 x_20 + 23 x_21 + 49 x_22 + 30 x_23 + 15 x_24 + 42 x_25 + 41 x_26 + 46 x_27 + 30 x_28 + 4 x_29 + 38 x_30 + 31 x_31 + 24 x_32 + 2 x_33 + 10 x_34 + 39 x_35 + 14 x_36 + 44 x_37 + 1 x_38 + 30 x_39 + 2 x_40 = 519
	c_15: + 11 x_1 + 27 x_2 + 20 x_3 + 12 x_4 + 40 x_5 + 33 x_6 + 16 x_7 + 1 x_8 + 11 x_9 + 24 x_10 + 16 x_11 + 28 x_12 + 21 x_13 + 45 x_14 + 45 x_15 + 14 x_16 + 42 x_17 + 34 x_18 + 18 x_19 + 34 x_20 + 35 x_21 + 14 x_22 + 48 x_23 + 43 x_24 + 28 x_25 + 9 x_26 + 27 x_27 + 30 x_28 + 4 x_29 + 38 x_30 + 1 x_31 + 40 x_32 + 15 x_33 + 44 x_34 + 38 x_35 + 3 x_36 + 25 x_37 + 13 x_38 + 36 x_39 + 7 x_40 = 639
Bounds
  0 <= x_1 <= 1
  0 <= x_2 <= 1
  0 <= x_3 <= 1
  0 <= x_4 <= 1
  0 <= x_5 <= 1
  0 <= x_6 <= 1
  0 <= x_7 <= 1
  0 <= x_8 <= 1
  0 <= x_9 <= 1
  0 <= x_10 <= 1
  0 <= x_11 <= 1
  0 <= x_12 <= 1
  0 <= x_13 <= 1
  0 <= x_14 <= 1
  0 <= x_15 <= 1
  0 <= x_16 <= 1
  0 <= x_17 <= 1
  0 <= x_18 <= 1
  0 <= x_19 <= 1
  0 <= x_20 <= 1
  0 <= x_21 <= 1
  0 <= x_22 <= 1
  0 <= x_23 <= 1
  0 <= x_24 <= 1
  0 <= x_25 <= 1
  0 <= x_26 <= 1
  0 <= x_27 <= 1
  0 <= x_28 <= 1
  0 <= x_29 <= 1
  0 <= x_30 <= 1
  0 <= x_31 <= 1
  0 <= x_32 <= 1
  0 <= x_33 <= 1
  0 <= x_34 <= 1
  0 <= x_35 <= 1
  0 <= x_36 <= 1
  0 <= x_37 <= 1
  0 <= x_38 <= 1
  0 <= x_39 <= 1
  0 <= x_40 <= 1
End
