Subject To
	c_1: + 16 x_1 + 18 x_2 + 46 x_3 + 17 x_4 + 18 x_5 + 14 x_6 + 48 x_7 + 36 x_8 + 5 x_9 + 40 x_10 + 25 x_11 + 37 x_12 + 7 x_13 + 32 x_14 + 32 x_15 + 35 x_16 + 20 x_17 + 48 x_18 + 6 x_19 + 41 x_20 + 16 x_21 + 26 x_22 + 43 x_23 + 27 x_24 + 41 x_25 + 50 x_26 + 32 x_27 + 44 x_28 + 41 x_29 + 30 x_30 + 32 x_31 + 48 x_32 + 16 x_33 + 29 x_34 + 36 x_35 + 33 x_36 + 43 x_37 + 18 x_38 + 22 x_39 + 46 x_40 = 996
	c_2: + 12 x_1 + 36 x_2 + 9 x_3 + 44 x_4 + 33 x_5 + 11 x_6 + 46 x_7 + 37 x_8 + 18 x_9 + 31 x_10 + 21 x_11 + 28 x_12 + 9 x_13 + 35 x_14 + 49 x_15 + 17 x_16 + 1 x_17 + 5 x_18 + 43 x_19 + 24 x_20 + 15 x_21 + 48 x_22 + 39 x_23 + 2 x_24 + 35 x_25 + 40 x_26 + 28 x_27 + 30 x_28 + 19 x_29 + 30 x_30 + 17 x_31 + 2 x_32 + 26 x_33 + 21 x_34 + 29 x_35 + 36 x_36 + 25 x_37 + 46 x_38 + 12 x_39 + 45 x_40 = 727
	c_3: + 18 x_1 + 15 x_2 + 10 x_3 + 10 x_4 + 17 x_5 + 32 x_6 + 3 x_7 + 22 x_8 + 2 x_9 + 4 x_10 + 21 x_11 + 17 x_12 + 42 x_13 + 41 x_14 + 7 x_15 + 35 x_16 + 38 x_17 + 48 x_18 + 10 x_19 + 1 x_20 + 24 x_21 + 34 x_22 + 26 x_23 + 4 x_24 + 22 x_25 + 6 x_26 + 33 x_27 + 45 x_28 + 22 x_29 + 16 x_30 + 18 x_31 + 21 x_32 + 8 x_33 + 33 x_34 + 13 x_35 + 27 x_36 + 6 x_37 + 23 x_38 + 30 x_39 + 8 x_40 = 522
	c_4: + 17 x_1 + 17 x_2 + 32 x_3 + 6 x_4 + 37 x_5 + 49 x_6 + 40 x_7 + 25 x_8 + 50 x_9 + 19 x_10 + 33 x_11 + 17 x_12 + 10 x_13 + 1 x_14 + 16 x_15 + 25 x_16 + 34 x_17 + 5 x_18 + 33 x_19 + 38 x_20 + 33 x_21 + 48 x_22 + 27 x_23 + 1 x_24 + 11 x_25 + 8 x_26 + 28 x_27 + 8 x_28 + 41 x_29 + 6 x_30 + 14 x_31 + 32 x_32 + 18 x_33 + 34 x_34 + 11 x_35 + 49 x_36 + 30 x_37 + 50 x_38 + 50 x_39 + 26 x_40 = 592
	c_5: + 43 x_1 + 19 x_2 + 43 x_3 + 3 x_4 + 48 x_5 + 47 x_6 + 17 x_7 + 17 x_8 + 44 x_9 + 39 x_10 + 34 x_11 + 44 x_12 + 8 x_13 + 44 x_14 + 23 x_15 + 48 x_16 + 11 x_17 + 9 x_18 + 20 x_19 + 11 x_20 + 13 x_21 + 42 x_22 + 40 x_23 + 43 x_24 + 28 x_25 + 26 x_26 + 30 x_27 + 7 x_28 + 44 x_29 + 1 x_30 + 39 x_31 + 39 x_32 + 50 x_33 + 3 x_34 + 17 x_35 + 34 x_36 + 8 x_37 + 40 x_38 + 15 x_39 + 40 x_40 = 736
	c_6: + 49 x_1 + 29 x_2 + 14 x_3 + 6 x_4 + 1 x_5 + 25 x_6 + 47 x_7 + 18 x_8 + 14 x_9 + 35 x_10 + 40 x_11 + 47 x_12 + 32 x_13 + 38 x_14 + 17 x_15 + 40 x_16 + 32 x_17 + 27 x_18 + 32 x_19 + 12 x_20 + 44 x_21 + 32 x_22 + 2 x_23 + 50 x_24 + 13 x_25 + 30 x_26 + 4 x_27 + 24 x_28 + 8 x_29 + 29 x_30 + 26 x_31 + 7 x_32 + 15 x_33 + 21 x_34 + 33 x_35 + 33 x_36 + 23 x_37 + 31 x_38 + 20 x_39 + 3 x_40 = 633
	c_7: + 47 x_1 + 40 x_2 + 33 x_3 + 25 x_4 + 38 x_5 + 50 x_6 + 8 x_7 + 20 x_8 + 16 x_9 + 15 x_10 + 22 x_11 + 24 x_12 + 37 x_13 + 45 x_14 + 16 x_15 + 3 x_16 + 43 x_17 + 6 x_18 + 30 x_19 + 31 x_20 + 26 x_21 + 28 x_22 + 36 x_23 + 24 x_24 + 18 x_25 + 7 x_26 + 9 x_27 + 33 x_28 + 33 x_29 + 9 x_30 + 18 x_31 + 27 x_32 + 1 x_33 + 12 x_34 + 19 x_35 + 15 x_36 + 39 x_37 + 12 x_38 + 4 x_39 + 2 x_40 = 530
	c_8: + 15 x_1 + 31 x_2 + 16 x_3 + 40 x_4 + 39 x_5 + 47 x_6 + 9 x_7 + 17 x_8 + 4 x_9 + 34 x_10 + 47 x_11 + 40 x_12 + 14 x_13 + 18 x_14 + 36 x_15 + 49 x_16 + 18 x_17 + 28 x_18 + 31 x_19 + 42 x_20 + 26 x_21 + 2 x_22 + 18 x_23 + 13 x_24 + 16 x_25 + 44 x_26 + 46 x_27 + 6 x_28 + 21 x_29 + 50 x_30 + 16 x_31 + 2 x_32 + 12 x_33 + 37 x_34 + 44 x_35 + 38 x_36 + 22 x_37 + 31 x_38 + 25 x_39 + 31 x_40 = 695
	c_9: + 33 x_1 + 13 x_2 + 29 x_3 + 37 x_4 + 39 x_5 + 17 x_6 + 27 x_7 + 13 x_8 + 37 x_9 + 30 x_10 + 41 x_11 + 22 x_12 + 10 x_13 + 29 x_14 + 2 x_15 + 8 x_16 + 23 x_17 + 45 x_18 + 23 x_19 + 35 x_20 + 38 x_21 + 10 x_22 + 21 x_23 + 26 x_24 + 47 x_25 + 41 x_26 + 22 x_27 + 1 x_28 + 13 x_29 + 10 x_30 + 32 x_31 + 3 x_32 + 1 x_33 + 17 x_34 + 30 x_35 + 31 x_36 + 49 x_37 + 16 x_38 + 25 x_39 + 37 x_40 = 630
	c_10: + 45 x_1 + 43 x_2 + 3 x_3 + 36 x_4 + 37 x_5 + 34 x_6 + 7 x_7 + 14 x_8 + 40 x_9 + 17 x_10 + 39 x_11 + 17 x_12 + 17 x_13 + 46 x_14 + 28 x_15 + 16 x_16 + 20 x_17 + 20 x_18 + 7 x_19 + 40 x_20 + 16 x_21 + 18 x_22 + 15 x_23 + 1 x_24 + 20 x_25 + 23 x_26 + 7 x_27 + 34 x_28 + 16 x_29 + 17 x_30 + 47 x_31 + 43 x_32 + 18 x_33 + 48 x_34 + 2 x_35 + 4 x_36 + 36 x_37 + 32 x_38 + 10 x_39 + 15 x_40 = 554
	c_11: + 19 x_1 + 2 x_2 + 9 x_3 + 3 x_4 + 36 x_5 + 16 x_6 + 36 x_7 + 21 x_8 + 31 x_9 + 18 x_10 + 44 x_11 + 12 x_12 + 47 x_13 + 3 x_14 + 48 x_15 + 23 x_16 + 5 x_17 + 25 x_18 + 12 x_19 + 36 x_20 + 40 x_21 + 46 x_22 + 40 x_23 + 49 x_24 + 25 x_25 + 28 x_26 + 25 x_27 + 35 x_28 + 41 x_29 + 50 x_30 + 48 x_31 + 18 x_32 + 45 x_33 + 42 x_34 + 2 x_35 + 2 x_36 + 21 x_37 + 31 x_38 + 2 x_39 + 41 x_40 = 744
	c_12: + 27 x_1 + 13 x_2 + 16 x_3 + 13 x_4 + 34 x_5 + 2 x_6 + 34 x_7 + 10 x_8 + 19 x_9 + 21 x_10 + 32 x_11 + 44 x_12 + 15 x_13 + 42 x_14 + 18 x_15 + 30 x_16 + 19 x_17 + 31 x_18 + 34 x_19 + 4 x_20 + 15 x_21 + 17 x_22 + 41 x_23 + 50 x_24 + 46 x_25 + 50 x_26 + 3 x_27 + 46 x_28 + 31 x_29 + 45 x_30 + 15 x_31 + 34 x_32 + 38 x_33 + 1 x_34 + 42 x_35 + 23 x_36 + 40 x_37 + 31 x_38 + 34 x_39 + 27 x_40 = 761
	c_13: + 45 x_1 + 13 x_2 + 26 x_3 + 11 x_4 + 10 x_5 + 17 x_6 + 30 x_7 + 50 x_8 + 6 x_9 + 7 x_10 + 43 x_11 + 46 x_12 + 18 x_13 + 44 x_14 + 9 x_15 + 28 x_16 + 41 x_17 + 39 x_18 + 16 x_19 + 49 x_20 + 18 x_21 + 5 x_22 + 48 x_23 + 5 x_24 + 48 x_25 + 23 x_26 + 36 x_27 + 34 x_28 + 39 x_29 + 22 x_30 + 3 x_31 + 19 x_32 + 37 x_33 + 47 x_34 + 9 x_35 + 3 x_36 + 25 x_37 + 6 x_38 + 3 x_39 + 18 x_40 = 712
	c_14: + 34 x_1 + 47 x_2 + 34 x_3 + 17 x_4 + 44 x_5 + 42 x_6 + 29 x_7 + 5 x_8 + 42 x_9 + 21 x_10 + 33 x_11 + 5 x_12 + 21 x_13 + 39 x_14 + 15 x_15 + 6 x_16 + 29 x_17 + 1 x_18 + 29 x_19 + 22 x_20 + 22 x_21 + 45 x_22 + 16 x_23 + 36 x_24 + 33 x_25 + 5 x_26 + 44 x_27 + 27 x_28 + 49 x_29 + 15 x_30 + 21 x_31 + 48 x_32 + 14 x_33 + 7 x_34 + 35 x_35 + 16 x_36 + 33 x_37 + 41 x_38 + 40 x_39 + 12 x_40 = 619
	c_15: + 44 x_1 + 14 x_2 + 44 x_3 + 15 x_4 + 14 x_5 + 50 x_6 + 26 x_7 + 20 x_8 + 13 x_9 + 49 x_10 + 19 x_11 + 49 x_12 + 36 x_13 + 30 x_14 + 43 x_15 + 26 x_16 + 41 x_17 + 16 x_18 + 2 x_19 + 7 x_20 + 40 x_21 + 31 x_22 + 41 x_23 + 33 x_24 + 23 x_25 + 43 x_26 + 12 x_27 + 48 x_28 + 2 x_29 + 5 x_30 + 30 x_31 + 26 x_32 + 19 x_33 + 2 x_34 + 9 x_35 + 41 x_36 + 35 x_37 + 21 x_38 + 46 x_39 + 27 x_40 = 718
Bounds
  0 <= x_1 <= 1
  0 <= x_2 <= 1
  0 <= x_3 <= 1
  0 <= x_4 <= 1
  0 <= x_5 <= 1
  0 <= x_6 <= 1
  0 <= x_7 <= 1
  0 <= x_8 <= 1
  0 <= x_9 <= 1
  0 <= x_10 <= 1
  0 <= x_11 <= 1
  0 <= x_12 <= 1
  0 <= x_13 <= 1
  0 <= x_14 <= 1
  0 <= x_15 <= 1
  0 <= x_16 <= 1
  0 <= x_17 <= 1
  0 <= x_18 <= 1
  0 <= x_19 <= 1
  0 <= x_20 <= 1
  0 <= x_21 <= 1
  0 <= x_22 <= 1
  0 <= x_23 <= 1
  0 <= x_24 <= 1
  0 <= x_25 <= 1
  0 <= x_26 <= 1
  0 <= x_27 <= 1
  0 <= x_28 <= 1
  0 <= x_29 <= 1
  0 <= x_30 <= 1
  0 <= x_31 <= 1
  0 <= x_32 <= 1
  0 <= x_33 <= 1
  0 <= x_34 <= 1
  0 <= x_35 <= 1
  0 <= x_36 <= 1
  0 <= x_37 <= 1
  0 <= x_38 <= 1
  0 <= x_39 <= 1
  0 <= x_40 <= 1
End
