Subject To
	c_1: + 16 x_1 + 6 x_2 + 26 x_3 + 20 x_4 + 7 x_5 + 17 x_6 + 3 x_7 + 38 x_8 + 50 x_9 + 12 x_10 + 22 x_11 + 37 x_12 + 9 x_13 + 1 x_14 + 27 x_15 + 43 x_16 + 29 x_17 + 9 x_18 + 14 x_19 + 40 x_20 + 15 x_21 + 31 x_22 + 47 x_23 + 35 x_24 + 4 x_25 + 33 x_26 + 39 x_27 + 7 x_28 + 42 x_29 + 2 x_30 + 50 x_31 + 1 x_32 + 2 x_33 + 4 x_34 + 35 x_35 + 18 x_36 + 27 x_37 + 47 x_38 + 30 x_39 + 48 x_40 = 754
	c_2: + 42 x_1 + 8 x_2 + 29 x_3 + 41 x_4 + 41 x_5 + 39 x_6 + 11 x_7 + 40 x_8 + 20 x_9 + 30 x_10 + 26 x_11 + 49 x_12 + 8 x_13 + 9 x_14 + 13 x_15 + 42 x_16 + 34 x_17 + 9 x_18 + 33 x_19 + 22 x_20 + 28 x_21 + 20 x_22 + 33 x_23 + 42 x_24 + 43 x_25 + 27 x_26 + 8 x_27 + 37 x_28 + 43 x_29 + 6 x_30 + 50 x_31 + 4 x_32 + 3 x_33 + 43 x_34 + 36 x_35 + 3 x_36 + 37 x_37 + 26 x_38 + 28 x_39 + 33 x_40 = 632
	c_3: + 50 x_1 + 35 x_2 + 16 x_3 + 45 x_4 + 9 x_5 + 5 x_6 + 22 x_7 + 7 x_8 + 8 x_9 + 33 x_10 + 32 x_11 + 31 x_12 + 46 x_13 + 7 x_14 + 14 x_15 + 42 x_16 + 12 x_17 + 20 x_18 + 42 x_19 + 21 x_20 + 43 x_21 + 43 x_22 + 16 x_23 + 23 x_24 + 16 x_25 + 30 x_26 + 22 x_27 + 42 x_28 + 21 x_29 + 32 x_30 + 29 x_31 + 38 x_32 + 34 x_33 + 22 x_34 + 31 x_35 + 21 x_36 + 2 x_37 + 2 x_38 + 24 x_39 + 46 x_40 = 440
	c_4: + 6 x_1 + 17 x_2 + 29 x_3 + 24 x_4 + 49 x_5 + 13 x_6 + 36 x_7 + 47 x_8 + 25 x_9 + 28 x_10 + 11 x_11 + 36 x_12 + 48 x_13 + 12 x_14 + 48 x_15 + 47 x_16 + 4 x_17 + 49 x_18 + 34 x_19 + 46 x_20 + 6 x_21 + 35 x_22 + 15 x_23 + 36 x_24 + 19 x_25 + 47 x_26 + 47 x_27 + 46 x_28 + 4 x_29 + 29 x_30 + 4 x_31 + 1 x_32 + 9 x_33 + 27 x_34 + 27 x_35 + 3 x_36 + 14 x_37 + 50 x_38 + 26 x_39 + 47 x_40 = 634
	c_5: + 49 x_1 + 2 x_2 + 37 x_3 + 4 x_4 + 23 x_5 + 14 x_6 + 15 x_7 + 24 x_8 + 15 x_9 + 37 x_10 + 37 x_11 + 50 x_12 + 33 x_13 + 19 x_14 + 30 x_15 + 22 x_16 + 25 x_17 + 31 x_18 + 13 x_19 + 10 x_20 + 17 x_21 + 19 x_22 + 16 x_23 + 27 x_24 + 12 x_25 + 50 x_26 + 48 x_27 + 40 x_28 + 45 x_29 + 9 x_30 + 46 x_31 + 6 x_32 + 31 x_33 + 22 x_34 + 42 x_35 + 23 x_36 + 4 x_37 + 33 x_38 + 2 x_39 + 42 x_40 = 587
	c_6: + 7 x_1 + 31 x_2 + 7 x_3 + 31 x_4 + 36 x_5 + 15 x_6 + 39 x_7 + 27 x_8 + 18 x_9 + 17 x_10 + 21 x_11 + 29 x_12 + 1 x_13 + 5 x_14 + 27 x_15 + 11 x_16 + 45 x_17 + 46 x_18 + 31 x_19 + 5 x_20 + 26 x_21 + 42 x_22 + 43 x_23 + 22 x_24 + 4 x_25 + 38 x_26 + 10 x_27 + 16 x_28 + 22 x_29 + 31 x_30 + 32 x_31 + 18 x_32 + 46 x_33 + 15 x_34 + 35 x_35 + 32 x_36 + 50 x_37 + 11 x_38 + 7 x_39 + 15 x_40 = 496
	c_7: + 9 x_1 + 3 x_2 + 38 x_3 + 43 x_4 + 46 x_5 + 3 x_6 + 9 x_7 + 35 x_8 + 46 x_9 + 6 x_10 + 34 x_11 + 40 x_12 + 30 x_13 + 4 x_14 + 16 x_15 + 18 x_16 + 28 x_17 + 11 x_18 + 14 x_19 + 2 x_20 + 5 x_21 + 9 x_22 + 43 x_23 + 28 x_24 + 46 x_25 + 45 x_26 + 32 x_27 + 25 x_28 + 11 x_29 + 34 x_30 + 17 x_31 + 4 x_32 + 18 x_33 + 50 x_34 + 15 x_35 + 29 x_36 + 13 x_37 + 41 x_38 + 39 x_39 + 45 x_40 = 561
	c_8: + 12 x_1 + 6 x_2 + 5 x_3 + 46 x_4 + 46 x_5 + 5 x_6 + 47 x_7 + 30 x_8 + 32 x_9 + 11 x_10 + 10 x_11 + 45 x_12 + 19 x_13 + 47 x_14 + 9 x_15 + 13 x_16 + 14 x_17 + 12 x_18 + 25 x_19 + 12 x_20 + 3 x_21 + 40 x_22 + 6 x_23 + 44 x_24 + 5 x_25 + 45 x_26 + 18 x_27 + 29 x_28 + 43 x_29 + 43 x_30 + 15 x_31 + 48 x_32 + 9 x_33 + 34 x_34 + 11 x_35 + 20 x_36 + 17 x_37 + 35 x_38 + 11 x_39 + 16 x_40 = 461
	c_9: + 38 x_1 + 37 x_2 + 18 x_3 + 22 x_4 + 1 x_5 + 47 x_6 + 47 x_7 + 38 x_8 + 10 x_9 + 34 x_10 + 8 x_11 + 17 x_12 + 5 x_13 + 19 x_14 + 34 x_15 + 37 x_16 + 17 x_17 + 28 x_18 + 16 x_19 + 18 x_20 + 19 x_21 + 39 x_22 + 48 x_23 + 38 x_24 + 47 x_25 + 38 x_26 + 50 x_27 + 6 x_28 + 12 x_29 + 37 x_30 + 12 x_31 + 49 x_32 + 10 x_33 + 29 x_34 + 17 x_35 + 31 x_36 + 36 x_37 + 24 x_38 + 44 x_39 + 35 x_40 = 582
	c_10: + 2 x_1 + 2 x_2 + 44 x_3 + 5 x_4 + 46 x_5 + 12 x_6 + 36 x_7 + 46 x_8 + 27 x_9 + 12 x_10 + 46 x_11 + 15 x_12 + 24 x_13 + 23 x_14 + 33 x_15 + 18 x_16 + 32 x_17 + 22 x_18 + 44 x_19 + 1 x_20 + 33 x_21 + 10 x_22 + 44 x_23 + 21 x_24 + 48 x_25 + 36 x_26 + 22 x_27 + 39 x_28 + 5 x_29 + 17 x_30 + 8 x_31 + 14 x_32 + 14 x_33 + 1 x_34 + 3 x_35 + 34 x_36 + 48 x_37 + 18 x_38 + 12 x_39 + 34 x_40 = 477
	c_11: + 8 x_1 + 48 x_2 + 22 x_3 + 39 x_4 + 15 x_5 + 33 x_6 + 39 x_7 + 26 x_8 + 33 x_9 + 39 x_10 + 14 x_11 + 42 x_12 + 47 x_13 + 16 x_14 + 40 x_15 + 8 x_16 + 30 x_17 + 36 x_18 + 38 x_19 + 48 x_20 + 29 x_21 + 21 x_22 + 2 x_23 + 43 x_24 + 45 x_25 + 42 x_26 + 36 x_27 + 5 x_28 + 20 x_29 + 39 x_30 + 7 x_31 + 37 x_32 + 50 x_33 + 14 x_34 + 21 x_35 + 41 x_36 + 50 x_37 + 44 x_38 + 27 x_39 + 13 x_40 = 575
	c_12: + 34 x_1 + 7 x_2 + 22 x_3 + 46 x_4 + 45 x_5 + 39 x_6 + 21 x_7 + 26 x_8 + 9 x_9 + 45 x_10 + 45 x_11 + 11 x_12 + 24 x_13 + 20 x_14 + 45 x_15 + 30 x_16 + 27 x_17 + 36 x_18 + 42 x_19 + 49 x_20 + 27 x_21 + 23 x_22 + 28 x_23 + 27 x_24 + 30 x_25 + 18 x_26 + 39 x_27 + 10 x_28 + 16 x_29 + 33 x_30 + 37 x_31 + 29 x_32 + 25 x_33 + 14 x_34 + 29 x_35 + 47 x_36 + 41 x_37 + 3 x_38 + 20 x_39 + 6 x_40 = 506
	c_13: + 40 x_1 + 40 x_2 + 38 x_3 + 28 x_4 + 15 x_5 + 20 x_6 + 28 x_7 + 3 x_8 + 3 x_9 + 32 x_10 + 39 x_11 + 36 x_12 + 15 x_13 + 11 x_14 + 26 x_15 + 29 x_16 + 4 x_17 + 22 x_18 + 21 x_19 + 14 x_20 + 28 x_21 + 10 x_22 + 50 x_23 + 20 x_24 + 43 x_25 + 49 x_26 + 35 x_27 + 17 x_28 + 22 x_29 + 41 x_30 + 7 x_31 + 40 x_32 + 48 x_33 + 42 x_34 + 40 x_35 + 5 x_36 + 25 x_37 + 23 x_38 + 25 x_39 + 15 x_40 = 474
	c_14: + 49 x_1 + 2 x_2 + 2 x_3 + 29 x_4 + 29 x_5 + 27 x_6 + 3 x_7 + 31 x_8 + 39 x_9 + 36 x_10 + 41 x_11 + 31 x_12 + 30 x_13 + 50 x_14 + 38 x_15 + 40 x_16 + 32 x_17 + 10 x_18 + 47 x_19 + 28 x_20 + 19 x_21 + 18 x_22 + 25 x_23 + 42 x_24 + 19 x_25 + 2 x_26 + 1 x_27 + 50 x_28 + 38 x_29 + 16 x_30 + 50 x_31 + 17 x_32 + 24 x_33 + 19 x_34 + 19 x_35 + 31 x_36 + 40 x_37 + 16 x_38 + 48 x_39 + 7 x_40 = 547
	c_15: + 19 x_1 + 43 x_2 + 14 x_3 + 44 x_4 + 1 x_5 + 4 x_6 + 40 x_7 + 4 x_8 + 18 x_9 + 18 x_10 + 1 x_11 + 29 x_12 + 4 x_13 + 47 x_14 + 32 x_15 + 45 x_16 + 16 x_17 + 24 x_18 + 43 x_19 + 8 x_20 + 30 x_21 + 44 x_22 + 39 x_23 + 49 x_24 + 10 x_25 + 7 x_26 + 46 x_27 + 39 x_28 + 2 x_29 + 7 x_30 + 13 x_31 + 45 x_32 + 12 x_33 + 16 x_34 + 49 x_35 + 26 x_36 + 42 x_37 + 18 x_38 + 7 x_39 + 39 x_40 = 521
Bounds
  0 <= x_1 <= 1
  0 <= x_2 <= 1
  0 <= x_3 <= 1
  0 <= x_4 <= 1
  0 <= x_5 <= 1
  0 <= x_6 <= 1
  0 <= x_7 <= 1
  0 <= x_8 <= 1
  0 <= x_9 <= 1
  0 <= x_10 <= 1
  0 <= x_11 <= 1
  0 <= x_12 <= 1
  0 <= x_13 <= 1
  0 <= x_14 <= 1
  0 <= x_15 <= 1
  0 <= x_16 <= 1
  0 <= x_17 <= 1
  0 <= x_18 <= 1
  0 <= x_19 <= 1
  0 <= x_20 <= 1
  0 <= x_21 <= 1
  0 <= x_22 <= 1
  0 <= x_23 <= 1
  0 <= x_24 <= 1
  0 <= x_25 <= 1
  0 <= x_26 <= 1
  0 <= x_27 <= 1
  0 <= x_28 <= 1
  0 <= x_29 <= 1
  0 <= x_30 <= 1
  0 <= x_31 <= 1
  0 <= x_32 <= 1
  0 <= x_33 <= 1
  0 <= x_34 <= 1
  0 <= x_35 <= 1
  0 <= x_36 <= 1
  0 <= x_37 <= 1
  0 <= x_38 <= 1
  0 <= x_39 <= 1
  0 <= x_40 <= 1
End
