Subject To
	c_1: + 14 x_1 + 22 x_2 + 48 x_3 + 38 x_4 + 5 x_5 + 31 x_6 + 33 x_7 + 26 x_8 + 17 x_9 + 31 x_10 + 10 x_11 + 13 x_12 + 7 x_13 + 46 x_14 + 20 x_15 + 39 x_16 + 39 x_17 + 28 x_18 + 18 x_19 + 25 x_20 + 42 x_21 + 41 x_22 + 7 x_23 + 26 x_24 + 21 x_25 + 6 x_26 + 50 x_27 + 48 x_28 + 41 x_29 + 26 x_30 + 36 x_31 + 31 x_32 + 36 x_33 + 9 x_34 + 20 x_35 + 44 x_36 + 25 x_37 + 9 x_38 + 12 x_39 + 25 x_40 = 780
	c_2: + 13 x_1 + 45 x_2 + 15 x_3 + 22 x_4 + 9 x_5 + 35 x_6 + 49 x_7 + 11 x_8 + 49 x_9 + 27 x_10 + 5 x_11 + 23 x_12 + 36 x_13 + 20 x_14 + 43 x_15 + 18 x_16 + 45 x_17 + 22 x_18 + 8 x_19 + 48 x_20 + 38 x_21 + 25 x_22 + 37 x_23 + 23 x_24 + 11 x_25 + 28 x_26 + 12 x_27 + 50 x_28 + 16 x_29 + 31 x_30 + 6 x_31 + 48 x_32 + 3 x_33 + 18 x_34 + 3 x_35 + 37 x_36 + 46 x_37 + 26 x_38 + 20 x_39 + 33 x_40 = 553
	c_3: + 42 x_1 + 44 x_2 + 3 x_3 + 30 x_4 + 35 x_5 + 11 x_6 + 7 x_7 + 47 x_8 + 29 x_9 + 21 x_10 + 35 x_11 + 28 x_12 + 50 x_13 + 48 x_14 + 11 x_15 + 21 x_16 + 10 x_17 + 28 x_18 + 44 x_19 + 48 x_20 + 37 x_21 + 31 x_22 + 1 x_23 + 8 x_24 + 1 x_25 + 33 x_26 + 18 x_27 + 1 x_28 + 49 x_29 + 7 x_30 + 8 x_31 + 19 x_32 + 45 x_33 + 46 x_34 + 14 x_35 + 47 x_36 + 50 x_37 + 13 x_38 + 41 x_39 + 17 x_40 = 496
	c_4: + 11 x_1 + 3 x_2 + 28 x_3 + 11 x_4 + 12 x_5 + 36 x_6 + 46 x_7 + 19 x_8 + 30 x_9 + 46 x_10 + 32 x_11 + 31 x_12 + 33 x_13 + 11 x_14 + 22 x_15 + 40 x_16 + 34 x_17 + 42 x_18 + 22 x_19 + 49 x_20 + 39 x_21 + 43 x_22 + 42 x_23 + 29 x_24 + 35 x_25 + 19 x_26 + 30 x_27 + 48 x_28 + 50 x_29 + 18 x_30 + 31 x_31 + 14 x_32 + 4 x_33 + 45 x_34 + 36 x_35 + 42 x_36 + 3 x_37 + 50 x_38 + 7 x_39 + 20 x_40 = 661
	c_5: + 18 x_1 + 33 x_2 + 2 x_3 + 16 x_4 + 35 x_5 + 28 x_6 + 15 x_7 + 33 x_8 + 2 x_9 + 2 x_10 + 44 x_11 + 5 x_12 + 37 x_13 + 16 x_14 + 8 x_15 + 8 x_16 + 26 x_17 + 9 x_18 + 4 x_19 + 21 x_20 + 16 x_21 + 16 x_22 + 26 x_23 + 44 x_24 + 29 x_25 + 18 x_26 + 21 x_27 + 26 x_28 + 15 x_29 + 17 x_30 + 36 x_31 + 10 x_32 + 9 x_33 + 31 x_34 + 29 x_35 + 18 x_36 + 27 x_37 + 33 x_38 + 2 x_39 + 3 x_40 = 383
	c_6: + 32 x_1 + 16 x_2 + 38 x_3 + 44 x_4 + 7 x_5 + 40 x_6 + 42 x_7 + 20 x_8 + 16 x_9 + 34 x_10 + 35 x_11 + 29 x_12 + 27 x_13 + 29 x_14 + 4 x_15 + 38 x_16 + 50 x_17 + 42 x_18 + 45 x_19 + 49 x_20 + 44 x_21 + 42 x_22 + 12 x_23 + 21 x_24 + 48 x_25 + 40 x_26 + 16 x_27 + 32 x_28 + 17 x_29 + 1 x_30 + 48 x_31 + 14 x_32 + 35 x_33 + 9 x_34 + 8 x_35 + 11 x_36 + 22 x_37 + 7 x_38 + 36 x_39 + 44 x_40 = 658
	c_7: + 29 x_1 + 44 x_2 + 11 x_3 + 10 x_4 + 31 x_5 + 34 x_6 + 29 x_7 + 16 x_8 + 3 x_9 + 17 x_10 + 22 x_11 + 43 x_12 + 5 x_13 + 26 x_14 + 41 x_15 + 8 x_16 + 45 x_17 + 48 x_18 + 19 x_19 + 35 x_20 + 27 x_21 + 30 x_22 + 13 x_23 + 24 x_24 + 6 x_25 + 6 x_26 + 10 x_27 + 13 x_28 + 2 x_29 + 44 x_30 + 41 x_31 + 19 x_32 + 24 x_33 + 38 x_34 + 5 x_35 + 47 x_36 + 23 x_37 + 4 x_38 + 8 x_39 + 9 x_40 = 525
	c_8: + 48 x_1 + 6 x_2 + 5 x_3 + 22 x_4 + 33 x_5 + 27 x_6 + 15 x_7 + 44 x_8 + 4 x_9 + 49 x_10 + 42 x_11 + 31 x_12 + 44 x_13 + 3 x_14 + 5 x_15 + 8 x_16 + 29 x_17 + 12 x_18 + 27 x_19 + 7 x_20 + 40 x_21 + 13 x_22 + 11 x_23 + 38 x_24 + 35 x_25 + 44 x_26 + 42 x_27 + 31 x_28 + 5 x_29 + 16 x_30 + 17 x_31 + 35 x_32 + 6 x_33 + 19 x_34 + 5 x_35 + 25 x_36 + 20 x_37 + 31 x_38 + 35 x_39 + 12 x_40 = 482
	c_9: + 48 x_1 + 40 x_2 + 12 x_3 + 29 x_4 + 10 x_5 + 8 x_6 + 39 x_7 + 7 x_8 + 24 x_9 + 46 x_10 + 47 x_11 + 10 x_12 + 2 x_13 + 4 x_14 + 47 x_15 + 8 x_16 + 15 x_17 + 49 x_18 + 45 x_19 + 11 x_20 + 3 x_21 + 50 x_22 + 7 x_23 + 19 x_24 + 39 x_25 + 2 x_26 + 4 x_27 + 40 x_28 + 21 x_29 + 31 x_30 + 21 x_31 + 24 x_32 + 1 x_33 + 42 x_34 + 35 x_35 + 27 x_36 + 35 x_37 + 23 x_38 + 46 x_39 + 36 x_40 = 458
	c_10: + 36 x_1 + 10 x_2 + 18 x_3 + 28 x_4 + 8 x_5 + 48 x_6 + 18 x_7 + 44 x_8 + 44 x_9 + 19 x_10 + 11 x_11 + 44 x_12 + 6 x_13 + 24 x_14 + 49 x_15 + 2 x_16 + 2 x_17 + 24 x_18 + 43 x_19 + 5 x_20 + 31 x_21 + 13 x_22 + 9 x_23 + 26 x_24 + 29 x_25 + 34 x_26 + 45 x_27 + 25 x_28 + 14 x_29 + 7 x_30 + 9 x_31 + 38 x_32 + 31 x_33 + 17 x_34 + 17 x_35 + 14 x_36 + 49 x_37 + 12 x_38 + 36 x_39 + 45 x_40 = 480
	c_11: + 18 x_1 + 21 x_2 + 41 x_3 + 34 x_4 + 5 x_5 + 16 x_6 + 2 x_7 + 34 x_8 + 19 x_9 + 23 x_10 + 47 x_11 + 38 x_12 + 43 x_13 + 22 x_14 + 44 x_15 + 47 x_16 + 24 x_17 + 40 x_18 + 16 x_19 + 21 x_20 + 27 x_21 + 17 x_22 + 31 x_23 + 48 x_24 + 1 x_25 + 44 x_26 + 24 x_27 + 18 x_28 + 34 x_29 + 36 x_30 + 27 x_31 + 26 x_32 + 39 x_33 + 48 x_34 + 11 x_35 + 7 x_36 + 46 x_37 + 22 x_38 + 20 x_39 + 36 x_40 = 586
	c_12: + 27 x_1 + 15 x_2 + 25 x_3 + 9 x_4 + 39 x_5 + 26 x_6 + 33 x_7 + 24 x_8 + 27 x_9 + 21 x_10 + 6 x_11 + 29 x_12 + 38 x_13 + 8 x_14 + 17 x_15 + 12 x_16 + 12 x_17 + 43 x_18 + 12 x_19 + 27 x_20 + 5 x_21 + 42 x_22 + 39 x_23 + 40 x_24 + 37 x_25 + 4 x_26 + 25 x_27 + 14 x_28 + 24 x_29 + 48 x_30 + 7 x_31 + 11 x_32 + 46 x_33 + 29 x_34 + 33 x_35 + 40 x_36 + 32 x_37 + 47 x_38 + 27 x_39 + 41 x_40 = 515
	c_13: + 34 x_1 + 28 x_2 + 30 x_3 + 36 x_4 + 23 x_5 + 41 x_6 + 32 x_7 + 19 x_8 + 18 x_9 + 3 x_10 + 35 x_11 + 6 x_12 + 19 x_13 + 44 x_14 + 14 x_15 + 23 x_16 + 36 x_17 + 4 x_18 + 2 x_19 + 33 x_20 + 1 x_21 + 26 x_22 + 22 x_23 + 18 x_24 + 38 x_25 + 46 x_26 + 39 x_27 + 21 x_28 + 28 x_29 + 41 x_30 + 39 x_31 + 18 x_32 + 28 x_33 + 1 x_34 + 6 x_35 + 22 x_36 + 38 x_37 + 27 x_38 + 16 x_39 + 10 x_40 = 549
	c_14: + 47 x_1 + 17 x_2 + 22 x_3 + 35 x_4 + 37 x_5 + 20 x_6 + 30 x_7 + 17 x_8 + 41 x_9 + 38 x_10 + 17 x_11 + 24 x_12 + 45 x_13 + 8 x_14 + 5 x_15 + 43 x_16 + 26 x_17 + 44 x_18 + 13 x_19 + 37 x_20 + 26 x_21 + 14 x_22 + 6 x_23 + 48 x_24 + 18 x_25 + 13 x_26 + 42 x_27 + 9 x_28 + 37 x_29 + 23 x_30 + 37 x_31 + 1 x_32 + 40 x_33 + 50 x_34 + 42 x_35 + 36 x_36 + 44 x_37 + 48 x_38 + 27 x_39 + 10 x_40 = 596
	c_15: + 18 x_1 + 42 x_2 + 30 x_3 + 35 x_4 + 33 x_5 + 15 x_6 + 6 x_7 + 35 x_8 + 43 x_9 + 44 x_10 + 47 x_11 + 3 x_12 + 13 x_13 + 9 x_14 + 39 x_15 + 46 x_16 + 34 x_17 + 19 x_18 + 50 x_19 + 18 x_20 + 7 x_21 + 5 x_22 + 42 x_23 + 23 x_24 + 3 x_25 + 10 x_26 + 41 x_27 + 6 x_28 + 16 x_29 + 44 x_30 + 4 x_31 + 27 x_32 + 46 x_33 + 47 x_34 + 2 x_35 + 48 x_36 + 48 x_37 + 27 x_38 + 21 x_39 + 41 x_40 = 540
Bounds
  0 <= x_1 <= 1
  0 <= x_2 <= 1
  0 <= x_3 <= 1
  0 <= x_4 <= 1
  0 <= x_5 <= 1
  0 <= x_6 <= 1
  0 <= x_7 <= 1
  0 <= x_8 <= 1
  0 <= x_9 <= 1
  0 <= x_10 <= 1
  0 <= x_11 <= 1
  0 <= x_12 <= 1
  0 <= x_13 <= 1
  0 <= x_14 <= 1
  0 <= x_15 <= 1
  0 <= x_16 <= 1
  0 <= x_17 <= 1
  0 <= x_18 <= 1
  0 <= x_19 <= 1
  0 <= x_20 <= 1
  0 <= x_21 <= 1
  0 <= x_22 <= 1
  0 <= x_23 <= 1
  0 <= x_24 <= 1
  0 <= x_25 <= 1
  0 <= x_26 <= 1
  0 <= x_27 <= 1
  0 <= x_28 <= 1
  0 <= x_29 <= 1
  0 <= x_30 <= 1
  0 <= x_31 <= 1
  0 <= x_32 <= 1
  0 <= x_33 <= 1
  0 <= x_34 <= 1
  0 <= x_35 <= 1
  0 <= x_36 <= 1
  0 <= x_37 <= 1
  0 <= x_38 <= 1
  0 <= x_39 <= 1
  0 <= x_40 <= 1
End
