Subject To
	c_1: + 9 x_1 + 38 x_2 + 24 x_3 + 10 x_4 + 37 x_5 + 11 x_6 + 28 x_7 + 44 x_8 + 20 x_9 + 41 x_10 + 35 x_11 + 47 x_12 + 18 x_13 + 46 x_14 + 44 x_15 + 33 x_16 + 27 x_17 + 9 x_18 + 31 x_19 + 17 x_20 + 44 x_21 + 41 x_22 + 10 x_23 + 36 x_24 + 38 x_25 + 31 x_26 + 14 x_27 + 28 x_28 + 14 x_29 + 13 x_30 + 30 x_31 + 5 x_32 + 4 x_33 + 30 x_34 + 7 x_35 + 49 x_36 + 46 x_37 + 36 x_38 + 48 x_39 + 47 x_40 = 955
	c_2: + 32 x_1 + 40 x_2 + 16 x_3 + 15 x_4 + 30 x_5 + 49 x_6 + 27 x_7 + 49 x_8 + 26 x_9 + 24 x_10 + 10 x_11 + 26 x_12 + 36 x_13 + 50 x_14 + 4 x_15 + 24 x_16 + 16 x_17 + 32 x_18 + 21 x_19 + 5 x_20 + 42 x_21 + 16 x_22 + 16 x_23 + 40 x_24 + 30 x_25 + 49 x_26 + 44 x_27 + 32 x_28 + 22 x_29 + 27 x_30 + 24 x_31 + 46 x_32 + 9 x_33 + 4 x_34 + 7 x_35 + 44 x_36 + 49 x_37 + 10 x_38 + 36 x_39 + 2 x_40 = 699
	c_3: + 13 x_1 + 6 x_2 + 35 x_3 + 24 x_4 + 40 x_5 + 6 x_6 + 49 x_7 + 33 x_8 + 32 x_9 + 7 x_10 + 5 x_11 + 30 x_12 + 24 x_13 + 46 x_14 + 10 x_15 + 39 x_16 + 38 x_17 + 29 x_18 + 11 x_19 + 25 x_20 + 24 x_21 + 25 x_22 + 17 x_23 + 5 x_24 + 16 x_25 + 43 x_26 + 31 x_27 + 26 x_28 + 32 x_29 + 31 x_30 + 25 x_31 + 42 x_32 + 26 x_33 + 29 x_34 + 35 x_35 + 44 x_36 + 25 x_37 + 38 x_38 + 25 x_39 + 50 x_40 = 689
	c_4: + 23 x_1 + 17 x_2 + 5 x_3 + 31 x_4 + 27 x_5 + 24 x_6 + 44 x_7 + 46 x_8 + 16 x_9 + 22 x_10 + 2 x_11 + 4 x_12 + 34 x_13 + 5 x_14 + 31 x_15 + 32 x_16 + 15 x_17 + 5 x_18 + 7 x_19 + 14 x_20 + 47 x_21 + 10 x_22 + 45 x_23 + 36 x_24 + 12 x_25 + 33 x_26 + 43 x_27 + 40 x_28 + 37 x_29 + 6 x_30 + 9 x_31 + 10 x_32 + 21 x_33 + 11 x_34 + 1 x_35 + 8 x_36 + 9 x_37 + 26 x_38 + 7 x_39 + 2 x_40 = 502
	c_5: + 12 x_1 + 7 x_2 + 13 x_3 + 26 x_4 + 16 x_5 + 30 x_6 + 21 x_7 + 27 x_8 + 8 x_9 + 8 x_10 + 32 x_11 + 24 x_12 + 5 x_13 + 5 x_14 + 38 x_15 + 35 x_16 + 37 x_17 + 33 x_18 + 46 x_19 + 5 x_20 + 23 x_21 + 13 x_22 + 23 x_23 + 36 x_24 + 50 x_25 + 26 x_26 + 8 x_27 + 48 x_28 + 43 x_29 + 6 x_30 + 36 x_31 + 10 x_32 + 31 x_33 + 10 x_34 + 6 x_35 + 31 x_36 + 30 x_37 + 33 x_38 + 14 x_39 + 7 x_40 = 653
	c_6: + 31 x_1 + 2 x_2 + 1 x_3 + 16 x_4 + 21 x_5 + 45 x_6 + 40 x_7 + 31 x_8 + 50 x_9 + 13 x_10 + 3 x_11 + 13 x_12 + 46 x_13 + 33 x_14 + 7 x_15 + 20 x_16 + 21 x_17 + 8 x_18 + 39 x_19 + 23 x_20 + 28 x_21 + 40 x_22 + 44 x_23 + 49 x_24 + 23 x_25 + 41 x_26 + 41 x_27 + 9 x_28 + 43 x_29 + 38 x_30 + 44 x_31 + 8 x_32 + 31 x_33 + 19 x_34 + 42 x_35 + 40 x_36 + 1 x_37 + 5 x_38 + 21 x_39 + 29 x_40 = 592
	c_7: + 20 x_1 + 7 x_2 + 33 x_3 + 48 x_4 + 4 x_5 + 31 x_6 + 41 x_7 + 42 x_8 + 18 x_9 + 26 x_10 + 12 x_11 + 16 x_12 + 13 x_13 + 41 x_14 + 7 x_15 + 9 x_16 + 1 x_17 + 41 x_18 + 9 x_19 + 19 x_20 + 14 x_21 + 27 x_22 + 27 x_23 + 28 x_24 + 30 x_25 + 22 x_26 + 20 x_27 + 4 x_28 + 13 x_29 + 33 x_30 + 28 x_31 + 30 x_32 + 38 x_33 + 5 x_34 + 50 x_35 + 6 x_36 + 7 x_37 + 48 x_38 + 48 x_39 + 1 x_40 = 483
	c_8: + 5 x_1 + 39 x_2 + 44 x_3 + 38 x_4 + 47 x_5 + 38 x_6 + 29 x_7 + 11 x_8 + 35 x_9 + 1 x_10 + 1 x_11 + 44 x_12 + 12 x_13 + 33 x_14 + 17 x_15 + 22 x_16 + 3 x_17 + 36 x_18 + 31 x_19 + 42 x_20 + 2 x_21 + 47 x_22 + 10 x_23 + 33 x_24 + 4 x_25 + 39 x_26 + 10 x_27 + 38 x_28 + 6 x_29 + 48 x_30 + 37 x_31 + 28 x_32 + 35 x_33 + 37 x_34 + 42 x_35 + 7 x_36 + 9 x_37 + 29 x_38 + 50 x_39 + 31 x_40 = 641
	c_9: + 42 x_1 + 16 x_2 + 21 x_3 + 3 x_4 + 25 x_5 + 48 x_6 + 14 x_7 + 4 x_8 + 29 x_9 + 21 x_10 + 5 x_11 + 21 x_12 + 26 x_13 + 16 x_14 + 22 x_15 + 2 x_16 + 35 x_17 + 27 x_18 + 39 x_19 + 3 x_20 + 1 x_21 + 40 x_22 + 17 x_23 + 27 x_24 + 17 x_25 + 14 x_26 + 8 x_27 + 29 x_28 + 43 x_29 + 18 x_30 + 22 x_31 + 23 x_32 + 28 x_33 + 26 x_34 + 23 x_35 + 10 x_36 + 18 x_37 + 36 x_38 + 50 x_39 + 35 x_40 = 545
	c_10: + 25 x_1 + 40 x_2 + 22 x_3 + 2 x_4 + 45 x_5 + 15 x_6 + 47 x_7 + 36 x_8 + 31 x_9 + 6 x_10 + 50 x_11 + 28 x_12 + 12 x_13 + 21 x_14 + 4 x_15 + 34 x_16 + 17 x_17 + 44 x_18 + 14 x_19 + 44 x_20 + 17 x_21 + 19 x_22 + 27 x_23 + 31 x_24 + 3 x_25 + 39 x_26 + 32 x_27 + 43 x_28 + 45 x_29 + 16 x_30 + 26 x_31 + 47 x_32 + 21 x_33 + 5 x_34 + 2 x_35 + 8 x_36 + 12 x_37 + 31 x_38 + 3 x_39 + 48 x_40 = 627
	c_11: + 39 x_1 + 24 x_2 + 19 x_3 + 43 x_4 + 44 x_5 + 33 x_6 + 40 x_7 + 4 x_8 + 40 x_9 + 49 x_10 + 32 x_11 + 2 x_12 + 29 x_13 + 13 x_14 + 31 x_15 + 28 x_16 + 40 x_17 + 45 x_18 + 42 x_19 + 49 x_20 + 26 x_21 + 35 x_22 + 45 x_23 + 41 x_24 + 19 x_25 + 25 x_26 + 23 x_27 + 50 x_28 + 6 x_29 + 25 x_30 + 21 x_31 + 26 x_32 + 43 x_33 + 37 x_34 + 21 x_35 + 24 x_36 + 48 x_37 + 1 x_38 + 50 x_39 + 46 x_40 = 772
	c_12: + 35 x_1 + 35 x_2 + 47 x_3 + 29 x_4 + 42 x_5 + 6 x_6 + 26 x_7 + 18 x_8 + 21 x_9 + 2 x_10 + 47 x_11 + 34 x_12 + 46 x_13 + 32 x_14 + 15 x_15 + 23 x_16 + 40 x_17 + 45 x_18 + 46 x_19 + 36 x_20 + 34 x_21 + 10 x_22 + 42 x_23 + 20 x_24 + 33 x_25 + 14 x_26 + 13 x_27 + 7 x_28 + 45 x_29 + 5 x_30 + 36 x_31 + 30 x_32 + 34 x_33 + 21 x_34 + 38 x_35 + 6 x_36 + 17 x_37 + 11 x_38 + 44 x_39 + 9 x_40 = 622
	c_13: + 34 x_1 + 13 x_2 + 15 x_3 + 9 x_4 + 9 x_5 + 38 x_6 + 45 x_7 + 30 x_8 + 29 x_9 + 13 x_10 + 5 x_11 + 26 x_12 + 4 x_13 + 4 x_14 + 22 x_15 + 5 x_16 + 25 x_17 + 16 x_18 + 5 x_19 + 45 x_20 + 50 x_21 + 39 x_22 + 14 x_23 + 21 x_24 + 20 x_25 + 2 x_26 + 6 x_27 + 40 x_28 + 43 x_29 + 26 x_30 + 44 x_31 + 41 x_32 + 42 x_33 + 13 x_34 + 46 x_35 + 26 x_36 + 40 x_37 + 2 x_38 + 8 x_39 + 3 x_40 = 510
	c_14: + 47 x_1 + 9 x_2 + 35 x_3 + 5 x_4 + 12 x_5 + 2 x_6 + 3 x_7 + 26 x_8 + 9 x_9 + 36 x_10 + 13 x_11 + 47 x_12 + 46 x_13 + 37 x_14 + 46 x_15 + 32 x_16 + 35 x_17 + 31 x_18 + 43 x_19 + 19 x_20 + 41 x_21 + 26 x_22 + 50 x_23 + 20 x_24 + 21 x_25 + 47 x_26 + 25 x_27 + 48 x_28 + 29 x_29 + 10 x_30 + 39 x_31 + 19 x_32 + 14 x_33 + 4 x_34 + 33 x_35 + 23 x_36 + 27 x_37 + 30 x_38 + 16 x_39 + 36 x_40 = 717
	c_15: + 21 x_1 + 23 x_2 + 49 x_3 + 9 x_4 + 14 x_5 + 7 x_6 + 43 x_7 + 19 x_8 + 17 x_9 + 4 x_10 + 4 x_11 + 37 x_12 + 5 x_13 + 9 x_14 + 14 x_15 + 47 x_16 + 41 x_17 + 11 x_18 + 1 x_19 + 16 x_20 + 47 x_21 + 15 x_22 + 28 x_23 + 19 x_24 + 4 x_25 + 42 x_26 + 50 x_27 + 22 x_28 + 19 x_29 + 17 x_30 + 20 x_31 + 38 x_32 + 1 x_33 + 3 x_34 + 21 x_35 + 15 x_36 + 35 x_37 + 36 x_38 + 3 x_39 + 3 x_40 = 520
Bounds
  0 <= x_1 <= 1
  0 <= x_2 <= 1
  0 <= x_3 <= 1
  0 <= x_4 <= 1
  0 <= x_5 <= 1
  0 <= x_6 <= 1
  0 <= x_7 <= 1
  0 <= x_8 <= 1
  0 <= x_9 <= 1
  0 <= x_10 <= 1
  0 <= x_11 <= 1
  0 <= x_12 <= 1
  0 <= x_13 <= 1
  0 <= x_14 <= 1
  0 <= x_15 <= 1
  0 <= x_16 <= 1
  0 <= x_17 <= 1
  0 <= x_18 <= 1
  0 <= x_19 <= 1
  0 <= x_20 <= 1
  0 <= x_21 <= 1
  0 <= x_22 <= 1
  0 <= x_23 <= 1
  0 <= x_24 <= 1
  0 <= x_25 <= 1
  0 <= x_26 <= 1
  0 <= x_27 <= 1
  0 <= x_28 <= 1
  0 <= x_29 <= 1
  0 <= x_30 <= 1
  0 <= x_31 <= 1
  0 <= x_32 <= 1
  0 <= x_33 <= 1
  0 <= x_34 <= 1
  0 <= x_35 <= 1
  0 <= x_36 <= 1
  0 <= x_37 <= 1
  0 <= x_38 <= 1
  0 <= x_39 <= 1
  0 <= x_40 <= 1
End
