Subject To
	c_1: + 48 x_1 + 19 x_2 + 19 x_3 + 47 x_4 + 46 x_5 + 22 x_6 + 49 x_7 + 21 x_8 + 23 x_9 + 43 x_10 + 46 x_11 + 17 x_12 + 7 x_13 + 17 x_14 + 40 x_15 + 21 x_16 + 42 x_17 + 25 x_18 + 20 x_19 + 1 x_20 + 46 x_21 + 7 x_22 + 25 x_23 + 31 x_24 + 11 x_25 + 24 x_26 + 38 x_27 + 32 x_28 + 19 x_29 + 14 x_30 + 38 x_31 + 40 x_32 + 36 x_33 + 27 x_34 + 7 x_35 + 16 x_36 + 24 x_37 + 16 x_38 + 6 x_39 + 2 x_40 = 649
	c_2: + 43 x_1 + 13 x_2 + 49 x_3 + 10 x_4 + 27 x_5 + 8 x_6 + 2 x_7 + 22 x_8 + 10 x_9 + 12 x_10 + 19 x_11 + 19 x_12 + 25 x_13 + 21 x_14 + 17 x_15 + 39 x_16 + 20 x_17 + 5 x_18 + 19 x_19 + 3 x_20 + 3 x_21 + 2 x_22 + 26 x_23 + 24 x_24 + 49 x_25 + 3 x_26 + 20 x_27 + 42 x_28 + 49 x_29 + 46 x_30 + 33 x_31 + 5 x_32 + 14 x_33 + 26 x_34 + 42 x_35 + 50 x_36 + 27 x_37 + 12 x_38 + 33 x_39 + 4 x_40 = 317
	c_3: + 8 x_1 + 48 x_2 + 37 x_3 + 3 x_4 + 4 x_5 + 42 x_6 + 41 x_7 + 10 x_8 + 31 x_9 + 12 x_10 + 29 x_11 + 23 x_12 + 4 x_13 + 40 x_14 + 30 x_15 + 30 x_16 + 13 x_17 + 27 x_18 + 10 x_19 + 33 x_20 + 49 x_21 + 40 x_22 + 24 x_23 + 42 x_24 + 47 x_25 + 1 x_26 + 32 x_27 + 18 x_28 + 25 x_29 + 1 x_30 + 33 x_31 + 3 x_32 + 43 x_33 + 43 x_34 + 39 x_35 + 12 x_36 + 18 x_37 + 29 x_38 + 40 x_39 + 28 x_40 = 403
	c_4: + 40 x_1 + 16 x_2 + 14 x_3 + 5 x_4 + 6 x_5 + 21 x_6 + 36 x_7 + 22 x_8 + 18 x_9 + 47 x_10 + 25 x_11 + 8 x_12 + 12 x_13 + 44 x_14 + 16 x_15 + 27 x_16 + 19 x_17 + 1 x_18 + 34 x_19 + 47 x_20 + 44 x_21 + 45 x_22 + 50 x_23 + 28 x_24 + 1 x_25 + 9 x_26 + 9 x_27 + 25 x_28 + 45 x_29 + 10 x_30 + 21 x_31 + 8 x_32 + 41 x_33 + 14 x_34 + 42 x_35 + 29 x_36 + 5 x_37 + 22 x_38 + 6 x_39 + 6 x_40 = 384
	c_5: + 5 x_1 + 22 x_2 + 6 x_3 + 36 x_4 + 38 x_5 + 45 x_6 + 25 x_7 + 35 x_8 + 4 x_9 + 42 x_10 + 50 x_11 + 1 x_12 + 33 x_13 + 20 x_14 + 13 x_15 + 26 x_16 + 16 x_17 + 43 x_18 + 21 x_19 + 41 x_20 + 9 x_21 + 20 x_22 + 15 x_23 + 27 x_24 + 42 x_25 + 15 x_26 + 23 x_27 + 43 x_28 + 26 x_29 + 3 x_30 + 2 x_31 + 50 x_32 + 40 x_33 + 37 x_34 + 33 x_35 + 33 x_36 + 7 x_37 + 29 x_38 + 10 x_39 + 46 x_40 = 456
	c_6: + 21 x_1 + 14 x_2 + 1 x_3 + 9 x_4 + 28 x_5 + 15 x_6 + 47 x_7 + 23 x_8 + 47 x_9 + 23 x_10 + 35 x_11 + 23 x_12 + 17 x_13 + 23 x_14 + 39 x_15 + 39 x_16 + 11 x_17 + 26 x_18 + 11 x_19 + 11 x_20 + 5 x_21 + 36 x_22 + 1 x_23 + 44 x_24 + 48 x_25 + 20 x_26 + 29 x_27 + 32 x_28 + 16 x_29 + 21 x_30 + 16 x_31 + 32 x_32 + 28 x_33 + 5 x_34 + 30 x_35 + 28 x_36 + 30 x_37 + 27 x_38 + 13 x_39 + 18 x_40 = 404
	c_7: + 28 x_1 + 45 x_2 + 23 x_3 + 45 x_4 + 6 x_5 + 41 x_6 + 15 x_7 + 8 x_8 + 38 x_9 + 20 x_10 + 21 x_11 + 19 x_12 + 19 x_13 + 19 x_14 + 12 x_15 + 38 x_16 + 13 x_17 + 42 x_18 + 47 x_19 + 13 x_20 + 26 x_21 + 49 x_22 + 15 x_23 + 15 x_24 + 11 x_25 + 24 x_26 + 20 x_27 + 50 x_28 + 5 x_29 + 27 x_30 + 36 x_31 + 35 x_32 + 3 x_33 + 35 x_34 + 29 x_35 + 44 x_36 + 13 x_37 + 28 x_38 + 9 x_39 + 17 x_40 = 380
	c_8: + 1 x_1 + 45 x_2 + 19 x_3 + 32 x_4 + 50 x_5 + 37 x_6 + 20 x_7 + 6 x_8 + 16 x_9 + 12 x_10 + 3 x_11 + 8 x_12 + 6 x_13 + 13 x_14 + 37 x_15 + 1 x_16 + 4 x_17 + 19 x_18 + 18 x_19 + 7 x_20 + 29 x_21 + 4 x_22 + 28 x_23 + 30 x_24 + 33 x_25 + 36 x_26 + 1 x_27 + 9 x_28 + 41 x_29 + 44 x_30 + 21 x_31 + 4 x_32 + 7 x_33 + 10 x_34 + 27 x_35 + 27 x_36 + 42 x_37 + 8 x_38 + 32 x_39 + 11 x_40 = 270
	c_9: + 29 x_1 + 9 x_2 + 27 x_3 + 39 x_4 + 29 x_5 + 49 x_6 + 28 x_7 + 5 x_8 + 34 x_9 + 18 x_10 + 50 x_11 + 4 x_12 + 23 x_13 + 14 x_14 + 41 x_15 + 46 x_16 + 10 x_17 + 40 x_18 + 28 x_19 + 26 x_20 + 1 x_21 + 10 x_22 + 22 x_23 + 14 x_24 + 10 x_25 + 39 x_26 + 33 x_27 + 41 x_28 + 40 x_29 + 21 x_30 + 7 x_31 + 6 x_32 + 37 x_33 + 1 x_34 + 23 x_35 + 36 x_36 + 30 x_37 + 19 x_38 + 12 x_39 + 4 x_40 = 384
	c_10: + 16 x_1 + 37 x_2 + 23 x_3 + 49 x_4 + 2 x_5 + 4 x_6 + 43 x_7 + 16 x_8 + 37 x_9 + 3 x_10 + 49 x_11 + 44 x_12 + 10 x_13 + 45 x_14 + 34 x_15 + 7 x_16 + 10 x_17 + 12 x_18 + 2 x_19 + 42 x_20 + 22 x_21 + 27 x_22 + 48 x_23 + 21 x_24 + 30 x_25 + 14 x_26 + 33 x_27 + 28 x_28 + 13 x_29 + 9 x_30 + 34 x_31 + 7 x_32 + 38 x_33 + 38 x_34 + 20 x_35 + 46 x_36 + 8 x_37 + 43 x_38 + 46 x_39 + 39 x_40 = 427
	c_11: + 18 x_1 + 41 x_2 + 30 x_3 + 44 x_4 + 21 x_5 + 20 x_6 + 6 x_7 + 25 x_8 + 5 x_9 + 27 x_10 + 5 x_11 + 5 x_12 + 20 x_13 + 21 x_14 + 34 x_15 + 10 x_16 + 48 x_17 + 38 x_18 + 12 x_19 + 40 x_20 + 19 x_21 + 14 x_22 + 5 x_23 + 28 x_24 + 40 x_25 + 26 x_26 + 5 x_27 + 41 x_28 + 43 x_29 + 10 x_30 + 49 x_31 + 27 x_32 + 1 x_33 + 23 x_34 + 22 x_35 + 1 x_36 + 29 x_37 + 25 x_38 + 18 x_39 + 50 x_40 = 396
	c_12: + 3 x_1 + 34 x_2 + 50 x_3 + 23 x_4 + 49 x_5 + 24 x_6 + 10 x_7 + 39 x_8 + 35 x_9 + 36 x_10 + 39 x_11 + 18 x_12 + 20 x_13 + 27 x_14 + 7 x_15 + 31 x_16 + 17 x_17 + 27 x_18 + 38 x_19 + 11 x_20 + 7 x_21 + 31 x_22 + 6 x_23 + 37 x_24 + 25 x_25 + 21 x_26 + 42 x_27 + 26 x_28 + 28 x_29 + 30 x_30 + 19 x_31 + 24 x_32 + 2 x_33 + 21 x_34 + 36 x_35 + 4 x_36 + 1 x_37 + 35 x_38 + 23 x_39 + 46 x_40 = 362
	c_13: + 27 x_1 + 20 x_2 + 49 x_3 + 41 x_4 + 4 x_5 + 41 x_6 + 11 x_7 + 29 x_8 + 22 x_9 + 28 x_10 + 25 x_11 + 3 x_12 + 44 x_13 + 46 x_14 + 46 x_15 + 16 x_16 + 24 x_17 + 30 x_18 + 31 x_19 + 7 x_20 + 33 x_21 + 23 x_22 + 32 x_23 + 18 x_24 + 24 x_25 + 39 x_26 + 38 x_27 + 13 x_28 + 8 x_29 + 38 x_30 + 35 x_31 + 12 x_32 + 25 x_33 + 13 x_34 + 18 x_35 + 35 x_36 + 6 x_37 + 17 x_38 + 31 x_39 + 23 x_40 = 393
	c_14: + 9 x_1 + 11 x_2 + 3 x_3 + 28 x_4 + 5 x_5 + 41 x_6 + 17 x_7 + 19 x_8 + 27 x_9 + 45 x_10 + 24 x_11 + 20 x_12 + 42 x_13 + 41 x_14 + 9 x_15 + 8 x_16 + 44 x_17 + 22 x_18 + 47 x_19 + 2 x_20 + 9 x_21 + 13 x_22 + 23 x_23 + 21 x_24 + 23 x_25 + 30 x_26 + 25 x_27 + 47 x_28 + 32 x_29 + 33 x_30 + 44 x_31 + 15 x_32 + 23 x_33 + 35 x_34 + 25 x_35 + 37 x_36 + 7 x_37 + 43 x_38 + 26 x_39 + 28 x_40 = 400
	c_15: + 32 x_1 + 5 x_2 + 47 x_3 + 5 x_4 + 10 x_5 + 12 x_6 + 12 x_7 + 12 x_8 + 23 x_9 + 9 x_10 + 48 x_11 + 3 x_12 + 2 x_13 + 14 x_14 + 36 x_15 + 15 x_16 + 19 x_17 + 23 x_18 + 17 x_19 + 34 x_20 + 5 x_21 + 23 x_22 + 15 x_23 + 3 x_24 + 23 x_25 + 31 x_26 + 37 x_27 + 10 x_28 + 2 x_29 + 39 x_30 + 43 x_31 + 10 x_32 + 14 x_33 + 19 x_34 + 4 x_35 + 13 x_36 + 11 x_37 + 35 x_38 + 23 x_39 + 31 x_40 = 312
Bounds
  0 <= x_1 <= 1
  0 <= x_2 <= 1
  0 <= x_3 <= 1
  0 <= x_4 <= 1
  0 <= x_5 <= 1
  0 <= x_6 <= 1
  0 <= x_7 <= 1
  0 <= x_8 <= 1
  0 <= x_9 <= 1
  0 <= x_10 <= 1
  0 <= x_11 <= 1
  0 <= x_12 <= 1
  0 <= x_13 <= 1
  0 <= x_14 <= 1
  0 <= x_15 <= 1
  0 <= x_16 <= 1
  0 <= x_17 <= 1
  0 <= x_18 <= 1
  0 <= x_19 <= 1
  0 <= x_20 <= 1
  0 <= x_21 <= 1
  0 <= x_22 <= 1
  0 <= x_23 <= 1
  0 <= x_24 <= 1
  0 <= x_25 <= 1
  0 <= x_26 <= 1
  0 <= x_27 <= 1
  0 <= x_28 <= 1
  0 <= x_29 <= 1
  0 <= x_30 <= 1
  0 <= x_31 <= 1
  0 <= x_32 <= 1
  0 <= x_33 <= 1
  0 <= x_34 <= 1
  0 <= x_35 <= 1
  0 <= x_36 <= 1
  0 <= x_37 <= 1
  0 <= x_38 <= 1
  0 <= x_39 <= 1
  0 <= x_40 <= 1
End
