Subject To
	c_1: + 27 x_1 + 27 x_2 + 4 x_3 + 38 x_4 + 8 x_5 + 28 x_6 + 19 x_7 + 13 x_8 + 22 x_9 + 33 x_10 + 27 x_11 + 34 x_12 + 46 x_13 + 25 x_14 + 12 x_15 + 2 x_16 + 5 x_17 + 1 x_18 + 2 x_19 + 21 x_20 + 34 x_21 + 48 x_22 + 8 x_23 + 27 x_24 + 44 x_25 + 49 x_26 + 31 x_27 + 9 x_28 + 5 x_29 + 5 x_30 + 42 x_31 + 13 x_32 + 46 x_33 + 2 x_34 + 18 x_35 + 47 x_36 + 49 x_37 + 25 x_38 + 23 x_39 + 18 x_40 = 677
	c_2: + 17 x_1 + 27 x_2 + 29 x_3 + 1 x_4 + 2 x_5 + 39 x_6 + 46 x_7 + 45 x_8 + 27 x_9 + 5 x_10 + 7 x_11 + 32 x_12 + 43 x_13 + 43 x_14 + 49 x_15 + 2 x_16 + 27 x_17 + 42 x_18 + 19 x_19 + 32 x_20 + 30 x_21 + 15 x_22 + 45 x_23 + 45 x_24 + 16 x_25 + 14 x_26 + 6 x_27 + 31 x_28 + 7 x_29 + 41 x_30 + 27 x_31 + 37 x_32 + 25 x_33 + 44 x_34 + 45 x_35 + 36 x_36 + 18 x_37 + 49 x_38 + 47 x_39 + 3 x_40 = 403
	c_3: + 42 x_1 + 36 x_2 + 21 x_3 + 12 x_4 + 41 x_5 + 26 x_6 + 19 x_7 + 34 x_8 + 27 x_9 + 40 x_10 + 39 x_11 + 46 x_12 + 5 x_13 + 48 x_14 + 4 x_15 + 35 x_16 + 12 x_17 + 2 x_18 + 16 x_19 + 37 x_20 + 45 x_21 + 33 x_22 + 38 x_23 + 10 x_24 + 22 x_25 + 49 x_26 + 35 x_27 + 43 x_28 + 38 x_29 + 35 x_30 + 28 x_31 + 16 x_32 + 21 x_33 + 30 x_34 + 20 x_35 + 10 x_36 + 24 x_37 + 30 x_38 + 26 x_39 + 2 x_40 = 523
	c_4: + 43 x_1 + 14 x_2 + 28 x_3 + 4 x_4 + 25 x_5 + 3 x_6 + 10 x_7 + 21 x_8 + 16 x_9 + 30 x_10 + 2 x_11 + 36 x_12 + 26 x_13 + 45 x_14 + 3 x_15 + 50 x_16 + 15 x_17 + 5 x_18 + 25 x_19 + 44 x_20 + 21 x_21 + 3 x_22 + 26 x_23 + 9 x_24 + 11 x_25 + 39 x_26 + 31 x_27 + 7 x_28 + 25 x_29 + 32 x_30 + 23 x_31 + 36 x_32 + 48 x_33 + 7 x_34 + 40 x_35 + 46 x_36 + 16 x_37 + 27 x_38 + 36 x_39 + 38 x_40 = 405
	c_5: + 37 x_1 + 14 x_2 + 27 x_3 + 44 x_4 + 13 x_5 + 28 x_6 + 36 x_7 + 21 x_8 + 38 x_9 + 5 x_10 + 38 x_11 + 14 x_12 + 41 x_13 + 23 x_14 + 6 x_15 + 32 x_16 + 17 x_17 + 27 x_18 + 35 x_19 + 25 x_20 + 4 x_21 + 49 x_22 + 24 x_23 + 23 x_24 + 5 x_25 + 31 x_26 + 9 x_27 + 18 x_28 + 48 x_29 + 44 x_30 + 47 x_31 + 25 x_32 + 24 x_33 + 34 x_34 + 36 x_35 + 32 x_36 + 38 x_37 + 7 x_38 + 9 x_39 + 13 x_40 = 483
	c_6: + 18 x_1 + 28 x_2 + 18 x_3 + 5 x_4 + 27 x_5 + 49 x_6 + 38 x_7 + 23 x_8 + 25 x_9 + 42 x_10 + 3 x_11 + 23 x_12 + 16 x_13 + 8 x_14 + 4 x_15 + 46 x_16 + 47 x_17 + 22 x_18 + 29 x_19 + 49 x_20 + 10 x_21 + 35 x_22 + 45 x_23 + 17 x_24 + 21 x_25 + 5 x_26 + 7 x_27 + 34 x_28 + 19 x_29 + 28 x_30 + 9 x_31 + 29 x_32 + 21 x_33 + 18 x_34 + 25 x_35 + 22 x_36 + 13 x_37 + 39 x_38 + 27 x_39 + 38 x_40 = 344
	c_7: + 35 x_1 + 47 x_2 + 38 x_3 + 26 x_4 + 11 x_5 + 14 x_6 + 21 x_7 + 7 x_8 + 15 x_9 + 18 x_10 + 17 x_11 + 10 x_12 + 50 x_13 + 34 x_14 + 37 x_15 + 21 x_16 + 7 x_17 + 13 x_18 + 13 x_19 + 42 x_20 + 17 x_21 + 7 x_22 + 15 x_23 + 18 x_24 + 38 x_25 + 33 x_26 + 21 x_27 + 6 x_28 + 1 x_29 + 16 x_30 + 40 x_31 + 22 x_32 + 35 x_33 + 3 x_34 + 43 x_35 + 46 x_36 + 5 x_37 + 31 x_38 + 26 x_39 + 41 x_40 = 477
	c_8: + 47 x_1 + 28 x_2 + 50 x_3 + 36 x_4 + 15 x_5 + 33 x_6 + 30 x_7 + 40 x_8 + 11 x_9 + 50 x_10 + 40 x_11 + 8 x_12 + 19 x_13 + 33 x_14 + 48 x_15 + 50 x_16 + 12 x_17 + 10 x_18 + 4 x_19 + 25 x_20 + 20 x_21 + 33 x_22 + 45 x_23 + 38 x_24 + 39 x_25 + 16 x_26 + 47 x_27 + 38 x_28 + 39 x_29 + 6 x_30 + 5 x_31 + 6 x_32 + 16 x_33 + 14 x_34 + 27 x_35 + 10 x_36 + 7 x_37 + 13 x_38 + 45 x_39 + 11 x_40 = 492
	c_9: + 35 x_1 + 18 x_2 + 14 x_3 + 44 x_4 + 25 x_5 + 48 x_6 + 27 x_7 + 41 x_8 + 21 x_9 + 37 x_10 + 7 x_11 + 6 x_12 + 18 x_13 + 25 x_14 + 32 x_15 + 32 x_16 + 19 x_17 + 16 x_18 + 8 x_19 + 47 x_20 + 41 x_21 + 24 x_22 + 34 x_23 + 39 x_24 + 13 x_25 + 49 x_26 + 38 x_27 + 11 x_28 + 27 x_29 + 7 x_30 + 41 x_31 + 22 x_32 + 47 x_33 + 39 x_34 + 17 x_35 + 11 x_36 + 50 x_37 + 43 x_38 + 19 x_39 + 3 x_40 = 566
	c_10: + 17 x_1 + 21 x_2 + 31 x_3 + 27 x_4 + 32 x_5 + 17 x_6 + 19 x_7 + 38 x_8 + 45 x_9 + 8 x_10 + 39 x_11 + 6 x_12 + 4 x_13 + 39 x_14 + 24 x_15 + 41 x_16 + 13 x_17 + 5 x_18 + 26 x_19 + 28 x_20 + 29 x_21 + 34 x_22 + 6 x_23 + 7 x_24 + 2 x_25 + 36 x_26 + 27 x_27 + 43 x_28 + 20 x_29 + 1 x_30 + 42 x_31 + 1 x_32 + 11 x_33 + 15 x_34 + 36 x_35 + 35 x_36 + 26 x_37 + 44 x_38 + 5 x_39 + 44 x_40 = 388
	c_11: + 43 x_1 + 19 x_2 + 6 x_3 + 3 x_4 + 12 x_5 + 3 x_6 + 23 x_7 + 34 x_8 + 6 x_9 + 15 x_10 + 39 x_11 + 36 x_12 + 3 x_13 + 8 x_14 + 46 x_15 + 44 x_16 + 15 x_17 + 4 x_18 + 8 x_19 + 4 x_20 + 10 x_21 + 46 x_22 + 19 x_23 + 20 x_24 + 10 x_25 + 46 x_26 + 43 x_27 + 30 x_28 + 30 x_29 + 48 x_30 + 24 x_31 + 32 x_32 + 24 x_33 + 43 x_34 + 1 x_35 + 43 x_36 + 15 x_37 + 24 x_38 + 16 x_39 + 26 x_40 = 442
	c_12: + 46 x_1 + 20 x_2 + 34 x_3 + 48 x_4 + 4 x_5 + 49 x_6 + 7 x_7 + 11 x_8 + 25 x_9 + 13 x_10 + 6 x_11 + 3 x_12 + 17 x_13 + 43 x_14 + 35 x_15 + 32 x_16 + 9 x_17 + 45 x_18 + 16 x_19 + 45 x_20 + 12 x_21 + 47 x_22 + 44 x_23 + 50 x_24 + 14 x_25 + 38 x_26 + 9 x_27 + 17 x_28 + 39 x_29 + 39 x_30 + 15 x_31 + 41 x_32 + 13 x_33 + 1 x_34 + 23 x_35 + 36 x_36 + 43 x_37 + 35 x_38 + 3 x_39 + 45 x_40 = 479
	c_13: + 13 x_1 + 17 x_2 + 45 x_3 + 35 x_4 + 34 x_5 + 20 x_6 + 8 x_7 + 16 x_8 + 10 x_9 + 9 x_10 + 36 x_11 + 23 x_12 + 13 x_13 + 10 x_14 + 45 x_15 + 35 x_16 + 34 x_17 + 48 x_18 + 18 x_19 + 4 x_20 + 9 x_21 + 8 x_22 + 44 x_23 + 7 x_24 + 28 x_25 + 47 x_26 + 40 x_27 + 36 x_28 + 13 x_29 + 26 x_30 + 35 x_31 + 40 x_32 + 23 x_33 + 26 x_34 + 18 x_35 + 41 x_36 + 6 x_37 + 13 x_38 + 7 x_39 + 47 x_40 = 410
	c_14: + 23 x_1 + 19 x_2 + 3 x_3 + 25 x_4 + 19 x_5 + 27 x_6 + 2 x_7 + 12 x_8 + 34 x_9 + 6 x_10 + 39 x_11 + 16 x_12 + 32 x_13 + 9 x_14 + 17 x_15 + 3 x_16 + 17 x_17 + 37 x_18 + 23 x_19 + 33 x_20 + 48 x_21 + 49 x_22 + 1 x_23 + 50 x_24 + 42 x_25 + 7 x_26 + 21 x_27 + 47 x_28 + 29 x_29 + 18 x_30 + 48 x_31 + 6 x_32 + 33 x_33 + 50 x_34 + 37 x_35 + 45 x_36 + 4 x_37 + 50 x_38 + 34 x_39 + 1 x_40 = 534
	c_15: + 33 x_1 + 39 x_2 + 17 x_3 + 19 x_4 + 11 x_5 + 17 x_6 + 48 x_7 + 15 x_8 + 10 x_9 + 9 x_10 + 24 x_11 + 9 x_12 + 37 x_13 + 21 x_14 + 17 x_15 + 17 x_16 + 34 x_17 + 47 x_18 + 11 x_19 + 9 x_20 + 22 x_21 + 44 x_22 + 21 x_23 + 34 x_24 + 30 x_25 + 27 x_26 + 13 x_27 + 35 x_28 + 16 x_29 + 6 x_30 + 8 x_31 + 45 x_32 + 13 x_33 + 15 x_34 + 17 x_35 + 37 x_36 + 8 x_37 + 41 x_38 + 31 x_39 + 34 x_40 = 423
Bounds
  0 <= x_1 <= 1
  0 <= x_2 <= 1
  0 <= x_3 <= 1
  0 <= x_4 <= 1
  0 <= x_5 <= 1
  0 <= x_6 <= 1
  0 <= x_7 <= 1
  0 <= x_8 <= 1
  0 <= x_9 <= 1
  0 <= x_10 <= 1
  0 <= x_11 <= 1
  0 <= x_12 <= 1
  0 <= x_13 <= 1
  0 <= x_14 <= 1
  0 <= x_15 <= 1
  0 <= x_16 <= 1
  0 <= x_17 <= 1
  0 <= x_18 <= 1
  0 <= x_19 <= 1
  0 <= x_20 <= 1
  0 <= x_21 <= 1
  0 <= x_22 <= 1
  0 <= x_23 <= 1
  0 <= x_24 <= 1
  0 <= x_25 <= 1
  0 <= x_26 <= 1
  0 <= x_27 <= 1
  0 <= x_28 <= 1
  0 <= x_29 <= 1
  0 <= x_30 <= 1
  0 <= x_31 <= 1
  0 <= x_32 <= 1
  0 <= x_33 <= 1
  0 <= x_34 <= 1
  0 <= x_35 <= 1
  0 <= x_36 <= 1
  0 <= x_37 <= 1
  0 <= x_38 <= 1
  0 <= x_39 <= 1
  0 <= x_40 <= 1
End
