Subject To
	c_1: + 24 x_1 + 30 x_2 + 21 x_3 + 1 x_4 + 7 x_5 + 27 x_6 + 2 x_7 + 3 x_8 + 36 x_9 + 8 x_10 + 45 x_11 + 47 x_12 + 8 x_13 + 24 x_14 + 3 x_15 + 22 x_16 + 2 x_17 + 34 x_18 + 26 x_19 + 49 x_20 + 36 x_21 + 30 x_22 + 16 x_23 + 1 x_24 + 44 x_25 + 13 x_26 + 36 x_27 + 20 x_28 + 10 x_29 + 45 x_30 + 14 x_31 + 9 x_32 + 15 x_33 + 20 x_34 + 28 x_35 + 17 x_36 + 16 x_37 + 30 x_38 + 3 x_39 + 31 x_40 = 574
	c_2: + 41 x_1 + 26 x_2 + 49 x_3 + 8 x_4 + 17 x_5 + 15 x_6 + 33 x_7 + 44 x_8 + 40 x_9 + 23 x_10 + 46 x_11 + 34 x_12 + 7 x_13 + 9 x_14 + 23 x_15 + 17 x_16 + 46 x_17 + 48 x_18 + 41 x_19 + 39 x_20 + 29 x_21 + 46 x_22 + 44 x_23 + 7 x_24 + 27 x_25 + 7 x_26 + 11 x_27 + 42 x_28 + 7 x_29 + 21 x_30 + 50 x_31 + 22 x_32 + 18 x_33 + 27 x_34 + 20 x_35 + 49 x_36 + 38 x_37 + 43 x_38 + 12 x_39 + 48 x_40 = 534
	c_3: + 34 x_1 + 42 x_2 + 39 x_3 + 19 x_4 + 13 x_5 + 38 x_6 + 7 x_7 + 2 x_8 + 23 x_9 + 42 x_10 + 5 x_11 + 20 x_12 + 32 x_13 + 46 x_14 + 48 x_15 + 12 x_16 + 9 x_17 + 9 x_18 + 26 x_19 + 45 x_20 + 4 x_21 + 1 x_22 + 1 x_23 + 47 x_24 + 23 x_25 + 40 x_26 + 13 x_27 + 49 x_28 + 3 x_29 + 46 x_30 + 30 x_31 + 20 x_32 + 30 x_33 + 10 x_34 + 5 x_35 + 15 x_36 + 2 x_37 + 8 x_38 + 50 x_39 + 1 x_40 = 309
	c_4: + 16 x_1 + 41 x_2 + 32 x_3 + 45 x_4 + 1 x_5 + 29 x_6 + 19 x_7 + 48 x_8 + 16 x_9 + 6 x_10 + 47 x_11 + 7 x_12 + 4 x_13 + 30 x_14 + 35 x_15 + 8 x_16 + 40 x_17 + 50 x_18 + 28 x_19 + 21 x_20 + 24 x_21 + 38 x_22 + 49 x_23 + 7 x_24 + 27 x_25 + 6 x_26 + 5 x_27 + 41 x_28 + 44 x_29 + 3 x_30 + 38 x_31 + 32 x_32 + 35 x_33 + 24 x_34 + 1 x_35 + 37 x_36 + 44 x_37 + 43 x_38 + 48 x_39 + 36 x_40 = 416
	c_5: + 48 x_1 + 46 x_2 + 6 x_3 + 20 x_4 + 4 x_5 + 31 x_6 + 16 x_7 + 2 x_8 + 29 x_9 + 10 x_10 + 49 x_11 + 46 x_12 + 47 x_13 + 2 x_14 + 5 x_15 + 5 x_16 + 34 x_17 + 5 x_18 + 11 x_19 + 41 x_20 + 6 x_21 + 20 x_22 + 16 x_23 + 5 x_24 + 46 x_25 + 37 x_26 + 18 x_27 + 46 x_28 + 49 x_29 + 34 x_30 + 38 x_31 + 8 x_32 + 39 x_33 + 46 x_34 + 16 x_35 + 37 x_36 + 15 x_37 + 8 x_38 + 44 x_39 + 8 x_40 = 414
	c_6: + 43 x_1 + 34 x_2 + 34 x_3 + 38 x_4 + 47 x_5 + 6 x_6 + 45 x_7 + 36 x_8 + 5 x_9 + 43 x_10 + 13 x_11 + 36 x_12 + 3 x_13 + 32 x_14 + 7 x_15 + 34 x_16 + 40 x_17 + 43 x_18 + 2 x_19 + 29 x_20 + 17 x_21 + 44 x_22 + 26 x_23 + 47 x_24 + 25 x_25 + 38 x_26 + 35 x_27 + 43 x_28 + 24 x_29 + 41 x_30 + 20 x_31 + 28 x_32 + 45 x_33 + 7 x_34 + 21 x_35 + 48 x_36 + 11 x_37 + 5 x_38 + 14 x_39 + 26 x_40 = 382
	c_7: + 37 x_1 + 23 x_2 + 8 x_3 + 15 x_4 + 45 x_5 + 21 x_6 + 23 x_7 + 3 x_8 + 6 x_9 + 23 x_10 + 43 x_11 + 3 x_12 + 50 x_13 + 25 x_14 + 23 x_15 + 34 x_16 + 30 x_17 + 29 x_18 + 39 x_19 + 22 x_20 + 9 x_21 + 38 x_22 + 15 x_23 + 32 x_24 + 46 x_25 + 18 x_26 + 34 x_27 + 10 x_28 + 17 x_29 + 34 x_30 + 19 x_31 + 33 x_32 + 2 x_33 + 25 x_34 + 20 x_35 + 15 x_36 + 23 x_37 + 47 x_38 + 42 x_39 + 39 x_40 = 453
	c_8: + 15 x_1 + 50 x_2 + 26 x_3 + 32 x_4 + 25 x_5 + 28 x_6 + 20 x_7 + 20 x_8 + 49 x_9 + 49 x_10 + 48 x_11 + 13 x_12 + 9 x_13 + 49 x_14 + 8 x_15 + 9 x_16 + 42 x_17 + 40 x_18 + 23 x_19 + 10 x_20 + 41 x_21 + 1 x_22 + 5 x_23 + 24 x_24 + 40 x_25 + 12 x_26 + 46 x_27 + 2 x_28 + 39 x_29 + 10 x_30 + 40 x_31 + 32 x_32 + 36 x_33 + 32 x_34 + 35 x_35 + 38 x_36 + 33 x_37 + 25 x_38 + 32 x_39 + 27 x_40 = 486
	c_9: + 17 x_1 + 37 x_2 + 38 x_3 + 50 x_4 + 47 x_5 + 27 x_6 + 20 x_7 + 3 x_8 + 48 x_9 + 41 x_10 + 8 x_11 + 45 x_12 + 30 x_13 + 21 x_14 + 33 x_15 + 45 x_16 + 21 x_17 + 31 x_18 + 32 x_19 + 4 x_20 + 46 x_21 + 29 x_22 + 16 x_23 + 37 x_24 + 13 x_25 + 10 x_26 + 37 x_27 + 17 x_28 + 33 x_29 + 2 x_30 + 44 x_31 + 31 x_32 + 23 x_33 + 41 x_34 + 18 x_35 + 1 x_36 + 19 x_37 + 27 x_38 + 11 x_39 + 30 x_40 = 434
	c_10: + 41 x_1 + 13 x_2 + 45 x_3 + 14 x_4 + 40 x_5 + 39 x_6 + 49 x_7 + 38 x_8 + 42 x_9 + 5 x_10 + 37 x_11 + 17 x_12 + 17 x_13 + 5 x_14 + 32 x_15 + 46 x_16 + 32 x_17 + 16 x_18 + 28 x_19 + 14 x_20 + 2 x_21 + 16 x_22 + 9 x_23 + 50 x_24 + 41 x_25 + 20 x_26 + 17 x_27 + 11 x_28 + 47 x_29 + 8 x_30 + 15 x_31 + 47 x_32 + 22 x_33 + 19 x_34 + 22 x_35 + 10 x_36 + 16 x_37 + 41 x_38 + 42 x_39 + 18 x_40 = 371
	c_11: + 2 x_1 + 6 x_2 + 1 x_3 + 11 x_4 + 3 x_5 + 6 x_6 + 6 x_7 + 22 x_8 + 35 x_9 + 6 x_10 + 17 x_11 + 38 x_12 + 26 x_13 + 32 x_14 + 43 x_15 + 16 x_16 + 27 x_17 + 29 x_18 + 33 x_19 + 39 x_20 + 36 x_21 + 10 x_22 + 34 x_23 + 32 x_24 + 29 x_25 + 30 x_26 + 43 x_27 + 21 x_28 + 45 x_29 + 17 x_30 + 16 x_31 + 31 x_32 + 9 x_33 + 14 x_34 + 2 x_35 + 37 x_36 + 27 x_37 + 2 x_38 + 30 x_39 + 43 x_40 = 385
	c_12: + 39 x_1 + 34 x_2 + 25 x_3 + 10 x_4 + 48 x_5 + 40 x_6 + 38 x_7 + 7 x_8 + 41 x_9 + 48 x_10 + 23 x_11 + 35 x_12 + 5 x_13 + 34 x_14 + 23 x_15 + 49 x_16 + 38 x_17 + 25 x_18 + 36 x_19 + 38 x_20 + 16 x_21 + 19 x_22 + 31 x_23 + 48 x_24 + 16 x_25 + 18 x_26 + 28 x_27 + 12 x_28 + 9 x_29 + 13 x_30 + 6 x_31 + 9 x_32 + 3 x_33 + 4 x_34 + 35 x_35 + 37 x_36 + 2 x_37 + 16 x_38 + 48 x_39 + 48 x_40 = 463
	c_13: + 26 x_1 + 37 x_2 + 30 x_3 + 12 x_4 + 17 x_5 + 32 x_6 + 49 x_7 + 43 x_8 + 24 x_9 + 17 x_10 + 43 x_11 + 31 x_12 + 44 x_13 + 16 x_14 + 34 x_15 + 5 x_16 + 34 x_17 + 45 x_18 + 50 x_19 + 48 x_20 + 10 x_21 + 16 x_22 + 45 x_23 + 34 x_24 + 48 x_25 + 20 x_26 + 45 x_27 + 16 x_28 + 40 x_29 + 31 x_30 + 29 x_31 + 33 x_32 + 49 x_33 + 36 x_34 + 47 x_35 + 49 x_36 + 43 x_37 + 2 x_38 + 36 x_39 + 19 x_40 = 528
	c_14: + 10 x_1 + 47 x_2 + 43 x_3 + 13 x_4 + 15 x_5 + 16 x_6 + 12 x_7 + 17 x_8 + 15 x_9 + 22 x_10 + 47 x_11 + 25 x_12 + 11 x_13 + 11 x_14 + 13 x_15 + 49 x_16 + 5 x_17 + 18 x_18 + 1 x_19 + 49 x_20 + 24 x_21 + 2 x_22 + 3 x_23 + 49 x_24 + 19 x_25 + 36 x_26 + 18 x_27 + 49 x_28 + 48 x_29 + 20 x_30 + 44 x_31 + 37 x_32 + 25 x_33 + 23 x_34 + 19 x_35 + 48 x_36 + 32 x_37 + 41 x_38 + 50 x_39 + 3 x_40 = 364
	c_15: + 17 x_1 + 35 x_2 + 45 x_3 + 2 x_4 + 44 x_5 + 9 x_6 + 40 x_7 + 15 x_8 + 50 x_9 + 15 x_10 + 7 x_11 + 49 x_12 + 43 x_13 + 41 x_14 + 16 x_15 + 8 x_16 + 29 x_17 + 9 x_18 + 36 x_19 + 4 x_20 + 4 x_21 + 18 x_22 + 29 x_23 + 33 x_24 + 3 x_25 + 12 x_26 + 23 x_27 + 31 x_28 + 18 x_29 + 30 x_30 + 47 x_31 + 1 x_32 + 3 x_33 + 40 x_34 + 33 x_35 + 10 x_36 + 29 x_37 + 17 x_38 + 45 x_39 + 7 x_40 = 334
Bounds
  0 <= x_1 <= 1
  0 <= x_2 <= 1
  0 <= x_3 <= 1
  0 <= x_4 <= 1
  0 <= x_5 <= 1
  0 <= x_6 <= 1
  0 <= x_7 <= 1
  0 <= x_8 <= 1
  0 <= x_9 <= 1
  0 <= x_10 <= 1
  0 <= x_11 <= 1
  0 <= x_12 <= 1
  0 <= x_13 <= 1
  0 <= x_14 <= 1
  0 <= x_15 <= 1
  0 <= x_16 <= 1
  0 <= x_17 <= 1
  0 <= x_18 <= 1
  0 <= x_19 <= 1
  0 <= x_20 <= 1
  0 <= x_21 <= 1
  0 <= x_22 <= 1
  0 <= x_23 <= 1
  0 <= x_24 <= 1
  0 <= x_25 <= 1
  0 <= x_26 <= 1
  0 <= x_27 <= 1
  0 <= x_28 <= 1
  0 <= x_29 <= 1
  0 <= x_30 <= 1
  0 <= x_31 <= 1
  0 <= x_32 <= 1
  0 <= x_33 <= 1
  0 <= x_34 <= 1
  0 <= x_35 <= 1
  0 <= x_36 <= 1
  0 <= x_37 <= 1
  0 <= x_38 <= 1
  0 <= x_39 <= 1
  0 <= x_40 <= 1
End
