Subject To
	c_1: + 38 x_1 + 41 x_2 + 37 x_3 + 43 x_4 + 27 x_5 + 32 x_6 + 34 x_7 + 50 x_8 + 6 x_9 + 24 x_10 + 6 x_11 + 25 x_12 + 7 x_13 + 6 x_14 + 41 x_15 + 37 x_16 + 35 x_17 + 17 x_18 + 2 x_19 + 5 x_20 + 49 x_21 + 27 x_22 + 29 x_23 + 41 x_24 + 26 x_25 + 12 x_26 + 24 x_27 + 2 x_28 + 2 x_29 + 7 x_30 + 14 x_31 + 33 x_32 + 50 x_33 + 32 x_34 + 36 x_35 + 39 x_36 + 22 x_37 + 9 x_38 + 32 x_39 + 42 x_40 = 851
	c_2: + 48 x_1 + 14 x_2 + 11 x_3 + 5 x_4 + 17 x_5 + 20 x_6 + 34 x_7 + 16 x_8 + 41 x_9 + 30 x_10 + 42 x_11 + 46 x_12 + 27 x_13 + 43 x_14 + 15 x_15 + 7 x_16 + 42 x_17 + 47 x_18 + 37 x_19 + 35 x_20 + 1 x_21 + 14 x_22 + 27 x_23 + 46 x_24 + 45 x_25 + 34 x_26 + 10 x_27 + 12 x_28 + 37 x_29 + 10 x_30 + 18 x_31 + 33 x_32 + 49 x_33 + 49 x_34 + 33 x_35 + 20 x_36 + 32 x_37 + 40 x_38 + 12 x_39 + 30 x_40 = 588
	c_3: + 41 x_1 + 19 x_2 + 34 x_3 + 30 x_4 + 18 x_5 + 11 x_6 + 1 x_7 + 12 x_8 + 48 x_9 + 41 x_10 + 1 x_11 + 2 x_12 + 5 x_13 + 32 x_14 + 8 x_15 + 49 x_16 + 45 x_17 + 10 x_18 + 41 x_19 + 12 x_20 + 20 x_21 + 26 x_22 + 11 x_23 + 32 x_24 + 24 x_25 + 25 x_26 + 5 x_27 + 3 x_28 + 10 x_29 + 14 x_30 + 4 x_31 + 27 x_32 + 49 x_33 + 42 x_34 + 38 x_35 + 11 x_36 + 15 x_37 + 30 x_38 + 50 x_39 + 1 x_40 = 599
	c_4: + 42 x_1 + 26 x_2 + 49 x_3 + 8 x_4 + 28 x_5 + 42 x_6 + 18 x_7 + 36 x_8 + 32 x_9 + 16 x_10 + 33 x_11 + 7 x_12 + 4 x_13 + 47 x_14 + 37 x_15 + 5 x_16 + 29 x_17 + 3 x_18 + 48 x_19 + 21 x_20 + 2 x_21 + 4 x_22 + 32 x_23 + 5 x_24 + 31 x_25 + 47 x_26 + 43 x_27 + 39 x_28 + 28 x_29 + 32 x_30 + 14 x_31 + 47 x_32 + 16 x_33 + 11 x_34 + 25 x_35 + 33 x_36 + 20 x_37 + 20 x_38 + 14 x_39 + 23 x_40 = 563
	c_5: + 42 x_1 + 38 x_2 + 17 x_3 + 5 x_4 + 49 x_5 + 23 x_6 + 2 x_7 + 38 x_8 + 25 x_9 + 33 x_10 + 37 x_11 + 38 x_12 + 11 x_13 + 16 x_14 + 1 x_15 + 19 x_16 + 36 x_17 + 43 x_18 + 3 x_19 + 22 x_20 + 3 x_21 + 29 x_22 + 18 x_23 + 23 x_24 + 24 x_25 + 26 x_26 + 2 x_27 + 34 x_28 + 2 x_29 + 42 x_30 + 30 x_31 + 22 x_32 + 37 x_33 + 20 x_34 + 50 x_35 + 3 x_36 + 47 x_37 + 16 x_38 + 44 x_39 + 11 x_40 = 554
	c_6: + 50 x_1 + 23 x_2 + 7 x_3 + 22 x_4 + 36 x_5 + 46 x_6 + 6 x_7 + 45 x_8 + 47 x_9 + 9 x_10 + 21 x_11 + 35 x_12 + 22 x_13 + 37 x_14 + 35 x_15 + 6 x_16 + 42 x_17 + 2 x_18 + 34 x_19 + 17 x_20 + 38 x_21 + 8 x_22 + 11 x_23 + 33 x_24 + 18 x_25 + 48 x_26 + 16 x_27 + 18 x_28 + 38 x_29 + 18 x_30 + 18 x_31 + 32 x_32 + 40 x_33 + 48 x_34 + 12 x_35 + 32 x_36 + 2 x_37 + 3 x_38 + 38 x_39 + 42 x_40 = 670
	c_7: + 39 x_1 + 9 x_2 + 30 x_3 + 45 x_4 + 50 x_5 + 6 x_6 + 16 x_7 + 2 x_8 + 12 x_9 + 3 x_10 + 19 x_11 + 5 x_12 + 40 x_13 + 18 x_14 + 38 x_15 + 15 x_16 + 10 x_17 + 22 x_18 + 7 x_19 + 45 x_20 + 10 x_21 + 33 x_22 + 34 x_23 + 49 x_24 + 26 x_25 + 33 x_26 + 3 x_27 + 5 x_28 + 30 x_29 + 2 x_30 + 15 x_31 + 49 x_32 + 12 x_33 + 11 x_34 + 22 x_35 + 25 x_36 + 26 x_37 + 33 x_38 + 11 x_39 + 5 x_40 = 547
	c_8: + 46 x_1 + 19 x_2 + 9 x_3 + 43 x_4 + 48 x_5 + 7 x_6 + 17 x_7 + 50 x_8 + 32 x_9 + 11 x_10 + 43 x_11 + 31 x_12 + 39 x_13 + 50 x_14 + 2 x_15 + 37 x_16 + 35 x_17 + 37 x_18 + 49 x_19 + 10 x_20 + 48 x_21 + 47 x_22 + 4 x_23 + 23 x_24 + 46 x_25 + 48 x_26 + 14 x_27 + 16 x_28 + 47 x_29 + 9 x_30 + 48 x_31 + 6 x_32 + 2 x_33 + 41 x_34 + 32 x_35 + 33 x_36 + 6 x_37 + 33 x_38 + 35 x_39 + 1 x_40 = 631
	c_9: + 34 x_1 + 32 x_2 + 16 x_3 + 5 x_4 + 48 x_5 + 16 x_6 + 47 x_7 + 49 x_8 + 27 x_9 + 33 x_10 + 35 x_11 + 41 x_12 + 31 x_13 + 22 x_14 + 48 x_15 + 46 x_16 + 7 x_17 + 12 x_18 + 25 x_19 + 7 x_20 + 7 x_21 + 27 x_22 + 31 x_23 + 25 x_24 + 18 x_25 + 5 x_26 + 6 x_27 + 34 x_28 + 19 x_29 + 40 x_30 + 48 x_31 + 39 x_32 + 20 x_33 + 36 x_34 + 6 x_35 + 49 x_36 + 28 x_37 + 29 x_38 + 26 x_39 + 46 x_40 = 678
	c_10: + 11 x_1 + 9 x_2 + 18 x_3 + 33 x_4 + 42 x_5 + 14 x_6 + 17 x_7 + 45 x_8 + 1 x_9 + 39 x_10 + 2 x_11 + 50 x_12 + 38 x_13 + 39 x_14 + 30 x_15 + 8 x_16 + 16 x_17 + 14 x_18 + 5 x_19 + 19 x_20 + 41 x_21 + 27 x_22 + 5 x_23 + 20 x_24 + 14 x_25 + 7 x_26 + 2 x_27 + 16 x_28 + 20 x_29 + 44 x_30 + 3 x_31 + 32 x_32 + 42 x_33 + 13 x_34 + 35 x_35 + 24 x_36 + 42 x_37 + 37 x_38 + 22 x_39 + 16 x_40 = 534
	c_11: + 44 x_1 + 19 x_2 + 10 x_3 + 23 x_4 + 23 x_5 + 25 x_6 + 42 x_7 + 16 x_8 + 2 x_9 + 29 x_10 + 50 x_11 + 9 x_12 + 34 x_13 + 47 x_14 + 43 x_15 + 35 x_16 + 48 x_17 + 29 x_18 + 49 x_19 + 47 x_20 + 49 x_21 + 17 x_22 + 40 x_23 + 19 x_24 + 9 x_25 + 50 x_26 + 42 x_27 + 14 x_28 + 42 x_29 + 31 x_30 + 34 x_31 + 5 x_32 + 29 x_33 + 13 x_34 + 50 x_35 + 10 x_36 + 21 x_37 + 1 x_38 + 4 x_39 + 38 x_40 = 611
	c_12: + 46 x_1 + 21 x_2 + 35 x_3 + 4 x_4 + 43 x_5 + 17 x_6 + 25 x_7 + 33 x_8 + 17 x_9 + 37 x_10 + 43 x_11 + 47 x_12 + 41 x_13 + 34 x_14 + 4 x_15 + 7 x_16 + 3 x_17 + 24 x_18 + 45 x_19 + 46 x_20 + 21 x_21 + 20 x_22 + 21 x_23 + 37 x_24 + 6 x_25 + 19 x_26 + 25 x_27 + 23 x_28 + 38 x_29 + 7 x_30 + 18 x_31 + 45 x_32 + 8 x_33 + 43 x_34 + 34 x_35 + 25 x_36 + 16 x_37 + 42 x_38 + 44 x_39 + 7 x_40 = 549
	c_13: + 43 x_1 + 11 x_2 + 33 x_3 + 48 x_4 + 23 x_5 + 34 x_6 + 22 x_7 + 36 x_8 + 1 x_9 + 43 x_10 + 6 x_11 + 40 x_12 + 42 x_13 + 47 x_14 + 4 x_15 + 13 x_16 + 8 x_17 + 3 x_18 + 49 x_19 + 2 x_20 + 9 x_21 + 38 x_22 + 2 x_23 + 31 x_24 + 23 x_25 + 25 x_26 + 17 x_27 + 14 x_28 + 11 x_29 + 18 x_30 + 2 x_31 + 16 x_32 + 8 x_33 + 4 x_34 + 9 x_35 + 14 x_36 + 43 x_37 + 22 x_38 + 42 x_39 + 23 x_40 = 494
	c_14: + 25 x_1 + 38 x_2 + 47 x_3 + 7 x_4 + 8 x_5 + 37 x_6 + 16 x_7 + 25 x_8 + 22 x_9 + 38 x_10 + 47 x_11 + 10 x_12 + 12 x_13 + 44 x_14 + 50 x_15 + 11 x_16 + 45 x_17 + 47 x_18 + 1 x_19 + 5 x_20 + 41 x_21 + 48 x_22 + 45 x_23 + 29 x_24 + 43 x_25 + 20 x_26 + 4 x_27 + 8 x_28 + 47 x_29 + 35 x_30 + 45 x_31 + 41 x_32 + 30 x_33 + 32 x_34 + 19 x_35 + 44 x_36 + 15 x_37 + 47 x_38 + 49 x_39 + 22 x_40 = 752
	c_15: + 27 x_1 + 6 x_2 + 49 x_3 + 27 x_4 + 32 x_5 + 5 x_6 + 31 x_7 + 4 x_8 + 14 x_9 + 45 x_10 + 13 x_11 + 47 x_12 + 26 x_13 + 35 x_14 + 25 x_15 + 15 x_16 + 8 x_17 + 2 x_18 + 11 x_19 + 32 x_20 + 2 x_21 + 40 x_22 + 6 x_23 + 1 x_24 + 10 x_25 + 39 x_26 + 26 x_27 + 25 x_28 + 19 x_29 + 28 x_30 + 11 x_31 + 46 x_32 + 5 x_33 + 30 x_34 + 33 x_35 + 24 x_36 + 25 x_37 + 38 x_38 + 24 x_39 + 10 x_40 = 460
Bounds
  0 <= x_1 <= 1
  0 <= x_2 <= 1
  0 <= x_3 <= 1
  0 <= x_4 <= 1
  0 <= x_5 <= 1
  0 <= x_6 <= 1
  0 <= x_7 <= 1
  0 <= x_8 <= 1
  0 <= x_9 <= 1
  0 <= x_10 <= 1
  0 <= x_11 <= 1
  0 <= x_12 <= 1
  0 <= x_13 <= 1
  0 <= x_14 <= 1
  0 <= x_15 <= 1
  0 <= x_16 <= 1
  0 <= x_17 <= 1
  0 <= x_18 <= 1
  0 <= x_19 <= 1
  0 <= x_20 <= 1
  0 <= x_21 <= 1
  0 <= x_22 <= 1
  0 <= x_23 <= 1
  0 <= x_24 <= 1
  0 <= x_25 <= 1
  0 <= x_26 <= 1
  0 <= x_27 <= 1
  0 <= x_28 <= 1
  0 <= x_29 <= 1
  0 <= x_30 <= 1
  0 <= x_31 <= 1
  0 <= x_32 <= 1
  0 <= x_33 <= 1
  0 <= x_34 <= 1
  0 <= x_35 <= 1
  0 <= x_36 <= 1
  0 <= x_37 <= 1
  0 <= x_38 <= 1
  0 <= x_39 <= 1
  0 <= x_40 <= 1
End
