Subject To
	c_1: + 31 x_1 + 21 x_2 + 28 x_3 + 1 x_4 + 41 x_5 + 48 x_6 + 7 x_7 + 27 x_8 + 23 x_9 + 30 x_10 + 26 x_11 + 42 x_12 + 12 x_13 + 43 x_14 + 3 x_15 + 20 x_16 + 47 x_17 + 17 x_18 + 22 x_19 + 16 x_20 + 25 x_21 + 38 x_22 + 43 x_23 + 47 x_24 + 12 x_25 + 47 x_26 + 41 x_27 + 7 x_28 + 13 x_29 + 13 x_30 + 38 x_31 + 20 x_32 + 50 x_33 + 42 x_34 + 37 x_35 + 17 x_36 + 7 x_37 + 36 x_38 + 39 x_39 + 9 x_40 = 821
	c_2: + 22 x_1 + 32 x_2 + 36 x_3 + 7 x_4 + 21 x_5 + 34 x_6 + 3 x_7 + 7 x_8 + 22 x_9 + 8 x_10 + 38 x_11 + 21 x_12 + 18 x_13 + 16 x_14 + 35 x_15 + 49 x_16 + 6 x_17 + 23 x_18 + 17 x_19 + 38 x_20 + 23 x_21 + 37 x_22 + 37 x_23 + 27 x_24 + 2 x_25 + 6 x_26 + 24 x_27 + 32 x_28 + 3 x_29 + 50 x_30 + 16 x_31 + 20 x_32 + 21 x_33 + 26 x_34 + 4 x_35 + 5 x_36 + 33 x_37 + 26 x_38 + 29 x_39 + 6 x_40 = 462
	c_3: + 39 x_1 + 44 x_2 + 4 x_3 + 17 x_4 + 28 x_5 + 48 x_6 + 7 x_7 + 33 x_8 + 34 x_9 + 15 x_10 + 34 x_11 + 11 x_12 + 19 x_13 + 42 x_14 + 45 x_15 + 23 x_16 + 23 x_17 + 17 x_18 + 49 x_19 + 18 x_20 + 3 x_21 + 36 x_22 + 2 x_23 + 49 x_24 + 19 x_25 + 3 x_26 + 48 x_27 + 4 x_28 + 35 x_29 + 7 x_30 + 27 x_31 + 35 x_32 + 50 x_33 + 11 x_34 + 24 x_35 + 28 x_36 + 30 x_37 + 50 x_38 + 47 x_39 + 12 x_40 = 624
	c_4: + 43 x_1 + 6 x_2 + 40 x_3 + 2 x_4 + 5 x_5 + 19 x_6 + 25 x_7 + 3 x_8 + 13 x_9 + 43 x_10 + 47 x_11 + 33 x_12 + 18 x_13 + 17 x_14 + 42 x_15 + 43 x_16 + 13 x_17 + 11 x_18 + 23 x_19 + 3 x_20 + 27 x_21 + 9 x_22 + 43 x_23 + 18 x_24 + 37 x_25 + 32 x_26 + 37 x_27 + 40 x_28 + 43 x_29 + 38 x_30 + 34 x_31 + 46 x_32 + 6 x_33 + 23 x_34 + 25 x_35 + 12 x_36 + 3 x_37 + 38 x_38 + 34 x_39 + 16 x_40 = 562
	c_5: + 29 x_1 + 5 x_2 + 10 x_3 + 14 x_4 + 45 x_5 + 42 x_6 + 30 x_7 + 47 x_8 + 25 x_9 + 49 x_10 + 45 x_11 + 50 x_12 + 35 x_13 + 38 x_14 + 34 x_15 + 50 x_16 + 32 x_17 + 14 x_18 + 9 x_19 + 13 x_20 + 27 x_21 + 1 x_22 + 25 x_23 + 26 x_24 + 39 x_25 + 37 x_26 + 26 x_27 + 47 x_28 + 19 x_29 + 16 x_30 + 21 x_31 + 12 x_32 + 28 x_33 + 9 x_34 + 10 x_35 + 25 x_36 + 20 x_37 + 39 x_38 + 35 x_39 + 50 x_40 = 644
	c_6: + 46 x_1 + 41 x_2 + 14 x_3 + 24 x_4 + 4 x_5 + 20 x_6 + 41 x_7 + 12 x_8 + 37 x_9 + 2 x_10 + 41 x_11 + 36 x_12 + 48 x_13 + 47 x_14 + 29 x_15 + 7 x_16 + 14 x_17 + 11 x_18 + 31 x_19 + 39 x_20 + 29 x_21 + 41 x_22 + 47 x_23 + 3 x_24 + 16 x_25 + 7 x_26 + 30 x_27 + 1 x_28 + 35 x_29 + 16 x_30 + 27 x_31 + 37 x_32 + 44 x_33 + 16 x_34 + 23 x_35 + 25 x_36 + 9 x_37 + 37 x_38 + 45 x_39 + 18 x_40 = 556
	c_7: + 13 x_1 + 47 x_2 + 39 x_3 + 37 x_4 + 48 x_5 + 20 x_6 + 18 x_7 + 45 x_8 + 38 x_9 + 31 x_10 + 29 x_11 + 48 x_12 + 15 x_13 + 3 x_14 + 28 x_15 + 14 x_16 + 30 x_17 + 17 x_18 + 33 x_19 + 4 x_20 + 21 x_21 + 1 x_22 + 20 x_23 + 13 x_24 + 30 x_25 + 30 x_26 + 33 x_27 + 43 x_28 + 39 x_29 + 28 x_30 + 3 x_31 + 22 x_32 + 47 x_33 + 9 x_34 + 42 x_35 + 9 x_36 + 40 x_37 + 47 x_38 + 9 x_39 + 19 x_40 = 560
	c_8: + 49 x_1 + 21 x_2 + 50 x_3 + 49 x_4 + 16 x_5 + 34 x_6 + 47 x_7 + 8 x_8 + 10 x_9 + 12 x_10 + 41 x_11 + 8 x_12 + 30 x_13 + 34 x_14 + 26 x_15 + 39 x_16 + 23 x_17 + 24 x_18 + 32 x_19 + 10 x_20 + 8 x_21 + 29 x_22 + 1 x_23 + 32 x_24 + 16 x_25 + 14 x_26 + 31 x_27 + 41 x_28 + 20 x_29 + 46 x_30 + 8 x_31 + 8 x_32 + 30 x_33 + 41 x_34 + 24 x_35 + 28 x_36 + 36 x_37 + 9 x_38 + 47 x_39 + 1 x_40 = 541
	c_9: + 27 x_1 + 39 x_2 + 12 x_3 + 46 x_4 + 43 x_5 + 26 x_6 + 24 x_7 + 18 x_8 + 19 x_9 + 34 x_10 + 15 x_11 + 16 x_12 + 21 x_13 + 23 x_14 + 14 x_15 + 17 x_16 + 31 x_17 + 6 x_18 + 7 x_19 + 3 x_20 + 30 x_21 + 13 x_22 + 42 x_23 + 3 x_24 + 16 x_25 + 26 x_26 + 46 x_27 + 14 x_28 + 19 x_29 + 49 x_30 + 22 x_31 + 39 x_32 + 12 x_33 + 49 x_34 + 31 x_35 + 22 x_36 + 19 x_37 + 10 x_38 + 2 x_39 + 5 x_40 = 501
	c_10: + 23 x_1 + 18 x_2 + 7 x_3 + 35 x_4 + 5 x_5 + 40 x_6 + 37 x_7 + 23 x_8 + 32 x_9 + 38 x_10 + 27 x_11 + 31 x_12 + 11 x_13 + 10 x_14 + 49 x_15 + 2 x_16 + 40 x_17 + 21 x_18 + 24 x_19 + 50 x_20 + 5 x_21 + 8 x_22 + 6 x_23 + 46 x_24 + 42 x_25 + 27 x_26 + 6 x_27 + 30 x_28 + 3 x_29 + 42 x_30 + 9 x_31 + 22 x_32 + 7 x_33 + 37 x_34 + 2 x_35 + 36 x_36 + 24 x_37 + 31 x_38 + 34 x_39 + 39 x_40 = 457
	c_11: + 39 x_1 + 18 x_2 + 6 x_3 + 32 x_4 + 47 x_5 + 1 x_6 + 17 x_7 + 21 x_8 + 9 x_9 + 11 x_10 + 42 x_11 + 7 x_12 + 31 x_13 + 12 x_14 + 25 x_15 + 5 x_16 + 24 x_17 + 20 x_18 + 21 x_19 + 3 x_20 + 39 x_21 + 17 x_22 + 47 x_23 + 38 x_24 + 10 x_25 + 7 x_26 + 36 x_27 + 14 x_28 + 42 x_29 + 28 x_30 + 45 x_31 + 9 x_32 + 36 x_33 + 30 x_34 + 22 x_35 + 8 x_36 + 39 x_37 + 23 x_38 + 37 x_39 + 19 x_40 = 548
	c_12: + 44 x_1 + 23 x_2 + 43 x_3 + 9 x_4 + 47 x_5 + 36 x_6 + 24 x_7 + 27 x_8 + 25 x_9 + 13 x_10 + 48 x_11 + 13 x_12 + 25 x_13 + 9 x_14 + 28 x_15 + 31 x_16 + 32 x_17 + 18 x_18 + 47 x_19 + 11 x_20 + 8 x_21 + 21 x_22 + 19 x_23 + 39 x_24 + 9 x_25 + 34 x_26 + 28 x_27 + 25 x_28 + 6 x_29 + 50 x_30 + 43 x_31 + 27 x_32 + 24 x_33 + 46 x_34 + 12 x_35 + 3 x_36 + 49 x_37 + 20 x_38 + 15 x_39 + 40 x_40 = 613
	c_13: + 48 x_1 + 18 x_2 + 27 x_3 + 1 x_4 + 21 x_5 + 23 x_6 + 28 x_7 + 47 x_8 + 12 x_9 + 26 x_10 + 14 x_11 + 35 x_12 + 23 x_13 + 27 x_14 + 27 x_15 + 22 x_16 + 29 x_17 + 7 x_18 + 46 x_19 + 28 x_20 + 8 x_21 + 43 x_22 + 44 x_23 + 41 x_24 + 22 x_25 + 10 x_26 + 49 x_27 + 46 x_28 + 24 x_29 + 7 x_30 + 31 x_31 + 14 x_32 + 41 x_33 + 41 x_34 + 4 x_35 + 12 x_36 + 21 x_37 + 38 x_38 + 43 x_39 + 7 x_40 = 682
	c_14: + 13 x_1 + 16 x_2 + 6 x_3 + 19 x_4 + 47 x_5 + 6 x_6 + 39 x_7 + 15 x_8 + 20 x_9 + 6 x_10 + 18 x_11 + 46 x_12 + 19 x_13 + 35 x_14 + 36 x_15 + 42 x_16 + 24 x_17 + 29 x_18 + 25 x_19 + 1 x_20 + 50 x_21 + 43 x_22 + 38 x_23 + 21 x_24 + 26 x_25 + 48 x_26 + 34 x_27 + 24 x_28 + 26 x_29 + 28 x_30 + 32 x_31 + 39 x_32 + 14 x_33 + 43 x_34 + 25 x_35 + 34 x_36 + 48 x_37 + 28 x_38 + 48 x_39 + 22 x_40 = 590
	c_15: + 40 x_1 + 33 x_2 + 44 x_3 + 37 x_4 + 23 x_5 + 33 x_6 + 7 x_7 + 39 x_8 + 47 x_9 + 12 x_10 + 4 x_11 + 9 x_12 + 43 x_13 + 8 x_14 + 25 x_15 + 4 x_16 + 31 x_17 + 22 x_18 + 25 x_19 + 10 x_20 + 9 x_21 + 7 x_22 + 4 x_23 + 46 x_24 + 17 x_25 + 33 x_26 + 11 x_27 + 38 x_28 + 43 x_29 + 6 x_30 + 24 x_31 + 48 x_32 + 16 x_33 + 14 x_34 + 13 x_35 + 9 x_36 + 25 x_37 + 31 x_38 + 26 x_39 + 35 x_40 = 468
Bounds
  0 <= x_1 <= 1
  0 <= x_2 <= 1
  0 <= x_3 <= 1
  0 <= x_4 <= 1
  0 <= x_5 <= 1
  0 <= x_6 <= 1
  0 <= x_7 <= 1
  0 <= x_8 <= 1
  0 <= x_9 <= 1
  0 <= x_10 <= 1
  0 <= x_11 <= 1
  0 <= x_12 <= 1
  0 <= x_13 <= 1
  0 <= x_14 <= 1
  0 <= x_15 <= 1
  0 <= x_16 <= 1
  0 <= x_17 <= 1
  0 <= x_18 <= 1
  0 <= x_19 <= 1
  0 <= x_20 <= 1
  0 <= x_21 <= 1
  0 <= x_22 <= 1
  0 <= x_23 <= 1
  0 <= x_24 <= 1
  0 <= x_25 <= 1
  0 <= x_26 <= 1
  0 <= x_27 <= 1
  0 <= x_28 <= 1
  0 <= x_29 <= 1
  0 <= x_30 <= 1
  0 <= x_31 <= 1
  0 <= x_32 <= 1
  0 <= x_33 <= 1
  0 <= x_34 <= 1
  0 <= x_35 <= 1
  0 <= x_36 <= 1
  0 <= x_37 <= 1
  0 <= x_38 <= 1
  0 <= x_39 <= 1
  0 <= x_40 <= 1
End
