Subject To
	c_1: + 46 x_1 + 16 x_2 + 31 x_3 + 32 x_4 + 6 x_5 + 5 x_6 + 29 x_7 + 8 x_8 + 11 x_9 + 50 x_10 + 22 x_11 + 39 x_12 + 34 x_13 + 30 x_14 + 6 x_15 + 23 x_16 + 34 x_17 + 3 x_18 + 29 x_19 + 36 x_20 + 39 x_21 + 39 x_22 + 50 x_23 + 5 x_24 + 2 x_25 + 22 x_26 + 25 x_27 + 35 x_28 + 38 x_29 + 22 x_30 + 22 x_31 + 41 x_32 + 42 x_33 + 38 x_34 + 1 x_35 + 36 x_36 + 1 x_37 + 30 x_38 + 28 x_39 + 16 x_40 = 806
	c_2: + 29 x_1 + 47 x_2 + 32 x_3 + 49 x_4 + 44 x_5 + 22 x_6 + 9 x_7 + 39 x_8 + 15 x_9 + 6 x_10 + 19 x_11 + 41 x_12 + 15 x_13 + 38 x_14 + 9 x_15 + 44 x_16 + 39 x_17 + 50 x_18 + 19 x_19 + 30 x_20 + 14 x_21 + 28 x_22 + 35 x_23 + 47 x_24 + 29 x_25 + 11 x_26 + 9 x_27 + 40 x_28 + 50 x_29 + 2 x_30 + 12 x_31 + 12 x_32 + 31 x_33 + 13 x_34 + 43 x_35 + 39 x_36 + 47 x_37 + 50 x_38 + 40 x_39 + 45 x_40 = 659
	c_3: + 39 x_1 + 14 x_2 + 49 x_3 + 9 x_4 + 12 x_5 + 39 x_6 + 23 x_7 + 44 x_8 + 26 x_9 + 14 x_10 + 35 x_11 + 44 x_12 + 18 x_13 + 40 x_14 + 15 x_15 + 22 x_16 + 5 x_17 + 28 x_18 + 42 x_19 + 14 x_20 + 23 x_21 + 48 x_22 + 35 x_23 + 8 x_24 + 10 x_25 + 42 x_26 + 9 x_27 + 4 x_28 + 25 x_29 + 29 x_30 + 15 x_31 + 32 x_32 + 17 x_33 + 6 x_34 + 32 x_35 + 43 x_36 + 7 x_37 + 1 x_38 + 15 x_39 + 23 x_40 = 546
	c_4: + 12 x_1 + 49 x_2 + 18 x_3 + 46 x_4 + 43 x_5 + 49 x_6 + 25 x_7 + 38 x_8 + 34 x_9 + 16 x_10 + 20 x_11 + 1 x_12 + 22 x_13 + 23 x_14 + 2 x_15 + 32 x_16 + 47 x_17 + 24 x_18 + 2 x_19 + 12 x_20 + 10 x_21 + 31 x_22 + 35 x_23 + 19 x_24 + 49 x_25 + 24 x_26 + 5 x_27 + 25 x_28 + 30 x_29 + 34 x_30 + 17 x_31 + 36 x_32 + 42 x_33 + 30 x_34 + 48 x_35 + 5 x_36 + 35 x_37 + 49 x_38 + 11 x_39 + 33 x_40 = 528
	c_5: + 37 x_1 + 46 x_2 + 7 x_3 + 35 x_4 + 47 x_5 + 24 x_6 + 3 x_7 + 37 x_8 + 17 x_9 + 39 x_10 + 47 x_11 + 44 x_12 + 14 x_13 + 25 x_14 + 2 x_15 + 48 x_16 + 48 x_17 + 36 x_18 + 25 x_19 + 33 x_20 + 35 x_21 + 1 x_22 + 36 x_23 + 16 x_24 + 7 x_25 + 22 x_26 + 48 x_27 + 8 x_28 + 28 x_29 + 40 x_30 + 32 x_31 + 27 x_32 + 50 x_33 + 37 x_34 + 45 x_35 + 45 x_36 + 29 x_37 + 36 x_38 + 30 x_39 + 18 x_40 = 643
	c_6: + 25 x_1 + 31 x_2 + 46 x_3 + 43 x_4 + 2 x_5 + 25 x_6 + 49 x_7 + 37 x_8 + 48 x_9 + 39 x_10 + 25 x_11 + 47 x_12 + 47 x_13 + 4 x_14 + 36 x_15 + 22 x_16 + 48 x_17 + 30 x_18 + 34 x_19 + 2 x_20 + 5 x_21 + 23 x_22 + 19 x_23 + 50 x_24 + 29 x_25 + 36 x_26 + 14 x_27 + 21 x_28 + 7 x_29 + 17 x_30 + 44 x_31 + 6 x_32 + 25 x_33 + 1 x_34 + 9 x_35 + 48 x_36 + 39 x_37 + 44 x_38 + 40 x_39 + 35 x_40 = 623
	c_7: + 38 x_1 + 24 x_2 + 1 x_3 + 9 x_4 + 42 x_5 + 44 x_6 + 44 x_7 + 48 x_8 + 48 x_9 + 21 x_10 + 4 x_11 + 13 x_12 + 4 x_13 + 17 x_14 + 33 x_15 + 24 x_16 + 25 x_17 + 46 x_18 + 4 x_19 + 27 x_20 + 46 x_21 + 4 x_22 + 26 x_23 + 32 x_24 + 26 x_25 + 5 x_26 + 28 x_27 + 42 x_28 + 43 x_29 + 1 x_30 + 16 x_31 + 9 x_32 + 20 x_33 + 5 x_34 + 22 x_35 + 42 x_36 + 45 x_37 + 48 x_38 + 28 x_39 + 32 x_40 = 516
	c_8: + 2 x_1 + 34 x_2 + 33 x_3 + 50 x_4 + 15 x_5 + 26 x_6 + 28 x_7 + 46 x_8 + 28 x_9 + 5 x_10 + 18 x_11 + 41 x_12 + 10 x_13 + 21 x_14 + 44 x_15 + 8 x_16 + 43 x_17 + 16 x_18 + 38 x_19 + 10 x_20 + 21 x_21 + 18 x_22 + 32 x_23 + 49 x_24 + 40 x_25 + 43 x_26 + 34 x_27 + 27 x_28 + 19 x_29 + 32 x_30 + 26 x_31 + 39 x_32 + 1 x_33 + 12 x_34 + 1 x_35 + 34 x_36 + 9 x_37 + 8 x_38 + 43 x_39 + 15 x_40 = 535
	c_9: + 21 x_1 + 26 x_2 + 11 x_3 + 39 x_4 + 45 x_5 + 46 x_6 + 24 x_7 + 1 x_8 + 20 x_9 + 18 x_10 + 3 x_11 + 23 x_12 + 40 x_13 + 3 x_14 + 33 x_15 + 35 x_16 + 3 x_17 + 34 x_18 + 12 x_19 + 25 x_20 + 11 x_21 + 43 x_22 + 45 x_23 + 32 x_24 + 35 x_25 + 30 x_26 + 19 x_27 + 35 x_28 + 29 x_29 + 6 x_30 + 31 x_31 + 3 x_32 + 11 x_33 + 21 x_34 + 43 x_35 + 31 x_36 + 15 x_37 + 24 x_38 + 22 x_39 + 8 x_40 = 494
	c_10: + 22 x_1 + 33 x_2 + 1 x_3 + 40 x_4 + 13 x_5 + 6 x_6 + 1 x_7 + 18 x_8 + 16 x_9 + 7 x_10 + 43 x_11 + 44 x_12 + 26 x_13 + 24 x_14 + 18 x_15 + 14 x_16 + 38 x_17 + 47 x_18 + 46 x_19 + 1 x_20 + 25 x_21 + 6 x_22 + 45 x_23 + 43 x_24 + 15 x_25 + 37 x_26 + 42 x_27 + 13 x_28 + 39 x_29 + 49 x_30 + 25 x_31 + 29 x_32 + 7 x_33 + 38 x_34 + 37 x_35 + 30 x_36 + 24 x_37 + 35 x_38 + 44 x_39 + 38 x_40 = 561
	c_11: + 49 x_1 + 11 x_2 + 1 x_3 + 8 x_4 + 32 x_5 + 6 x_6 + 37 x_7 + 28 x_8 + 44 x_9 + 32 x_10 + 45 x_11 + 34 x_12 + 40 x_13 + 29 x_14 + 21 x_15 + 29 x_16 + 29 x_17 + 42 x_18 + 6 x_19 + 16 x_20 + 6 x_21 + 37 x_22 + 46 x_23 + 36 x_24 + 13 x_25 + 39 x_26 + 1 x_27 + 4 x_28 + 1 x_29 + 36 x_30 + 32 x_31 + 29 x_32 + 28 x_33 + 9 x_34 + 3 x_35 + 36 x_36 + 25 x_37 + 2 x_38 + 16 x_39 + 7 x_40 = 495
	c_12: + 49 x_1 + 47 x_2 + 34 x_3 + 21 x_4 + 7 x_5 + 2 x_6 + 38 x_7 + 16 x_8 + 4 x_9 + 47 x_10 + 48 x_11 + 28 x_12 + 22 x_13 + 14 x_14 + 49 x_15 + 20 x_16 + 23 x_17 + 29 x_18 + 45 x_19 + 21 x_20 + 32 x_21 + 45 x_22 + 42 x_23 + 35 x_24 + 38 x_25 + 15 x_26 + 1 x_27 + 20 x_28 + 11 x_29 + 19 x_30 + 3 x_31 + 23 x_32 + 28 x_33 + 49 x_34 + 13 x_35 + 49 x_36 + 8 x_37 + 49 x_38 + 28 x_39 + 12 x_40 = 718
	c_13: + 21 x_1 + 9 x_2 + 34 x_3 + 25 x_4 + 28 x_5 + 21 x_6 + 20 x_7 + 48 x_8 + 19 x_9 + 26 x_10 + 35 x_11 + 10 x_12 + 14 x_13 + 11 x_14 + 16 x_15 + 48 x_16 + 37 x_17 + 49 x_18 + 4 x_19 + 29 x_20 + 15 x_21 + 14 x_22 + 1 x_23 + 34 x_24 + 27 x_25 + 41 x_26 + 20 x_27 + 21 x_28 + 3 x_29 + 36 x_30 + 17 x_31 + 21 x_32 + 41 x_33 + 3 x_34 + 31 x_35 + 32 x_36 + 11 x_37 + 41 x_38 + 9 x_39 + 28 x_40 = 432
	c_14: + 44 x_1 + 33 x_2 + 4 x_3 + 20 x_4 + 33 x_5 + 37 x_6 + 18 x_7 + 14 x_8 + 12 x_9 + 35 x_10 + 31 x_11 + 28 x_12 + 5 x_13 + 2 x_14 + 41 x_15 + 24 x_16 + 1 x_17 + 2 x_18 + 44 x_19 + 3 x_20 + 44 x_21 + 15 x_22 + 16 x_23 + 32 x_24 + 29 x_25 + 34 x_26 + 43 x_27 + 30 x_28 + 21 x_29 + 31 x_30 + 27 x_31 + 37 x_32 + 17 x_33 + 50 x_34 + 39 x_35 + 2 x_36 + 11 x_37 + 43 x_38 + 3 x_39 + 16 x_40 = 482
	c_15: + 6 x_1 + 3 x_2 + 5 x_3 + 50 x_4 + 1 x_5 + 24 x_6 + 42 x_7 + 22 x_8 + 30 x_9 + 6 x_10 + 1 x_11 + 50 x_12 + 3 x_13 + 15 x_14 + 6 x_15 + 29 x_16 + 16 x_17 + 34 x_18 + 13 x_19 + 41 x_20 + 42 x_21 + 49 x_22 + 27 x_23 + 37 x_24 + 5 x_25 + 7 x_26 + 18 x_27 + 45 x_28 + 13 x_29 + 30 x_30 + 44 x_31 + 36 x_32 + 35 x_33 + 30 x_34 + 23 x_35 + 25 x_36 + 38 x_37 + 27 x_38 + 11 x_39 + 25 x_40 = 587
Bounds
  0 <= x_1 <= 1
  0 <= x_2 <= 1
  0 <= x_3 <= 1
  0 <= x_4 <= 1
  0 <= x_5 <= 1
  0 <= x_6 <= 1
  0 <= x_7 <= 1
  0 <= x_8 <= 1
  0 <= x_9 <= 1
  0 <= x_10 <= 1
  0 <= x_11 <= 1
  0 <= x_12 <= 1
  0 <= x_13 <= 1
  0 <= x_14 <= 1
  0 <= x_15 <= 1
  0 <= x_16 <= 1
  0 <= x_17 <= 1
  0 <= x_18 <= 1
  0 <= x_19 <= 1
  0 <= x_20 <= 1
  0 <= x_21 <= 1
  0 <= x_22 <= 1
  0 <= x_23 <= 1
  0 <= x_24 <= 1
  0 <= x_25 <= 1
  0 <= x_26 <= 1
  0 <= x_27 <= 1
  0 <= x_28 <= 1
  0 <= x_29 <= 1
  0 <= x_30 <= 1
  0 <= x_31 <= 1
  0 <= x_32 <= 1
  0 <= x_33 <= 1
  0 <= x_34 <= 1
  0 <= x_35 <= 1
  0 <= x_36 <= 1
  0 <= x_37 <= 1
  0 <= x_38 <= 1
  0 <= x_39 <= 1
  0 <= x_40 <= 1
End
