Subject To
	c_1: + 14 x_1 + 13 x_2 + 27 x_3 + 43 x_4 + 42 x_5 + 41 x_6 + 25 x_7 + 1 x_8 + 7 x_9 + 45 x_10 + 48 x_11 + 11 x_12 + 6 x_13 + 20 x_14 + 36 x_15 + 30 x_16 + 34 x_17 + 26 x_18 + 12 x_19 + 28 x_20 + 45 x_21 + 24 x_22 + 32 x_23 + 14 x_24 + 44 x_25 + 42 x_26 + 36 x_27 + 38 x_28 + 10 x_29 + 8 x_30 + 49 x_31 + 27 x_32 + 18 x_33 + 36 x_34 + 9 x_35 + 19 x_36 + 49 x_37 + 9 x_38 + 39 x_39 + 7 x_40 = 837
	c_2: + 4 x_1 + 6 x_2 + 48 x_3 + 36 x_4 + 11 x_5 + 34 x_6 + 39 x_7 + 23 x_8 + 4 x_9 + 47 x_10 + 39 x_11 + 15 x_12 + 37 x_13 + 13 x_14 + 40 x_15 + 25 x_16 + 16 x_17 + 25 x_18 + 27 x_19 + 46 x_20 + 19 x_21 + 40 x_22 + 24 x_23 + 14 x_24 + 21 x_25 + 28 x_26 + 35 x_27 + 5 x_28 + 44 x_29 + 14 x_30 + 7 x_31 + 25 x_32 + 21 x_33 + 15 x_34 + 18 x_35 + 13 x_36 + 23 x_37 + 17 x_38 + 35 x_39 + 35 x_40 = 604
	c_3: + 16 x_1 + 28 x_2 + 19 x_3 + 11 x_4 + 13 x_5 + 26 x_6 + 21 x_7 + 44 x_8 + 40 x_9 + 35 x_10 + 43 x_11 + 29 x_12 + 8 x_13 + 41 x_14 + 40 x_15 + 17 x_16 + 34 x_17 + 11 x_18 + 7 x_19 + 40 x_20 + 28 x_21 + 22 x_22 + 9 x_23 + 33 x_24 + 6 x_25 + 38 x_26 + 33 x_27 + 47 x_28 + 25 x_29 + 37 x_30 + 38 x_31 + 29 x_32 + 1 x_33 + 2 x_34 + 18 x_35 + 13 x_36 + 20 x_37 + 37 x_38 + 19 x_39 + 30 x_40 = 558
	c_4: + 42 x_1 + 34 x_2 + 41 x_3 + 6 x_4 + 11 x_5 + 10 x_6 + 20 x_7 + 5 x_8 + 44 x_9 + 27 x_10 + 44 x_11 + 18 x_12 + 29 x_13 + 42 x_14 + 29 x_15 + 44 x_16 + 5 x_17 + 29 x_18 + 29 x_19 + 29 x_20 + 15 x_21 + 47 x_22 + 27 x_23 + 18 x_24 + 40 x_25 + 26 x_26 + 12 x_27 + 12 x_28 + 12 x_29 + 2 x_30 + 43 x_31 + 34 x_32 + 3 x_33 + 39 x_34 + 33 x_35 + 28 x_36 + 30 x_37 + 39 x_38 + 20 x_39 + 39 x_40 = 573
	c_5: + 30 x_1 + 24 x_2 + 17 x_3 + 32 x_4 + 38 x_5 + 34 x_6 + 44 x_7 + 14 x_8 + 15 x_9 + 5 x_10 + 10 x_11 + 33 x_12 + 30 x_13 + 26 x_14 + 45 x_15 + 29 x_16 + 37 x_17 + 21 x_18 + 17 x_19 + 6 x_20 + 30 x_21 + 32 x_22 + 37 x_23 + 12 x_24 + 48 x_25 + 45 x_26 + 16 x_27 + 7 x_28 + 15 x_29 + 42 x_30 + 21 x_31 + 8 x_32 + 29 x_33 + 28 x_34 + 24 x_35 + 24 x_36 + 9 x_37 + 44 x_38 + 36 x_39 + 6 x_40 = 559
	c_6: + 24 x_1 + 22 x_2 + 27 x_3 + 10 x_4 + 8 x_5 + 44 x_6 + 46 x_7 + 13 x_8 + 33 x_9 + 21 x_10 + 9 x_11 + 19 x_12 + 24 x_13 + 19 x_14 + 4 x_15 + 48 x_16 + 35 x_17 + 17 x_18 + 31 x_19 + 5 x_20 + 47 x_21 + 31 x_22 + 5 x_23 + 3 x_24 + 6 x_25 + 44 x_26 + 8 x_27 + 16 x_28 + 18 x_29 + 42 x_30 + 28 x_31 + 15 x_32 + 12 x_33 + 26 x_34 + 46 x_35 + 46 x_36 + 43 x_37 + 12 x_38 + 41 x_39 + 49 x_40 = 507
	c_7: + 47 x_1 + 29 x_2 + 50 x_3 + 25 x_4 + 44 x_5 + 4 x_6 + 33 x_7 + 2 x_8 + 30 x_9 + 37 x_10 + 48 x_11 + 11 x_12 + 19 x_13 + 37 x_14 + 33 x_15 + 44 x_16 + 38 x_17 + 27 x_18 + 14 x_19 + 1 x_20 + 46 x_21 + 48 x_22 + 1 x_23 + 41 x_24 + 18 x_25 + 33 x_26 + 25 x_27 + 10 x_28 + 19 x_29 + 10 x_30 + 42 x_31 + 28 x_32 + 15 x_33 + 26 x_34 + 22 x_35 + 26 x_36 + 43 x_37 + 22 x_38 + 47 x_39 + 5 x_40 = 670
	c_8: + 18 x_1 + 50 x_2 + 46 x_3 + 40 x_4 + 29 x_5 + 5 x_6 + 13 x_7 + 5 x_8 + 34 x_9 + 13 x_10 + 10 x_11 + 44 x_12 + 5 x_13 + 12 x_14 + 15 x_15 + 15 x_16 + 28 x_17 + 1 x_18 + 23 x_19 + 33 x_20 + 20 x_21 + 31 x_22 + 34 x_23 + 17 x_24 + 28 x_25 + 48 x_26 + 23 x_27 + 40 x_28 + 11 x_29 + 45 x_30 + 6 x_31 + 48 x_32 + 39 x_33 + 25 x_34 + 42 x_35 + 38 x_36 + 35 x_37 + 4 x_38 + 27 x_39 + 42 x_40 = 569
	c_9: + 43 x_1 + 22 x_2 + 42 x_3 + 13 x_4 + 21 x_5 + 48 x_6 + 18 x_7 + 26 x_8 + 50 x_9 + 33 x_10 + 30 x_11 + 39 x_12 + 7 x_13 + 35 x_14 + 25 x_15 + 14 x_16 + 22 x_17 + 25 x_18 + 12 x_19 + 11 x_20 + 2 x_21 + 17 x_22 + 47 x_23 + 45 x_24 + 44 x_25 + 8 x_26 + 34 x_27 + 35 x_28 + 2 x_29 + 35 x_30 + 8 x_31 + 44 x_32 + 21 x_33 + 31 x_34 + 21 x_35 + 17 x_36 + 20 x_37 + 10 x_38 + 45 x_39 + 8 x_40 = 602
	c_10: + 4 x_1 + 17 x_2 + 34 x_3 + 41 x_4 + 4 x_5 + 29 x_6 + 4 x_7 + 33 x_8 + 9 x_9 + 4 x_10 + 28 x_11 + 14 x_12 + 37 x_13 + 16 x_14 + 19 x_15 + 43 x_16 + 27 x_17 + 36 x_18 + 26 x_19 + 22 x_20 + 33 x_21 + 20 x_22 + 6 x_23 + 45 x_24 + 2 x_25 + 35 x_26 + 47 x_27 + 32 x_28 + 36 x_29 + 3 x_30 + 36 x_31 + 42 x_32 + 39 x_33 + 26 x_34 + 47 x_35 + 10 x_36 + 30 x_37 + 42 x_38 + 25 x_39 + 44 x_40 = 601
	c_11: + 20 x_1 + 37 x_2 + 22 x_3 + 37 x_4 + 24 x_5 + 24 x_6 + 35 x_7 + 7 x_8 + 37 x_9 + 9 x_10 + 37 x_11 + 30 x_12 + 44 x_13 + 48 x_14 + 3 x_15 + 49 x_16 + 20 x_17 + 25 x_18 + 9 x_19 + 29 x_20 + 24 x_21 + 26 x_22 + 29 x_23 + 46 x_24 + 30 x_25 + 25 x_26 + 32 x_27 + 29 x_28 + 28 x_29 + 6 x_30 + 10 x_31 + 9 x_32 + 17 x_33 + 46 x_34 + 33 x_35 + 31 x_36 + 15 x_37 + 13 x_38 + 34 x_39 + 8 x_40 = 562
	c_12: + 11 x_1 + 34 x_2 + 13 x_3 + 33 x_4 + 11 x_5 + 29 x_6 + 10 x_7 + 6 x_8 + 47 x_9 + 20 x_10 + 38 x_11 + 44 x_12 + 48 x_13 + 14 x_14 + 45 x_15 + 22 x_16 + 27 x_17 + 8 x_18 + 5 x_19 + 40 x_20 + 25 x_21 + 3 x_22 + 38 x_23 + 30 x_24 + 23 x_25 + 11 x_26 + 40 x_27 + 42 x_28 + 25 x_29 + 19 x_30 + 19 x_31 + 17 x_32 + 41 x_33 + 44 x_34 + 16 x_35 + 25 x_36 + 20 x_37 + 41 x_38 + 25 x_39 + 13 x_40 = 590
	c_13: + 25 x_1 + 36 x_2 + 27 x_3 + 10 x_4 + 9 x_5 + 31 x_6 + 14 x_7 + 16 x_8 + 6 x_9 + 1 x_10 + 19 x_11 + 24 x_12 + 27 x_13 + 35 x_14 + 46 x_15 + 41 x_16 + 10 x_17 + 2 x_18 + 19 x_19 + 31 x_20 + 25 x_21 + 2 x_22 + 47 x_23 + 7 x_24 + 36 x_25 + 21 x_26 + 48 x_27 + 3 x_28 + 33 x_29 + 30 x_30 + 9 x_31 + 49 x_32 + 44 x_33 + 1 x_34 + 14 x_35 + 31 x_36 + 45 x_37 + 26 x_38 + 10 x_39 + 22 x_40 = 521
	c_14: + 12 x_1 + 44 x_2 + 33 x_3 + 3 x_4 + 28 x_5 + 37 x_6 + 26 x_7 + 36 x_8 + 9 x_9 + 32 x_10 + 41 x_11 + 2 x_12 + 7 x_13 + 27 x_14 + 21 x_15 + 46 x_16 + 45 x_17 + 5 x_18 + 5 x_19 + 13 x_20 + 7 x_21 + 48 x_22 + 21 x_23 + 37 x_24 + 36 x_25 + 45 x_26 + 25 x_27 + 29 x_28 + 32 x_29 + 4 x_30 + 1 x_31 + 42 x_32 + 42 x_33 + 16 x_34 + 44 x_35 + 11 x_36 + 18 x_37 + 11 x_38 + 44 x_39 + 43 x_40 = 588
	c_15: + 39 x_1 + 44 x_2 + 48 x_3 + 16 x_4 + 32 x_5 + 15 x_6 + 41 x_7 + 32 x_8 + 16 x_9 + 21 x_10 + 36 x_11 + 39 x_12 + 26 x_13 + 29 x_14 + 8 x_15 + 29 x_16 + 47 x_17 + 38 x_18 + 11 x_19 + 13 x_20 + 33 x_21 + 50 x_22 + 49 x_23 + 37 x_24 + 19 x_25 + 38 x_26 + 43 x_27 + 5 x_28 + 23 x_29 + 12 x_30 + 34 x_31 + 37 x_32 + 50 x_33 + 34 x_34 + 34 x_35 + 7 x_36 + 12 x_37 + 2 x_38 + 24 x_39 + 29 x_40 = 631
Bounds
  0 <= x_1 <= 1
  0 <= x_2 <= 1
  0 <= x_3 <= 1
  0 <= x_4 <= 1
  0 <= x_5 <= 1
  0 <= x_6 <= 1
  0 <= x_7 <= 1
  0 <= x_8 <= 1
  0 <= x_9 <= 1
  0 <= x_10 <= 1
  0 <= x_11 <= 1
  0 <= x_12 <= 1
  0 <= x_13 <= 1
  0 <= x_14 <= 1
  0 <= x_15 <= 1
  0 <= x_16 <= 1
  0 <= x_17 <= 1
  0 <= x_18 <= 1
  0 <= x_19 <= 1
  0 <= x_20 <= 1
  0 <= x_21 <= 1
  0 <= x_22 <= 1
  0 <= x_23 <= 1
  0 <= x_24 <= 1
  0 <= x_25 <= 1
  0 <= x_26 <= 1
  0 <= x_27 <= 1
  0 <= x_28 <= 1
  0 <= x_29 <= 1
  0 <= x_30 <= 1
  0 <= x_31 <= 1
  0 <= x_32 <= 1
  0 <= x_33 <= 1
  0 <= x_34 <= 1
  0 <= x_35 <= 1
  0 <= x_36 <= 1
  0 <= x_37 <= 1
  0 <= x_38 <= 1
  0 <= x_39 <= 1
  0 <= x_40 <= 1
End
