Subject To
	c_1: + 6 x_1 + 12 x_2 + 24 x_3 + 4 x_4 + 38 x_5 + 10 x_6 + 50 x_7 + 6 x_8 + 48 x_9 + 32 x_10 + 1 x_11 + 32 x_12 + 2 x_13 + 16 x_14 + 18 x_15 + 27 x_16 + 12 x_17 + 39 x_18 + 49 x_19 + 4 x_20 + 4 x_21 + 24 x_22 + 46 x_23 + 31 x_24 + 48 x_25 + 38 x_26 + 22 x_27 + 40 x_28 + 14 x_29 + 10 x_30 + 42 x_31 + 11 x_32 + 24 x_33 + 15 x_34 + 4 x_35 + 27 x_36 + 27 x_37 + 47 x_38 + 28 x_39 + 23 x_40 = 689
	c_2: + 30 x_1 + 22 x_2 + 17 x_3 + 42 x_4 + 17 x_5 + 16 x_6 + 18 x_7 + 18 x_8 + 16 x_9 + 19 x_10 + 50 x_11 + 19 x_12 + 50 x_13 + 33 x_14 + 6 x_15 + 10 x_16 + 17 x_17 + 30 x_18 + 31 x_19 + 7 x_20 + 46 x_21 + 9 x_22 + 23 x_23 + 45 x_24 + 32 x_25 + 17 x_26 + 12 x_27 + 19 x_28 + 13 x_29 + 23 x_30 + 22 x_31 + 33 x_32 + 1 x_33 + 37 x_34 + 41 x_35 + 16 x_36 + 46 x_37 + 23 x_38 + 24 x_39 + 38 x_40 = 427
	c_3: + 11 x_1 + 19 x_2 + 11 x_3 + 22 x_4 + 28 x_5 + 20 x_6 + 30 x_7 + 19 x_8 + 9 x_9 + 8 x_10 + 18 x_11 + 34 x_12 + 7 x_13 + 10 x_14 + 21 x_15 + 44 x_16 + 12 x_17 + 23 x_18 + 10 x_19 + 17 x_20 + 20 x_21 + 26 x_22 + 21 x_23 + 47 x_24 + 48 x_25 + 23 x_26 + 42 x_27 + 27 x_28 + 7 x_29 + 47 x_30 + 1 x_31 + 17 x_32 + 41 x_33 + 4 x_34 + 30 x_35 + 6 x_36 + 48 x_37 + 16 x_38 + 11 x_39 + 25 x_40 = 434
	c_4: + 13 x_1 + 36 x_2 + 1 x_3 + 16 x_4 + 21 x_5 + 3 x_6 + 13 x_7 + 9 x_8 + 6 x_9 + 14 x_10 + 24 x_11 + 23 x_12 + 37 x_13 + 19 x_14 + 18 x_15 + 26 x_16 + 47 x_17 + 6 x_18 + 48 x_19 + 40 x_20 + 5 x_21 + 33 x_22 + 49 x_23 + 41 x_24 + 7 x_25 + 15 x_26 + 23 x_27 + 49 x_28 + 14 x_29 + 6 x_30 + 17 x_31 + 44 x_32 + 50 x_33 + 45 x_34 + 42 x_35 + 35 x_36 + 17 x_37 + 36 x_38 + 7 x_39 + 24 x_40 = 430
	c_5: + 37 x_1 + 24 x_2 + 39 x_3 + 32 x_4 + 39 x_5 + 20 x_6 + 11 x_7 + 3 x_8 + 23 x_9 + 30 x_10 + 26 x_11 + 22 x_12 + 4 x_13 + 47 x_14 + 7 x_15 + 50 x_16 + 23 x_17 + 5 x_18 + 9 x_19 + 16 x_20 + 45 x_21 + 27 x_22 + 9 x_23 + 27 x_24 + 37 x_25 + 9 x_26 + 2 x_27 + 13 x_28 + 15 x_29 + 39 x_30 + 29 x_31 + 14 x_32 + 4 x_33 + 36 x_34 + 23 x_35 + 19 x_36 + 10 x_37 + 18 x_38 + 38 x_39 + 33 x_40 = 398
	c_6: + 37 x_1 + 42 x_2 + 29 x_3 + 24 x_4 + 28 x_5 + 40 x_6 + 34 x_7 + 21 x_8 + 23 x_9 + 9 x_10 + 2 x_11 + 12 x_12 + 33 x_13 + 41 x_14 + 46 x_15 + 6 x_16 + 31 x_17 + 34 x_18 + 34 x_19 + 2 x_20 + 23 x_21 + 48 x_22 + 20 x_23 + 43 x_24 + 26 x_25 + 43 x_26 + 17 x_27 + 23 x_28 + 33 x_29 + 5 x_30 + 50 x_31 + 22 x_32 + 26 x_33 + 24 x_34 + 48 x_35 + 43 x_36 + 11 x_37 + 38 x_38 + 23 x_39 + 40 x_40 = 500
	c_7: + 50 x_1 + 7 x_2 + 31 x_3 + 18 x_4 + 49 x_5 + 46 x_6 + 49 x_7 + 34 x_8 + 11 x_9 + 32 x_10 + 26 x_11 + 31 x_12 + 44 x_13 + 35 x_14 + 20 x_15 + 41 x_16 + 32 x_17 + 49 x_18 + 42 x_19 + 14 x_20 + 24 x_21 + 23 x_22 + 5 x_23 + 32 x_24 + 48 x_25 + 35 x_26 + 32 x_27 + 49 x_28 + 12 x_29 + 3 x_30 + 32 x_31 + 26 x_32 + 19 x_33 + 23 x_34 + 46 x_35 + 46 x_36 + 2 x_37 + 5 x_38 + 28 x_39 + 10 x_40 = 586
	c_8: + 50 x_1 + 29 x_2 + 11 x_3 + 45 x_4 + 49 x_5 + 14 x_6 + 15 x_7 + 24 x_8 + 43 x_9 + 36 x_10 + 45 x_11 + 28 x_12 + 39 x_13 + 16 x_14 + 16 x_15 + 19 x_16 + 29 x_17 + 3 x_18 + 47 x_19 + 18 x_20 + 31 x_21 + 37 x_22 + 35 x_23 + 32 x_24 + 42 x_25 + 4 x_26 + 45 x_27 + 25 x_28 + 42 x_29 + 28 x_30 + 20 x_31 + 12 x_32 + 20 x_33 + 47 x_34 + 23 x_35 + 37 x_36 + 38 x_37 + 4 x_38 + 45 x_39 + 16 x_40 = 522
	c_9: + 15 x_1 + 11 x_2 + 48 x_3 + 49 x_4 + 44 x_5 + 45 x_6 + 39 x_7 + 1 x_8 + 31 x_9 + 12 x_10 + 10 x_11 + 37 x_12 + 4 x_13 + 9 x_14 + 38 x_15 + 2 x_16 + 43 x_17 + 15 x_18 + 44 x_19 + 42 x_20 + 16 x_21 + 10 x_22 + 7 x_23 + 38 x_24 + 22 x_25 + 43 x_26 + 39 x_27 + 35 x_28 + 17 x_29 + 26 x_30 + 47 x_31 + 50 x_32 + 3 x_33 + 12 x_34 + 26 x_35 + 34 x_36 + 50 x_37 + 7 x_38 + 26 x_39 + 26 x_40 = 533
	c_10: + 25 x_1 + 18 x_2 + 28 x_3 + 32 x_4 + 8 x_5 + 24 x_6 + 30 x_7 + 31 x_8 + 13 x_9 + 1 x_10 + 7 x_11 + 19 x_12 + 38 x_13 + 47 x_14 + 38 x_15 + 36 x_16 + 14 x_17 + 50 x_18 + 38 x_19 + 37 x_20 + 45 x_21 + 30 x_22 + 25 x_23 + 44 x_24 + 45 x_25 + 33 x_26 + 43 x_27 + 29 x_28 + 39 x_29 + 49 x_30 + 41 x_31 + 9 x_32 + 38 x_33 + 47 x_34 + 16 x_35 + 14 x_36 + 10 x_37 + 16 x_38 + 4 x_39 + 37 x_40 = 456
	c_11: + 27 x_1 + 14 x_2 + 13 x_3 + 19 x_4 + 12 x_5 + 24 x_6 + 32 x_7 + 25 x_8 + 29 x_9 + 28 x_10 + 38 x_11 + 30 x_12 + 43 x_13 + 38 x_14 + 7 x_15 + 38 x_16 + 3 x_17 + 44 x_18 + 21 x_19 + 41 x_20 + 26 x_21 + 23 x_22 + 18 x_23 + 4 x_24 + 24 x_25 + 20 x_26 + 15 x_27 + 44 x_28 + 47 x_29 + 24 x_30 + 8 x_31 + 48 x_32 + 23 x_33 + 14 x_34 + 30 x_35 + 46 x_36 + 6 x_37 + 4 x_38 + 47 x_39 + 16 x_40 = 455
	c_12: + 36 x_1 + 25 x_2 + 10 x_3 + 46 x_4 + 4 x_5 + 33 x_6 + 17 x_7 + 31 x_8 + 47 x_9 + 37 x_10 + 40 x_11 + 33 x_12 + 32 x_13 + 7 x_14 + 18 x_15 + 39 x_16 + 26 x_17 + 19 x_18 + 22 x_19 + 32 x_20 + 42 x_21 + 19 x_22 + 8 x_23 + 50 x_24 + 47 x_25 + 19 x_26 + 37 x_27 + 27 x_28 + 33 x_29 + 18 x_30 + 14 x_31 + 29 x_32 + 43 x_33 + 35 x_34 + 8 x_35 + 49 x_36 + 46 x_37 + 45 x_38 + 47 x_39 + 47 x_40 = 570
	c_13: + 2 x_1 + 41 x_2 + 50 x_3 + 16 x_4 + 44 x_5 + 41 x_6 + 19 x_7 + 1 x_8 + 12 x_9 + 17 x_10 + 4 x_11 + 26 x_12 + 7 x_13 + 18 x_14 + 27 x_15 + 49 x_16 + 23 x_17 + 26 x_18 + 22 x_19 + 47 x_20 + 9 x_21 + 15 x_22 + 24 x_23 + 4 x_24 + 42 x_25 + 40 x_26 + 46 x_27 + 12 x_28 + 16 x_29 + 26 x_30 + 28 x_31 + 21 x_32 + 43 x_33 + 4 x_34 + 23 x_35 + 44 x_36 + 33 x_37 + 31 x_38 + 13 x_39 + 11 x_40 = 486
	c_14: + 50 x_1 + 11 x_2 + 5 x_3 + 41 x_4 + 47 x_5 + 48 x_6 + 34 x_7 + 22 x_8 + 12 x_9 + 48 x_10 + 16 x_11 + 28 x_12 + 22 x_13 + 16 x_14 + 31 x_15 + 39 x_16 + 43 x_17 + 50 x_18 + 16 x_19 + 13 x_20 + 22 x_21 + 26 x_22 + 23 x_23 + 7 x_24 + 8 x_25 + 5 x_26 + 23 x_27 + 23 x_28 + 26 x_29 + 48 x_30 + 20 x_31 + 32 x_32 + 9 x_33 + 11 x_34 + 46 x_35 + 24 x_36 + 14 x_37 + 36 x_38 + 45 x_39 + 6 x_40 = 479
	c_15: + 1 x_1 + 2 x_2 + 45 x_3 + 44 x_4 + 3 x_5 + 29 x_6 + 11 x_7 + 19 x_8 + 12 x_9 + 26 x_10 + 22 x_11 + 44 x_12 + 3 x_13 + 35 x_14 + 27 x_15 + 30 x_16 + 34 x_17 + 40 x_18 + 9 x_19 + 1 x_20 + 44 x_21 + 36 x_22 + 6 x_23 + 4 x_24 + 4 x_25 + 9 x_26 + 18 x_27 + 19 x_28 + 6 x_29 + 11 x_30 + 49 x_31 + 30 x_32 + 3 x_33 + 46 x_34 + 35 x_35 + 24 x_36 + 3 x_37 + 20 x_38 + 24 x_39 + 30 x_40 = 337
Bounds
  0 <= x_1 <= 1
  0 <= x_2 <= 1
  0 <= x_3 <= 1
  0 <= x_4 <= 1
  0 <= x_5 <= 1
  0 <= x_6 <= 1
  0 <= x_7 <= 1
  0 <= x_8 <= 1
  0 <= x_9 <= 1
  0 <= x_10 <= 1
  0 <= x_11 <= 1
  0 <= x_12 <= 1
  0 <= x_13 <= 1
  0 <= x_14 <= 1
  0 <= x_15 <= 1
  0 <= x_16 <= 1
  0 <= x_17 <= 1
  0 <= x_18 <= 1
  0 <= x_19 <= 1
  0 <= x_20 <= 1
  0 <= x_21 <= 1
  0 <= x_22 <= 1
  0 <= x_23 <= 1
  0 <= x_24 <= 1
  0 <= x_25 <= 1
  0 <= x_26 <= 1
  0 <= x_27 <= 1
  0 <= x_28 <= 1
  0 <= x_29 <= 1
  0 <= x_30 <= 1
  0 <= x_31 <= 1
  0 <= x_32 <= 1
  0 <= x_33 <= 1
  0 <= x_34 <= 1
  0 <= x_35 <= 1
  0 <= x_36 <= 1
  0 <= x_37 <= 1
  0 <= x_38 <= 1
  0 <= x_39 <= 1
  0 <= x_40 <= 1
End
