Subject To
	c_1: + 36 x_1 + 12 x_2 + 36 x_3 + 9 x_4 + 36 x_5 + 24 x_6 + 4 x_7 + 45 x_8 + 17 x_9 + 37 x_10 + 35 x_11 + 40 x_12 + 14 x_13 + 18 x_14 + 31 x_15 + 45 x_16 + 30 x_17 + 31 x_18 + 44 x_19 + 18 x_20 + 35 x_21 + 45 x_22 + 41 x_23 + 2 x_24 + 34 x_25 + 31 x_26 + 25 x_27 + 1 x_28 + 11 x_29 + 45 x_30 + 19 x_31 + 6 x_32 + 30 x_33 + 2 x_34 + 37 x_35 + 40 x_36 + 44 x_37 + 17 x_38 + 40 x_39 + 46 x_40 = 914
	c_2: + 25 x_1 + 44 x_2 + 39 x_3 + 36 x_4 + 1 x_5 + 15 x_6 + 13 x_7 + 27 x_8 + 2 x_9 + 31 x_10 + 23 x_11 + 24 x_12 + 27 x_13 + 44 x_14 + 4 x_15 + 28 x_16 + 40 x_17 + 37 x_18 + 25 x_19 + 29 x_20 + 34 x_21 + 35 x_22 + 25 x_23 + 23 x_24 + 35 x_25 + 41 x_26 + 21 x_27 + 35 x_28 + 20 x_29 + 18 x_30 + 1 x_31 + 36 x_32 + 20 x_33 + 16 x_34 + 28 x_35 + 9 x_36 + 31 x_37 + 48 x_38 + 28 x_39 + 24 x_40 = 632
	c_3: + 36 x_1 + 10 x_2 + 5 x_3 + 18 x_4 + 42 x_5 + 22 x_6 + 29 x_7 + 20 x_8 + 7 x_9 + 49 x_10 + 42 x_11 + 24 x_12 + 40 x_13 + 32 x_14 + 35 x_15 + 42 x_16 + 21 x_17 + 43 x_18 + 35 x_19 + 32 x_20 + 8 x_21 + 39 x_22 + 17 x_23 + 45 x_24 + 43 x_25 + 29 x_26 + 35 x_27 + 16 x_28 + 32 x_29 + 40 x_30 + 33 x_31 + 3 x_32 + 33 x_33 + 25 x_34 + 15 x_35 + 14 x_36 + 36 x_37 + 43 x_38 + 38 x_39 + 34 x_40 = 740
	c_4: + 3 x_1 + 6 x_2 + 23 x_3 + 31 x_4 + 40 x_5 + 10 x_6 + 17 x_7 + 50 x_8 + 39 x_9 + 38 x_10 + 45 x_11 + 12 x_12 + 43 x_13 + 41 x_14 + 31 x_15 + 43 x_16 + 35 x_17 + 20 x_18 + 12 x_19 + 27 x_20 + 9 x_21 + 4 x_22 + 24 x_23 + 35 x_24 + 16 x_25 + 40 x_26 + 29 x_27 + 41 x_28 + 30 x_29 + 12 x_30 + 15 x_31 + 49 x_32 + 44 x_33 + 12 x_34 + 31 x_35 + 32 x_36 + 4 x_37 + 7 x_38 + 22 x_39 + 33 x_40 = 623
	c_5: + 18 x_1 + 11 x_2 + 34 x_3 + 5 x_4 + 30 x_5 + 35 x_6 + 10 x_7 + 35 x_8 + 15 x_9 + 37 x_10 + 48 x_11 + 42 x_12 + 19 x_13 + 4 x_14 + 29 x_15 + 32 x_16 + 22 x_17 + 22 x_18 + 11 x_19 + 4 x_20 + 28 x_21 + 21 x_22 + 47 x_23 + 47 x_24 + 32 x_25 + 8 x_26 + 13 x_27 + 7 x_28 + 24 x_29 + 15 x_30 + 19 x_31 + 35 x_32 + 41 x_33 + 26 x_34 + 9 x_35 + 2 x_36 + 37 x_37 + 17 x_38 + 26 x_39 + 23 x_40 = 649
	c_6: + 19 x_1 + 33 x_2 + 39 x_3 + 25 x_4 + 10 x_5 + 6 x_6 + 11 x_7 + 13 x_8 + 31 x_9 + 49 x_10 + 2 x_11 + 23 x_12 + 10 x_13 + 26 x_14 + 31 x_15 + 29 x_16 + 31 x_17 + 18 x_18 + 16 x_19 + 1 x_20 + 13 x_21 + 29 x_22 + 40 x_23 + 17 x_24 + 19 x_25 + 33 x_26 + 12 x_27 + 45 x_28 + 32 x_29 + 27 x_30 + 19 x_31 + 37 x_32 + 45 x_33 + 46 x_34 + 32 x_35 + 28 x_36 + 16 x_37 + 47 x_38 + 7 x_39 + 41 x_40 = 610
	c_7: + 50 x_1 + 21 x_2 + 44 x_3 + 50 x_4 + 11 x_5 + 46 x_6 + 38 x_7 + 49 x_8 + 17 x_9 + 48 x_10 + 28 x_11 + 30 x_12 + 20 x_13 + 4 x_14 + 14 x_15 + 6 x_16 + 35 x_17 + 40 x_18 + 7 x_19 + 39 x_20 + 5 x_21 + 31 x_22 + 19 x_23 + 42 x_24 + 38 x_25 + 40 x_26 + 40 x_27 + 41 x_28 + 41 x_29 + 31 x_30 + 38 x_31 + 13 x_32 + 39 x_33 + 3 x_34 + 49 x_35 + 3 x_36 + 3 x_37 + 36 x_38 + 18 x_39 + 6 x_40 = 644
	c_8: + 4 x_1 + 33 x_2 + 44 x_3 + 25 x_4 + 45 x_5 + 22 x_6 + 28 x_7 + 23 x_8 + 10 x_9 + 42 x_10 + 32 x_11 + 3 x_12 + 30 x_13 + 27 x_14 + 20 x_15 + 33 x_16 + 21 x_17 + 41 x_18 + 5 x_19 + 25 x_20 + 30 x_21 + 35 x_22 + 50 x_23 + 7 x_24 + 45 x_25 + 12 x_26 + 23 x_27 + 1 x_28 + 3 x_29 + 5 x_30 + 13 x_31 + 49 x_32 + 31 x_33 + 22 x_34 + 16 x_35 + 45 x_36 + 18 x_37 + 33 x_38 + 12 x_39 + 29 x_40 = 641
	c_9: + 7 x_1 + 18 x_2 + 50 x_3 + 20 x_4 + 37 x_5 + 19 x_6 + 47 x_7 + 28 x_8 + 48 x_9 + 20 x_10 + 2 x_11 + 29 x_12 + 1 x_13 + 9 x_14 + 15 x_15 + 23 x_16 + 20 x_17 + 8 x_18 + 32 x_19 + 4 x_20 + 2 x_21 + 45 x_22 + 49 x_23 + 50 x_24 + 19 x_25 + 48 x_26 + 15 x_27 + 33 x_28 + 36 x_29 + 37 x_30 + 35 x_31 + 17 x_32 + 12 x_33 + 19 x_34 + 39 x_35 + 3 x_36 + 23 x_37 + 48 x_38 + 9 x_39 + 49 x_40 = 606
	c_10: + 49 x_1 + 36 x_2 + 4 x_3 + 31 x_4 + 9 x_5 + 31 x_6 + 27 x_7 + 38 x_8 + 22 x_9 + 15 x_10 + 23 x_11 + 41 x_12 + 35 x_13 + 30 x_14 + 40 x_15 + 39 x_16 + 40 x_17 + 31 x_18 + 46 x_19 + 32 x_20 + 38 x_21 + 45 x_22 + 42 x_23 + 31 x_24 + 39 x_25 + 21 x_26 + 15 x_27 + 48 x_28 + 21 x_29 + 16 x_30 + 10 x_31 + 17 x_32 + 50 x_33 + 41 x_34 + 22 x_35 + 6 x_36 + 41 x_37 + 23 x_38 + 36 x_39 + 39 x_40 = 770
	c_11: + 49 x_1 + 21 x_2 + 46 x_3 + 20 x_4 + 34 x_5 + 16 x_6 + 19 x_7 + 4 x_8 + 8 x_9 + 31 x_10 + 12 x_11 + 18 x_12 + 11 x_13 + 12 x_14 + 30 x_15 + 31 x_16 + 44 x_17 + 8 x_18 + 15 x_19 + 21 x_20 + 26 x_21 + 34 x_22 + 20 x_23 + 37 x_24 + 30 x_25 + 40 x_26 + 27 x_27 + 31 x_28 + 14 x_29 + 37 x_30 + 46 x_31 + 18 x_32 + 35 x_33 + 11 x_34 + 31 x_35 + 48 x_36 + 12 x_37 + 47 x_38 + 5 x_39 + 6 x_40 = 646
	c_12: + 24 x_1 + 37 x_2 + 47 x_3 + 9 x_4 + 6 x_5 + 5 x_6 + 15 x_7 + 44 x_8 + 36 x_9 + 22 x_10 + 5 x_11 + 27 x_12 + 24 x_13 + 9 x_14 + 11 x_15 + 38 x_16 + 10 x_17 + 26 x_18 + 42 x_19 + 19 x_20 + 46 x_21 + 50 x_22 + 30 x_23 + 1 x_24 + 19 x_25 + 3 x_26 + 35 x_27 + 35 x_28 + 40 x_29 + 3 x_30 + 49 x_31 + 41 x_32 + 10 x_33 + 37 x_34 + 47 x_35 + 38 x_36 + 6 x_37 + 4 x_38 + 43 x_39 + 47 x_40 = 644
	c_13: + 23 x_1 + 15 x_2 + 40 x_3 + 20 x_4 + 45 x_5 + 34 x_6 + 7 x_7 + 1 x_8 + 50 x_9 + 18 x_10 + 23 x_11 + 18 x_12 + 44 x_13 + 47 x_14 + 12 x_15 + 50 x_16 + 42 x_17 + 5 x_18 + 40 x_19 + 27 x_20 + 48 x_21 + 44 x_22 + 45 x_23 + 2 x_24 + 26 x_25 + 5 x_26 + 14 x_27 + 11 x_28 + 25 x_29 + 16 x_30 + 44 x_31 + 43 x_32 + 25 x_33 + 16 x_34 + 39 x_35 + 25 x_36 + 36 x_37 + 34 x_38 + 35 x_39 + 41 x_40 = 702
	c_14: + 25 x_1 + 43 x_2 + 28 x_3 + 26 x_4 + 44 x_5 + 18 x_6 + 10 x_7 + 16 x_8 + 32 x_9 + 22 x_10 + 34 x_11 + 18 x_12 + 22 x_13 + 44 x_14 + 22 x_15 + 5 x_16 + 47 x_17 + 3 x_18 + 36 x_19 + 46 x_20 + 45 x_21 + 11 x_22 + 28 x_23 + 7 x_24 + 38 x_25 + 32 x_26 + 12 x_27 + 19 x_28 + 23 x_29 + 31 x_30 + 22 x_31 + 22 x_32 + 4 x_33 + 17 x_34 + 31 x_35 + 15 x_36 + 35 x_37 + 2 x_38 + 45 x_39 + 43 x_40 = 658
	c_15: + 48 x_1 + 27 x_2 + 11 x_3 + 40 x_4 + 10 x_5 + 4 x_6 + 42 x_7 + 4 x_8 + 48 x_9 + 38 x_10 + 22 x_11 + 17 x_12 + 47 x_13 + 14 x_14 + 48 x_15 + 24 x_16 + 10 x_17 + 32 x_18 + 7 x_19 + 48 x_20 + 7 x_21 + 49 x_22 + 2 x_23 + 14 x_24 + 32 x_25 + 20 x_26 + 46 x_27 + 17 x_28 + 26 x_29 + 29 x_30 + 29 x_31 + 2 x_32 + 35 x_33 + 23 x_34 + 36 x_35 + 39 x_36 + 45 x_37 + 19 x_38 + 49 x_39 + 13 x_40 = 627
Bounds
  0 <= x_1 <= 1
  0 <= x_2 <= 1
  0 <= x_3 <= 1
  0 <= x_4 <= 1
  0 <= x_5 <= 1
  0 <= x_6 <= 1
  0 <= x_7 <= 1
  0 <= x_8 <= 1
  0 <= x_9 <= 1
  0 <= x_10 <= 1
  0 <= x_11 <= 1
  0 <= x_12 <= 1
  0 <= x_13 <= 1
  0 <= x_14 <= 1
  0 <= x_15 <= 1
  0 <= x_16 <= 1
  0 <= x_17 <= 1
  0 <= x_18 <= 1
  0 <= x_19 <= 1
  0 <= x_20 <= 1
  0 <= x_21 <= 1
  0 <= x_22 <= 1
  0 <= x_23 <= 1
  0 <= x_24 <= 1
  0 <= x_25 <= 1
  0 <= x_26 <= 1
  0 <= x_27 <= 1
  0 <= x_28 <= 1
  0 <= x_29 <= 1
  0 <= x_30 <= 1
  0 <= x_31 <= 1
  0 <= x_32 <= 1
  0 <= x_33 <= 1
  0 <= x_34 <= 1
  0 <= x_35 <= 1
  0 <= x_36 <= 1
  0 <= x_37 <= 1
  0 <= x_38 <= 1
  0 <= x_39 <= 1
  0 <= x_40 <= 1
End
