Subject To
	c_1: + 16 x_1 + 49 x_2 + 11 x_3 + 33 x_4 + 6 x_5 + 34 x_6 + 12 x_7 + 20 x_8 + 37 x_9 + 34 x_10 + 23 x_11 + 5 x_12 + 35 x_13 + 28 x_14 + 45 x_15 + 20 x_16 + 37 x_17 + 39 x_18 + 30 x_19 + 16 x_20 + 45 x_21 + 27 x_22 + 18 x_23 + 43 x_24 + 20 x_25 + 19 x_26 + 17 x_27 + 48 x_28 + 15 x_29 + 50 x_30 + 16 x_31 + 50 x_32 + 31 x_33 + 26 x_34 + 1 x_35 + 40 x_36 + 22 x_37 + 30 x_38 + 4 x_39 + 14 x_40 = 791
	c_2: + 19 x_1 + 11 x_2 + 49 x_3 + 36 x_4 + 3 x_5 + 28 x_6 + 21 x_7 + 17 x_8 + 2 x_9 + 7 x_10 + 2 x_11 + 20 x_12 + 27 x_13 + 2 x_14 + 33 x_15 + 8 x_16 + 21 x_17 + 17 x_18 + 12 x_19 + 34 x_20 + 43 x_21 + 19 x_22 + 5 x_23 + 1 x_24 + 29 x_25 + 42 x_26 + 33 x_27 + 46 x_28 + 5 x_29 + 18 x_30 + 27 x_31 + 13 x_32 + 47 x_33 + 17 x_34 + 1 x_35 + 18 x_36 + 36 x_37 + 31 x_38 + 48 x_39 + 1 x_40 = 449
	c_3: + 14 x_1 + 14 x_2 + 47 x_3 + 8 x_4 + 36 x_5 + 22 x_6 + 45 x_7 + 36 x_8 + 30 x_9 + 20 x_10 + 21 x_11 + 46 x_12 + 6 x_13 + 12 x_14 + 2 x_15 + 40 x_16 + 10 x_17 + 12 x_18 + 25 x_19 + 21 x_20 + 27 x_21 + 23 x_22 + 37 x_23 + 30 x_24 + 31 x_25 + 20 x_26 + 44 x_27 + 10 x_28 + 12 x_29 + 30 x_30 + 25 x_31 + 26 x_32 + 49 x_33 + 34 x_34 + 32 x_35 + 49 x_36 + 43 x_37 + 21 x_38 + 27 x_39 + 18 x_40 = 460
	c_4: + 10 x_1 + 32 x_2 + 45 x_3 + 28 x_4 + 32 x_5 + 29 x_6 + 40 x_7 + 16 x_8 + 11 x_9 + 27 x_10 + 23 x_11 + 12 x_12 + 20 x_13 + 20 x_14 + 18 x_15 + 30 x_16 + 40 x_17 + 2 x_18 + 39 x_19 + 34 x_20 + 2 x_21 + 5 x_22 + 36 x_23 + 3 x_24 + 17 x_25 + 6 x_26 + 36 x_27 + 24 x_28 + 29 x_29 + 19 x_30 + 8 x_31 + 39 x_32 + 19 x_33 + 42 x_34 + 42 x_35 + 4 x_36 + 11 x_37 + 11 x_38 + 36 x_39 + 44 x_40 = 434
	c_5: + 45 x_1 + 44 x_2 + 35 x_3 + 30 x_4 + 28 x_5 + 20 x_6 + 50 x_7 + 17 x_8 + 27 x_9 + 42 x_10 + 12 x_11 + 7 x_12 + 35 x_13 + 36 x_14 + 28 x_15 + 5 x_16 + 24 x_17 + 37 x_18 + 37 x_19 + 1 x_20 + 31 x_21 + 17 x_22 + 1 x_23 + 26 x_24 + 33 x_25 + 16 x_26 + 31 x_27 + 33 x_28 + 34 x_29 + 50 x_30 + 30 x_31 + 1 x_32 + 6 x_33 + 6 x_34 + 35 x_35 + 5 x_36 + 24 x_37 + 42 x_38 + 28 x_39 + 8 x_40 = 577
	c_6: + 4 x_1 + 34 x_2 + 1 x_3 + 40 x_4 + 27 x_5 + 40 x_6 + 25 x_7 + 33 x_8 + 17 x_9 + 38 x_10 + 5 x_11 + 31 x_12 + 34 x_13 + 44 x_14 + 20 x_15 + 42 x_16 + 21 x_17 + 48 x_18 + 15 x_19 + 38 x_20 + 4 x_21 + 46 x_22 + 35 x_23 + 1 x_24 + 45 x_25 + 27 x_26 + 24 x_27 + 12 x_28 + 23 x_29 + 47 x_30 + 1 x_31 + 12 x_32 + 33 x_33 + 46 x_34 + 14 x_35 + 17 x_36 + 42 x_37 + 23 x_38 + 28 x_39 + 8 x_40 = 592
	c_7: + 34 x_1 + 36 x_2 + 23 x_3 + 16 x_4 + 37 x_5 + 21 x_6 + 30 x_7 + 41 x_8 + 39 x_9 + 8 x_10 + 34 x_11 + 14 x_12 + 39 x_13 + 28 x_14 + 35 x_15 + 12 x_16 + 41 x_17 + 31 x_18 + 5 x_19 + 7 x_20 + 15 x_21 + 25 x_22 + 39 x_23 + 36 x_24 + 45 x_25 + 40 x_26 + 22 x_27 + 5 x_28 + 28 x_29 + 32 x_30 + 50 x_31 + 47 x_32 + 9 x_33 + 43 x_34 + 25 x_35 + 8 x_36 + 14 x_37 + 6 x_38 + 11 x_39 + 9 x_40 = 525
	c_8: + 30 x_1 + 10 x_2 + 22 x_3 + 44 x_4 + 26 x_5 + 30 x_6 + 9 x_7 + 39 x_8 + 36 x_9 + 46 x_10 + 29 x_11 + 30 x_12 + 29 x_13 + 14 x_14 + 46 x_15 + 21 x_16 + 4 x_17 + 1 x_18 + 43 x_19 + 6 x_20 + 10 x_21 + 44 x_22 + 14 x_23 + 24 x_24 + 21 x_25 + 48 x_26 + 12 x_27 + 11 x_28 + 20 x_29 + 35 x_30 + 24 x_31 + 17 x_32 + 31 x_33 + 42 x_34 + 27 x_35 + 4 x_36 + 31 x_37 + 49 x_38 + 29 x_39 + 25 x_40 = 570
	c_9: + 7 x_1 + 13 x_2 + 46 x_3 + 26 x_4 + 37 x_5 + 24 x_6 + 42 x_7 + 23 x_8 + 15 x_9 + 30 x_10 + 10 x_11 + 42 x_12 + 30 x_13 + 2 x_14 + 8 x_15 + 39 x_16 + 4 x_17 + 35 x_18 + 28 x_19 + 31 x_20 + 8 x_21 + 5 x_22 + 48 x_23 + 21 x_24 + 48 x_25 + 29 x_26 + 15 x_27 + 32 x_28 + 47 x_29 + 43 x_30 + 27 x_31 + 35 x_32 + 8 x_33 + 9 x_34 + 33 x_35 + 42 x_36 + 18 x_37 + 28 x_38 + 14 x_39 + 26 x_40 = 446
	c_10: + 19 x_1 + 41 x_2 + 49 x_3 + 33 x_4 + 23 x_5 + 35 x_6 + 49 x_7 + 48 x_8 + 21 x_9 + 8 x_10 + 4 x_11 + 10 x_12 + 42 x_13 + 6 x_14 + 36 x_15 + 35 x_16 + 30 x_17 + 5 x_18 + 5 x_19 + 6 x_20 + 9 x_21 + 6 x_22 + 21 x_23 + 44 x_24 + 14 x_25 + 19 x_26 + 40 x_27 + 31 x_28 + 8 x_29 + 37 x_30 + 5 x_31 + 36 x_32 + 40 x_33 + 2 x_34 + 44 x_35 + 34 x_36 + 3 x_37 + 27 x_38 + 18 x_39 + 45 x_40 = 528
	c_11: + 42 x_1 + 15 x_2 + 33 x_3 + 7 x_4 + 7 x_5 + 48 x_6 + 7 x_7 + 42 x_8 + 50 x_9 + 34 x_10 + 12 x_11 + 10 x_12 + 34 x_13 + 41 x_14 + 23 x_15 + 15 x_16 + 8 x_17 + 22 x_18 + 5 x_19 + 28 x_20 + 1 x_21 + 37 x_22 + 39 x_23 + 17 x_24 + 46 x_25 + 48 x_26 + 25 x_27 + 17 x_28 + 30 x_29 + 29 x_30 + 27 x_31 + 37 x_32 + 41 x_33 + 47 x_34 + 3 x_35 + 34 x_36 + 37 x_37 + 4 x_38 + 1 x_39 + 32 x_40 = 551
	c_12: + 50 x_1 + 4 x_2 + 19 x_3 + 6 x_4 + 34 x_5 + 29 x_6 + 34 x_7 + 17 x_8 + 6 x_9 + 27 x_10 + 38 x_11 + 32 x_12 + 41 x_13 + 30 x_14 + 19 x_15 + 46 x_16 + 7 x_17 + 24 x_18 + 36 x_19 + 48 x_20 + 38 x_21 + 12 x_22 + 17 x_23 + 33 x_24 + 47 x_25 + 43 x_26 + 48 x_27 + 20 x_28 + 28 x_29 + 49 x_30 + 8 x_31 + 30 x_32 + 3 x_33 + 42 x_34 + 27 x_35 + 1 x_36 + 38 x_37 + 2 x_38 + 46 x_39 + 37 x_40 = 459
	c_13: + 2 x_1 + 10 x_2 + 21 x_3 + 8 x_4 + 43 x_5 + 13 x_6 + 34 x_7 + 49 x_8 + 2 x_9 + 10 x_10 + 6 x_11 + 19 x_12 + 16 x_13 + 40 x_14 + 38 x_15 + 36 x_16 + 14 x_17 + 35 x_18 + 35 x_19 + 36 x_20 + 7 x_21 + 2 x_22 + 9 x_23 + 41 x_24 + 2 x_25 + 43 x_26 + 24 x_27 + 32 x_28 + 42 x_29 + 20 x_30 + 10 x_31 + 19 x_32 + 44 x_33 + 12 x_34 + 31 x_35 + 2 x_36 + 21 x_37 + 23 x_38 + 46 x_39 + 8 x_40 = 423
	c_14: + 17 x_1 + 7 x_2 + 43 x_3 + 49 x_4 + 4 x_5 + 5 x_6 + 6 x_7 + 33 x_8 + 8 x_9 + 5 x_10 + 26 x_11 + 43 x_12 + 36 x_13 + 9 x_14 + 16 x_15 + 29 x_16 + 3 x_17 + 35 x_18 + 46 x_19 + 29 x_20 + 23 x_21 + 34 x_22 + 9 x_23 + 48 x_24 + 18 x_25 + 48 x_26 + 21 x_27 + 42 x_28 + 45 x_29 + 8 x_30 + 18 x_31 + 17 x_32 + 26 x_33 + 45 x_34 + 42 x_35 + 34 x_36 + 13 x_37 + 39 x_38 + 45 x_39 + 2 x_40 = 535
	c_15: + 49 x_1 + 9 x_2 + 38 x_3 + 42 x_4 + 40 x_5 + 35 x_6 + 40 x_7 + 27 x_8 + 39 x_9 + 14 x_10 + 11 x_11 + 26 x_12 + 17 x_13 + 32 x_14 + 6 x_15 + 19 x_16 + 5 x_17 + 25 x_18 + 25 x_19 + 29 x_20 + 15 x_21 + 15 x_22 + 9 x_23 + 31 x_24 + 10 x_25 + 4 x_26 + 14 x_27 + 45 x_28 + 19 x_29 + 27 x_30 + 18 x_31 + 30 x_32 + 17 x_33 + 10 x_34 + 25 x_35 + 43 x_36 + 47 x_37 + 47 x_38 + 2 x_39 + 30 x_40 = 529
Bounds
  0 <= x_1 <= 1
  0 <= x_2 <= 1
  0 <= x_3 <= 1
  0 <= x_4 <= 1
  0 <= x_5 <= 1
  0 <= x_6 <= 1
  0 <= x_7 <= 1
  0 <= x_8 <= 1
  0 <= x_9 <= 1
  0 <= x_10 <= 1
  0 <= x_11 <= 1
  0 <= x_12 <= 1
  0 <= x_13 <= 1
  0 <= x_14 <= 1
  0 <= x_15 <= 1
  0 <= x_16 <= 1
  0 <= x_17 <= 1
  0 <= x_18 <= 1
  0 <= x_19 <= 1
  0 <= x_20 <= 1
  0 <= x_21 <= 1
  0 <= x_22 <= 1
  0 <= x_23 <= 1
  0 <= x_24 <= 1
  0 <= x_25 <= 1
  0 <= x_26 <= 1
  0 <= x_27 <= 1
  0 <= x_28 <= 1
  0 <= x_29 <= 1
  0 <= x_30 <= 1
  0 <= x_31 <= 1
  0 <= x_32 <= 1
  0 <= x_33 <= 1
  0 <= x_34 <= 1
  0 <= x_35 <= 1
  0 <= x_36 <= 1
  0 <= x_37 <= 1
  0 <= x_38 <= 1
  0 <= x_39 <= 1
  0 <= x_40 <= 1
End
