Subject To
	c_1: + 1 x_1 + 38 x_2 + 21 x_3 + 31 x_4 + 34 x_5 + 38 x_6 + 43 x_7 + 45 x_8 + 15 x_9 + 26 x_10 + 14 x_11 + 25 x_12 + 34 x_13 + 47 x_14 + 31 x_15 + 28 x_16 + 1 x_17 + 30 x_18 + 17 x_19 + 9 x_20 + 49 x_21 + 13 x_22 + 50 x_23 + 43 x_24 + 13 x_25 + 17 x_26 + 4 x_27 + 25 x_28 + 6 x_29 + 21 x_30 + 42 x_31 + 37 x_32 + 42 x_33 + 50 x_34 + 32 x_35 + 7 x_36 + 37 x_37 + 37 x_38 + 14 x_39 + 31 x_40 = 875
	c_2: + 22 x_1 + 23 x_2 + 15 x_3 + 39 x_4 + 18 x_5 + 35 x_6 + 8 x_7 + 46 x_8 + 49 x_9 + 40 x_10 + 4 x_11 + 24 x_12 + 46 x_13 + 4 x_14 + 19 x_15 + 41 x_16 + 43 x_17 + 40 x_18 + 40 x_19 + 41 x_20 + 34 x_21 + 22 x_22 + 25 x_23 + 16 x_24 + 26 x_25 + 14 x_26 + 28 x_27 + 2 x_28 + 13 x_29 + 21 x_30 + 47 x_31 + 42 x_32 + 33 x_33 + 31 x_34 + 47 x_35 + 50 x_36 + 48 x_37 + 23 x_38 + 43 x_39 + 5 x_40 = 710
	c_3: + 36 x_1 + 2 x_2 + 11 x_3 + 17 x_4 + 5 x_5 + 50 x_6 + 27 x_7 + 33 x_8 + 26 x_9 + 41 x_10 + 12 x_11 + 10 x_12 + 40 x_13 + 29 x_14 + 4 x_15 + 14 x_16 + 19 x_17 + 6 x_18 + 24 x_19 + 15 x_20 + 37 x_21 + 38 x_22 + 37 x_23 + 16 x_24 + 50 x_25 + 16 x_26 + 41 x_27 + 8 x_28 + 35 x_29 + 3 x_30 + 1 x_31 + 36 x_32 + 34 x_33 + 42 x_34 + 2 x_35 + 20 x_36 + 47 x_37 + 26 x_38 + 31 x_39 + 27 x_40 = 573
	c_4: + 8 x_1 + 47 x_2 + 44 x_3 + 50 x_4 + 19 x_5 + 23 x_6 + 21 x_7 + 41 x_8 + 34 x_9 + 37 x_10 + 32 x_11 + 47 x_12 + 9 x_13 + 35 x_14 + 2 x_15 + 13 x_16 + 7 x_17 + 21 x_18 + 6 x_19 + 48 x_20 + 10 x_21 + 40 x_22 + 17 x_23 + 28 x_24 + 42 x_25 + 48 x_26 + 17 x_27 + 28 x_28 + 15 x_29 + 18 x_30 + 33 x_31 + 47 x_32 + 49 x_33 + 2 x_34 + 1 x_35 + 48 x_36 + 32 x_37 + 1 x_38 + 36 x_39 + 1 x_40 = 539
	c_5: + 25 x_1 + 30 x_2 + 50 x_3 + 40 x_4 + 5 x_5 + 44 x_6 + 29 x_7 + 38 x_8 + 26 x_9 + 28 x_10 + 17 x_11 + 31 x_12 + 32 x_13 + 41 x_14 + 10 x_15 + 9 x_16 + 18 x_17 + 26 x_18 + 6 x_19 + 7 x_20 + 23 x_21 + 26 x_22 + 29 x_23 + 46 x_24 + 16 x_25 + 29 x_26 + 41 x_27 + 49 x_28 + 49 x_29 + 26 x_30 + 28 x_31 + 43 x_32 + 17 x_33 + 8 x_34 + 19 x_35 + 38 x_36 + 5 x_37 + 3 x_38 + 19 x_39 + 40 x_40 = 593
	c_6: + 24 x_1 + 13 x_2 + 3 x_3 + 48 x_4 + 44 x_5 + 10 x_6 + 5 x_7 + 15 x_8 + 41 x_9 + 22 x_10 + 36 x_11 + 38 x_12 + 39 x_13 + 45 x_14 + 22 x_15 + 31 x_16 + 32 x_17 + 5 x_18 + 8 x_19 + 31 x_20 + 29 x_21 + 24 x_22 + 8 x_23 + 33 x_24 + 13 x_25 + 36 x_26 + 20 x_27 + 42 x_28 + 40 x_29 + 46 x_30 + 13 x_31 + 45 x_32 + 3 x_33 + 30 x_34 + 48 x_35 + 9 x_36 + 47 x_37 + 17 x_38 + 49 x_39 + 10 x_40 = 582
	c_7: + 43 x_1 + 38 x_2 + 26 x_3 + 26 x_4 + 20 x_5 + 10 x_6 + 50 x_7 + 40 x_8 + 40 x_9 + 16 x_10 + 12 x_11 + 15 x_12 + 20 x_13 + 5 x_14 + 16 x_15 + 14 x_16 + 50 x_17 + 50 x_18 + 12 x_19 + 29 x_20 + 32 x_21 + 38 x_22 + 50 x_23 + 25 x_24 + 9 x_25 + 20 x_26 + 45 x_27 + 24 x_28 + 27 x_29 + 13 x_30 + 48 x_31 + 2 x_32 + 25 x_33 + 22 x_34 + 16 x_35 + 13 x_36 + 31 x_37 + 31 x_38 + 31 x_39 + 37 x_40 = 624
	c_8: + 42 x_1 + 25 x_2 + 1 x_3 + 32 x_4 + 21 x_5 + 24 x_6 + 13 x_7 + 15 x_8 + 26 x_9 + 13 x_10 + 4 x_11 + 13 x_12 + 33 x_13 + 5 x_14 + 28 x_15 + 36 x_16 + 16 x_17 + 5 x_18 + 30 x_19 + 29 x_20 + 49 x_21 + 3 x_22 + 19 x_23 + 35 x_24 + 49 x_25 + 38 x_26 + 24 x_27 + 23 x_28 + 8 x_29 + 11 x_30 + 47 x_31 + 14 x_32 + 41 x_33 + 34 x_34 + 48 x_35 + 8 x_36 + 14 x_37 + 40 x_38 + 13 x_39 + 40 x_40 = 631
	c_9: + 15 x_1 + 40 x_2 + 27 x_3 + 7 x_4 + 46 x_5 + 34 x_6 + 23 x_7 + 29 x_8 + 39 x_9 + 34 x_10 + 48 x_11 + 25 x_12 + 22 x_13 + 2 x_14 + 8 x_15 + 5 x_16 + 1 x_17 + 47 x_18 + 48 x_19 + 22 x_20 + 19 x_21 + 27 x_22 + 3 x_23 + 33 x_24 + 5 x_25 + 11 x_26 + 32 x_27 + 7 x_28 + 14 x_29 + 23 x_30 + 31 x_31 + 22 x_32 + 44 x_33 + 6 x_34 + 31 x_35 + 7 x_36 + 25 x_37 + 20 x_38 + 2 x_39 + 7 x_40 = 538
	c_10: + 40 x_1 + 30 x_2 + 11 x_3 + 26 x_4 + 24 x_5 + 21 x_6 + 49 x_7 + 12 x_8 + 44 x_9 + 25 x_10 + 40 x_11 + 35 x_12 + 21 x_13 + 42 x_14 + 14 x_15 + 6 x_16 + 50 x_17 + 25 x_18 + 35 x_19 + 12 x_20 + 7 x_21 + 8 x_22 + 34 x_23 + 17 x_24 + 1 x_25 + 16 x_26 + 18 x_27 + 32 x_28 + 33 x_29 + 36 x_30 + 16 x_31 + 42 x_32 + 8 x_33 + 38 x_34 + 46 x_35 + 31 x_36 + 3 x_37 + 18 x_38 + 9 x_39 + 23 x_40 = 547
	c_11: + 22 x_1 + 43 x_2 + 34 x_3 + 45 x_4 + 24 x_5 + 50 x_6 + 36 x_7 + 24 x_8 + 24 x_9 + 1 x_10 + 16 x_11 + 44 x_12 + 37 x_13 + 16 x_14 + 36 x_15 + 4 x_16 + 9 x_17 + 29 x_18 + 32 x_19 + 17 x_20 + 46 x_21 + 33 x_22 + 3 x_23 + 11 x_24 + 13 x_25 + 28 x_26 + 27 x_27 + 49 x_28 + 16 x_29 + 23 x_30 + 43 x_31 + 11 x_32 + 15 x_33 + 45 x_34 + 32 x_35 + 34 x_36 + 11 x_37 + 44 x_38 + 46 x_39 + 30 x_40 = 636
	c_12: + 6 x_1 + 9 x_2 + 22 x_3 + 6 x_4 + 36 x_5 + 49 x_6 + 40 x_7 + 22 x_8 + 24 x_9 + 28 x_10 + 37 x_11 + 15 x_12 + 38 x_13 + 42 x_14 + 4 x_15 + 47 x_16 + 24 x_17 + 49 x_18 + 27 x_19 + 3 x_20 + 29 x_21 + 14 x_22 + 2 x_23 + 26 x_24 + 27 x_25 + 17 x_26 + 21 x_27 + 27 x_28 + 12 x_29 + 30 x_30 + 20 x_31 + 50 x_32 + 33 x_33 + 28 x_34 + 45 x_35 + 50 x_36 + 10 x_37 + 1 x_38 + 15 x_39 + 39 x_40 = 653
	c_13: + 5 x_1 + 16 x_2 + 3 x_3 + 14 x_4 + 27 x_5 + 39 x_6 + 26 x_7 + 49 x_8 + 6 x_9 + 37 x_10 + 6 x_11 + 7 x_12 + 35 x_13 + 49 x_14 + 12 x_15 + 39 x_16 + 37 x_17 + 23 x_18 + 28 x_19 + 31 x_20 + 46 x_21 + 33 x_22 + 27 x_23 + 22 x_24 + 17 x_25 + 5 x_26 + 4 x_27 + 28 x_28 + 27 x_29 + 30 x_30 + 18 x_31 + 25 x_32 + 39 x_33 + 30 x_34 + 24 x_35 + 28 x_36 + 46 x_37 + 31 x_38 + 48 x_39 + 6 x_40 = 680
	c_14: + 38 x_1 + 23 x_2 + 10 x_3 + 33 x_4 + 17 x_5 + 31 x_6 + 5 x_7 + 15 x_8 + 39 x_9 + 17 x_10 + 25 x_11 + 40 x_12 + 47 x_13 + 1 x_14 + 27 x_15 + 43 x_16 + 27 x_17 + 30 x_18 + 12 x_19 + 8 x_20 + 12 x_21 + 31 x_22 + 5 x_23 + 16 x_24 + 12 x_25 + 30 x_26 + 43 x_27 + 22 x_28 + 5 x_29 + 45 x_30 + 3 x_31 + 5 x_32 + 42 x_33 + 17 x_34 + 20 x_35 + 6 x_36 + 45 x_37 + 7 x_38 + 3 x_39 + 46 x_40 = 507
	c_15: + 36 x_1 + 46 x_2 + 35 x_3 + 27 x_4 + 32 x_5 + 6 x_6 + 10 x_7 + 34 x_8 + 18 x_9 + 4 x_10 + 35 x_11 + 34 x_12 + 35 x_13 + 18 x_14 + 8 x_15 + 44 x_16 + 32 x_17 + 15 x_18 + 12 x_19 + 36 x_20 + 27 x_21 + 26 x_22 + 11 x_23 + 17 x_24 + 42 x_25 + 8 x_26 + 19 x_27 + 14 x_28 + 43 x_29 + 40 x_30 + 44 x_31 + 6 x_32 + 28 x_33 + 42 x_34 + 3 x_35 + 18 x_36 + 43 x_37 + 4 x_38 + 39 x_39 + 23 x_40 = 527
Bounds
  0 <= x_1 <= 1
  0 <= x_2 <= 1
  0 <= x_3 <= 1
  0 <= x_4 <= 1
  0 <= x_5 <= 1
  0 <= x_6 <= 1
  0 <= x_7 <= 1
  0 <= x_8 <= 1
  0 <= x_9 <= 1
  0 <= x_10 <= 1
  0 <= x_11 <= 1
  0 <= x_12 <= 1
  0 <= x_13 <= 1
  0 <= x_14 <= 1
  0 <= x_15 <= 1
  0 <= x_16 <= 1
  0 <= x_17 <= 1
  0 <= x_18 <= 1
  0 <= x_19 <= 1
  0 <= x_20 <= 1
  0 <= x_21 <= 1
  0 <= x_22 <= 1
  0 <= x_23 <= 1
  0 <= x_24 <= 1
  0 <= x_25 <= 1
  0 <= x_26 <= 1
  0 <= x_27 <= 1
  0 <= x_28 <= 1
  0 <= x_29 <= 1
  0 <= x_30 <= 1
  0 <= x_31 <= 1
  0 <= x_32 <= 1
  0 <= x_33 <= 1
  0 <= x_34 <= 1
  0 <= x_35 <= 1
  0 <= x_36 <= 1
  0 <= x_37 <= 1
  0 <= x_38 <= 1
  0 <= x_39 <= 1
  0 <= x_40 <= 1
End
