Subject To
	c_1: + 3 x_1 + 16 x_2 + 35 x_3 + 18 x_4 + 28 x_5 + 8 x_6 + 21 x_7 + 11 x_8 + 19 x_9 + 8 x_10 + 30 x_11 + 28 x_12 + 9 x_13 + 35 x_14 + 31 x_15 + 15 x_16 + 15 x_17 + 24 x_18 + 28 x_19 + 34 x_20 + 48 x_21 + 47 x_22 + 5 x_23 + 23 x_24 + 31 x_25 + 4 x_26 + 7 x_27 + 3 x_28 + 28 x_29 + 23 x_30 + 28 x_31 + 9 x_32 + 32 x_33 + 44 x_34 + 19 x_35 + 16 x_36 + 15 x_37 + 18 x_38 + 13 x_39 + 8 x_40 = 507
	c_2: + 19 x_1 + 31 x_2 + 32 x_3 + 40 x_4 + 22 x_5 + 8 x_6 + 33 x_7 + 46 x_8 + 30 x_9 + 20 x_10 + 39 x_11 + 40 x_12 + 6 x_13 + 13 x_14 + 13 x_15 + 2 x_16 + 50 x_17 + 8 x_18 + 24 x_19 + 16 x_20 + 37 x_21 + 36 x_22 + 19 x_23 + 1 x_24 + 2 x_25 + 45 x_26 + 5 x_27 + 47 x_28 + 28 x_29 + 45 x_30 + 10 x_31 + 6 x_32 + 36 x_33 + 37 x_34 + 8 x_35 + 9 x_36 + 9 x_37 + 18 x_38 + 26 x_39 + 48 x_40 = 385
	c_3: + 4 x_1 + 41 x_2 + 23 x_3 + 30 x_4 + 29 x_5 + 26 x_6 + 43 x_7 + 21 x_8 + 41 x_9 + 46 x_10 + 11 x_11 + 18 x_12 + 38 x_13 + 40 x_14 + 27 x_15 + 21 x_16 + 25 x_17 + 6 x_18 + 48 x_19 + 35 x_20 + 6 x_21 + 46 x_22 + 40 x_23 + 34 x_24 + 7 x_25 + 22 x_26 + 8 x_27 + 37 x_28 + 3 x_29 + 18 x_30 + 50 x_31 + 45 x_32 + 50 x_33 + 37 x_34 + 21 x_35 + 31 x_36 + 45 x_37 + 24 x_38 + 30 x_39 + 21 x_40 = 430
	c_4: + 19 x_1 + 19 x_2 + 19 x_3 + 9 x_4 + 2 x_5 + 24 x_6 + 8 x_7 + 19 x_8 + 17 x_9 + 28 x_10 + 4 x_11 + 8 x_12 + 38 x_13 + 50 x_14 + 14 x_15 + 1 x_16 + 34 x_17 + 50 x_18 + 16 x_19 + 28 x_20 + 33 x_21 + 8 x_22 + 4 x_23 + 28 x_24 + 22 x_25 + 23 x_26 + 14 x_27 + 21 x_28 + 44 x_29 + 25 x_30 + 26 x_31 + 42 x_32 + 44 x_33 + 29 x_34 + 31 x_35 + 33 x_36 + 10 x_37 + 37 x_38 + 20 x_39 + 7 x_40 = 347
	c_5: + 49 x_1 + 42 x_2 + 9 x_3 + 34 x_4 + 17 x_5 + 25 x_6 + 15 x_7 + 15 x_8 + 36 x_9 + 9 x_10 + 16 x_11 + 1 x_12 + 23 x_13 + 16 x_14 + 30 x_15 + 28 x_16 + 9 x_17 + 45 x_18 + 41 x_19 + 47 x_20 + 29 x_21 + 36 x_22 + 30 x_23 + 26 x_24 + 37 x_25 + 26 x_26 + 48 x_27 + 31 x_28 + 36 x_29 + 18 x_30 + 45 x_31 + 8 x_32 + 42 x_33 + 5 x_34 + 39 x_35 + 47 x_36 + 42 x_37 + 35 x_38 + 8 x_39 + 44 x_40 = 407
	c_6: + 3 x_1 + 31 x_2 + 46 x_3 + 16 x_4 + 37 x_5 + 25 x_6 + 9 x_7 + 36 x_8 + 23 x_9 + 23 x_10 + 49 x_11 + 16 x_12 + 50 x_13 + 11 x_14 + 8 x_15 + 27 x_16 + 16 x_17 + 33 x_18 + 2 x_19 + 2 x_20 + 42 x_21 + 42 x_22 + 10 x_23 + 21 x_24 + 49 x_25 + 47 x_26 + 40 x_27 + 18 x_28 + 36 x_29 + 26 x_30 + 50 x_31 + 12 x_32 + 34 x_33 + 17 x_34 + 16 x_35 + 34 x_36 + 41 x_37 + 18 x_38 + 26 x_39 + 42 x_40 = 441
	c_7: + 11 x_1 + 42 x_2 + 10 x_3 + 21 x_4 + 50 x_5 + 6 x_6 + 37 x_7 + 46 x_8 + 9 x_9 + 8 x_10 + 37 x_11 + 6 x_12 + 45 x_13 + 47 x_14 + 26 x_15 + 24 x_16 + 31 x_17 + 35 x_18 + 9 x_19 + 19 x_20 + 41 x_21 + 17 x_22 + 5 x_23 + 25 x_24 + 38 x_25 + 47 x_26 + 9 x_27 + 49 x_28 + 21 x_29 + 24 x_30 + 32 x_31 + 31 x_32 + 14 x_33 + 41 x_34 + 7 x_35 + 14 x_36 + 43 x_37 + 37 x_38 + 2 x_39 + 46 x_40 = 408
	c_8: + 11 x_1 + 32 x_2 + 16 x_3 + 11 x_4 + 23 x_5 + 42 x_6 + 14 x_7 + 28 x_8 + 33 x_9 + 7 x_10 + 44 x_11 + 5 x_12 + 23 x_13 + 34 x_14 + 8 x_15 + 20 x_16 + 45 x_17 + 7 x_18 + 29 x_19 + 31 x_20 + 39 x_21 + 18 x_22 + 5 x_23 + 45 x_24 + 50 x_25 + 27 x_26 + 47 x_27 + 16 x_28 + 19 x_29 + 34 x_30 + 18 x_31 + 34 x_32 + 44 x_33 + 21 x_34 + 22 x_35 + 24 x_36 + 39 x_37 + 5 x_38 + 41 x_39 + 37 x_40 = 399
	c_9: + 39 x_1 + 48 x_2 + 12 x_3 + 19 x_4 + 50 x_5 + 1 x_6 + 47 x_7 + 16 x_8 + 48 x_9 + 25 x_10 + 24 x_11 + 41 x_12 + 10 x_13 + 47 x_14 + 36 x_15 + 15 x_16 + 25 x_17 + 12 x_18 + 22 x_19 + 28 x_20 + 3 x_21 + 29 x_22 + 1 x_23 + 40 x_24 + 45 x_25 + 13 x_26 + 32 x_27 + 43 x_28 + 20 x_29 + 37 x_30 + 21 x_31 + 26 x_32 + 17 x_33 + 10 x_34 + 11 x_35 + 6 x_36 + 36 x_37 + 18 x_38 + 49 x_39 + 46 x_40 = 405
	c_10: + 3 x_1 + 46 x_2 + 14 x_3 + 48 x_4 + 42 x_5 + 32 x_6 + 36 x_7 + 11 x_8 + 14 x_9 + 26 x_10 + 47 x_11 + 1 x_12 + 7 x_13 + 28 x_14 + 43 x_15 + 46 x_16 + 12 x_17 + 43 x_18 + 9 x_19 + 6 x_20 + 35 x_21 + 7 x_22 + 44 x_23 + 14 x_24 + 45 x_25 + 21 x_26 + 23 x_27 + 31 x_28 + 47 x_29 + 21 x_30 + 20 x_31 + 22 x_32 + 21 x_33 + 32 x_34 + 8 x_35 + 45 x_36 + 47 x_37 + 38 x_38 + 45 x_39 + 46 x_40 = 397
	c_11: + 32 x_1 + 40 x_2 + 19 x_3 + 10 x_4 + 15 x_5 + 1 x_6 + 32 x_7 + 3 x_8 + 4 x_9 + 27 x_10 + 40 x_11 + 39 x_12 + 1 x_13 + 39 x_14 + 2 x_15 + 24 x_16 + 18 x_17 + 40 x_18 + 49 x_19 + 21 x_20 + 9 x_21 + 13 x_22 + 9 x_23 + 12 x_24 + 3 x_25 + 18 x_26 + 30 x_27 + 49 x_28 + 17 x_29 + 11 x_30 + 2 x_31 + 27 x_32 + 39 x_33 + 1 x_34 + 37 x_35 + 17 x_36 + 13 x_37 + 47 x_38 + 33 x_39 + 7 x_40 = 308
	c_12: + 7 x_1 + 50 x_2 + 43 x_3 + 6 x_4 + 32 x_5 + 38 x_6 + 14 x_7 + 38 x_8 + 31 x_9 + 13 x_10 + 37 x_11 + 20 x_12 + 1 x_13 + 12 x_14 + 47 x_15 + 30 x_16 + 47 x_17 + 41 x_18 + 24 x_19 + 28 x_20 + 30 x_21 + 25 x_22 + 42 x_23 + 48 x_24 + 32 x_25 + 11 x_26 + 24 x_27 + 30 x_28 + 22 x_29 + 47 x_30 + 29 x_31 + 34 x_32 + 14 x_33 + 44 x_34 + 21 x_35 + 12 x_36 + 48 x_37 + 3 x_38 + 22 x_39 + 30 x_40 = 439
	c_13: + 21 x_1 + 1 x_2 + 10 x_3 + 24 x_4 + 17 x_5 + 37 x_6 + 22 x_7 + 38 x_8 + 2 x_9 + 41 x_10 + 23 x_11 + 29 x_12 + 37 x_13 + 40 x_14 + 43 x_15 + 24 x_16 + 31 x_17 + 20 x_18 + 19 x_19 + 37 x_20 + 34 x_21 + 34 x_22 + 19 x_23 + 2 x_24 + 40 x_25 + 36 x_26 + 39 x_27 + 38 x_28 + 34 x_29 + 21 x_30 + 22 x_31 + 27 x_32 + 46 x_33 + 41 x_34 + 35 x_35 + 17 x_36 + 39 x_37 + 15 x_38 + 14 x_39 + 21 x_40 = 469
	c_14: + 40 x_1 + 20 x_2 + 11 x_3 + 30 x_4 + 16 x_5 + 33 x_6 + 34 x_7 + 20 x_8 + 48 x_9 + 4 x_10 + 15 x_11 + 12 x_12 + 44 x_13 + 35 x_14 + 1 x_15 + 44 x_16 + 13 x_17 + 34 x_18 + 14 x_19 + 50 x_20 + 31 x_21 + 29 x_22 + 24 x_23 + 38 x_24 + 32 x_25 + 47 x_26 + 18 x_27 + 21 x_28 + 24 x_29 + 8 x_30 + 42 x_31 + 27 x_32 + 9 x_33 + 42 x_34 + 18 x_35 + 22 x_36 + 15 x_37 + 49 x_38 + 25 x_39 + 26 x_40 = 363
	c_15: + 16 x_1 + 40 x_2 + 46 x_3 + 40 x_4 + 5 x_5 + 24 x_6 + 29 x_7 + 13 x_8 + 36 x_9 + 8 x_10 + 15 x_11 + 1 x_12 + 20 x_13 + 30 x_14 + 27 x_15 + 28 x_16 + 35 x_17 + 43 x_18 + 38 x_19 + 10 x_20 + 42 x_21 + 13 x_22 + 28 x_23 + 34 x_24 + 12 x_25 + 45 x_26 + 41 x_27 + 40 x_28 + 29 x_29 + 38 x_30 + 14 x_31 + 13 x_32 + 38 x_33 + 37 x_34 + 32 x_35 + 28 x_36 + 42 x_37 + 41 x_38 + 41 x_39 + 40 x_40 = 357
Bounds
  0 <= x_1 <= 1
  0 <= x_2 <= 1
  0 <= x_3 <= 1
  0 <= x_4 <= 1
  0 <= x_5 <= 1
  0 <= x_6 <= 1
  0 <= x_7 <= 1
  0 <= x_8 <= 1
  0 <= x_9 <= 1
  0 <= x_10 <= 1
  0 <= x_11 <= 1
  0 <= x_12 <= 1
  0 <= x_13 <= 1
  0 <= x_14 <= 1
  0 <= x_15 <= 1
  0 <= x_16 <= 1
  0 <= x_17 <= 1
  0 <= x_18 <= 1
  0 <= x_19 <= 1
  0 <= x_20 <= 1
  0 <= x_21 <= 1
  0 <= x_22 <= 1
  0 <= x_23 <= 1
  0 <= x_24 <= 1
  0 <= x_25 <= 1
  0 <= x_26 <= 1
  0 <= x_27 <= 1
  0 <= x_28 <= 1
  0 <= x_29 <= 1
  0 <= x_30 <= 1
  0 <= x_31 <= 1
  0 <= x_32 <= 1
  0 <= x_33 <= 1
  0 <= x_34 <= 1
  0 <= x_35 <= 1
  0 <= x_36 <= 1
  0 <= x_37 <= 1
  0 <= x_38 <= 1
  0 <= x_39 <= 1
  0 <= x_40 <= 1
End
