Subject To
  w0: + 13 x_1 + 4 x_2 + 59 x_3 + 28 x_4 + 13 x_5 + 9 x_6 + 57 x_7 + 25 x_8 + 56 x_9 + 3 x_10 <= 1330
  w1: + 39 x_1 + 17 x_2 + 60 x_3 + 38 x_4 + 40 x_5 + 8 x_6 + 17 x_7 + 12 x_8 + 39 x_9 + 23 x_10 <= 1460
  w2: + 30 x_1 + 15 x_2 + 61 x_3 + 17 x_4 + 4 x_5 + 41 x_6 + 13 x_7 + 29 x_8 + 11 x_9 + 50 x_10 <= 1350
  w3: + 17 x_1 + 44 x_2 + 12 x_3 + 53 x_4 + 8 x_5 + 54 x_6 + 56 x_7 + 38 x_8 + 4 x_9 + 44 x_10 <= 1650
  w4: + 1 x_1 + 45 x_2 + 17 x_3 + 41 x_4 + 61 x_5 + 1 x_6 + 41 x_7 + 62 x_8 + 42 x_9 + 4 x_10 <= 1570
  w5: + 11 x_1 + 34 x_2 + 50 x_3 + 22 x_4 + 3 x_5 + 21 x_6 + 29 x_7 + 21 x_8 + 40 x_9 + 11 x_10 <= 1210
  w6: + 51 x_1 + 48 x_2 + 61 x_3 + 19 x_4 + 16 x_5 + 27 x_6 + 5 x_7 + 14 x_8 + 43 x_9 + 38 x_10 <= 1610
  w7: + 52 x_1 + 17 x_2 + 32 x_3 + 47 x_4 + 42 x_5 + 37 x_6 + 52 x_7 + 62 x_8 + 8 x_9 + 32 x_10 <= 1900
  w8: + 53 x_1 + 45 x_2 + 8 x_3 + 3 x_4 + 29 x_5 + 50 x_6 + 9 x_7 + 16 x_8 + 56 x_9 + 59 x_10 <= 1640
  w9: + 63 x_1 + 43 x_2 + 25 x_3 + 11 x_4 + 44 x_5 + 11 x_6 + 52 x_7 + 54 x_8 + 58 x_9 + 28 x_10 <= 1940
  profits: + 62 x_1 + 44 x_2 + 27 x_3 + 12 x_4 + 17 x_5 + 61 x_6 + 25 x_7 + 45 x_8 + 33 x_9 + 25 x_10 >= 1400
Bounds
  0 <= x_1 <= 10
  0 <= x_2 <= 10
  0 <= x_3 <= 10
  0 <= x_4 <= 10
  0 <= x_5 <= 10
  0 <= x_6 <= 10
  0 <= x_7 <= 10
  0 <= x_8 <= 10
  0 <= x_9 <= 10
  0 <= x_10 <= 10
End
