Subject To
	w1: + 51 x_1 + 16 x_2 + 233 x_3 + 108 x_4 + 49 x_5 + 36 x_6 + 223 x_7 + 98 x_8 + 220 x_9 + 11 x_10 <= 6100
	w2: + 152 x_1 + 66 x_2 + 236 x_3 + 147 x_4 + 158 x_5 + 31 x_6 + 66 x_7 + 48 x_8 + 154 x_9 + 88 x_10 <= 6690
	w3: + 119 x_1 + 59 x_2 + 239 x_3 + 66 x_4 + 13 x_5 + 159 x_6 + 48 x_7 + 112 x_8 + 41 x_9 + 198 x_10 <= 6150
	w4: + 68 x_1 + 172 x_2 + 48 x_3 + 209 x_4 + 31 x_5 + 213 x_6 + 222 x_7 + 149 x_8 + 14 x_9 + 172 x_10 <= 7580
	w5: + 1 x_1 + 178 x_2 + 66 x_3 + 160 x_4 + 238 x_5 + 2 x_6 + 161 x_7 + 245 x_8 + 166 x_9 + 14 x_10 <= 7180
	w6: + 42 x_1 + 133 x_2 + 195 x_3 + 84 x_4 + 11 x_5 + 80 x_6 + 112 x_7 + 80 x_8 + 158 x_9 + 43 x_10 <= 5470
	w7: + 202 x_1 + 190 x_2 + 238 x_3 + 75 x_4 + 64 x_5 + 107 x_6 + 20 x_7 + 55 x_8 + 169 x_9 + 149 x_10 <= 7410
	w8: + 204 x_1 + 66 x_2 + 125 x_3 + 182 x_4 + 166 x_5 + 144 x_6 + 203 x_7 + 245 x_8 + 29 x_9 + 125 x_10 <= 8690
	w9: + 207 x_1 + 178 x_2 + 31 x_3 + 12 x_4 + 113 x_5 + 196 x_6 + 36 x_7 + 60 x_8 + 218 x_9 + 233 x_10 <= 7490
	w10: + 248 x_1 + 167 x_2 + 98 x_3 + 41 x_4 + 172 x_5 + 44 x_6 + 203 x_7 + 212 x_8 + 228 x_9 + 108 x_10 <= 8880
	w11: + 167 x_1 + 52 x_2 + 2 x_3 + 110 x_4 + 141 x_5 + 247 x_6 + 204 x_7 + 76 x_8 + 8 x_9 + 65 x_10 <= 6260
	w12: + 242 x_1 + 71 x_2 + 39 x_3 + 68 x_4 + 80 x_5 + 188 x_6 + 51 x_7 + 176 x_8 + 201 x_9 + 84 x_10 <= 7000
	w13: + 54 x_1 + 174 x_2 + 145 x_3 + 49 x_4 + 156 x_5 + 188 x_6 + 217 x_7 + 151 x_8 + 102 x_9 + 218 x_10 <= 8490
	w14: + 188 x_1 + 52 x_2 + 38 x_3 + 211 x_4 + 130 x_5 + 50 x_6 + 226 x_7 + 134 x_8 + 164 x_9 + 164 x_10 <= 7920
	w15: + 245 x_1 + 164 x_2 + 177 x_3 + 123 x_4 + 108 x_5 + 21 x_6 + 45 x_7 + 246 x_8 + 207 x_9 + 103 x_10 <= 8400
	w16: + 16 x_1 + 155 x_2 + 228 x_3 + 205 x_4 + 55 x_5 + 183 x_6 + 106 x_7 + 109 x_8 + 31 x_9 + 176 x_10 <= 7380
	w17: + 102 x_1 + 4 x_2 + 200 x_3 + 210 x_4 + 30 x_5 + 98 x_6 + 63 x_7 + 20 x_8 + 224 x_9 + 43 x_10 <= 5800
	w18: + 64 x_1 + 24 x_2 + 162 x_3 + 187 x_4 + 28 x_5 + 92 x_6 + 208 x_7 + 175 x_8 + 136 x_9 + 84 x_10 <= 6770
	w19: + 85 x_1 + 20 x_2 + 235 x_3 + 40 x_4 + 94 x_5 + 69 x_6 + 121 x_7 + 243 x_8 + 24 x_9 + 51 x_10 <= 5730
	w20: + 137 x_1 + 93 x_2 + 167 x_3 + 36 x_4 + 11 x_5 + 231 x_6 + 51 x_7 + 129 x_8 + 193 x_9 + 76 x_10 <= 6560
	w21: + 31 x_1 + 26 x_2 + 220 x_3 + 40 x_4 + 132 x_5 + 181 x_6 + 56 x_7 + 140 x_8 + 62 x_9 + 235 x_10 <= 6550
	w22: + 58 x_1 + 19 x_2 + 39 x_3 + 85 x_4 + 231 x_5 + 132 x_6 + 145 x_7 + 165 x_8 + 86 x_9 + 92 x_10 <= 6140
	w23: + 16 x_1 + 7 x_2 + 209 x_3 + 148 x_4 + 135 x_5 + 44 x_6 + 31 x_7 + 92 x_8 + 33 x_9 + 83 x_10 <= 4660
	w24: + 162 x_1 + 193 x_2 + 20 x_3 + 161 x_4 + 17 x_5 + 239 x_6 + 46 x_7 + 105 x_8 + 197 x_9 + 39 x_10 <= 6880
	w25: + 140 x_1 + 197 x_2 + 119 x_3 + 103 x_4 + 33 x_5 + 141 x_6 + 209 x_7 + 24 x_8 + 75 x_9 + 209 x_10 <= 7300
	w26: + 41 x_1 + 227 x_2 + 161 x_3 + 127 x_4 + 36 x_5 + 138 x_6 + 212 x_7 + 73 x_8 + 222 x_9 + 13 x_10 <= 7300
	w27: + 58 x_1 + 80 x_2 + 80 x_3 + 40 x_4 + 24 x_5 + 27 x_6 + 104 x_7 + 199 x_8 + 89 x_9 + 31 x_10 <= 4270
	w28: + 136 x_1 + 92 x_2 + 176 x_3 + 204 x_4 + 27 x_5 + 231 x_6 + 13 x_7 + 93 x_8 + 110 x_9 + 166 x_10 <= 7280
	w29: + 13 x_1 + 42 x_2 + 70 x_3 + 160 x_4 + 205 x_5 + 228 x_6 + 71 x_7 + 222 x_8 + 230 x_9 + 156 x_10 <= 8150
	w30: + 39 x_1 + 174 x_2 + 4 x_3 + 79 x_4 + 243 x_5 + 161 x_6 + 131 x_7 + 70 x_8 + 108 x_9 + 84 x_10 <= 6380
	w31: + 197 x_1 + 168 x_2 + 16 x_3 + 117 x_4 + 218 x_5 + 18 x_6 + 32 x_7 + 105 x_8 + 142 x_9 + 8 x_10 <= 5960
	w32: + 197 x_1 + 51 x_2 + 121 x_3 + 49 x_4 + 5 x_5 + 40 x_6 + 142 x_7 + 76 x_8 + 2 x_9 + 243 x_10 <= 5400
	w33: + 154 x_1 + 237 x_2 + 196 x_3 + 191 x_4 + 151 x_5 + 183 x_6 + 196 x_7 + 97 x_8 + 14 x_9 + 134 x_10 <= 9060
	w34: + 189 x_1 + 194 x_2 + 116 x_3 + 116 x_4 + 99 x_5 + 178 x_6 + 171 x_7 + 107 x_8 + 15 x_9 + 176 x_10 <= 7940
	w35: + 194 x_1 + 156 x_2 + 161 x_3 + 13 x_4 + 231 x_5 + 10 x_6 + 107 x_7 + 148 x_8 + 51 x_9 + 47 x_10 <= 6520
	w36: + 126 x_1 + 145 x_2 + 89 x_3 + 142 x_4 + 125 x_5 + 133 x_6 + 185 x_7 + 194 x_8 + 18 x_9 + 104 x_10 <= 7360
	w37: + 83 x_1 + 21 x_2 + 9 x_3 + 30 x_4 + 79 x_5 + 192 x_6 + 9 x_7 + 19 x_8 + 99 x_9 + 104 x_10 <= 3760
	w38: + 65 x_1 + 217 x_2 + 28 x_3 + 108 x_4 + 113 x_5 + 33 x_6 + 67 x_7 + 136 x_8 + 18 x_9 + 99 x_10 <= 5160
	w39: + 112 x_1 + 158 x_2 + 105 x_3 + 72 x_4 + 109 x_5 + 205 x_6 + 201 x_7 + 225 x_8 + 226 x_9 + 124 x_10 <= 8970
	w40: + 172 x_1 + 229 x_2 + 161 x_3 + 14 x_4 + 176 x_5 + 81 x_6 + 218 x_7 + 206 x_8 + 64 x_9 + 89 x_10 <= 8230
	w41: + 206 x_1 + 19 x_2 + 9 x_3 + 154 x_4 + 111 x_5 + 35 x_6 + 88 x_7 + 19 x_8 + 57 x_9 + 245 x_10 <= 5500
	w42: + 249 x_1 + 214 x_2 + 123 x_3 + 100 x_4 + 209 x_5 + 92 x_6 + 227 x_7 + 71 x_8 + 81 x_9 + 181 x_10 <= 9030
	w43: + 75 x_1 + 217 x_2 + 82 x_3 + 28 x_4 + 229 x_5 + 142 x_6 + 1 x_7 + 242 x_8 + 153 x_9 + 80 x_10 <= 7290
	w44: + 241 x_1 + 176 x_2 + 160 x_3 + 247 x_4 + 177 x_5 + 72 x_6 + 152 x_7 + 105 x_8 + 117 x_9 + 123 x_10 <= 9160
	w45: + 138 x_1 + 90 x_2 + 125 x_3 + 136 x_4 + 147 x_5 + 232 x_6 + 171 x_7 + 54 x_8 + 158 x_9 + 247 x_10 <= 8740
	w46: + 185 x_1 + 166 x_2 + 135 x_3 + 56 x_4 + 66 x_5 + 61 x_6 + 94 x_7 + 100 x_8 + 151 x_9 + 134 x_10 <= 6700
	w47: + 53 x_1 + 188 x_2 + 89 x_3 + 106 x_4 + 240 x_5 + 85 x_6 + 132 x_7 + 95 x_8 + 130 x_9 + 103 x_10 <= 7130
	w48: + 75 x_1 + 174 x_2 + 28 x_3 + 136 x_4 + 95 x_5 + 46 x_6 + 149 x_7 + 119 x_8 + 173 x_9 + 36 x_10 <= 6020
	w49: + 219 x_1 + 245 x_2 + 41 x_3 + 131 x_4 + 31 x_5 + 192 x_6 + 164 x_7 + 44 x_8 + 174 x_9 + 197 x_10 <= 8390
	w50: + 64 x_1 + 29 x_2 + 237 x_3 + 134 x_4 + 2 x_5 + 135 x_6 + 165 x_7 + 24 x_8 + 219 x_9 + 199 x_10 <= 7050
	w51: + 154 x_1 + 38 x_2 + 211 x_3 + 147 x_4 + 117 x_5 + 6 x_6 + 173 x_7 + 23 x_8 + 101 x_9 + 67 x_10 <= 6050
	w52: + 98 x_1 + 209 x_2 + 7 x_3 + 183 x_4 + 104 x_5 + 176 x_6 + 219 x_7 + 96 x_8 + 99 x_9 + 242 x_10 <= 8360
	w53: + 235 x_1 + 203 x_2 + 30 x_3 + 205 x_4 + 48 x_5 + 24 x_6 + 213 x_7 + 237 x_8 + 56 x_9 + 238 x_10 <= 8690
	w54: + 219 x_1 + 119 x_2 + 120 x_3 + 102 x_4 + 51 x_5 + 39 x_6 + 146 x_7 + 29 x_8 + 65 x_9 + 138 x_10 <= 6000
	w55: + 76 x_1 + 110 x_2 + 22 x_3 + 93 x_4 + 85 x_5 + 59 x_6 + 86 x_7 + 40 x_8 + 199 x_9 + 249 x_10 <= 5950
	w56: + 63 x_1 + 147 x_2 + 180 x_3 + 47 x_4 + 113 x_5 + 53 x_6 + 67 x_7 + 169 x_8 + 132 x_9 + 14 x_10 <= 5750
	w57: + 2 x_1 + 118 x_2 + 237 x_3 + 232 x_4 + 107 x_5 + 86 x_6 + 225 x_7 + 26 x_8 + 19 x_9 + 32 x_10 <= 6330
	w58: + 29 x_1 + 194 x_2 + 169 x_3 + 172 x_4 + 242 x_5 + 51 x_6 + 222 x_7 + 85 x_8 + 67 x_9 + 128 x_10 <= 7930
	w59: + 174 x_1 + 229 x_2 + 209 x_3 + 238 x_4 + 59 x_5 + 146 x_6 + 169 x_7 + 94 x_8 + 121 x_9 + 18 x_10 <= 8500
	w60: + 99 x_1 + 224 x_2 + 161 x_3 + 162 x_4 + 100 x_5 + 124 x_6 + 134 x_7 + 244 x_8 + 45 x_9 + 29 x_10 <= 7720
	w61: + 29 x_1 + 29 x_2 + 164 x_3 + 99 x_4 + 79 x_5 + 215 x_6 + 118 x_7 + 68 x_8 + 238 x_9 + 227 x_10 <= 7390
	w62: + 240 x_1 + 147 x_2 + 142 x_3 + 33 x_4 + 65 x_5 + 241 x_6 + 81 x_7 + 86 x_8 + 66 x_9 + 130 x_10 <= 7180
	w63: + 175 x_1 + 150 x_2 + 100 x_3 + 147 x_4 + 241 x_5 + 68 x_6 + 229 x_7 + 114 x_8 + 152 x_9 + 80 x_10 <= 8500
	w64: + 226 x_1 + 249 x_2 + 3 x_3 + 121 x_4 + 124 x_5 + 127 x_6 + 237 x_7 + 118 x_8 + 158 x_9 + 119 x_10 <= 8650
	w65: + 50 x_1 + 227 x_2 + 200 x_3 + 237 x_4 + 231 x_5 + 244 x_6 + 136 x_7 + 113 x_8 + 92 x_9 + 175 x_10 <= 9950
	w66: + 125 x_1 + 59 x_2 + 146 x_3 + 188 x_4 + 174 x_5 + 32 x_6 + 58 x_7 + 178 x_8 + 242 x_9 + 25 x_10 <= 7160
	w67: + 121 x_1 + 202 x_2 + 27 x_3 + 65 x_4 + 118 x_5 + 16 x_6 + 143 x_7 + 247 x_8 + 138 x_9 + 124 x_10 <= 7010
	w68: + 203 x_1 + 108 x_2 + 20 x_3 + 53 x_4 + 142 x_5 + 191 x_6 + 183 x_7 + 196 x_8 + 174 x_9 + 116 x_10 <= 8090
	w69: + 27 x_1 + 240 x_2 + 203 x_3 + 212 x_4 + 47 x_5 + 142 x_6 + 77 x_7 + 143 x_8 + 174 x_9 + 81 x_10 <= 7860
	w70: + 123 x_1 + 94 x_2 + 224 x_3 + 214 x_4 + 134 x_5 + 220 x_6 + 150 x_7 + 76 x_8 + 95 x_9 + 95 x_10 <= 8320
	w71: + 79 x_1 + 89 x_2 + 91 x_3 + 212 x_4 + 143 x_5 + 83 x_6 + 218 x_7 + 148 x_8 + 226 x_9 + 174 x_10 <= 8540
	w72: + 212 x_1 + 183 x_2 + 237 x_3 + 99 x_4 + 132 x_5 + 249 x_6 + 194 x_7 + 95 x_8 + 51 x_9 + 190 x_10 <= 9580
	w73: + 42 x_1 + 22 x_2 + 23 x_3 + 152 x_4 + 85 x_5 + 247 x_6 + 146 x_7 + 48 x_8 + 31 x_9 + 235 x_10 <= 6020
	w74: + 235 x_1 + 113 x_2 + 83 x_3 + 38 x_4 + 27 x_5 + 225 x_6 + 56 x_7 + 126 x_8 + 171 x_9 + 14 x_10 <= 6350
	w75: + 110 x_1 + 4 x_2 + 105 x_3 + 50 x_4 + 3 x_5 + 230 x_6 + 155 x_7 + 48 x_8 + 80 x_9 + 238 x_10 <= 5970
	w76: + 58 x_1 + 6 x_2 + 181 x_3 + 141 x_4 + 24 x_5 + 172 x_6 + 16 x_7 + 106 x_8 + 163 x_9 + 64 x_10 <= 5430
	w77: + 129 x_1 + 134 x_2 + 41 x_3 + 210 x_4 + 127 x_5 + 69 x_6 + 234 x_7 + 207 x_8 + 76 x_9 + 189 x_10 <= 8260
	w78: + 59 x_1 + 82 x_2 + 223 x_3 + 202 x_4 + 113 x_5 + 138 x_6 + 69 x_7 + 236 x_8 + 45 x_9 + 104 x_10 <= 7420
	w79: + 238 x_1 + 167 x_2 + 205 x_3 + 158 x_4 + 45 x_5 + 18 x_6 + 131 x_7 + 239 x_8 + 204 x_9 + 201 x_10 <= 9370
	w80: + 158 x_1 + 235 x_2 + 227 x_3 + 171 x_4 + 224 x_5 + 161 x_6 + 162 x_7 + 238 x_8 + 230 x_9 + 72 x_10 <= 10960
	w81: + 193 x_1 + 220 x_2 + 150 x_3 + 168 x_4 + 159 x_5 + 66 x_6 + 47 x_7 + 67 x_8 + 236 x_9 + 84 x_10 <= 8110
	w82: + 13 x_1 + 145 x_2 + 17 x_3 + 99 x_4 + 36 x_5 + 25 x_6 + 69 x_7 + 246 x_8 + 16 x_9 + 232 x_10 <= 5240
	w83: + 163 x_1 + 151 x_2 + 125 x_3 + 49 x_4 + 81 x_5 + 225 x_6 + 26 x_7 + 22 x_8 + 110 x_9 + 24 x_10 <= 5690
	w84: + 218 x_1 + 221 x_2 + 185 x_3 + 124 x_4 + 192 x_5 + 128 x_6 + 62 x_7 + 43 x_8 + 50 x_9 + 183 x_10 <= 8210
	w85: + 162 x_1 + 27 x_2 + 187 x_3 + 84 x_4 + 123 x_5 + 91 x_6 + 210 x_7 + 172 x_8 + 126 x_9 + 98 x_10 <= 7470
	w86: + 212 x_1 + 110 x_2 + 211 x_3 + 120 x_4 + 34 x_5 + 87 x_6 + 71 x_7 + 44 x_8 + 198 x_9 + 217 x_10 <= 7610
	w87: + 85 x_1 + 17 x_2 + 192 x_3 + 52 x_4 + 140 x_5 + 54 x_6 + 74 x_7 + 139 x_8 + 86 x_9 + 18 x_10 <= 5000
	w88: + 234 x_1 + 179 x_2 + 31 x_3 + 216 x_4 + 104 x_5 + 183 x_6 + 167 x_7 + 195 x_8 + 198 x_9 + 119 x_10 <= 9490
	w89: + 220 x_1 + 77 x_2 + 18 x_3 + 5 x_4 + 119 x_5 + 5 x_6 + 53 x_7 + 246 x_8 + 78 x_9 + 33 x_10 <= 4980
	w90: + 33 x_1 + 19 x_2 + 189 x_3 + 191 x_4 + 225 x_5 + 12 x_6 + 238 x_7 + 163 x_8 + 38 x_9 + 67 x_10 <= 6860
	w91: + 150 x_1 + 57 x_2 + 136 x_3 + 5 x_4 + 159 x_5 + 198 x_6 + 26 x_7 + 9 x_8 + 219 x_9 + 134 x_10 <= 6380
	w92: + 153 x_1 + 37 x_2 + 175 x_3 + 239 x_4 + 162 x_5 + 29 x_6 + 104 x_7 + 149 x_8 + 129 x_9 + 5 x_10 <= 6900
	w93: + 185 x_1 + 117 x_2 + 227 x_3 + 75 x_4 + 58 x_5 + 198 x_6 + 93 x_7 + 212 x_8 + 125 x_9 + 241 x_10 <= 8940
	w94: + 143 x_1 + 225 x_2 + 172 x_3 + 26 x_4 + 153 x_5 + 5 x_6 + 146 x_7 + 189 x_8 + 8 x_9 + 50 x_10 <= 6520
	w95: + 224 x_1 + 217 x_2 + 74 x_3 + 249 x_4 + 84 x_5 + 116 x_6 + 8 x_7 + 211 x_8 + 118 x_9 + 116 x_10 <= 8270
	w96: + 206 x_1 + 164 x_2 + 88 x_3 + 152 x_4 + 18 x_5 + 206 x_6 + 25 x_7 + 150 x_8 + 217 x_9 + 137 x_10 <= 7950
	w97: + 125 x_1 + 84 x_2 + 43 x_3 + 125 x_4 + 234 x_5 + 193 x_6 + 45 x_7 + 46 x_8 + 32 x_9 + 53 x_10 <= 5720
	w98: + 174 x_1 + 38 x_2 + 248 x_3 + 187 x_4 + 140 x_5 + 110 x_6 + 150 x_7 + 55 x_8 + 161 x_9 + 122 x_10 <= 8080
	w99: + 56 x_1 + 208 x_2 + 188 x_3 + 64 x_4 + 240 x_5 + 186 x_6 + 71 x_7 + 38 x_8 + 65 x_9 + 204 x_10 <= 7700
	w100: + 204 x_1 + 135 x_2 + 133 x_3 + 58 x_4 + 179 x_5 + 21 x_6 + 12 x_7 + 236 x_8 + 132 x_9 + 50 x_10 <= 6770
	w101: + 64 x_1 + 202 x_2 + 136 x_3 + 241 x_4 + 128 x_5 + 94 x_6 + 198 x_7 + 232 x_8 + 174 x_9 + 116 x_10 <= 9250
	w102: + 192 x_1 + 85 x_2 + 121 x_3 + 158 x_4 + 195 x_5 + 64 x_6 + 106 x_7 + 180 x_8 + 46 x_9 + 65 x_10 <= 7070
	w103: + 54 x_1 + 39 x_2 + 117 x_3 + 201 x_4 + 47 x_5 + 232 x_6 + 231 x_7 + 148 x_8 + 191 x_9 + 85 x_10 <= 7850
	w104: + 174 x_1 + 231 x_2 + 189 x_3 + 181 x_4 + 135 x_5 + 154 x_6 + 31 x_7 + 48 x_8 + 222 x_9 + 215 x_10 <= 9220
	w105: + 182 x_1 + 124 x_2 + 128 x_3 + 45 x_4 + 190 x_5 + 118 x_6 + 72 x_7 + 161 x_8 + 166 x_9 + 231 x_10 <= 8270
	w106: + 132 x_1 + 28 x_2 + 102 x_3 + 195 x_4 + 217 x_5 + 245 x_6 + 198 x_7 + 56 x_8 + 112 x_9 + 148 x_10 <= 8360
	w107: + 226 x_1 + 184 x_2 + 32 x_3 + 163 x_4 + 112 x_5 + 135 x_6 + 249 x_7 + 26 x_8 + 201 x_9 + 202 x_10 <= 8930
	w108: + 93 x_1 + 40 x_2 + 173 x_3 + 27 x_4 + 140 x_5 + 235 x_6 + 184 x_7 + 32 x_8 + 82 x_9 + 31 x_10 <= 6050
	w109: + 221 x_1 + 151 x_2 + 56 x_3 + 95 x_4 + 183 x_5 + 187 x_6 + 4 x_7 + 138 x_8 + 144 x_9 + 93 x_10 <= 7420
	w110: + 49 x_1 + 126 x_2 + 236 x_3 + 152 x_4 + 242 x_5 + 175 x_6 + 113 x_7 + 235 x_8 + 96 x_9 + 106 x_10 <= 8930
	w111: + 113 x_1 + 112 x_2 + 37 x_3 + 76 x_4 + 54 x_5 + 181 x_6 + 211 x_7 + 209 x_8 + 131 x_9 + 187 x_10 <= 7650
	w112: + 93 x_1 + 169 x_2 + 119 x_3 + 139 x_4 + 169 x_5 + 217 x_6 + 6 x_7 + 144 x_8 + 88 x_9 + 90 x_10 <= 7200
	w113: + 146 x_1 + 243 x_2 + 166 x_3 + 131 x_4 + 23 x_5 + 94 x_6 + 208 x_7 + 32 x_8 + 114 x_9 + 25 x_10 <= 6900
	w114: + 144 x_1 + 32 x_2 + 220 x_3 + 61 x_4 + 189 x_5 + 240 x_6 + 82 x_7 + 85 x_8 + 52 x_9 + 242 x_10 <= 7860
	w115: + 189 x_1 + 146 x_2 + 44 x_3 + 232 x_4 + 211 x_5 + 175 x_6 + 90 x_7 + 245 x_8 + 158 x_9 + 235 x_10 <= 10070
	w116: + 21 x_1 + 141 x_2 + 177 x_3 + 142 x_4 + 24 x_5 + 48 x_6 + 41 x_7 + 132 x_8 + 205 x_9 + 148 x_10 <= 6300
	w117: + 138 x_1 + 155 x_2 + 163 x_3 + 132 x_4 + 221 x_5 + 22 x_6 + 71 x_7 + 77 x_8 + 156 x_9 + 19 x_10 <= 6730
	w118: + 24 x_1 + 126 x_2 + 240 x_3 + 29 x_4 + 118 x_5 + 76 x_6 + 74 x_7 + 215 x_8 + 76 x_9 + 6 x_10 <= 5740
	w119: + 42 x_1 + 63 x_2 + 48 x_3 + 235 x_4 + 117 x_5 + 108 x_6 + 190 x_7 + 205 x_8 + 203 x_9 + 18 x_10 <= 7170
	w120: + 201 x_1 + 127 x_2 + 34 x_3 + 123 x_4 + 214 x_5 + 247 x_6 + 170 x_7 + 194 x_8 + 208 x_9 + 51 x_10 <= 9160
	w121: + 98 x_1 + 33 x_2 + 88 x_3 + 85 x_4 + 198 x_5 + 51 x_6 + 128 x_7 + 142 x_8 + 138 x_9 + 221 x_10 <= 6900
	w122: + 46 x_1 + 87 x_2 + 205 x_3 + 168 x_4 + 209 x_5 + 9 x_6 + 223 x_7 + 124 x_8 + 114 x_9 + 121 x_10 <= 7620
	w123: + 170 x_1 + 85 x_2 + 141 x_3 + 137 x_4 + 170 x_5 + 207 x_6 + 228 x_7 + 32 x_8 + 42 x_9 + 29 x_10 <= 7240
	w124: + 114 x_1 + 233 x_2 + 12 x_3 + 205 x_4 + 23 x_5 + 220 x_6 + 241 x_7 + 168 x_8 + 219 x_9 + 120 x_10 <= 9080
	w125: + 90 x_1 + 168 x_2 + 20 x_3 + 103 x_4 + 60 x_5 + 137 x_6 + 87 x_7 + 198 x_8 + 5 x_9 + 215 x_10 <= 6320
	w126: + 229 x_1 + 182 x_2 + 25 x_3 + 177 x_4 + 162 x_5 + 236 x_6 + 89 x_7 + 224 x_8 + 243 x_9 + 212 x_10 <= 10380
	w127: + 82 x_1 + 198 x_2 + 88 x_3 + 8 x_4 + 16 x_5 + 48 x_6 + 75 x_7 + 121 x_8 + 73 x_9 + 6 x_10 <= 4170
	w128: + 28 x_1 + 101 x_2 + 174 x_3 + 228 x_4 + 35 x_5 + 79 x_6 + 95 x_7 + 44 x_8 + 52 x_9 + 238 x_10 <= 6270
	w129: + 211 x_1 + 246 x_2 + 41 x_3 + 7 x_4 + 14 x_5 + 143 x_6 + 240 x_7 + 237 x_8 + 241 x_9 + 36 x_10 <= 8260
	w130: + 213 x_1 + 41 x_2 + 121 x_3 + 158 x_4 + 116 x_5 + 24 x_6 + 212 x_7 + 15 x_8 + 122 x_9 + 113 x_10 <= 6620
	w131: + 65 x_1 + 190 x_2 + 241 x_3 + 36 x_4 + 216 x_5 + 167 x_6 + 81 x_7 + 233 x_8 + 105 x_9 + 94 x_10 <= 8330
	w132: + 80 x_1 + 3 x_2 + 243 x_3 + 141 x_4 + 5 x_5 + 79 x_6 + 145 x_7 + 130 x_8 + 239 x_9 + 144 x_10 <= 7060
	w133: + 19 x_1 + 16 x_2 + 172 x_3 + 117 x_4 + 100 x_5 + 237 x_6 + 62 x_7 + 151 x_8 + 186 x_9 + 7 x_10 <= 6230
	w134: + 150 x_1 + 4 x_2 + 153 x_3 + 238 x_4 + 238 x_5 + 104 x_6 + 95 x_7 + 154 x_8 + 142 x_9 + 74 x_10 <= 7890
	w135: + 5 x_1 + 8 x_2 + 69 x_3 + 70 x_4 + 142 x_5 + 210 x_6 + 206 x_7 + 153 x_8 + 201 x_9 + 181 x_10 <= 7270
	w136: + 238 x_1 + 122 x_2 + 18 x_3 + 64 x_4 + 26 x_5 + 111 x_6 + 138 x_7 + 143 x_8 + 209 x_9 + 46 x_10 <= 6510
	w137: + 57 x_1 + 201 x_2 + 109 x_3 + 216 x_4 + 156 x_5 + 56 x_6 + 113 x_7 + 169 x_8 + 219 x_9 + 77 x_10 <= 8010
	w138: + 181 x_1 + 120 x_2 + 7 x_3 + 213 x_4 + 79 x_5 + 32 x_6 + 202 x_7 + 80 x_8 + 111 x_9 + 25 x_10 <= 6130
	w139: + 194 x_1 + 2 x_2 + 196 x_3 + 154 x_4 + 139 x_5 + 114 x_6 + 145 x_7 + 161 x_8 + 193 x_9 + 20 x_10 <= 7690
	w140: + 185 x_1 + 166 x_2 + 151 x_3 + 73 x_4 + 123 x_5 + 231 x_6 + 195 x_7 + 225 x_8 + 236 x_9 + 156 x_10 <= 10160
	w141: + 65 x_1 + 121 x_2 + 120 x_3 + 91 x_4 + 167 x_5 + 198 x_6 + 221 x_7 + 96 x_8 + 150 x_9 + 204 x_10 <= 8360
	w142: + 6 x_1 + 148 x_2 + 183 x_3 + 84 x_4 + 203 x_5 + 241 x_6 + 109 x_7 + 192 x_8 + 57 x_9 + 19 x_10 <= 7250
	w143: + 145 x_1 + 194 x_2 + 78 x_3 + 223 x_4 + 80 x_5 + 178 x_6 + 142 x_7 + 108 x_8 + 194 x_9 + 37 x_10 <= 8050
	w144: + 202 x_1 + 114 x_2 + 100 x_3 + 109 x_4 + 96 x_5 + 10 x_6 + 54 x_7 + 70 x_8 + 241 x_9 + 47 x_10 <= 6090
	w145: + 105 x_1 + 173 x_2 + 4 x_3 + 186 x_4 + 125 x_5 + 72 x_6 + 78 x_7 + 190 x_8 + 51 x_9 + 30 x_10 <= 5920
	w146: + 174 x_1 + 70 x_2 + 198 x_3 + 186 x_4 + 126 x_5 + 154 x_6 + 135 x_7 + 238 x_8 + 90 x_9 + 188 x_10 <= 9100
	w147: + 129 x_1 + 61 x_2 + 105 x_3 + 92 x_4 + 227 x_5 + 186 x_6 + 170 x_7 + 93 x_8 + 27 x_9 + 144 x_10 <= 7200
	w148: + 29 x_1 + 13 x_2 + 174 x_3 + 117 x_4 + 94 x_5 + 201 x_6 + 9 x_7 + 163 x_8 + 227 x_9 + 96 x_10 <= 6550
	w149: + 233 x_1 + 60 x_2 + 189 x_3 + 43 x_4 + 15 x_5 + 170 x_6 + 112 x_7 + 177 x_8 + 136 x_9 + 151 x_10 <= 7510
	w150: + 158 x_1 + 30 x_2 + 207 x_3 + 7 x_4 + 22 x_5 + 149 x_6 + 62 x_7 + 56 x_8 + 128 x_9 + 52 x_10 <= 5080
	w151: + 15 x_1 + 171 x_2 + 68 x_3 + 80 x_4 + 154 x_5 + 165 x_6 + 131 x_7 + 90 x_8 + 160 x_9 + 178 x_10 <= 7070
	w152: + 228 x_1 + 95 x_2 + 26 x_3 + 230 x_4 + 96 x_5 + 248 x_6 + 169 x_7 + 204 x_8 + 23 x_9 + 206 x_10 <= 8900
	w153: + 137 x_1 + 169 x_2 + 222 x_3 + 71 x_4 + 72 x_5 + 123 x_6 + 163 x_7 + 210 x_8 + 44 x_9 + 55 x_10 <= 7390
	w154: + 79 x_1 + 9 x_2 + 24 x_3 + 23 x_4 + 151 x_5 + 74 x_6 + 77 x_7 + 123 x_8 + 52 x_9 + 196 x_10 <= 4710
	w155: + 122 x_1 + 27 x_2 + 200 x_3 + 11 x_4 + 165 x_5 + 87 x_6 + 204 x_7 + 126 x_8 + 168 x_9 + 11 x_10 <= 6540
	w156: + 172 x_1 + 113 x_2 + 239 x_3 + 73 x_4 + 51 x_5 + 227 x_6 + 98 x_7 + 128 x_8 + 61 x_9 + 38 x_10 <= 7000
	w157: + 233 x_1 + 124 x_2 + 223 x_3 + 59 x_4 + 57 x_5 + 50 x_6 + 206 x_7 + 206 x_8 + 63 x_9 + 59 x_10 <= 7470
	w158: + 52 x_1 + 243 x_2 + 84 x_3 + 176 x_4 + 107 x_5 + 97 x_6 + 184 x_7 + 139 x_8 + 218 x_9 + 150 x_10 <= 8460
	w159: + 246 x_1 + 190 x_2 + 94 x_3 + 233 x_4 + 236 x_5 + 177 x_6 + 114 x_7 + 62 x_8 + 36 x_9 + 119 x_10 <= 8800
	w160: + 117 x_1 + 96 x_2 + 87 x_3 + 206 x_4 + 147 x_5 + 156 x_6 + 97 x_7 + 143 x_8 + 158 x_9 + 153 x_10 <= 7940
	w161: + 192 x_1 + 171 x_2 + 112 x_3 + 243 x_4 + 199 x_5 + 150 x_6 + 90 x_7 + 41 x_8 + 110 x_9 + 136 x_10 <= 8430
	w162: + 110 x_1 + 127 x_2 + 30 x_3 + 12 x_4 + 76 x_5 + 214 x_6 + 120 x_7 + 144 x_8 + 116 x_9 + 152 x_10 <= 6420
	w163: + 105 x_1 + 109 x_2 + 152 x_3 + 243 x_4 + 233 x_5 + 134 x_6 + 91 x_7 + 78 x_8 + 109 x_9 + 141 x_10 <= 8140
	w164: + 120 x_1 + 90 x_2 + 134 x_3 + 82 x_4 + 2 x_5 + 126 x_6 + 107 x_7 + 41 x_8 + 42 x_9 + 152 x_10 <= 5230
	w165: + 162 x_1 + 71 x_2 + 97 x_3 + 213 x_4 + 144 x_5 + 17 x_6 + 102 x_7 + 221 x_8 + 87 x_9 + 89 x_10 <= 7020
	w166: + 152 x_1 + 231 x_2 + 185 x_3 + 78 x_4 + 185 x_5 + 79 x_6 + 109 x_7 + 129 x_8 + 215 x_9 + 150 x_10 <= 8830
	w167: + 10 x_1 + 217 x_2 + 98 x_3 + 69 x_4 + 242 x_5 + 123 x_6 + 33 x_7 + 90 x_8 + 60 x_9 + 58 x_10 <= 5840
	w168: + 215 x_1 + 62 x_2 + 142 x_3 + 221 x_4 + 128 x_5 + 84 x_6 + 212 x_7 + 19 x_8 + 29 x_9 + 57 x_10 <= 6820
	w169: + 159 x_1 + 229 x_2 + 89 x_3 + 236 x_4 + 216 x_5 + 128 x_6 + 155 x_7 + 246 x_8 + 123 x_9 + 151 x_10 <= 10110
	w170: + 205 x_1 + 144 x_2 + 152 x_3 + 110 x_4 + 105 x_5 + 73 x_6 + 17 x_7 + 88 x_8 + 57 x_9 + 126 x_10 <= 6280
	w171: + 98 x_1 + 111 x_2 + 76 x_3 + 43 x_4 + 193 x_5 + 13 x_6 + 139 x_7 + 234 x_8 + 55 x_9 + 32 x_10 <= 5800
	w172: + 28 x_1 + 238 x_2 + 141 x_3 + 213 x_4 + 107 x_5 + 57 x_6 + 231 x_7 + 133 x_8 + 214 x_9 + 124 x_10 <= 8670
	w173: + 240 x_1 + 146 x_2 + 236 x_3 + 232 x_4 + 80 x_5 + 118 x_6 + 63 x_7 + 104 x_8 + 103 x_9 + 111 x_10 <= 8360
	w174: + 25 x_1 + 129 x_2 + 63 x_3 + 174 x_4 + 79 x_5 + 108 x_6 + 164 x_7 + 139 x_8 + 109 x_9 + 102 x_10 <= 6370
	w175: + 105 x_1 + 138 x_2 + 166 x_3 + 247 x_4 + 87 x_5 + 227 x_6 + 181 x_7 + 239 x_8 + 62 x_9 + 81 x_10 <= 8950
	w176: + 101 x_1 + 13 x_2 + 198 x_3 + 161 x_4 + 220 x_5 + 168 x_6 + 163 x_7 + 30 x_8 + 183 x_9 + 38 x_10 <= 7440
	w177: + 137 x_1 + 193 x_2 + 105 x_3 + 213 x_4 + 54 x_5 + 58 x_6 + 36 x_7 + 147 x_8 + 109 x_9 + 88 x_10 <= 6650
	w178: + 117 x_1 + 9 x_2 + 163 x_3 + 157 x_4 + 179 x_5 + 22 x_6 + 226 x_7 + 117 x_8 + 51 x_9 + 87 x_10 <= 6580
	w179: + 114 x_1 + 72 x_2 + 186 x_3 + 179 x_4 + 161 x_5 + 120 x_6 + 86 x_7 + 153 x_8 + 43 x_9 + 39 x_10 <= 6730
	w180: + 107 x_1 + 83 x_2 + 176 x_3 + 146 x_4 + 245 x_5 + 150 x_6 + 40 x_7 + 97 x_8 + 7 x_9 + 165 x_10 <= 7100
	w181: + 154 x_1 + 176 x_2 + 76 x_3 + 21 x_4 + 77 x_5 + 204 x_6 + 198 x_7 + 228 x_8 + 177 x_9 + 82 x_10 <= 8130
	w182: + 140 x_1 + 186 x_2 + 104 x_3 + 236 x_4 + 240 x_5 + 155 x_6 + 44 x_7 + 32 x_8 + 150 x_9 + 178 x_10 <= 8550
	w183: + 207 x_1 + 208 x_2 + 154 x_3 + 160 x_4 + 59 x_5 + 71 x_6 + 151 x_7 + 233 x_8 + 112 x_9 + 101 x_10 <= 8500
	w184: + 2 x_1 + 157 x_2 + 117 x_3 + 244 x_4 + 170 x_5 + 14 x_6 + 108 x_7 + 198 x_8 + 223 x_9 + 45 x_10 <= 7460
	w185: + 50 x_1 + 208 x_2 + 85 x_3 + 28 x_4 + 190 x_5 + 11 x_6 + 212 x_7 + 130 x_8 + 172 x_9 + 138 x_10 <= 7140
	w186: + 201 x_1 + 190 x_2 + 21 x_3 + 96 x_4 + 177 x_5 + 237 x_6 + 221 x_7 + 13 x_8 + 76 x_9 + 173 x_10 <= 8200
	w187: + 2 x_1 + 195 x_2 + 7 x_3 + 129 x_4 + 230 x_5 + 116 x_6 + 56 x_7 + 222 x_8 + 8 x_9 + 160 x_10 <= 6570
	w188: + 183 x_1 + 121 x_2 + 136 x_3 + 204 x_4 + 22 x_5 + 75 x_6 + 229 x_7 + 60 x_8 + 64 x_9 + 164 x_10 <= 7340
	w189: + 71 x_1 + 22 x_2 + 25 x_3 + 69 x_4 + 141 x_5 + 96 x_6 + 141 x_7 + 232 x_8 + 104 x_9 + 214 x_10 <= 6510
	w190: + 173 x_1 + 209 x_2 + 229 x_3 + 38 x_4 + 11 x_5 + 181 x_6 + 201 x_7 + 205 x_8 + 194 x_9 + 77 x_10 <= 8860
	w191: + 101 x_1 + 100 x_2 + 165 x_3 + 79 x_4 + 81 x_5 + 128 x_6 + 22 x_7 + 68 x_8 + 61 x_9 + 187 x_10 <= 5790
	w192: + 40 x_1 + 33 x_2 + 192 x_3 + 90 x_4 + 196 x_5 + 161 x_6 + 156 x_7 + 8 x_8 + 11 x_9 + 113 x_10 <= 5840
	w193: + 214 x_1 + 174 x_2 + 196 x_3 + 87 x_4 + 86 x_5 + 101 x_6 + 239 x_7 + 154 x_8 + 176 x_9 + 146 x_10 <= 9180
	w194: + 47 x_1 + 92 x_2 + 175 x_3 + 212 x_4 + 78 x_5 + 133 x_6 + 60 x_7 + 15 x_8 + 58 x_9 + 240 x_10 <= 6480
	w195: + 32 x_1 + 167 x_2 + 247 x_3 + 163 x_4 + 133 x_5 + 108 x_6 + 86 x_7 + 7 x_8 + 68 x_9 + 173 x_10 <= 6910
	w196: + 130 x_1 + 247 x_2 + 248 x_3 + 74 x_4 + 51 x_5 + 183 x_6 + 35 x_7 + 51 x_8 + 56 x_9 + 192 x_10 <= 7390
	w197: + 210 x_1 + 79 x_2 + 112 x_3 + 110 x_4 + 15 x_5 + 170 x_6 + 174 x_7 + 217 x_8 + 110 x_9 + 34 x_10 <= 7180
	w198: + 10 x_1 + 99 x_2 + 81 x_3 + 135 x_4 + 154 x_5 + 67 x_6 + 133 x_7 + 220 x_8 + 170 x_9 + 182 x_10 <= 7300
	w199: + 174 x_1 + 28 x_2 + 209 x_3 + 1 x_4 + 151 x_5 + 64 x_6 + 71 x_7 + 210 x_8 + 53 x_9 + 231 x_10 <= 6960
	w200: + 31 x_1 + 72 x_2 + 240 x_3 + 18 x_4 + 82 x_5 + 177 x_6 + 118 x_7 + 123 x_8 + 171 x_9 + 33 x_10 <= 6210
	profits: + 243 x_1 + 173 x_2 + 107 x_3 + 44 x_4 + 64 x_5 + 240 x_6 + 97 x_7 + 177 x_8 + 130 x_9 + 96 x_10 >= 5700
Bounds
  0 <= x_1 <= 10
  0 <= x_2 <= 10
  0 <= x_3 <= 10
  0 <= x_4 <= 10
  0 <= x_5 <= 10
  0 <= x_6 <= 10
  0 <= x_7 <= 10
  0 <= x_8 <= 10
  0 <= x_9 <= 10
  0 <= x_10 <= 10
End
