Subject To
	w1: + 130 x_1 + 136 x_2 + 234 x_3 + 229 x_4 + 40 x_5 + 153 x_6 + 188 x_7 + 175 x_8 + 225 x_9 + 81 x_10 <= 7760
	w2: + 144 x_1 + 223 x_2 + 47 x_3 + 63 x_4 + 205 x_5 + 190 x_6 + 187 x_7 + 149 x_8 + 5 x_9 + 109 x_10 <= 6450
	w3: + 225 x_1 + 200 x_2 + 124 x_3 + 178 x_4 + 207 x_5 + 38 x_6 + 210 x_7 + 144 x_8 + 49 x_9 + 183 x_10 <= 7600
	w4: + 35 x_1 + 223 x_2 + 230 x_3 + 240 x_4 + 135 x_5 + 229 x_6 + 107 x_7 + 146 x_8 + 169 x_9 + 231 x_10 <= 8510
	w5: + 215 x_1 + 217 x_2 + 120 x_3 + 65 x_4 + 220 x_5 + 166 x_6 + 111 x_7 + 191 x_8 + 82 x_9 + 188 x_10 <= 7680
	w6: + 199 x_1 + 246 x_2 + 50 x_3 + 77 x_4 + 167 x_5 + 210 x_6 + 215 x_7 + 51 x_8 + 40 x_9 + 243 x_10 <= 7310
	w7: + 129 x_1 + 246 x_2 + 82 x_3 + 106 x_4 + 103 x_5 + 246 x_6 + 138 x_7 + 125 x_8 + 184 x_9 + 151 x_10 <= 7360
	w8: + 239 x_1 + 57 x_2 + 24 x_3 + 147 x_4 + 39 x_5 + 177 x_6 + 65 x_7 + 217 x_8 + 229 x_9 + 175 x_10 <= 6680
	w9: + 244 x_1 + 94 x_2 + 170 x_3 + 214 x_4 + 25 x_5 + 225 x_6 + 81 x_7 + 159 x_8 + 169 x_9 + 16 x_10 <= 6810
	w10: + 138 x_1 + 33 x_2 + 237 x_3 + 83 x_4 + 145 x_5 + 50 x_6 + 19 x_7 + 130 x_8 + 124 x_9 + 240 x_10 <= 5850
	w11: + 181 x_1 + 119 x_2 + 170 x_3 + 159 x_4 + 215 x_5 + 105 x_6 + 82 x_7 + 117 x_8 + 163 x_9 + 53 x_10 <= 6650
	w12: + 30 x_1 + 114 x_2 + 57 x_3 + 183 x_4 + 184 x_5 + 69 x_6 + 118 x_7 + 210 x_8 + 25 x_9 + 146 x_10 <= 5540
	w13: + 130 x_1 + 42 x_2 + 77 x_3 + 143 x_4 + 138 x_5 + 190 x_6 + 225 x_7 + 189 x_8 + 214 x_9 + 61 x_10 <= 6870
	w14: + 60 x_1 + 224 x_2 + 222 x_3 + 218 x_4 + 243 x_5 + 28 x_6 + 236 x_7 + 74 x_8 + 55 x_9 + 92 x_10 <= 7080
	w15: + 157 x_1 + 149 x_2 + 85 x_3 + 244 x_4 + 242 x_5 + 95 x_6 + 194 x_7 + 54 x_8 + 156 x_9 + 14 x_10 <= 6780
	w16: + 135 x_1 + 32 x_2 + 215 x_3 + 93 x_4 + 175 x_5 + 181 x_6 + 61 x_7 + 44 x_8 + 237 x_9 + 175 x_10 <= 6570
	w17: + 21 x_1 + 18 x_2 + 17 x_3 + 72 x_4 + 180 x_5 + 115 x_6 + 221 x_7 + 59 x_8 + 117 x_9 + 76 x_10 <= 4370
	w18: + 182 x_1 + 146 x_2 + 26 x_3 + 165 x_4 + 184 x_5 + 115 x_6 + 218 x_7 + 43 x_8 + 5 x_9 + 154 x_10 <= 6040
	w19: + 94 x_1 + 232 x_2 + 140 x_3 + 40 x_4 + 68 x_5 + 75 x_6 + 72 x_7 + 181 x_8 + 160 x_9 + 15 x_10 <= 5250
	w20: + 72 x_1 + 117 x_2 + 227 x_3 + 153 x_4 + 218 x_5 + 201 x_6 + 99 x_7 + 120 x_8 + 50 x_9 + 62 x_10 <= 6430
	w21: + 74 x_1 + 117 x_2 + 239 x_3 + 178 x_4 + 14 x_5 + 73 x_6 + 173 x_7 + 173 x_8 + 162 x_9 + 207 x_10 <= 6880
	w22: + 191 x_1 + 186 x_2 + 176 x_3 + 54 x_4 + 50 x_5 + 1 x_6 + 135 x_7 + 238 x_8 + 176 x_9 + 98 x_10 <= 6360
	w23: + 11 x_1 + 240 x_2 + 206 x_3 + 171 x_4 + 24 x_5 + 213 x_6 + 32 x_7 + 176 x_8 + 227 x_9 + 116 x_10 <= 6910
	w24: + 211 x_1 + 135 x_2 + 195 x_3 + 244 x_4 + 184 x_5 + 128 x_6 + 238 x_7 + 136 x_8 + 34 x_9 + 230 x_10 <= 8460
	w25: + 186 x_1 + 166 x_2 + 9 x_3 + 171 x_4 + 216 x_5 + 158 x_6 + 149 x_7 + 144 x_8 + 142 x_9 + 126 x_10 <= 7150
	w26: + 175 x_1 + 242 x_2 + 195 x_3 + 112 x_4 + 11 x_5 + 225 x_6 + 10 x_7 + 36 x_8 + 121 x_9 + 228 x_10 <= 6610
	w27: + 17 x_1 + 95 x_2 + 10 x_3 + 191 x_4 + 100 x_5 + 218 x_6 + 200 x_7 + 142 x_8 + 44 x_9 + 96 x_10 <= 5430
	w28: + 206 x_1 + 53 x_2 + 73 x_3 + 62 x_4 + 61 x_5 + 57 x_6 + 195 x_7 + 101 x_8 + 1 x_9 + 32 x_10 <= 4100
	w29: + 192 x_1 + 244 x_2 + 186 x_3 + 206 x_4 + 63 x_5 + 91 x_6 + 63 x_7 + 54 x_8 + 18 x_9 + 93 x_10 <= 5900
	w30: + 67 x_1 + 168 x_2 + 138 x_3 + 85 x_4 + 47 x_5 + 121 x_6 + 185 x_7 + 192 x_8 + 103 x_9 + 232 x_10 <= 6520
	w31: + 60 x_1 + 7 x_2 + 100 x_3 + 249 x_4 + 192 x_5 + 32 x_6 + 10 x_7 + 45 x_8 + 140 x_9 + 197 x_10 <= 5030
	w32: + 19 x_1 + 205 x_2 + 173 x_3 + 227 x_4 + 4 x_5 + 30 x_6 + 237 x_7 + 180 x_8 + 107 x_9 + 151 x_10 <= 6500
	w33: + 94 x_1 + 238 x_2 + 118 x_3 + 18 x_4 + 218 x_5 + 43 x_6 + 248 x_7 + 52 x_8 + 85 x_9 + 31 x_10 <= 5580
	w34: + 239 x_1 + 68 x_2 + 246 x_3 + 102 x_4 + 55 x_5 + 124 x_6 + 243 x_7 + 193 x_8 + 221 x_9 + 204 x_10 <= 8270
	w35: + 117 x_1 + 17 x_2 + 12 x_3 + 4 x_4 + 113 x_5 + 206 x_6 + 146 x_7 + 224 x_8 + 14 x_9 + 213 x_10 <= 5200
	w36: + 72 x_1 + 213 x_2 + 7 x_3 + 165 x_4 + 235 x_5 + 11 x_6 + 230 x_7 + 92 x_8 + 28 x_9 + 22 x_10 <= 5240
	w37: + 39 x_1 + 156 x_2 + 8 x_3 + 74 x_4 + 170 x_5 + 127 x_6 + 193 x_7 + 87 x_8 + 97 x_9 + 34 x_10 <= 4800
	w38: + 240 x_1 + 50 x_2 + 80 x_3 + 73 x_4 + 2 x_5 + 120 x_6 + 173 x_7 + 190 x_8 + 229 x_9 + 156 x_10 <= 6400
	w39: + 81 x_1 + 28 x_2 + 154 x_3 + 77 x_4 + 33 x_5 + 181 x_6 + 123 x_7 + 164 x_8 + 10 x_9 + 136 x_10 <= 4810
	w40: + 47 x_1 + 1 x_2 + 193 x_3 + 136 x_4 + 203 x_5 + 220 x_6 + 48 x_7 + 34 x_8 + 157 x_9 + 187 x_10 <= 5980
	w41: + 206 x_1 + 2 x_2 + 128 x_3 + 198 x_4 + 51 x_5 + 57 x_6 + 162 x_7 + 210 x_8 + 147 x_9 + 45 x_10 <= 5880
	w42: + 50 x_1 + 243 x_2 + 65 x_3 + 76 x_4 + 190 x_5 + 39 x_6 + 63 x_7 + 112 x_8 + 125 x_9 + 232 x_10 <= 5830
	w43: + 36 x_1 + 23 x_2 + 227 x_3 + 139 x_4 + 36 x_5 + 246 x_6 + 211 x_7 + 107 x_8 + 63 x_9 + 57 x_10 <= 5580
	w44: + 181 x_1 + 122 x_2 + 65 x_3 + 82 x_4 + 197 x_5 + 87 x_6 + 28 x_7 + 23 x_8 + 154 x_9 + 75 x_10 <= 4940
	w45: + 49 x_1 + 69 x_2 + 90 x_3 + 46 x_4 + 204 x_5 + 17 x_6 + 187 x_7 + 126 x_8 + 4 x_9 + 100 x_10 <= 4350
	w46: + 80 x_1 + 247 x_2 + 26 x_3 + 2 x_4 + 58 x_5 + 64 x_6 + 68 x_7 + 12 x_8 + 243 x_9 + 211 x_10 <= 4930
	w47: + 239 x_1 + 111 x_2 + 12 x_3 + 34 x_4 + 113 x_5 + 107 x_6 + 187 x_7 + 232 x_8 + 131 x_9 + 16 x_10 <= 5760
	w48: + 61 x_1 + 48 x_2 + 162 x_3 + 36 x_4 + 245 x_5 + 65 x_6 + 42 x_7 + 15 x_8 + 192 x_9 + 169 x_10 <= 5050
	w49: + 169 x_1 + 245 x_2 + 59 x_3 + 23 x_4 + 52 x_5 + 13 x_6 + 126 x_7 + 92 x_8 + 58 x_9 + 102 x_10 <= 4580
	w50: + 49 x_1 + 125 x_2 + 154 x_3 + 117 x_4 + 95 x_5 + 176 x_6 + 57 x_7 + 190 x_8 + 232 x_9 + 45 x_10 <= 6050
	w51: + 231 x_1 + 154 x_2 + 104 x_3 + 186 x_4 + 145 x_5 + 91 x_6 + 92 x_7 + 26 x_8 + 7 x_9 + 71 x_10 <= 5400
	w52: + 23 x_1 + 116 x_2 + 152 x_3 + 41 x_4 + 240 x_5 + 103 x_6 + 169 x_7 + 10 x_8 + 145 x_9 + 56 x_10 <= 5140
	w53: + 63 x_1 + 186 x_2 + 247 x_3 + 174 x_4 + 38 x_5 + 224 x_6 + 24 x_7 + 218 x_8 + 238 x_9 + 108 x_10 <= 7410
	w54: + 54 x_1 + 210 x_2 + 216 x_3 + 222 x_4 + 201 x_5 + 213 x_6 + 39 x_7 + 88 x_8 + 53 x_9 + 195 x_10 <= 7270
	w55: + 57 x_1 + 61 x_2 + 134 x_3 + 184 x_4 + 5 x_5 + 178 x_6 + 85 x_7 + 157 x_8 + 2 x_9 + 28 x_10 <= 4340
	w56: + 213 x_1 + 77 x_2 + 43 x_3 + 60 x_4 + 193 x_5 + 45 x_6 + 92 x_7 + 60 x_8 + 213 x_9 + 113 x_10 <= 5410
	w57: + 155 x_1 + 223 x_2 + 185 x_3 + 169 x_4 + 175 x_5 + 188 x_6 + 242 x_7 + 207 x_8 + 113 x_9 + 15 x_10 <= 8150
	w58: + 172 x_1 + 177 x_2 + 23 x_3 + 203 x_4 + 237 x_5 + 182 x_6 + 41 x_7 + 219 x_8 + 225 x_9 + 74 x_10 <= 7570
	w59: + 187 x_1 + 158 x_2 + 226 x_3 + 7 x_4 + 243 x_5 + 231 x_6 + 236 x_7 + 131 x_8 + 17 x_9 + 154 x_10 <= 7750
	w60: + 20 x_1 + 46 x_2 + 65 x_3 + 184 x_4 + 214 x_5 + 77 x_6 + 188 x_7 + 30 x_8 + 166 x_9 + 54 x_10 <= 5090
	w61: + 179 x_1 + 62 x_2 + 30 x_3 + 124 x_4 + 187 x_5 + 95 x_6 + 5 x_7 + 192 x_8 + 82 x_9 + 2 x_10 <= 4670
	w62: + 93 x_1 + 205 x_2 + 49 x_3 + 20 x_4 + 151 x_5 + 248 x_6 + 6 x_7 + 96 x_8 + 25 x_9 + 144 x_10 <= 5060
	w63: + 108 x_1 + 119 x_2 + 248 x_3 + 189 x_4 + 125 x_5 + 69 x_6 + 239 x_7 + 243 x_8 + 95 x_9 + 225 x_10 <= 8100
	w64: + 27 x_1 + 75 x_2 + 125 x_3 + 76 x_4 + 168 x_5 + 18 x_6 + 67 x_7 + 185 x_8 + 186 x_9 + 238 x_10 <= 5680
	w65: + 5 x_1 + 231 x_2 + 135 x_3 + 115 x_4 + 198 x_5 + 87 x_6 + 57 x_7 + 22 x_8 + 116 x_9 + 217 x_10 <= 5770
	w66: + 35 x_1 + 165 x_2 + 99 x_3 + 129 x_4 + 164 x_5 + 155 x_6 + 19 x_7 + 162 x_8 + 154 x_9 + 138 x_10 <= 5950
	w67: + 198 x_1 + 152 x_2 + 2 x_3 + 60 x_4 + 39 x_5 + 154 x_6 + 236 x_7 + 83 x_8 + 154 x_9 + 220 x_10 <= 6330
	w68: + 194 x_1 + 84 x_2 + 129 x_3 + 227 x_4 + 135 x_5 + 41 x_6 + 220 x_7 + 37 x_8 + 85 x_9 + 87 x_10 <= 6040
	w69: + 200 x_1 + 6 x_2 + 151 x_3 + 125 x_4 + 42 x_5 + 244 x_6 + 189 x_7 + 184 x_8 + 233 x_9 + 47 x_10 <= 6930
	w70: + 215 x_1 + 167 x_2 + 10 x_3 + 111 x_4 + 192 x_5 + 201 x_6 + 43 x_7 + 96 x_8 + 147 x_9 + 220 x_10 <= 6840
	w71: + 119 x_1 + 147 x_2 + 92 x_3 + 28 x_4 + 2 x_5 + 228 x_6 + 99 x_7 + 201 x_8 + 147 x_9 + 52 x_10 <= 5440
	w72: + 142 x_1 + 44 x_2 + 136 x_3 + 243 x_4 + 31 x_5 + 115 x_6 + 200 x_7 + 244 x_8 + 186 x_9 + 113 x_10 <= 7090
	w73: + 193 x_1 + 91 x_2 + 92 x_3 + 99 x_4 + 167 x_5 + 40 x_6 + 48 x_7 + 94 x_8 + 182 x_9 + 46 x_10 <= 5130
	w74: + 232 x_1 + 165 x_2 + 105 x_3 + 223 x_4 + 180 x_5 + 120 x_6 + 215 x_7 + 38 x_8 + 236 x_9 + 243 x_10 <= 8570
	w75: + 169 x_1 + 13 x_2 + 249 x_3 + 21 x_4 + 185 x_5 + 80 x_6 + 97 x_7 + 91 x_8 + 36 x_9 + 113 x_10 <= 5140
	w76: + 191 x_1 + 131 x_2 + 124 x_3 + 125 x_4 + 27 x_5 + 150 x_6 + 201 x_7 + 29 x_8 + 223 x_9 + 113 x_10 <= 6410
	w77: + 74 x_1 + 222 x_2 + 151 x_3 + 245 x_4 + 70 x_5 + 197 x_6 + 79 x_7 + 137 x_8 + 159 x_9 + 246 x_10 <= 7710
	w78: + 49 x_1 + 100 x_2 + 90 x_3 + 65 x_4 + 70 x_5 + 182 x_6 + 183 x_7 + 220 x_8 + 68 x_9 + 97 x_10 <= 5480
	w79: + 74 x_1 + 73 x_2 + 69 x_3 + 183 x_4 + 53 x_5 + 47 x_6 + 227 x_7 + 77 x_8 + 243 x_9 + 210 x_10 <= 6120
	w80: + 239 x_1 + 160 x_2 + 128 x_3 + 124 x_4 + 56 x_5 + 208 x_6 + 45 x_7 + 175 x_8 + 185 x_9 + 49 x_10 <= 6680
	w81: + 15 x_1 + 112 x_2 + 232 x_3 + 111 x_4 + 182 x_5 + 110 x_6 + 49 x_7 + 219 x_8 + 48 x_9 + 51 x_10 <= 5500
	w82: + 59 x_1 + 43 x_2 + 147 x_3 + 35 x_4 + 1 x_5 + 63 x_6 + 216 x_7 + 164 x_8 + 126 x_9 + 7 x_10 <= 4200
	w83: + 180 x_1 + 163 x_2 + 131 x_3 + 193 x_4 + 196 x_5 + 119 x_6 + 22 x_7 + 110 x_8 + 164 x_9 + 230 x_10 <= 7350
	w84: + 61 x_1 + 125 x_2 + 145 x_3 + 134 x_4 + 4 x_5 + 12 x_6 + 215 x_7 + 206 x_8 + 218 x_9 + 197 x_10 <= 6420
	w85: + 240 x_1 + 9 x_2 + 68 x_3 + 233 x_4 + 191 x_5 + 152 x_6 + 235 x_7 + 58 x_8 + 132 x_9 + 123 x_10 <= 7030
	w86: + 214 x_1 + 33 x_2 + 78 x_3 + 183 x_4 + 143 x_5 + 26 x_6 + 199 x_7 + 21 x_8 + 216 x_9 + 150 x_10 <= 6160
	w87: + 98 x_1 + 15 x_2 + 146 x_3 + 226 x_4 + 208 x_5 + 249 x_6 + 45 x_7 + 153 x_8 + 32 x_9 + 246 x_10 <= 6910
	w88: + 23 x_1 + 242 x_2 + 204 x_3 + 112 x_4 + 197 x_5 + 159 x_6 + 139 x_7 + 6 x_8 + 122 x_9 + 77 x_10 <= 6250
	w89: + 239 x_1 + 100 x_2 + 76 x_3 + 140 x_4 + 201 x_5 + 144 x_6 + 24 x_7 + 245 x_8 + 30 x_9 + 231 x_10 <= 6970
	w90: + 134 x_1 + 7 x_2 + 222 x_3 + 20 x_4 + 131 x_5 + 223 x_6 + 204 x_7 + 103 x_8 + 108 x_9 + 139 x_10 <= 6300
	w91: + 95 x_1 + 25 x_2 + 239 x_3 + 120 x_4 + 121 x_5 + 213 x_6 + 1 x_7 + 199 x_8 + 175 x_9 + 238 x_10 <= 6950
	w92: + 99 x_1 + 151 x_2 + 57 x_3 + 89 x_4 + 220 x_5 + 61 x_6 + 234 x_7 + 206 x_8 + 186 x_9 + 91 x_10 <= 6800
	w93: + 101 x_1 + 229 x_2 + 239 x_3 + 173 x_4 + 54 x_5 + 227 x_6 + 164 x_7 + 245 x_8 + 229 x_9 + 150 x_10 <= 8830
	w94: + 199 x_1 + 239 x_2 + 144 x_3 + 77 x_4 + 120 x_5 + 9 x_6 + 196 x_7 + 31 x_8 + 14 x_9 + 141 x_10 <= 5700
	w95: + 19 x_1 + 36 x_2 + 211 x_3 + 24 x_4 + 228 x_5 + 244 x_6 + 234 x_7 + 35 x_8 + 83 x_9 + 63 x_10 <= 5740
	w96: + 173 x_1 + 142 x_2 + 83 x_3 + 194 x_4 + 77 x_5 + 191 x_6 + 205 x_7 + 249 x_8 + 85 x_9 + 188 x_10 <= 7740
	w97: + 11 x_1 + 180 x_2 + 17 x_3 + 202 x_4 + 140 x_5 + 190 x_6 + 55 x_7 + 112 x_8 + 4 x_9 + 53 x_10 <= 4700
	w98: + 135 x_1 + 98 x_2 + 16 x_3 + 63 x_4 + 41 x_5 + 19 x_6 + 86 x_7 + 113 x_8 + 69 x_9 + 67 x_10 <= 3450
	w99: + 113 x_1 + 20 x_2 + 62 x_3 + 151 x_4 + 54 x_5 + 51 x_6 + 126 x_7 + 2 x_8 + 71 x_9 + 199 x_10 <= 4140
	w100: + 162 x_1 + 216 x_2 + 108 x_3 + 102 x_4 + 241 x_5 + 229 x_6 + 106 x_7 + 83 x_8 + 7 x_9 + 151 x_10 <= 6850
	w101: + 195 x_1 + 239 x_2 + 78 x_3 + 74 x_4 + 180 x_5 + 89 x_6 + 225 x_7 + 90 x_8 + 170 x_9 + 41 x_10 <= 6730
	w102: + 165 x_1 + 6 x_2 + 170 x_3 + 3 x_4 + 101 x_5 + 181 x_6 + 223 x_7 + 54 x_8 + 83 x_9 + 158 x_10 <= 5580
	w103: + 243 x_1 + 32 x_2 + 1 x_3 + 236 x_4 + 57 x_5 + 30 x_6 + 189 x_7 + 145 x_8 + 67 x_9 + 191 x_10 <= 5810
	w104: + 77 x_1 + 248 x_2 + 226 x_3 + 64 x_4 + 25 x_5 + 183 x_6 + 96 x_7 + 214 x_8 + 143 x_9 + 66 x_10 <= 6540
	w105: + 243 x_1 + 40 x_2 + 51 x_3 + 164 x_4 + 11 x_5 + 189 x_6 + 224 x_7 + 104 x_8 + 128 x_9 + 51 x_10 <= 5880
	w106: + 41 x_1 + 3 x_2 + 152 x_3 + 126 x_4 + 64 x_5 + 185 x_6 + 215 x_7 + 40 x_8 + 33 x_9 + 122 x_10 <= 4780
	w107: + 75 x_1 + 26 x_2 + 99 x_3 + 53 x_4 + 13 x_5 + 230 x_6 + 21 x_7 + 189 x_8 + 79 x_9 + 182 x_10 <= 4710
	w108: + 29 x_1 + 234 x_2 + 19 x_3 + 242 x_4 + 104 x_5 + 165 x_6 + 246 x_7 + 9 x_8 + 206 x_9 + 206 x_10 <= 7120
	w109: + 68 x_1 + 1 x_2 + 17 x_3 + 30 x_4 + 212 x_5 + 230 x_6 + 117 x_7 + 153 x_8 + 168 x_9 + 67 x_10 <= 5180
	w110: + 70 x_1 + 146 x_2 + 194 x_3 + 233 x_4 + 35 x_5 + 209 x_6 + 189 x_7 + 67 x_8 + 163 x_9 + 139 x_10 <= 7050
	w111: + 242 x_1 + 182 x_2 + 184 x_3 + 116 x_4 + 209 x_5 + 234 x_6 + 96 x_7 + 102 x_8 + 10 x_9 + 95 x_10 <= 7170
	w112: + 162 x_1 + 149 x_2 + 168 x_3 + 174 x_4 + 138 x_5 + 222 x_6 + 35 x_7 + 128 x_8 + 87 x_9 + 172 x_10 <= 7000
	w113: + 216 x_1 + 231 x_2 + 54 x_3 + 12 x_4 + 172 x_5 + 113 x_6 + 50 x_7 + 239 x_8 + 56 x_9 + 199 x_10 <= 6540
	w114: + 50 x_1 + 38 x_2 + 26 x_3 + 22 x_4 + 67 x_5 + 136 x_6 + 60 x_7 + 225 x_8 + 183 x_9 + 174 x_10 <= 4780
	w115: + 31 x_1 + 91 x_2 + 130 x_3 + 61 x_4 + 152 x_5 + 44 x_6 + 126 x_7 + 55 x_8 + 101 x_9 + 216 x_10 <= 4910
	w116: + 28 x_1 + 188 x_2 + 27 x_3 + 197 x_4 + 210 x_5 + 146 x_6 + 217 x_7 + 22 x_8 + 22 x_9 + 248 x_10 <= 6360
	w117: + 184 x_1 + 27 x_2 + 2 x_3 + 237 x_4 + 159 x_5 + 193 x_6 + 115 x_7 + 25 x_8 + 198 x_9 + 49 x_10 <= 5800
	w118: + 53 x_1 + 66 x_2 + 87 x_3 + 162 x_4 + 23 x_5 + 66 x_6 + 179 x_7 + 137 x_8 + 226 x_9 + 205 x_10 <= 5870
	w119: + 99 x_1 + 35 x_2 + 31 x_3 + 207 x_4 + 228 x_5 + 115 x_6 + 135 x_7 + 234 x_8 + 231 x_9 + 109 x_10 <= 6940
	w120: + 98 x_1 + 166 x_2 + 13 x_3 + 197 x_4 + 54 x_5 + 47 x_6 + 57 x_7 + 239 x_8 + 186 x_9 + 126 x_10 <= 5770
	w121: + 12 x_1 + 221 x_2 + 73 x_3 + 56 x_4 + 230 x_5 + 141 x_6 + 151 x_7 + 187 x_8 + 159 x_9 + 163 x_10 <= 6790
	w122: + 235 x_1 + 124 x_2 + 152 x_3 + 15 x_4 + 224 x_5 + 60 x_6 + 84 x_7 + 73 x_8 + 78 x_9 + 33 x_10 <= 5260
	w123: + 237 x_1 + 109 x_2 + 114 x_3 + 98 x_4 + 236 x_5 + 233 x_6 + 36 x_7 + 240 x_8 + 107 x_9 + 85 x_10 <= 7290
	w124: + 17 x_1 + 239 x_2 + 195 x_3 + 9 x_4 + 48 x_5 + 66 x_6 + 64 x_7 + 179 x_8 + 117 x_9 + 3 x_10 <= 4570
	w125: + 112 x_1 + 173 x_2 + 124 x_3 + 68 x_4 + 141 x_5 + 181 x_6 + 210 x_7 + 63 x_8 + 55 x_9 + 58 x_10 <= 5780
	w126: + 153 x_1 + 198 x_2 + 86 x_3 + 118 x_4 + 31 x_5 + 110 x_6 + 126 x_7 + 67 x_8 + 186 x_9 + 101 x_10 <= 5730
	w127: + 111 x_1 + 199 x_2 + 248 x_3 + 205 x_4 + 68 x_5 + 64 x_6 + 32 x_7 + 129 x_8 + 187 x_9 + 192 x_10 <= 7000
	w128: + 174 x_1 + 121 x_2 + 181 x_3 + 171 x_4 + 10 x_5 + 40 x_6 + 130 x_7 + 201 x_8 + 108 x_9 + 16 x_10 <= 5620
	w129: + 243 x_1 + 55 x_2 + 203 x_3 + 66 x_4 + 74 x_5 + 191 x_6 + 207 x_7 + 116 x_8 + 11 x_9 + 153 x_10 <= 6430
	w130: + 185 x_1 + 211 x_2 + 22 x_3 + 68 x_4 + 240 x_5 + 192 x_6 + 25 x_7 + 44 x_8 + 82 x_9 + 83 x_10 <= 5620
	w131: + 239 x_1 + 52 x_2 + 163 x_3 + 183 x_4 + 162 x_5 + 37 x_6 + 99 x_7 + 156 x_8 + 248 x_9 + 153 x_10 <= 7280
	w132: + 242 x_1 + 47 x_2 + 202 x_3 + 109 x_4 + 160 x_5 + 220 x_6 + 232 x_7 + 184 x_8 + 143 x_9 + 202 x_10 <= 8490
	w133: + 37 x_1 + 46 x_2 + 149 x_3 + 81 x_4 + 34 x_5 + 142 x_6 + 3 x_7 + 151 x_8 + 20 x_9 + 65 x_10 <= 3550
	w134: + 178 x_1 + 134 x_2 + 110 x_3 + 187 x_4 + 212 x_5 + 26 x_6 + 81 x_7 + 234 x_8 + 76 x_9 + 131 x_10 <= 6680
	w135: + 93 x_1 + 33 x_2 + 50 x_3 + 44 x_4 + 5 x_5 + 56 x_6 + 246 x_7 + 101 x_8 + 89 x_9 + 202 x_10 <= 4480
	w136: + 109 x_1 + 209 x_2 + 87 x_3 + 104 x_4 + 137 x_5 + 221 x_6 + 182 x_7 + 213 x_8 + 236 x_9 + 141 x_10 <= 7990
	w137: + 187 x_1 + 47 x_2 + 175 x_3 + 84 x_4 + 71 x_5 + 165 x_6 + 122 x_7 + 161 x_8 + 181 x_9 + 128 x_10 <= 6440
	w138: + 55 x_1 + 50 x_2 + 158 x_3 + 57 x_4 + 248 x_5 + 37 x_6 + 73 x_7 + 1 x_8 + 133 x_9 + 23 x_10 <= 4070
	w139: + 104 x_1 + 194 x_2 + 185 x_3 + 216 x_4 + 96 x_5 + 213 x_6 + 53 x_7 + 244 x_8 + 89 x_9 + 244 x_10 <= 7990
	w140: + 135 x_1 + 45 x_2 + 174 x_3 + 195 x_4 + 42 x_5 + 234 x_6 + 76 x_7 + 117 x_8 + 131 x_9 + 123 x_10 <= 6200
	w141: + 5 x_1 + 187 x_2 + 125 x_3 + 120 x_4 + 179 x_5 + 205 x_6 + 54 x_7 + 31 x_8 + 98 x_9 + 203 x_10 <= 5890
	w142: + 25 x_1 + 162 x_2 + 248 x_3 + 141 x_4 + 226 x_5 + 6 x_6 + 10 x_7 + 80 x_8 + 93 x_9 + 33 x_10 <= 4990
	w143: + 72 x_1 + 138 x_2 + 224 x_3 + 22 x_4 + 83 x_5 + 71 x_6 + 235 x_7 + 114 x_8 + 114 x_9 + 39 x_10 <= 5420
	w144: + 36 x_1 + 244 x_2 + 64 x_3 + 59 x_4 + 22 x_5 + 46 x_6 + 226 x_7 + 7 x_8 + 153 x_9 + 208 x_10 <= 5190
	w145: + 243 x_1 + 29 x_2 + 195 x_3 + 119 x_4 + 111 x_5 + 56 x_6 + 89 x_7 + 241 x_8 + 211 x_9 + 182 x_10 <= 7200
	w146: + 206 x_1 + 114 x_2 + 140 x_3 + 133 x_4 + 241 x_5 + 222 x_6 + 244 x_7 + 204 x_8 + 27 x_9 + 36 x_10 <= 7640
	w147: + 220 x_1 + 187 x_2 + 236 x_3 + 169 x_4 + 236 x_5 + 224 x_6 + 236 x_7 + 198 x_8 + 85 x_9 + 98 x_10 <= 9210
	w148: + 219 x_1 + 77 x_2 + 205 x_3 + 55 x_4 + 152 x_5 + 207 x_6 + 137 x_7 + 195 x_8 + 6 x_9 + 97 x_10 <= 6580
	w149: + 216 x_1 + 222 x_2 + 213 x_3 + 22 x_4 + 238 x_5 + 171 x_6 + 224 x_7 + 52 x_8 + 99 x_9 + 235 x_10 <= 8250
	w150: + 136 x_1 + 41 x_2 + 231 x_3 + 21 x_4 + 238 x_5 + 135 x_6 + 59 x_7 + 106 x_8 + 139 x_9 + 130 x_10 <= 6030
	w151: + 141 x_1 + 201 x_2 + 235 x_3 + 33 x_4 + 30 x_5 + 244 x_6 + 238 x_7 + 74 x_8 + 203 x_9 + 110 x_10 <= 7360
	w152: + 23 x_1 + 29 x_2 + 152 x_3 + 211 x_4 + 20 x_5 + 130 x_6 + 145 x_7 + 88 x_8 + 222 x_9 + 97 x_10 <= 5450
	w153: + 43 x_1 + 110 x_2 + 234 x_3 + 165 x_4 + 10 x_5 + 70 x_6 + 26 x_7 + 46 x_8 + 140 x_9 + 33 x_10 <= 4270
	w154: + 3 x_1 + 85 x_2 + 32 x_3 + 14 x_4 + 29 x_5 + 67 x_6 + 119 x_7 + 117 x_8 + 11 x_9 + 54 x_10 <= 2590
	w155: + 138 x_1 + 76 x_2 + 187 x_3 + 211 x_4 + 76 x_5 + 80 x_6 + 226 x_7 + 106 x_8 + 236 x_9 + 134 x_10 <= 7170
	w156: + 113 x_1 + 148 x_2 + 45 x_3 + 43 x_4 + 185 x_5 + 217 x_6 + 69 x_7 + 92 x_8 + 241 x_9 + 210 x_10 <= 6650
	w157: + 139 x_1 + 20 x_2 + 155 x_3 + 3 x_4 + 99 x_5 + 173 x_6 + 222 x_7 + 177 x_8 + 190 x_9 + 3 x_10 <= 5760
	w158: + 67 x_1 + 108 x_2 + 45 x_3 + 216 x_4 + 203 x_5 + 141 x_6 + 88 x_7 + 221 x_8 + 243 x_9 + 162 x_10 <= 7290
	w159: + 12 x_1 + 208 x_2 + 78 x_3 + 40 x_4 + 42 x_5 + 139 x_6 + 195 x_7 + 229 x_8 + 71 x_9 + 156 x_10 <= 5700
	w160: + 83 x_1 + 136 x_2 + 200 x_3 + 162 x_4 + 138 x_5 + 165 x_6 + 70 x_7 + 106 x_8 + 94 x_9 + 95 x_10 <= 6090
	w161: + 109 x_1 + 87 x_2 + 69 x_3 + 145 x_4 + 14 x_5 + 97 x_6 + 126 x_7 + 160 x_8 + 61 x_9 + 85 x_10 <= 4650
	w162: + 235 x_1 + 164 x_2 + 234 x_3 + 14 x_4 + 243 x_5 + 101 x_6 + 100 x_7 + 175 x_8 + 106 x_9 + 174 x_10 <= 7540
	w163: + 200 x_1 + 228 x_2 + 228 x_3 + 196 x_4 + 26 x_5 + 88 x_6 + 162 x_7 + 51 x_8 + 146 x_9 + 141 x_10 <= 7150
	w164: + 236 x_1 + 65 x_2 + 19 x_3 + 194 x_4 + 206 x_5 + 11 x_6 + 100 x_7 + 167 x_8 + 80 x_9 + 14 x_10 <= 5320
	w165: + 93 x_1 + 165 x_2 + 67 x_3 + 115 x_4 + 190 x_5 + 65 x_6 + 117 x_7 + 82 x_8 + 133 x_9 + 43 x_10 <= 5220
	w166: + 214 x_1 + 223 x_2 + 148 x_3 + 145 x_4 + 203 x_5 + 98 x_6 + 215 x_7 + 220 x_8 + 5 x_9 + 71 x_10 <= 7520
	w167: + 41 x_1 + 122 x_2 + 109 x_3 + 209 x_4 + 90 x_5 + 151 x_6 + 84 x_7 + 134 x_8 + 190 x_9 + 177 x_10 <= 6370
	w168: + 132 x_1 + 91 x_2 + 93 x_3 + 105 x_4 + 79 x_5 + 96 x_6 + 246 x_7 + 221 x_8 + 105 x_9 + 33 x_10 <= 5860
	w169: + 31 x_1 + 130 x_2 + 64 x_3 + 46 x_4 + 211 x_5 + 124 x_6 + 3 x_7 + 10 x_8 + 105 x_9 + 100 x_10 <= 4020
	w170: + 185 x_1 + 183 x_2 + 6 x_3 + 228 x_4 + 166 x_5 + 52 x_6 + 235 x_7 + 193 x_8 + 182 x_9 + 225 x_10 <= 8070
	w171: + 218 x_1 + 248 x_2 + 38 x_3 + 231 x_4 + 237 x_5 + 146 x_6 + 55 x_7 + 221 x_8 + 92 x_9 + 135 x_10 <= 7910
	w172: + 163 x_1 + 90 x_2 + 97 x_3 + 23 x_4 + 227 x_5 + 2 x_6 + 173 x_7 + 128 x_8 + 79 x_9 + 244 x_10 <= 5980
	w173: + 141 x_1 + 69 x_2 + 41 x_3 + 172 x_4 + 229 x_5 + 230 x_6 + 15 x_7 + 66 x_8 + 35 x_9 + 186 x_10 <= 5770
	w174: + 51 x_1 + 194 x_2 + 55 x_3 + 249 x_4 + 105 x_5 + 162 x_6 + 211 x_7 + 135 x_8 + 36 x_9 + 74 x_10 <= 6200
	w175: + 174 x_1 + 37 x_2 + 112 x_3 + 146 x_4 + 98 x_5 + 170 x_6 + 97 x_7 + 205 x_8 + 240 x_9 + 13 x_10 <= 6300
	w176: + 134 x_1 + 46 x_2 + 21 x_3 + 171 x_4 + 40 x_5 + 54 x_6 + 192 x_7 + 120 x_8 + 71 x_9 + 98 x_10 <= 4620
	w177: + 71 x_1 + 137 x_2 + 160 x_3 + 191 x_4 + 193 x_5 + 124 x_6 + 116 x_7 + 63 x_8 + 102 x_9 + 100 x_10 <= 6130
	w178: + 207 x_1 + 138 x_2 + 58 x_3 + 208 x_4 + 182 x_5 + 187 x_6 + 235 x_7 + 88 x_8 + 148 x_9 + 195 x_10 <= 8030
	w179: + 108 x_1 + 17 x_2 + 162 x_3 + 62 x_4 + 124 x_5 + 140 x_6 + 153 x_7 + 158 x_8 + 43 x_9 + 102 x_10 <= 5210
	w180: + 139 x_1 + 128 x_2 + 230 x_3 + 17 x_4 + 23 x_5 + 238 x_6 + 150 x_7 + 211 x_8 + 46 x_9 + 171 x_10 <= 6600
	w181: + 93 x_1 + 245 x_2 + 52 x_3 + 136 x_4 + 37 x_5 + 157 x_6 + 43 x_7 + 195 x_8 + 29 x_9 + 7 x_10 <= 4850
	w182: + 199 x_1 + 213 x_2 + 13 x_3 + 237 x_4 + 138 x_5 + 46 x_6 + 107 x_7 + 88 x_8 + 7 x_9 + 120 x_10 <= 5690
	w183: + 138 x_1 + 12 x_2 + 61 x_3 + 123 x_4 + 16 x_5 + 149 x_6 + 227 x_7 + 81 x_8 + 90 x_9 + 238 x_10 <= 5530
	w184: + 103 x_1 + 58 x_2 + 79 x_3 + 173 x_4 + 229 x_5 + 192 x_6 + 78 x_7 + 82 x_8 + 61 x_9 + 124 x_10 <= 5750
	w185: + 25 x_1 + 123 x_2 + 205 x_3 + 145 x_4 + 197 x_5 + 115 x_6 + 222 x_7 + 131 x_8 + 71 x_9 + 91 x_10 <= 6460
	w186: + 37 x_1 + 32 x_2 + 101 x_3 + 1 x_4 + 21 x_5 + 96 x_6 + 221 x_7 + 51 x_8 + 216 x_9 + 52 x_10 <= 4040
	w187: + 132 x_1 + 120 x_2 + 186 x_3 + 212 x_4 + 1 x_5 + 157 x_6 + 184 x_7 + 8 x_8 + 32 x_9 + 142 x_10 <= 5720
	w188: + 173 x_1 + 98 x_2 + 50 x_3 + 178 x_4 + 57 x_5 + 116 x_6 + 194 x_7 + 223 x_8 + 156 x_9 + 2 x_10 <= 6080
	w189: + 24 x_1 + 93 x_2 + 132 x_3 + 23 x_4 + 229 x_5 + 62 x_6 + 178 x_7 + 162 x_8 + 74 x_9 + 223 x_10 <= 5850
	w190: + 88 x_1 + 130 x_2 + 19 x_3 + 1 x_4 + 142 x_5 + 93 x_6 + 168 x_7 + 151 x_8 + 83 x_9 + 119 x_10 <= 4850
	w191: + 26 x_1 + 231 x_2 + 234 x_3 + 153 x_4 + 48 x_5 + 70 x_6 + 154 x_7 + 193 x_8 + 181 x_9 + 89 x_10 <= 6720
	w192: + 77 x_1 + 228 x_2 + 64 x_3 + 159 x_4 + 117 x_5 + 140 x_6 + 125 x_7 + 125 x_8 + 193 x_9 + 103 x_10 <= 6490
	w193: + 192 x_1 + 245 x_2 + 197 x_3 + 90 x_4 + 156 x_5 + 35 x_6 + 164 x_7 + 66 x_8 + 243 x_9 + 86 x_10 <= 7190
	w194: + 57 x_1 + 142 x_2 + 221 x_3 + 133 x_4 + 109 x_5 + 230 x_6 + 122 x_7 + 236 x_8 + 173 x_9 + 245 x_10 <= 8130
	w195: + 243 x_1 + 245 x_2 + 128 x_3 + 41 x_4 + 76 x_5 + 26 x_6 + 170 x_7 + 49 x_8 + 77 x_9 + 125 x_10 <= 5750
	w196: + 195 x_1 + 56 x_2 + 2 x_3 + 20 x_4 + 78 x_5 + 41 x_6 + 174 x_7 + 124 x_8 + 235 x_9 + 12 x_10 <= 4570
	w197: + 201 x_1 + 8 x_2 + 9 x_3 + 170 x_4 + 248 x_5 + 117 x_6 + 16 x_7 + 56 x_8 + 60 x_9 + 204 x_10 <= 5310
	w198: + 115 x_1 + 5 x_2 + 130 x_3 + 43 x_4 + 208 x_5 + 241 x_6 + 135 x_7 + 76 x_8 + 44 x_9 + 123 x_10 <= 5460
	w199: + 156 x_1 + 148 x_2 + 166 x_3 + 181 x_4 + 86 x_5 + 4 x_6 + 8 x_7 + 209 x_8 + 156 x_9 + 76 x_10 <= 5800
	w200: + 1 x_1 + 44 x_2 + 37 x_3 + 248 x_4 + 72 x_5 + 43 x_6 + 80 x_7 + 64 x_8 + 122 x_9 + 68 x_10 <= 3800
	profits: + 24 x_1 + 88 x_2 + 46 x_3 + 107 x_4 + 60 x_5 + 101 x_6 + 89 x_7 + 160 x_8 + 120 x_9 + 240 x_10 >= 5290
Bounds
  0 <= x_1 <= 10
  0 <= x_2 <= 10
  0 <= x_3 <= 10
  0 <= x_4 <= 10
  0 <= x_5 <= 10
  0 <= x_6 <= 10
  0 <= x_7 <= 10
  0 <= x_8 <= 10
  0 <= x_9 <= 10
  0 <= x_10 <= 10
End
