Subject To
	c_1: + 75 x_1 + 5 x_2 + 116 x_3 + 124 x_4 + 49 x_5 + 68 x_6 + 247 x_7 + 199 x_8 + 60 x_9 + 71 x_10 + 161 x_11 + 56 x_12 = 7293
	c_2: + 146 x_1 + 219 x_2 + 108 x_3 + 195 x_4 + 116 x_5 + 183 x_6 + 242 x_7 + 39 x_8 + 50 x_9 + 126 x_10 + 237 x_11 + 113 x_12 = 7646
	c_3: + 250 x_1 + 155 x_2 + 2 x_3 + 84 x_4 + 161 x_5 + 14 x_6 + 202 x_7 + 107 x_8 + 138 x_9 + 177 x_10 + 208 x_11 + 182 x_12 = 7033
	c_4: + 116 x_1 + 232 x_2 + 168 x_3 + 87 x_4 + 78 x_5 + 8 x_6 + 74 x_7 + 214 x_8 + 215 x_9 + 105 x_10 + 33 x_11 + 239 x_12 = 5701
	c_5: + 29 x_1 + 159 x_2 + 216 x_3 + 33 x_4 + 178 x_5 + 241 x_6 + 169 x_7 + 232 x_8 + 18 x_9 + 218 x_10 + 35 x_11 + 113 x_12 = 6877
	c_6: + 179 x_1 + 65 x_2 + 246 x_3 + 156 x_4 + 86 x_5 + 209 x_6 + 110 x_7 + 188 x_8 + 230 x_9 + 101 x_10 + 192 x_11 + 176 x_12 = 8200
	c_7: + 91 x_1 + 31 x_2 + 146 x_3 + 208 x_4 + 233 x_5 + 177 x_6 + 143 x_7 + 211 x_8 + 5 x_9 + 161 x_10 + 12 x_11 + 166 x_12 = 6890
	c_8: + 136 x_1 + 248 x_2 + 185 x_3 + 206 x_4 + 71 x_5 + 103 x_6 + 148 x_7 + 104 x_8 + 21 x_9 + 148 x_10 + 44 x_11 + 238 x_12 = 6293
Bounds
  0 <= x_1 <= 10
  0 <= x_2 <= 10
  0 <= x_3 <= 10
  0 <= x_4 <= 10
  0 <= x_5 <= 10
  0 <= x_6 <= 10
  0 <= x_7 <= 10
  0 <= x_8 <= 10
  0 <= x_9 <= 10
  0 <= x_10 <= 10
  0 <= x_11 <= 10
  0 <= x_12 <= 10
End
