Subject To
	c_1: + 24 x_1 + 89 x_2 + 46 x_3 + 107 x_4 + 61 x_5 + 102 x_6 + 89 x_7 + 161 x_8 + 121 x_9 + 241 x_10 + 131 x_11 + 137 x_12 = 7090
	c_2: + 235 x_1 + 230 x_2 + 40 x_3 + 154 x_4 + 189 x_5 + 175 x_6 + 226 x_7 + 81 x_8 + 145 x_9 + 224 x_10 + 47 x_11 + 63 x_12 = 7459
	c_3: + 206 x_1 + 191 x_2 + 188 x_3 + 150 x_4 + 5 x_5 + 110 x_6 + 226 x_7 + 201 x_8 + 124 x_9 + 178 x_10 + 208 x_11 + 39 x_12 = 7925
	c_4: + 210 x_1 + 145 x_2 + 49 x_3 + 183 x_4 + 35 x_5 + 224 x_6 + 231 x_7 + 241 x_8 + 135 x_9 + 230 x_10 + 107 x_11 + 146 x_12 = 9061
	c_5: + 170 x_1 + 232 x_2 + 216 x_3 + 218 x_4 + 121 x_5 + 65 x_6 + 220 x_7 + 167 x_8 + 112 x_9 + 192 x_10 + 82 x_11 + 188 x_12 = 8331
	c_6: + 200 x_1 + 247 x_2 + 50 x_3 + 77 x_4 + 168 x_5 + 211 x_6 + 216 x_7 + 51 x_8 + 41 x_9 + 244 x_10 + 129 x_11 + 247 x_12 = 8059
	c_7: + 83 x_1 + 107 x_2 + 104 x_3 + 247 x_4 + 138 x_5 + 125 x_6 + 185 x_7 + 152 x_8 + 240 x_9 + 58 x_10 + 24 x_11 + 147 x_12 = 6630
	c_8: + 39 x_1 + 178 x_2 + 65 x_3 + 218 x_4 + 230 x_5 + 176 x_6 + 245 x_7 + 95 x_8 + 170 x_9 + 215 x_10 + 25 x_11 + 226 x_12 = 8394
Bounds
  0 <= x_1 <= 10
  0 <= x_2 <= 10
  0 <= x_3 <= 10
  0 <= x_4 <= 10
  0 <= x_5 <= 10
  0 <= x_6 <= 10
  0 <= x_7 <= 10
  0 <= x_8 <= 10
  0 <= x_9 <= 10
  0 <= x_10 <= 10
  0 <= x_11 <= 10
  0 <= x_12 <= 10
End
