Subject To
	c_1: + 134 x_1 + 165 x_2 + 144 x_3 + 147 x_4 + 156 x_5 + 245 x_6 + 167 x_7 + 79 x_8 + 96 x_9 + 91 x_10 + 110 x_11 + 221 x_12 = 11449
	c_2: + 18 x_1 + 150 x_2 + 225 x_3 + 84 x_4 + 247 x_5 + 5 x_6 + 36 x_7 + 193 x_8 + 154 x_9 + 157 x_10 + 163 x_11 + 181 x_12 = 8725
	c_3: + 158 x_1 + 237 x_2 + 77 x_3 + 7 x_4 + 100 x_5 + 54 x_6 + 220 x_7 + 88 x_8 + 220 x_9 + 84 x_10 + 85 x_11 + 64 x_12 = 7945
	c_4: + 51 x_1 + 237 x_2 + 130 x_3 + 21 x_4 + 23 x_5 + 193 x_6 + 13 x_7 + 104 x_8 + 144 x_9 + 249 x_10 + 233 x_11 + 112 x_12 = 8554
	c_5: + 54 x_1 + 207 x_2 + 237 x_3 + 245 x_4 + 238 x_5 + 24 x_6 + 250 x_7 + 28 x_8 + 198 x_9 + 30 x_10 + 145 x_11 + 183 x_12 = 11222
	c_6: + 218 x_1 + 203 x_2 + 53 x_3 + 242 x_4 + 106 x_5 + 64 x_6 + 218 x_7 + 29 x_8 + 95 x_9 + 237 x_10 + 52 x_11 + 166 x_12 = 9963
	c_7: + 22 x_1 + 164 x_2 + 226 x_3 + 227 x_4 + 209 x_5 + 67 x_6 + 154 x_7 + 136 x_8 + 38 x_9 + 221 x_10 + 80 x_11 + 42 x_12 = 8899
	c_8: + 219 x_1 + 164 x_2 + 154 x_3 + 49 x_4 + 5 x_5 + 122 x_6 + 244 x_7 + 139 x_8 + 135 x_9 + 116 x_10 + 50 x_11 + 62 x_12 = 8482
Bounds
  0 <= x_1 <= 10
  0 <= x_2 <= 10
  0 <= x_3 <= 10
  0 <= x_4 <= 10
  0 <= x_5 <= 10
  0 <= x_6 <= 10
  0 <= x_7 <= 10
  0 <= x_8 <= 10
  0 <= x_9 <= 10
  0 <= x_10 <= 10
  0 <= x_11 <= 10
  0 <= x_12 <= 10
End
