Subject To
	c_1: + 8 x_1 + 77 x_2 + 36 x_3 + 136 x_4 + 69 x_5 + 238 x_6 + 44 x_7 + 65 x_8 + 32 x_9 + 181 x_10 + 160 x_11 + 6 x_12 = 6058
	c_2: + 22 x_1 + 94 x_2 + 158 x_3 + 221 x_4 + 223 x_5 + 142 x_6 + 126 x_7 + 161 x_8 + 104 x_9 + 95 x_10 + 120 x_11 + 197 x_12 = 5468
	c_3: + 59 x_1 + 68 x_2 + 228 x_3 + 225 x_4 + 7 x_5 + 232 x_6 + 104 x_7 + 116 x_8 + 239 x_9 + 78 x_10 + 141 x_11 + 4 x_12 = 5999
	c_4: + 170 x_1 + 148 x_2 + 113 x_3 + 71 x_4 + 54 x_5 + 167 x_6 + 34 x_7 + 242 x_8 + 116 x_9 + 160 x_10 + 72 x_11 + 102 x_12 = 4948
	c_5: + 48 x_1 + 71 x_2 + 65 x_3 + 15 x_4 + 224 x_5 + 212 x_6 + 41 x_7 + 150 x_8 + 57 x_9 + 204 x_10 + 250 x_11 + 40 x_12 = 6497
	c_6: + 178 x_1 + 154 x_2 + 118 x_3 + 226 x_4 + 10 x_5 + 26 x_6 + 110 x_7 + 194 x_8 + 58 x_9 + 5 x_10 + 95 x_11 + 110 x_12 = 3246
	c_7: + 114 x_1 + 118 x_2 + 100 x_3 + 33 x_4 + 86 x_5 + 11 x_6 + 121 x_7 + 44 x_8 + 86 x_9 + 231 x_10 + 25 x_11 + 191 x_12 = 2988
	c_8: + 106 x_1 + 206 x_2 + 98 x_3 + 27 x_4 + 135 x_5 + 219 x_6 + 11 x_7 + 10 x_8 + 217 x_9 + 99 x_10 + 247 x_11 + 95 x_12 = 5981
Bounds
  0 <= x_1 <= 10
  0 <= x_2 <= 10
  0 <= x_3 <= 10
  0 <= x_4 <= 10
  0 <= x_5 <= 10
  0 <= x_6 <= 10
  0 <= x_7 <= 10
  0 <= x_8 <= 10
  0 <= x_9 <= 10
  0 <= x_10 <= 10
  0 <= x_11 <= 10
  0 <= x_12 <= 10
End
