Subject To
	c_1: + 89 x_1 + 192 x_2 + 246 x_3 + 114 x_4 + 152 x_5 + 50 x_6 + 164 x_7 + 68 x_8 + 107 x_9 + 220 x_10 + 19 x_11 + 118 x_12 = 10013
	c_2: + 19 x_1 + 79 x_2 + 31 x_3 + 4 x_4 + 49 x_5 + 89 x_6 + 30 x_7 + 245 x_8 + 181 x_9 + 236 x_10 + 138 x_11 + 187 x_12 = 5970
	c_3: + 174 x_1 + 113 x_2 + 177 x_3 + 186 x_4 + 106 x_5 + 125 x_6 + 111 x_7 + 221 x_8 + 59 x_9 + 112 x_10 + 118 x_11 + 97 x_12 = 7774
	c_4: + 188 x_1 + 212 x_2 + 172 x_3 + 85 x_4 + 183 x_5 + 230 x_6 + 32 x_7 + 41 x_8 + 48 x_9 + 16 x_10 + 75 x_11 + 243 x_12 = 7735
	c_5: + 100 x_1 + 41 x_2 + 109 x_3 + 34 x_4 + 248 x_5 + 250 x_6 + 10 x_7 + 55 x_8 + 201 x_9 + 110 x_10 + 143 x_11 + 36 x_12 = 5996
	c_6: + 250 x_1 + 127 x_2 + 59 x_3 + 132 x_4 + 41 x_5 + 1 x_6 + 200 x_7 + 248 x_8 + 105 x_9 + 231 x_10 + 73 x_11 + 24 x_12 = 7647
	c_7: + 207 x_1 + 232 x_2 + 211 x_3 + 99 x_4 + 105 x_5 + 100 x_6 + 45 x_7 + 53 x_8 + 241 x_9 + 188 x_10 + 188 x_11 + 156 x_12 = 9670
	c_8: + 86 x_1 + 22 x_2 + 16 x_3 + 241 x_4 + 229 x_5 + 219 x_6 + 100 x_7 + 132 x_8 + 248 x_9 + 179 x_10 + 73 x_11 + 71 x_12 = 7292
Bounds
  0 <= x_1 <= 10
  0 <= x_2 <= 10
  0 <= x_3 <= 10
  0 <= x_4 <= 10
  0 <= x_5 <= 10
  0 <= x_6 <= 10
  0 <= x_7 <= 10
  0 <= x_8 <= 10
  0 <= x_9 <= 10
  0 <= x_10 <= 10
  0 <= x_11 <= 10
  0 <= x_12 <= 10
End
