Subject To
	c_1: + 69 x_1 + 191 x_2 + 216 x_3 + 48 x_4 + 110 x_5 + 211 x_6 + 244 x_7 + 229 x_8 + 190 x_9 + 225 x_10 + 32 x_11 + 222 x_12 = 16419
	c_2: + 98 x_1 + 236 x_2 + 234 x_3 + 199 x_4 + 154 x_5 + 199 x_6 + 229 x_7 + 115 x_8 + 46 x_9 + 186 x_10 + 84 x_11 + 241 x_12 = 14828
	c_3: + 17 x_1 + 201 x_2 + 91 x_3 + 42 x_4 + 148 x_5 + 114 x_6 + 192 x_7 + 243 x_8 + 73 x_9 + 194 x_10 + 228 x_11 + 138 x_12 = 12330
	c_4: + 102 x_1 + 130 x_2 + 197 x_3 + 41 x_4 + 24 x_5 + 138 x_6 + 3 x_7 + 109 x_8 + 249 x_9 + 156 x_10 + 29 x_11 + 237 x_12 = 11217
	c_5: + 87 x_1 + 174 x_2 + 103 x_3 + 115 x_4 + 222 x_5 + 135 x_6 + 137 x_7 + 46 x_8 + 149 x_9 + 25 x_10 + 103 x_11 + 200 x_12 = 10063
	c_6: + 111 x_1 + 114 x_2 + 74 x_3 + 126 x_4 + 150 x_5 + 54 x_6 + 213 x_7 + 181 x_8 + 245 x_9 + 206 x_10 + 101 x_11 + 144 x_12 = 12400
	c_7: + 26 x_1 + 70 x_2 + 93 x_3 + 134 x_4 + 187 x_5 + 125 x_6 + 126 x_7 + 151 x_8 + 204 x_9 + 35 x_10 + 143 x_11 + 141 x_12 = 9745
	c_8: + 173 x_1 + 116 x_2 + 108 x_3 + 59 x_4 + 107 x_5 + 1 x_6 + 190 x_7 + 24 x_8 + 16 x_9 + 85 x_10 + 226 x_11 + 10 x_12 = 6323
Bounds
  0 <= x_1 <= 10
  0 <= x_2 <= 10
  0 <= x_3 <= 10
  0 <= x_4 <= 10
  0 <= x_5 <= 10
  0 <= x_6 <= 10
  0 <= x_7 <= 10
  0 <= x_8 <= 10
  0 <= x_9 <= 10
  0 <= x_10 <= 10
  0 <= x_11 <= 10
  0 <= x_12 <= 10
End
