Subject To
	c_1: + 151 x_1 + 64 x_2 + 154 x_3 + 231 x_4 + 118 x_5 + 221 x_6 + 28 x_7 + 99 x_8 + 163 x_9 + 31 x_10 + 181 x_11 + 219 x_12 = 11681
	c_2: + 246 x_1 + 99 x_2 + 203 x_3 + 167 x_4 + 102 x_5 + 32 x_6 + 155 x_7 + 6 x_8 + 164 x_9 + 238 x_10 + 187 x_11 + 228 x_12 = 10286
	c_3: + 225 x_1 + 217 x_2 + 196 x_3 + 168 x_4 + 72 x_5 + 73 x_6 + 241 x_7 + 235 x_8 + 169 x_9 + 68 x_10 + 135 x_11 + 185 x_12 = 10699
	c_4: + 168 x_1 + 10 x_2 + 170 x_3 + 135 x_4 + 44 x_5 + 10 x_6 + 125 x_7 + 243 x_8 + 84 x_9 + 67 x_10 + 205 x_11 + 71 x_12 = 7534
	c_5: + 206 x_1 + 130 x_2 + 200 x_3 + 13 x_4 + 71 x_5 + 175 x_6 + 152 x_7 + 57 x_8 + 64 x_9 + 89 x_10 + 239 x_11 + 101 x_12 = 8255
	c_6: + 128 x_1 + 166 x_2 + 41 x_3 + 37 x_4 + 78 x_5 + 239 x_6 + 105 x_7 + 20 x_8 + 108 x_9 + 108 x_10 + 168 x_11 + 122 x_12 = 7580
	c_7: + 219 x_1 + 195 x_2 + 188 x_3 + 170 x_4 + 160 x_5 + 154 x_6 + 143 x_7 + 52 x_8 + 130 x_9 + 59 x_10 + 167 x_11 + 22 x_12 = 9405
	c_8: + 92 x_1 + 223 x_2 + 45 x_3 + 128 x_4 + 14 x_5 + 180 x_6 + 17 x_7 + 99 x_8 + 191 x_9 + 52 x_10 + 28 x_11 + 123 x_12 = 7343
Bounds
  0 <= x_1 <= 10
  0 <= x_2 <= 10
  0 <= x_3 <= 10
  0 <= x_4 <= 10
  0 <= x_5 <= 10
  0 <= x_6 <= 10
  0 <= x_7 <= 10
  0 <= x_8 <= 10
  0 <= x_9 <= 10
  0 <= x_10 <= 10
  0 <= x_11 <= 10
  0 <= x_12 <= 10
End
