Subject To
	c_1: + 167 x_1 + 65 x_2 + 217 x_3 + 196 x_4 + 213 x_5 + 58 x_6 + 46 x_7 + 155 x_8 + 82 x_9 + 28 x_10 + 223 x_11 + 80 x_12 = 10396
	c_2: + 138 x_1 + 17 x_2 + 198 x_3 + 225 x_4 + 7 x_5 + 148 x_6 + 159 x_7 + 97 x_8 + 233 x_9 + 89 x_10 + 15 x_11 + 173 x_12 = 7283
	c_3: + 174 x_1 + 194 x_2 + 91 x_3 + 18 x_4 + 168 x_5 + 124 x_6 + 89 x_7 + 228 x_8 + 191 x_9 + 126 x_10 + 247 x_11 + 208 x_12 = 9421
	c_4: + 135 x_1 + 176 x_2 + 142 x_3 + 121 x_4 + 209 x_5 + 90 x_6 + 132 x_7 + 23 x_8 + 121 x_9 + 36 x_10 + 107 x_11 + 213 x_12 = 8007
	c_5: + 225 x_1 + 69 x_2 + 184 x_3 + 27 x_4 + 73 x_5 + 238 x_6 + 14 x_7 + 238 x_8 + 133 x_9 + 133 x_10 + 40 x_11 + 34 x_12 = 7168
	c_6: + 188 x_1 + 67 x_2 + 243 x_3 + 42 x_4 + 68 x_5 + 155 x_6 + 202 x_7 + 192 x_8 + 126 x_9 + 156 x_10 + 84 x_11 + 160 x_12 = 8221
	c_7: + 33 x_1 + 77 x_2 + 223 x_3 + 52 x_4 + 134 x_5 + 182 x_6 + 172 x_7 + 135 x_8 + 1 x_9 + 206 x_10 + 110 x_11 + 19 x_12 = 6788
	c_8: + 170 x_1 + 146 x_2 + 43 x_3 + 94 x_4 + 225 x_5 + 169 x_6 + 122 x_7 + 96 x_8 + 167 x_9 + 167 x_10 + 107 x_11 + 228 x_12 = 8119
Bounds
  0 <= x_1 <= 10
  0 <= x_2 <= 10
  0 <= x_3 <= 10
  0 <= x_4 <= 10
  0 <= x_5 <= 10
  0 <= x_6 <= 10
  0 <= x_7 <= 10
  0 <= x_8 <= 10
  0 <= x_9 <= 10
  0 <= x_10 <= 10
  0 <= x_11 <= 10
  0 <= x_12 <= 10
End
