Subject To
	c_1: + 112 x_1 + 9 x_2 + 208 x_3 + 136 x_4 + 171 x_5 + 124 x_6 + 23 x_7 + 65 x_8 + 219 x_9 + 44 x_10 + 67 x_11 + 119 x_12 = 7714
	c_2: + 91 x_1 + 116 x_2 + 9 x_3 + 111 x_4 + 61 x_5 + 216 x_6 + 228 x_7 + 72 x_8 + 52 x_9 + 17 x_10 + 104 x_11 + 62 x_12 = 3882
	c_3: + 149 x_1 + 226 x_2 + 193 x_3 + 114 x_4 + 200 x_5 + 79 x_6 + 135 x_7 + 16 x_8 + 122 x_9 + 192 x_10 + 82 x_11 + 48 x_12 = 6559
	c_4: + 143 x_1 + 205 x_2 + 210 x_3 + 186 x_4 + 92 x_5 + 151 x_6 + 242 x_7 + 163 x_8 + 26 x_9 + 231 x_10 + 166 x_11 + 207 x_12 = 7191
	c_5: + 103 x_1 + 16 x_2 + 126 x_3 + 92 x_4 + 117 x_5 + 153 x_6 + 112 x_7 + 13 x_8 + 43 x_9 + 192 x_10 + 120 x_11 + 216 x_12 = 5627
	c_6: + 166 x_1 + 170 x_2 + 161 x_3 + 214 x_4 + 166 x_5 + 152 x_6 + 225 x_7 + 4 x_8 + 97 x_9 + 116 x_10 + 194 x_11 + 225 x_12 = 7840
	c_7: + 185 x_1 + 26 x_2 + 91 x_3 + 242 x_4 + 60 x_5 + 150 x_6 + 249 x_7 + 77 x_8 + 246 x_9 + 164 x_10 + 246 x_11 + 15 x_12 = 7287
	c_8: + 71 x_1 + 140 x_2 + 96 x_3 + 165 x_4 + 40 x_5 + 138 x_6 + 217 x_7 + 240 x_8 + 156 x_9 + 77 x_10 + 207 x_11 + 173 x_12 = 6400
Bounds
  0 <= x_1 <= 10
  0 <= x_2 <= 10
  0 <= x_3 <= 10
  0 <= x_4 <= 10
  0 <= x_5 <= 10
  0 <= x_6 <= 10
  0 <= x_7 <= 10
  0 <= x_8 <= 10
  0 <= x_9 <= 10
  0 <= x_10 <= 10
  0 <= x_11 <= 10
  0 <= x_12 <= 10
End
