Subject To
	c_1: + 19 x_1 + 64 x_2 + 230 x_3 + 89 x_4 + 214 x_5 + 109 x_6 + 213 x_7 + 163 x_8 + 84 x_9 + 202 x_10 + 39 x_11 + 123 x_12 = 10637
	c_2: + 240 x_1 + 158 x_2 + 61 x_3 + 41 x_4 + 59 x_5 + 74 x_6 + 175 x_7 + 89 x_8 + 230 x_9 + 194 x_10 + 48 x_11 + 217 x_12 = 7449
	c_3: + 55 x_1 + 66 x_2 + 141 x_3 + 49 x_4 + 184 x_5 + 73 x_6 + 203 x_7 + 108 x_8 + 230 x_9 + 194 x_10 + 102 x_11 + 180 x_12 = 9464
	c_4: + 72 x_1 + 74 x_2 + 3 x_3 + 218 x_4 + 190 x_5 + 35 x_6 + 234 x_7 + 165 x_8 + 242 x_9 + 181 x_10 + 183 x_11 + 50 x_12 = 8550
	c_5: + 134 x_1 + 99 x_2 + 35 x_3 + 122 x_4 + 168 x_5 + 216 x_6 + 20 x_7 + 243 x_8 + 72 x_9 + 96 x_10 + 232 x_11 + 204 x_12 = 7407
	c_6: + 177 x_1 + 183 x_2 + 53 x_3 + 125 x_4 + 32 x_5 + 96 x_6 + 158 x_7 + 45 x_8 + 242 x_9 + 181 x_10 + 208 x_11 + 82 x_12 = 6472
	c_7: + 107 x_1 + 164 x_2 + 33 x_3 + 21 x_4 + 152 x_5 + 167 x_6 + 160 x_7 + 27 x_8 + 43 x_9 + 213 x_10 + 28 x_11 + 119 x_12 = 6842
	c_8: + 235 x_1 + 71 x_2 + 140 x_3 + 19 x_4 + 11 x_5 + 59 x_6 + 6 x_7 + 41 x_8 + 100 x_9 + 233 x_10 + 157 x_11 + 179 x_12 = 5491
Bounds
  0 <= x_1 <= 10
  0 <= x_2 <= 10
  0 <= x_3 <= 10
  0 <= x_4 <= 10
  0 <= x_5 <= 10
  0 <= x_6 <= 10
  0 <= x_7 <= 10
  0 <= x_8 <= 10
  0 <= x_9 <= 10
  0 <= x_10 <= 10
  0 <= x_11 <= 10
  0 <= x_12 <= 10
End
