Subject To
	c_1: + 15 x_1 + 125 x_2 + 24 x_3 + 157 x_4 + 47 x_5 + 79 x_6 + 236 x_7 + 191 x_8 + 5 x_9 + 11 x_10 + 65 x_11 + 163 x_12 = 7081
	c_2: + 157 x_1 + 181 x_2 + 39 x_3 + 113 x_4 + 143 x_5 + 235 x_6 + 204 x_7 + 62 x_8 + 137 x_9 + 247 x_10 + 225 x_11 + 180 x_12 = 6859
	c_3: + 9 x_1 + 23 x_2 + 148 x_3 + 229 x_4 + 132 x_5 + 127 x_6 + 249 x_7 + 237 x_8 + 155 x_9 + 27 x_10 + 138 x_11 + 152 x_12 = 8008
	c_4: + 110 x_1 + 201 x_2 + 55 x_3 + 89 x_4 + 178 x_5 + 224 x_6 + 141 x_7 + 28 x_8 + 21 x_9 + 163 x_10 + 234 x_11 + 185 x_12 = 6019
	c_5: + 45 x_1 + 150 x_2 + 89 x_3 + 169 x_4 + 16 x_5 + 32 x_6 + 64 x_7 + 86 x_8 + 208 x_9 + 132 x_10 + 71 x_11 + 23 x_12 = 3612
	c_6: + 219 x_1 + 145 x_2 + 154 x_3 + 164 x_4 + 156 x_5 + 199 x_6 + 188 x_7 + 80 x_8 + 189 x_9 + 111 x_10 + 105 x_11 + 233 x_12 = 7133
	c_7: + 159 x_1 + 197 x_2 + 116 x_3 + 244 x_4 + 100 x_5 + 106 x_6 + 64 x_7 + 195 x_8 + 248 x_9 + 237 x_10 + 25 x_11 + 249 x_12 = 7076
	c_8: + 20 x_1 + 78 x_2 + 61 x_3 + 45 x_4 + 78 x_5 + 46 x_6 + 128 x_7 + 171 x_8 + 118 x_9 + 12 x_10 + 105 x_11 + 226 x_12 = 5455
Bounds
  0 <= x_1 <= 10
  0 <= x_2 <= 10
  0 <= x_3 <= 10
  0 <= x_4 <= 10
  0 <= x_5 <= 10
  0 <= x_6 <= 10
  0 <= x_7 <= 10
  0 <= x_8 <= 10
  0 <= x_9 <= 10
  0 <= x_10 <= 10
  0 <= x_11 <= 10
  0 <= x_12 <= 10
End
