Subject To
	c_1: + 54 x_1 + 228 x_2 + 61 x_3 + 227 x_4 + 116 x_5 + 164 x_6 + 11 x_7 + 69 x_8 + 9 x_9 + 53 x_10 + 103 x_11 + 166 x_12 = 8168
	c_2: + 32 x_1 + 215 x_2 + 52 x_3 + 35 x_4 + 63 x_5 + 85 x_6 + 55 x_7 + 175 x_8 + 156 x_9 + 174 x_10 + 14 x_11 + 231 x_12 = 6089
	c_3: + 124 x_1 + 195 x_2 + 191 x_3 + 159 x_4 + 30 x_5 + 240 x_6 + 212 x_7 + 105 x_8 + 184 x_9 + 214 x_10 + 185 x_11 + 28 x_12 = 7520
	c_4: + 36 x_1 + 248 x_2 + 158 x_3 + 38 x_4 + 56 x_5 + 27 x_6 + 164 x_7 + 146 x_8 + 183 x_9 + 31 x_10 + 70 x_11 + 97 x_12 = 5138
	c_5: + 250 x_1 + 169 x_2 + 173 x_3 + 108 x_4 + 9 x_5 + 219 x_6 + 98 x_7 + 6 x_8 + 97 x_9 + 176 x_10 + 136 x_11 + 96 x_12 = 6672
	c_6: + 219 x_1 + 219 x_2 + 47 x_3 + 162 x_4 + 179 x_5 + 171 x_6 + 88 x_7 + 180 x_8 + 63 x_9 + 70 x_10 + 146 x_11 + 60 x_12 = 7956
	c_7: + 170 x_1 + 7 x_2 + 155 x_3 + 26 x_4 + 6 x_5 + 52 x_6 + 244 x_7 + 178 x_8 + 44 x_9 + 205 x_10 + 148 x_11 + 58 x_12 = 3290
	c_8: + 98 x_1 + 40 x_2 + 216 x_3 + 150 x_4 + 92 x_5 + 184 x_6 + 94 x_7 + 246 x_8 + 19 x_9 + 243 x_10 + 232 x_11 + 17 x_12 = 6397
Bounds
  0 <= x_1 <= 10
  0 <= x_2 <= 10
  0 <= x_3 <= 10
  0 <= x_4 <= 10
  0 <= x_5 <= 10
  0 <= x_6 <= 10
  0 <= x_7 <= 10
  0 <= x_8 <= 10
  0 <= x_9 <= 10
  0 <= x_10 <= 10
  0 <= x_11 <= 10
  0 <= x_12 <= 10
End
