Subject To
	c_1: + 242 x_1 + 41 x_2 + 37 x_3 + 103 x_4 + 11 x_5 + 46 x_6 + 195 x_7 + 95 x_8 + 48 x_9 + 17 x_10 + 119 x_11 + 156 x_12 = 6523
	c_2: + 102 x_1 + 140 x_2 + 223 x_3 + 145 x_4 + 59 x_5 + 5 x_6 + 179 x_7 + 162 x_8 + 178 x_9 + 211 x_10 + 84 x_11 + 244 x_12 = 6288
	c_3: + 81 x_1 + 188 x_2 + 55 x_3 + 35 x_4 + 51 x_5 + 122 x_6 + 222 x_7 + 105 x_8 + 6 x_9 + 150 x_10 + 201 x_11 + 208 x_12 = 5776
	c_4: + 164 x_1 + 131 x_2 + 34 x_3 + 126 x_4 + 44 x_5 + 180 x_6 + 8 x_7 + 40 x_8 + 123 x_9 + 4 x_10 + 164 x_11 + 216 x_12 = 5075
	c_5: + 82 x_1 + 140 x_2 + 38 x_3 + 52 x_4 + 61 x_5 + 158 x_6 + 237 x_7 + 8 x_8 + 13 x_9 + 79 x_10 + 75 x_11 + 225 x_12 = 5043
	c_6: + 219 x_1 + 128 x_2 + 243 x_3 + 158 x_4 + 99 x_5 + 88 x_6 + 47 x_7 + 229 x_8 + 176 x_9 + 54 x_10 + 71 x_11 + 60 x_12 = 5640
	c_7: + 148 x_1 + 219 x_2 + 76 x_3 + 149 x_4 + 40 x_5 + 24 x_6 + 35 x_7 + 82 x_8 + 1 x_9 + 88 x_10 + 231 x_11 + 238 x_12 = 5588
	c_8: + 245 x_1 + 221 x_2 + 114 x_3 + 61 x_4 + 160 x_5 + 67 x_6 + 23 x_7 + 198 x_8 + 31 x_9 + 130 x_10 + 28 x_11 + 242 x_12 = 5726
Bounds
  0 <= x_1 <= 10
  0 <= x_2 <= 10
  0 <= x_3 <= 10
  0 <= x_4 <= 10
  0 <= x_5 <= 10
  0 <= x_6 <= 10
  0 <= x_7 <= 10
  0 <= x_8 <= 10
  0 <= x_9 <= 10
  0 <= x_10 <= 10
  0 <= x_11 <= 10
  0 <= x_12 <= 10
End
