Subject To
	c_1: + 71 x_1 + 41 x_2 + 189 x_3 + 171 x_4 + 115 x_5 + 47 x_6 + 188 x_7 + 132 x_8 + 13 x_9 + 181 x_10 + 48 x_11 + 41 x_12 = 7200
	c_2: + 3 x_1 + 82 x_2 + 103 x_3 + 157 x_4 + 38 x_5 + 141 x_6 + 186 x_7 + 61 x_8 + 136 x_9 + 70 x_10 + 206 x_11 + 66 x_12 = 5247
	c_3: + 187 x_1 + 19 x_2 + 76 x_3 + 1 x_4 + 216 x_5 + 34 x_6 + 82 x_7 + 65 x_8 + 212 x_9 + 230 x_10 + 150 x_11 + 145 x_12 = 5379
	c_4: + 114 x_1 + 203 x_2 + 9 x_3 + 125 x_4 + 115 x_5 + 148 x_6 + 28 x_7 + 126 x_8 + 165 x_9 + 56 x_10 + 52 x_11 + 46 x_12 = 3759
	c_5: + 216 x_1 + 86 x_2 + 46 x_3 + 212 x_4 + 153 x_5 + 21 x_6 + 210 x_7 + 247 x_8 + 100 x_9 + 249 x_10 + 159 x_11 + 156 x_12 = 8525
	c_6: + 45 x_1 + 87 x_2 + 97 x_3 + 146 x_4 + 171 x_5 + 178 x_6 + 40 x_7 + 64 x_8 + 9 x_9 + 231 x_10 + 36 x_11 + 226 x_12 = 5786
	c_7: + 5 x_1 + 160 x_2 + 189 x_3 + 122 x_4 + 90 x_5 + 15 x_6 + 107 x_7 + 163 x_8 + 41 x_9 + 171 x_10 + 111 x_11 + 122 x_12 = 6233
	c_8: + 28 x_1 + 24 x_2 + 21 x_3 + 86 x_4 + 191 x_5 + 212 x_6 + 164 x_7 + 69 x_8 + 154 x_9 + 145 x_10 + 120 x_11 + 188 x_12 = 5357
Bounds
  0 <= x_1 <= 10
  0 <= x_2 <= 10
  0 <= x_3 <= 10
  0 <= x_4 <= 10
  0 <= x_5 <= 10
  0 <= x_6 <= 10
  0 <= x_7 <= 10
  0 <= x_8 <= 10
  0 <= x_9 <= 10
  0 <= x_10 <= 10
  0 <= x_11 <= 10
  0 <= x_12 <= 10
End
