Subject To
	c_1: + 131 x_1 + 207 x_2 + 198 x_3 + 66 x_4 + 52 x_5 + 58 x_6 + 138 x_7 + 154 x_8 + 122 x_9 + 191 x_10 + 150 x_11 + 26 x_12 = 9270
	c_2: + 147 x_1 + 229 x_2 + 205 x_3 + 180 x_4 + 113 x_5 + 1 x_6 + 94 x_7 + 52 x_8 + 196 x_9 + 96 x_10 + 228 x_11 + 91 x_12 = 9107
	c_3: + 218 x_1 + 216 x_2 + 197 x_3 + 183 x_4 + 91 x_5 + 182 x_6 + 95 x_7 + 179 x_8 + 104 x_9 + 117 x_10 + 230 x_11 + 2 x_12 = 10004
	c_4: + 53 x_1 + 132 x_2 + 185 x_3 + 164 x_4 + 195 x_5 + 65 x_6 + 95 x_7 + 138 x_8 + 89 x_9 + 4 x_10 + 129 x_11 + 240 x_12 = 6670
	c_5: + 7 x_1 + 140 x_2 + 81 x_3 + 169 x_4 + 177 x_5 + 114 x_6 + 140 x_7 + 210 x_8 + 240 x_9 + 112 x_10 + 181 x_11 + 218 x_12 = 8363
	c_6: + 155 x_1 + 202 x_2 + 202 x_3 + 91 x_4 + 220 x_5 + 83 x_6 + 184 x_7 + 12 x_8 + 197 x_9 + 205 x_10 + 16 x_11 + 108 x_12 = 9002
	c_7: + 69 x_1 + 154 x_2 + 141 x_3 + 88 x_4 + 17 x_5 + 211 x_6 + 218 x_7 + 134 x_8 + 83 x_9 + 248 x_10 + 10 x_11 + 212 x_12 = 8274
	c_8: + 10 x_1 + 44 x_2 + 25 x_3 + 198 x_4 + 199 x_5 + 139 x_6 + 231 x_7 + 43 x_8 + 105 x_9 + 243 x_10 + 152 x_11 + 239 x_12 = 6982
Bounds
  0 <= x_1 <= 10
  0 <= x_2 <= 10
  0 <= x_3 <= 10
  0 <= x_4 <= 10
  0 <= x_5 <= 10
  0 <= x_6 <= 10
  0 <= x_7 <= 10
  0 <= x_8 <= 10
  0 <= x_9 <= 10
  0 <= x_10 <= 10
  0 <= x_11 <= 10
  0 <= x_12 <= 10
End
