Subject To
	c_1: + 159 x_1 + 76 x_2 + 220 x_3 + 90 x_4 + 19 x_5 + 40 x_6 + 125 x_7 + 239 x_8 + 130 x_9 + 203 x_10 + 174 x_11 + 16 x_12 = 9979
	c_2: + 100 x_1 + 45 x_2 + 166 x_3 + 118 x_4 + 106 x_5 + 106 x_6 + 98 x_7 + 222 x_8 + 228 x_9 + 16 x_10 + 115 x_11 + 11 x_12 = 7472
	c_3: + 250 x_1 + 168 x_2 + 110 x_3 + 218 x_4 + 197 x_5 + 165 x_6 + 64 x_7 + 229 x_8 + 126 x_9 + 213 x_10 + 234 x_11 + 3 x_12 = 10395
	c_4: + 19 x_1 + 88 x_2 + 83 x_3 + 23 x_4 + 130 x_5 + 91 x_6 + 54 x_7 + 235 x_8 + 115 x_9 + 214 x_10 + 9 x_11 + 216 x_12 = 6255
	c_5: + 57 x_1 + 31 x_2 + 224 x_3 + 151 x_4 + 186 x_5 + 249 x_6 + 40 x_7 + 94 x_8 + 236 x_9 + 161 x_10 + 214 x_11 + 39 x_12 = 8259
	c_6: + 60 x_1 + 67 x_2 + 39 x_3 + 46 x_4 + 30 x_5 + 139 x_6 + 180 x_7 + 203 x_8 + 69 x_9 + 217 x_10 + 15 x_11 + 224 x_12 = 6305
	c_7: + 188 x_1 + 155 x_2 + 152 x_3 + 5 x_4 + 49 x_5 + 211 x_6 + 193 x_7 + 91 x_8 + 137 x_9 + 218 x_10 + 193 x_11 + 32 x_12 = 8842
	c_8: + 87 x_1 + 124 x_2 + 115 x_3 + 195 x_4 + 195 x_5 + 116 x_6 + 80 x_7 + 168 x_8 + 177 x_9 + 68 x_10 + 206 x_11 + 161 x_12 = 7581
Bounds
  0 <= x_1 <= 10
  0 <= x_2 <= 10
  0 <= x_3 <= 10
  0 <= x_4 <= 10
  0 <= x_5 <= 10
  0 <= x_6 <= 10
  0 <= x_7 <= 10
  0 <= x_8 <= 10
  0 <= x_9 <= 10
  0 <= x_10 <= 10
  0 <= x_11 <= 10
  0 <= x_12 <= 10
End
