Subject To
	c_1: + 78 x_1 + 219 x_2 + 69 x_3 + 117 x_4 + 217 x_5 + 228 x_6 + 216 x_7 + 4 x_8 + 111 x_9 + 87 x_10 + 94 x_11 + 215 x_12 = 12190
	c_2: + 51 x_1 + 250 x_2 + 232 x_3 + 189 x_4 + 226 x_5 + 61 x_6 + 93 x_7 + 128 x_8 + 45 x_9 + 159 x_10 + 69 x_11 + 104 x_12 = 9394
	c_3: + 86 x_1 + 20 x_2 + 9 x_3 + 185 x_4 + 230 x_5 + 144 x_6 + 218 x_7 + 97 x_8 + 189 x_9 + 216 x_10 + 15 x_11 + 152 x_12 = 9694
	c_4: + 37 x_1 + 94 x_2 + 160 x_3 + 114 x_4 + 63 x_5 + 22 x_6 + 126 x_7 + 243 x_8 + 68 x_9 + 223 x_10 + 106 x_11 + 46 x_12 = 5707
	c_5: + 185 x_1 + 138 x_2 + 10 x_3 + 195 x_4 + 13 x_5 + 44 x_6 + 241 x_7 + 32 x_8 + 211 x_9 + 99 x_10 + 118 x_11 + 75 x_12 = 7816
	c_6: + 23 x_1 + 9 x_2 + 59 x_3 + 207 x_4 + 33 x_5 + 136 x_6 + 25 x_7 + 26 x_8 + 243 x_9 + 136 x_10 + 164 x_11 + 62 x_12 = 5838
	c_7: + 99 x_1 + 107 x_2 + 235 x_3 + 224 x_4 + 240 x_5 + 233 x_6 + 220 x_7 + 209 x_8 + 245 x_9 + 97 x_10 + 36 x_11 + 8 x_12 = 11042
	c_8: + 189 x_1 + 89 x_2 + 199 x_3 + 147 x_4 + 6 x_5 + 121 x_6 + 231 x_7 + 52 x_8 + 88 x_9 + 100 x_10 + 234 x_11 + 102 x_12 = 8549
Bounds
  0 <= x_1 <= 10
  0 <= x_2 <= 10
  0 <= x_3 <= 10
  0 <= x_4 <= 10
  0 <= x_5 <= 10
  0 <= x_6 <= 10
  0 <= x_7 <= 10
  0 <= x_8 <= 10
  0 <= x_9 <= 10
  0 <= x_10 <= 10
  0 <= x_11 <= 10
  0 <= x_12 <= 10
End
