Subject To
	c_1: + 132 x_1 + 136 x_2 + 160 x_3 + 102 x_4 + 9 x_5 + 104 x_6 + 185 x_7 + 213 x_8 + 33 x_9 + 1 x_10 + 234 x_11 + 127 x_12 = 9689
	c_2: + 98 x_1 + 36 x_2 + 131 x_3 + 55 x_4 + 4 x_5 + 130 x_6 + 13 x_7 + 162 x_8 + 212 x_9 + 125 x_10 + 127 x_11 + 15 x_12 = 5446
	c_3: + 88 x_1 + 112 x_2 + 199 x_3 + 51 x_4 + 101 x_5 + 164 x_6 + 106 x_7 + 223 x_8 + 231 x_9 + 218 x_10 + 163 x_11 + 56 x_12 = 8249
	c_4: + 145 x_1 + 98 x_2 + 17 x_3 + 108 x_4 + 247 x_5 + 152 x_6 + 114 x_7 + 8 x_8 + 39 x_9 + 97 x_10 + 123 x_11 + 243 x_12 = 5842
	c_5: + 213 x_1 + 137 x_2 + 193 x_3 + 203 x_4 + 144 x_5 + 59 x_6 + 96 x_7 + 99 x_8 + 58 x_9 + 62 x_10 + 159 x_11 + 120 x_12 = 8056
	c_6: + 242 x_1 + 43 x_2 + 117 x_3 + 134 x_4 + 28 x_5 + 83 x_6 + 62 x_7 + 143 x_8 + 171 x_9 + 15 x_10 + 120 x_11 + 154 x_12 = 7036
	c_7: + 218 x_1 + 142 x_2 + 122 x_3 + 112 x_4 + 233 x_5 + 11 x_6 + 122 x_7 + 190 x_8 + 81 x_9 + 86 x_10 + 96 x_11 + 181 x_12 = 7778
	c_8: + 172 x_1 + 145 x_2 + 20 x_3 + 98 x_4 + 179 x_5 + 234 x_6 + 22 x_7 + 212 x_8 + 144 x_9 + 196 x_10 + 191 x_11 + 81 x_12 = 7596
Bounds
  0 <= x_1 <= 10
  0 <= x_2 <= 10
  0 <= x_3 <= 10
  0 <= x_4 <= 10
  0 <= x_5 <= 10
  0 <= x_6 <= 10
  0 <= x_7 <= 10
  0 <= x_8 <= 10
  0 <= x_9 <= 10
  0 <= x_10 <= 10
  0 <= x_11 <= 10
  0 <= x_12 <= 10
End
