Subject To
	c_1: + 189 x_1 + 106 x_2 + 99 x_3 + 95 x_4 + 21 x_5 + 250 x_6 + 40 x_7 + 8 x_8 + 119 x_9 + 118 x_10 + 6 x_11 + 77 x_12 = 6668
	c_2: + 125 x_1 + 204 x_2 + 211 x_3 + 47 x_4 + 76 x_5 + 245 x_6 + 4 x_7 + 83 x_8 + 87 x_9 + 213 x_10 + 4 x_11 + 250 x_12 = 7552
	c_3: + 68 x_1 + 131 x_2 + 61 x_3 + 202 x_4 + 55 x_5 + 105 x_6 + 179 x_7 + 15 x_8 + 143 x_9 + 100 x_10 + 204 x_11 + 99 x_12 = 4861
	c_4: + 36 x_1 + 25 x_2 + 87 x_3 + 128 x_4 + 81 x_5 + 200 x_6 + 30 x_7 + 234 x_8 + 124 x_9 + 100 x_10 + 140 x_11 + 17 x_12 = 4449
	c_5: + 72 x_1 + 117 x_2 + 43 x_3 + 188 x_4 + 53 x_5 + 90 x_6 + 56 x_7 + 33 x_8 + 153 x_9 + 151 x_10 + 95 x_11 + 23 x_12 = 4513
	c_6: + 95 x_1 + 240 x_2 + 87 x_3 + 194 x_4 + 154 x_5 + 192 x_6 + 162 x_7 + 94 x_8 + 18 x_9 + 186 x_10 + 8 x_11 + 119 x_12 = 6303
	c_7: + 84 x_1 + 162 x_2 + 148 x_3 + 160 x_4 + 220 x_5 + 177 x_6 + 70 x_7 + 123 x_8 + 126 x_9 + 137 x_10 + 58 x_11 + 73 x_12 = 5926
	c_8: + 163 x_1 + 182 x_2 + 235 x_3 + 76 x_4 + 214 x_5 + 221 x_6 + 31 x_7 + 23 x_8 + 16 x_9 + 79 x_10 + 14 x_11 + 72 x_12 = 6208
Bounds
  0 <= x_1 <= 10
  0 <= x_2 <= 10
  0 <= x_3 <= 10
  0 <= x_4 <= 10
  0 <= x_5 <= 10
  0 <= x_6 <= 10
  0 <= x_7 <= 10
  0 <= x_8 <= 10
  0 <= x_9 <= 10
  0 <= x_10 <= 10
  0 <= x_11 <= 10
  0 <= x_12 <= 10
End
