Subject To
	c_1: + 78 x_1 + 14 x_2 + 224 x_3 + 74 x_4 + 133 x_5 + 116 x_6 + 42 x_7 + 125 x_8 + 37 x_9 + 144 x_10 + 226 x_11 + 99 x_12 = 7715
	c_2: + 151 x_1 + 110 x_2 + 103 x_3 + 155 x_4 + 80 x_5 + 197 x_6 + 205 x_7 + 23 x_8 + 99 x_9 + 83 x_10 + 2 x_11 + 47 x_12 = 4353
	c_3: + 94 x_1 + 7 x_2 + 218 x_3 + 180 x_4 + 217 x_5 + 4 x_6 + 156 x_7 + 226 x_8 + 38 x_9 + 235 x_10 + 42 x_11 + 39 x_12 = 7157
	c_4: + 130 x_1 + 176 x_2 + 8 x_3 + 138 x_4 + 195 x_5 + 34 x_6 + 68 x_7 + 99 x_8 + 221 x_9 + 124 x_10 + 198 x_11 + 190 x_12 = 6091
	c_5: + 136 x_1 + 92 x_2 + 114 x_3 + 104 x_4 + 132 x_5 + 228 x_6 + 226 x_7 + 17 x_8 + 96 x_9 + 54 x_10 + 136 x_11 + 181 x_12 = 6225
	c_6: + 133 x_1 + 19 x_2 + 115 x_3 + 243 x_4 + 181 x_5 + 47 x_6 + 89 x_7 + 143 x_8 + 89 x_9 + 221 x_10 + 113 x_11 + 138 x_12 = 7091
	c_7: + 116 x_1 + 51 x_2 + 137 x_3 + 69 x_4 + 149 x_5 + 50 x_6 + 44 x_7 + 244 x_8 + 201 x_9 + 172 x_10 + 23 x_11 + 112 x_12 = 5935
	c_8: + 238 x_1 + 211 x_2 + 14 x_3 + 66 x_4 + 154 x_5 + 50 x_6 + 65 x_7 + 52 x_8 + 142 x_9 + 132 x_10 + 170 x_11 + 178 x_12 = 5559
Bounds
  0 <= x_1 <= 10
  0 <= x_2 <= 10
  0 <= x_3 <= 10
  0 <= x_4 <= 10
  0 <= x_5 <= 10
  0 <= x_6 <= 10
  0 <= x_7 <= 10
  0 <= x_8 <= 10
  0 <= x_9 <= 10
  0 <= x_10 <= 10
  0 <= x_11 <= 10
  0 <= x_12 <= 10
End
