Subject To
	c_1: + 158 x_1 + 165 x_2 + 32 x_3 + 32 x_4 + 143 x_5 + 46 x_6 + 10 x_7 + 71 x_8 + 157 x_9 + 205 x_10 + 156 x_11 + 193 x_12 = 8392
	c_2: + 90 x_1 + 155 x_2 + 53 x_3 + 125 x_4 + 215 x_5 + 215 x_6 + 76 x_7 + 82 x_8 + 177 x_9 + 198 x_10 + 43 x_11 + 59 x_12 = 7145
	c_3: + 153 x_1 + 87 x_2 + 222 x_3 + 238 x_4 + 146 x_5 + 144 x_6 + 74 x_7 + 71 x_8 + 8 x_9 + 30 x_10 + 62 x_11 + 30 x_12 = 4264
	c_4: + 204 x_1 + 168 x_2 + 241 x_3 + 225 x_4 + 155 x_5 + 101 x_6 + 210 x_7 + 116 x_8 + 153 x_9 + 6 x_10 + 19 x_11 + 43 x_12 = 5770
	c_5: + 16 x_1 + 236 x_2 + 222 x_3 + 2 x_4 + 156 x_5 + 42 x_6 + 170 x_7 + 93 x_8 + 180 x_9 + 185 x_10 + 51 x_11 + 144 x_12 = 7289
	c_6: + 84 x_1 + 3 x_2 + 34 x_3 + 114 x_4 + 185 x_5 + 70 x_6 + 246 x_7 + 166 x_8 + 232 x_9 + 69 x_10 + 146 x_11 + 99 x_12 = 6033
	c_7: + 57 x_1 + 13 x_2 + 43 x_3 + 206 x_4 + 28 x_5 + 210 x_6 + 8 x_7 + 154 x_8 + 221 x_9 + 96 x_10 + 106 x_11 + 192 x_12 = 5998
	c_8: + 38 x_1 + 64 x_2 + 9 x_3 + 18 x_4 + 213 x_5 + 69 x_6 + 93 x_7 + 23 x_8 + 217 x_9 + 147 x_10 + 25 x_11 + 95 x_12 = 5576
Bounds
  0 <= x_1 <= 10
  0 <= x_2 <= 10
  0 <= x_3 <= 10
  0 <= x_4 <= 10
  0 <= x_5 <= 10
  0 <= x_6 <= 10
  0 <= x_7 <= 10
  0 <= x_8 <= 10
  0 <= x_9 <= 10
  0 <= x_10 <= 10
  0 <= x_11 <= 10
  0 <= x_12 <= 10
End
