Subject To
	c_1: + 215 x_1 + 35 x_2 + 8 x_3 + 232 x_4 + 191 x_5 + 183 x_6 + 80 x_7 + 88 x_8 + 50 x_9 + 158 x_10 + 245 x_11 + 233 x_12 = 13614
	c_2: + 219 x_1 + 138 x_2 + 52 x_3 + 222 x_4 + 173 x_5 + 102 x_6 + 213 x_7 + 37 x_8 + 220 x_9 + 140 x_10 + 162 x_11 + 225 x_12 = 12429
	c_3: + 25 x_1 + 20 x_2 + 55 x_3 + 63 x_4 + 197 x_5 + 24 x_6 + 172 x_7 + 151 x_8 + 224 x_9 + 67 x_10 + 184 x_11 + 118 x_12 = 7482
	c_4: + 170 x_1 + 168 x_2 + 98 x_3 + 133 x_4 + 129 x_5 + 80 x_6 + 89 x_7 + 248 x_8 + 11 x_9 + 196 x_10 + 216 x_11 + 91 x_12 = 9979
	c_5: + 136 x_1 + 13 x_2 + 130 x_3 + 209 x_4 + 240 x_5 + 157 x_6 + 197 x_7 + 232 x_8 + 155 x_9 + 114 x_10 + 191 x_11 + 77 x_12 = 11464
	c_6: + 20 x_1 + 101 x_2 + 21 x_3 + 157 x_4 + 35 x_5 + 23 x_6 + 61 x_7 + 20 x_8 + 2 x_9 + 229 x_10 + 141 x_11 + 97 x_12 = 6316
	c_7: + 123 x_1 + 8 x_2 + 207 x_3 + 79 x_4 + 104 x_5 + 212 x_6 + 82 x_7 + 128 x_8 + 122 x_9 + 54 x_10 + 70 x_11 + 191 x_12 = 8241
	c_8: + 132 x_1 + 224 x_2 + 217 x_3 + 61 x_4 + 151 x_5 + 140 x_6 + 242 x_7 + 173 x_8 + 26 x_9 + 176 x_10 + 43 x_11 + 150 x_12 = 8633
Bounds
  0 <= x_1 <= 10
  0 <= x_2 <= 10
  0 <= x_3 <= 10
  0 <= x_4 <= 10
  0 <= x_5 <= 10
  0 <= x_6 <= 10
  0 <= x_7 <= 10
  0 <= x_8 <= 10
  0 <= x_9 <= 10
  0 <= x_10 <= 10
  0 <= x_11 <= 10
  0 <= x_12 <= 10
End
