Subject To
	c_1: + 49 x_1 + 56 x_2 + 117 x_3 + 86 x_4 + 28 x_5 + 82 x_6 + 150 x_7 + 150 x_8 + 34 x_9 + 202 x_10 + 121 x_11 + 147 x_12 = 6264
	c_2: + 45 x_1 + 183 x_2 + 160 x_3 + 28 x_4 + 84 x_5 + 141 x_6 + 239 x_7 + 175 x_8 + 23 x_9 + 130 x_10 + 225 x_11 + 190 x_12 = 7659
	c_3: + 185 x_1 + 74 x_2 + 104 x_3 + 175 x_4 + 2 x_5 + 170 x_6 + 28 x_7 + 52 x_8 + 245 x_9 + 204 x_10 + 208 x_11 + 46 x_12 = 5748
	c_4: + 212 x_1 + 149 x_2 + 94 x_3 + 232 x_4 + 118 x_5 + 24 x_6 + 32 x_7 + 196 x_8 + 54 x_9 + 167 x_10 + 201 x_11 + 19 x_12 = 5955
	c_5: + 176 x_1 + 189 x_2 + 42 x_3 + 214 x_4 + 141 x_5 + 136 x_6 + 194 x_7 + 87 x_8 + 69 x_9 + 15 x_10 + 27 x_11 + 224 x_12 = 5485
	c_6: + 61 x_1 + 18 x_2 + 198 x_3 + 201 x_4 + 96 x_5 + 232 x_6 + 247 x_7 + 186 x_8 + 215 x_9 + 28 x_10 + 178 x_11 + 48 x_12 = 6758
	c_7: + 35 x_1 + 160 x_2 + 146 x_3 + 236 x_4 + 108 x_5 + 128 x_6 + 166 x_7 + 133 x_8 + 62 x_9 + 2 x_10 + 203 x_11 + 202 x_12 = 6419
	c_8: + 129 x_1 + 25 x_2 + 24 x_3 + 102 x_4 + 228 x_5 + 233 x_6 + 213 x_7 + 51 x_8 + 200 x_9 + 236 x_10 + 7 x_11 + 226 x_12 = 6724
Bounds
  0 <= x_1 <= 10
  0 <= x_2 <= 10
  0 <= x_3 <= 10
  0 <= x_4 <= 10
  0 <= x_5 <= 10
  0 <= x_6 <= 10
  0 <= x_7 <= 10
  0 <= x_8 <= 10
  0 <= x_9 <= 10
  0 <= x_10 <= 10
  0 <= x_11 <= 10
  0 <= x_12 <= 10
End
