Subject To
	c_1: + 69 x_1 + 107 x_2 + 236 x_3 + 186 x_4 + 23 x_5 + 154 x_6 + 164 x_7 + 126 x_8 + 82 x_9 + 155 x_10 + 47 x_11 + 61 x_12 = 8508
	c_2: + 33 x_1 + 227 x_2 + 100 x_3 + 195 x_4 + 194 x_5 + 140 x_6 + 90 x_7 + 122 x_8 + 208 x_9 + 204 x_10 + 34 x_11 + 130 x_12 = 7790
	c_3: + 104 x_1 + 28 x_2 + 249 x_3 + 238 x_4 + 203 x_5 + 126 x_6 + 176 x_7 + 152 x_8 + 178 x_9 + 42 x_10 + 99 x_11 + 216 x_12 = 8878
	c_4: + 122 x_1 + 44 x_2 + 57 x_3 + 122 x_4 + 63 x_5 + 221 x_6 + 75 x_7 + 108 x_8 + 44 x_9 + 173 x_10 + 244 x_11 + 52 x_12 = 6119
	c_5: + 245 x_1 + 131 x_2 + 25 x_3 + 112 x_4 + 179 x_5 + 98 x_6 + 214 x_7 + 86 x_8 + 224 x_9 + 109 x_10 + 40 x_11 + 239 x_12 = 6560
	c_6: + 186 x_1 + 124 x_2 + 182 x_3 + 111 x_4 + 52 x_5 + 139 x_6 + 56 x_7 + 250 x_8 + 77 x_9 + 152 x_10 + 27 x_11 + 237 x_12 = 7723
	c_7: + 15 x_1 + 90 x_2 + 12 x_3 + 184 x_4 + 229 x_5 + 130 x_6 + 97 x_7 + 163 x_8 + 207 x_9 + 217 x_10 + 13 x_11 + 148 x_12 = 6501
	c_8: + 173 x_1 + 54 x_2 + 33 x_3 + 231 x_4 + 144 x_5 + 104 x_6 + 174 x_7 + 140 x_8 + 248 x_9 + 237 x_10 + 55 x_11 + 105 x_12 = 7768
Bounds
  0 <= x_1 <= 10
  0 <= x_2 <= 10
  0 <= x_3 <= 10
  0 <= x_4 <= 10
  0 <= x_5 <= 10
  0 <= x_6 <= 10
  0 <= x_7 <= 10
  0 <= x_8 <= 10
  0 <= x_9 <= 10
  0 <= x_10 <= 10
  0 <= x_11 <= 10
  0 <= x_12 <= 10
End
