Subject To
	c_1: + 73 x_1 + 163 x_2 + 112 x_3 + 238 x_4 + 10 x_5 + 129 x_6 + 102 x_7 + 30 x_8 + 234 x_9 + 178 x_10 + 40 x_11 + 180 x_12 = 10157
	c_2: + 212 x_1 + 222 x_2 + 26 x_3 + 229 x_4 + 209 x_5 + 61 x_6 + 99 x_7 + 184 x_8 + 56 x_9 + 181 x_10 + 66 x_11 + 177 x_12 = 8601
	c_3: + 247 x_1 + 129 x_2 + 179 x_3 + 43 x_4 + 178 x_5 + 96 x_6 + 116 x_7 + 40 x_8 + 148 x_9 + 128 x_10 + 207 x_11 + 160 x_12 = 7477
	c_4: + 151 x_1 + 103 x_2 + 141 x_3 + 80 x_4 + 155 x_5 + 55 x_6 + 15 x_7 + 182 x_8 + 171 x_9 + 67 x_10 + 54 x_11 + 31 x_12 = 5505
	c_5: + 21 x_1 + 172 x_2 + 69 x_3 + 105 x_4 + 226 x_5 + 224 x_6 + 84 x_7 + 205 x_8 + 188 x_9 + 181 x_10 + 77 x_11 + 112 x_12 = 8262
	c_6: + 221 x_1 + 206 x_2 + 82 x_3 + 23 x_4 + 214 x_5 + 34 x_6 + 80 x_7 + 129 x_8 + 183 x_9 + 47 x_10 + 175 x_11 + 110 x_12 = 6386
	c_7: + 109 x_1 + 72 x_2 + 161 x_3 + 110 x_4 + 227 x_5 + 207 x_6 + 98 x_7 + 228 x_8 + 195 x_9 + 245 x_10 + 106 x_11 + 207 x_12 = 9450
	c_8: + 170 x_1 + 155 x_2 + 113 x_3 + 151 x_4 + 156 x_5 + 145 x_6 + 161 x_7 + 206 x_8 + 191 x_9 + 208 x_10 + 165 x_11 + 35 x_12 = 8908
Bounds
  0 <= x_1 <= 10
  0 <= x_2 <= 10
  0 <= x_3 <= 10
  0 <= x_4 <= 10
  0 <= x_5 <= 10
  0 <= x_6 <= 10
  0 <= x_7 <= 10
  0 <= x_8 <= 10
  0 <= x_9 <= 10
  0 <= x_10 <= 10
  0 <= x_11 <= 10
  0 <= x_12 <= 10
End
