Subject To
	c_1: + 150 x_1 + 243 x_2 + 82 x_3 + 113 x_4 + 198 x_5 + 207 x_6 + 88 x_7 + 158 x_8 + 23 x_9 + 55 x_10 + 219 x_11 + 67 x_12 = 10902
	c_2: + 247 x_1 + 71 x_2 + 119 x_3 + 218 x_4 + 67 x_5 + 52 x_6 + 22 x_7 + 100 x_8 + 179 x_9 + 53 x_10 + 91 x_11 + 227 x_12 = 6470
	c_3: + 223 x_1 + 250 x_2 + 250 x_3 + 38 x_4 + 205 x_5 + 33 x_6 + 8 x_7 + 69 x_8 + 206 x_9 + 23 x_10 + 17 x_11 + 235 x_12 = 7784
	c_4: + 24 x_1 + 214 x_2 + 22 x_3 + 232 x_4 + 89 x_5 + 163 x_6 + 65 x_7 + 4 x_8 + 239 x_9 + 34 x_10 + 163 x_11 + 143 x_12 = 7497
	c_5: + 177 x_1 + 222 x_2 + 141 x_3 + 131 x_4 + 28 x_5 + 140 x_6 + 22 x_7 + 48 x_8 + 236 x_9 + 189 x_10 + 64 x_11 + 20 x_12 = 7061
	c_6: + 129 x_1 + 217 x_2 + 187 x_3 + 137 x_4 + 150 x_5 + 181 x_6 + 123 x_7 + 125 x_8 + 32 x_9 + 85 x_10 + 16 x_11 + 144 x_12 = 8603
	c_7: + 174 x_1 + 165 x_2 + 134 x_3 + 78 x_4 + 129 x_5 + 114 x_6 + 81 x_7 + 233 x_8 + 11 x_9 + 99 x_10 + 25 x_11 + 155 x_12 = 7840
	c_8: + 243 x_1 + 36 x_2 + 16 x_3 + 78 x_4 + 134 x_5 + 227 x_6 + 11 x_7 + 109 x_8 + 84 x_9 + 97 x_10 + 70 x_11 + 49 x_12 = 6902
Bounds
  0 <= x_1 <= 10
  0 <= x_2 <= 10
  0 <= x_3 <= 10
  0 <= x_4 <= 10
  0 <= x_5 <= 10
  0 <= x_6 <= 10
  0 <= x_7 <= 10
  0 <= x_8 <= 10
  0 <= x_9 <= 10
  0 <= x_10 <= 10
  0 <= x_11 <= 10
  0 <= x_12 <= 10
End
