Subject To
	c_1: + 59 x_1 + 231 x_2 + 109 x_3 + 51 x_4 + 212 x_5 + 139 x_6 + 191 x_7 + 20 x_8 + 73 x_9 + 156 x_10 + 142 x_11 + 168 x_12 = 10419
	c_2: + 160 x_1 + 86 x_2 + 205 x_3 + 35 x_4 + 229 x_5 + 163 x_6 + 202 x_7 + 97 x_8 + 152 x_9 + 86 x_10 + 164 x_11 + 120 x_12 = 9521
	c_3: + 199 x_1 + 10 x_2 + 77 x_3 + 90 x_4 + 175 x_5 + 138 x_6 + 72 x_7 + 87 x_8 + 114 x_9 + 66 x_10 + 25 x_11 + 70 x_12 = 5343
	c_4: + 100 x_1 + 158 x_2 + 210 x_3 + 123 x_4 + 110 x_5 + 24 x_6 + 96 x_7 + 56 x_8 + 246 x_9 + 136 x_10 + 203 x_11 + 93 x_12 = 8191
	c_5: + 29 x_1 + 107 x_2 + 176 x_3 + 26 x_4 + 72 x_5 + 129 x_6 + 21 x_7 + 106 x_8 + 56 x_9 + 22 x_10 + 142 x_11 + 77 x_12 = 5165
	c_6: + 17 x_1 + 37 x_2 + 21 x_3 + 56 x_4 + 103 x_5 + 84 x_6 + 99 x_7 + 60 x_8 + 73 x_9 + 242 x_10 + 84 x_11 + 60 x_12 = 5418
	c_7: + 37 x_1 + 83 x_2 + 94 x_3 + 139 x_4 + 246 x_5 + 227 x_6 + 220 x_7 + 128 x_8 + 82 x_9 + 126 x_10 + 209 x_11 + 238 x_12 = 10816
	c_8: + 157 x_1 + 94 x_2 + 18 x_3 + 177 x_4 + 38 x_5 + 241 x_6 + 4 x_7 + 187 x_8 + 173 x_9 + 62 x_10 + 87 x_11 + 54 x_12 = 5291
Bounds
  0 <= x_1 <= 10
  0 <= x_2 <= 10
  0 <= x_3 <= 10
  0 <= x_4 <= 10
  0 <= x_5 <= 10
  0 <= x_6 <= 10
  0 <= x_7 <= 10
  0 <= x_8 <= 10
  0 <= x_9 <= 10
  0 <= x_10 <= 10
  0 <= x_11 <= 10
  0 <= x_12 <= 10
End
