Subject To
	c_1: + 161 x_1 + 158 x_2 + 25 x_3 + 14 x_4 + 188 x_5 + 242 x_6 + 41 x_7 + 106 x_8 + 87 x_9 + 170 x_10 + 247 x_11 + 206 x_12 = 12264
	c_2: + 80 x_1 + 108 x_2 + 8 x_3 + 149 x_4 + 160 x_5 + 129 x_6 + 202 x_7 + 153 x_8 + 54 x_9 + 212 x_10 + 215 x_11 + 37 x_12 = 8729
	c_3: + 79 x_1 + 94 x_2 + 71 x_3 + 63 x_4 + 233 x_5 + 6 x_6 + 238 x_7 + 19 x_8 + 33 x_9 + 212 x_10 + 95 x_11 + 210 x_12 = 7849
	c_4: + 3 x_1 + 157 x_2 + 167 x_3 + 48 x_4 + 219 x_5 + 12 x_6 + 221 x_7 + 139 x_8 + 114 x_9 + 61 x_10 + 240 x_11 + 190 x_12 = 8658
	c_5: + 23 x_1 + 170 x_2 + 49 x_3 + 210 x_4 + 86 x_5 + 202 x_6 + 196 x_7 + 242 x_8 + 201 x_9 + 43 x_10 + 224 x_11 + 68 x_12 = 8858
	c_6: + 225 x_1 + 49 x_2 + 141 x_3 + 188 x_4 + 33 x_5 + 193 x_6 + 61 x_7 + 58 x_8 + 116 x_9 + 8 x_10 + 31 x_11 + 152 x_12 = 6579
	c_7: + 30 x_1 + 219 x_2 + 164 x_3 + 195 x_4 + 15 x_5 + 140 x_6 + 135 x_7 + 42 x_8 + 149 x_9 + 93 x_10 + 211 x_11 + 198 x_12 = 8501
	c_8: + 131 x_1 + 81 x_2 + 62 x_3 + 38 x_4 + 148 x_5 + 117 x_6 + 139 x_7 + 142 x_8 + 26 x_9 + 182 x_10 + 108 x_11 + 78 x_12 = 7660
Bounds
  0 <= x_1 <= 10
  0 <= x_2 <= 10
  0 <= x_3 <= 10
  0 <= x_4 <= 10
  0 <= x_5 <= 10
  0 <= x_6 <= 10
  0 <= x_7 <= 10
  0 <= x_8 <= 10
  0 <= x_9 <= 10
  0 <= x_10 <= 10
  0 <= x_11 <= 10
  0 <= x_12 <= 10
End
