Subject To
	c_1: + 217 x_1 + 14 x_2 + 40 x_3 + 40 x_4 + 131 x_5 + 131 x_6 + 208 x_7 + 171 x_8 + 216 x_9 + 145 x_10 + 217 x_11 + 98 x_12 = 11571
	c_2: + 77 x_1 + 7 x_2 + 62 x_3 + 115 x_4 + 22 x_5 + 38 x_6 + 29 x_7 + 55 x_8 + 185 x_9 + 66 x_10 + 21 x_11 + 211 x_12 = 4910
	c_3: + 44 x_1 + 85 x_2 + 221 x_3 + 82 x_4 + 247 x_5 + 103 x_6 + 235 x_7 + 203 x_8 + 212 x_9 + 158 x_10 + 109 x_11 + 96 x_12 = 10206
	c_4: + 200 x_1 + 248 x_2 + 226 x_3 + 83 x_4 + 155 x_5 + 101 x_6 + 236 x_7 + 20 x_8 + 199 x_9 + 31 x_10 + 81 x_11 + 7 x_12 = 8387
	c_5: + 141 x_1 + 199 x_2 + 207 x_3 + 69 x_4 + 136 x_5 + 119 x_6 + 187 x_7 + 54 x_8 + 210 x_9 + 242 x_10 + 139 x_11 + 145 x_12 = 10054
	c_6: + 21 x_1 + 250 x_2 + 75 x_3 + 239 x_4 + 77 x_5 + 87 x_6 + 145 x_7 + 117 x_8 + 197 x_9 + 43 x_10 + 217 x_11 + 51 x_12 = 7635
	c_7: + 96 x_1 + 162 x_2 + 177 x_3 + 167 x_4 + 74 x_5 + 21 x_6 + 18 x_7 + 232 x_8 + 190 x_9 + 15 x_10 + 55 x_11 + 27 x_12 = 5872
	c_8: + 222 x_1 + 117 x_2 + 93 x_3 + 99 x_4 + 2 x_5 + 142 x_6 + 131 x_7 + 23 x_8 + 101 x_9 + 201 x_10 + 146 x_11 + 105 x_12 = 8099
Bounds
  0 <= x_1 <= 10
  0 <= x_2 <= 10
  0 <= x_3 <= 10
  0 <= x_4 <= 10
  0 <= x_5 <= 10
  0 <= x_6 <= 10
  0 <= x_7 <= 10
  0 <= x_8 <= 10
  0 <= x_9 <= 10
  0 <= x_10 <= 10
  0 <= x_11 <= 10
  0 <= x_12 <= 10
End
