Subject To
	c_1: + 118 x_1 + 147 x_2 + 102 x_3 + 2 x_4 + 34 x_5 + 135 x_6 + 10 x_7 + 15 x_8 + 176 x_9 + 38 x_10 + 222 x_11 + 231 x_12 = 8167
	c_2: + 36 x_1 + 119 x_2 + 12 x_3 + 107 x_4 + 8 x_5 + 169 x_6 + 127 x_7 + 242 x_8 + 176 x_9 + 146 x_10 + 76 x_11 + 2 x_12 = 3877
	c_3: + 218 x_1 + 63 x_2 + 180 x_3 + 97 x_4 + 49 x_5 + 224 x_6 + 66 x_7 + 44 x_8 + 75 x_9 + 97 x_10 + 136 x_11 + 81 x_12 = 6013
	c_4: + 80 x_1 + 146 x_2 + 11 x_3 + 155 x_4 + 205 x_5 + 126 x_6 + 245 x_7 + 36 x_8 + 81 x_9 + 72 x_10 + 162 x_11 + 216 x_12 = 6412
	c_5: + 198 x_1 + 111 x_2 + 229 x_3 + 169 x_4 + 32 x_5 + 45 x_6 + 114 x_7 + 84 x_8 + 226 x_9 + 237 x_10 + 202 x_11 + 192 x_12 = 8386
	c_6: + 141 x_1 + 230 x_2 + 219 x_3 + 35 x_4 + 131 x_5 + 32 x_6 + 52 x_7 + 210 x_8 + 33 x_9 + 104 x_10 + 246 x_11 + 107 x_12 = 6871
	c_7: + 88 x_1 + 135 x_2 + 97 x_3 + 242 x_4 + 190 x_5 + 212 x_6 + 56 x_7 + 240 x_8 + 167 x_9 + 209 x_10 + 193 x_11 + 93 x_12 = 6933
	c_8: + 63 x_1 + 189 x_2 + 32 x_3 + 9 x_4 + 112 x_5 + 208 x_6 + 23 x_7 + 97 x_8 + 158 x_9 + 229 x_10 + 236 x_11 + 56 x_12 = 6748
Bounds
  0 <= x_1 <= 10
  0 <= x_2 <= 10
  0 <= x_3 <= 10
  0 <= x_4 <= 10
  0 <= x_5 <= 10
  0 <= x_6 <= 10
  0 <= x_7 <= 10
  0 <= x_8 <= 10
  0 <= x_9 <= 10
  0 <= x_10 <= 10
  0 <= x_11 <= 10
  0 <= x_12 <= 10
End
