Subject To
	c_1: + 3 x_1 + 243 x_2 + 138 x_3 + 62 x_4 + 107 x_5 + 88 x_6 + 14 x_7 + 249 x_8 + 46 x_9 + 89 x_10 + 107 x_11 + 9 x_12 = 7351
	c_2: + 202 x_1 + 122 x_2 + 243 x_3 + 113 x_4 + 223 x_5 + 187 x_6 + 140 x_7 + 156 x_8 + 122 x_9 + 126 x_10 + 250 x_11 + 96 x_12 = 7539
	c_3: + 124 x_1 + 157 x_2 + 50 x_3 + 150 x_4 + 121 x_5 + 65 x_6 + 45 x_7 + 47 x_8 + 18 x_9 + 119 x_10 + 151 x_11 + 129 x_12 = 4316
	c_4: + 106 x_1 + 132 x_2 + 219 x_3 + 83 x_4 + 195 x_5 + 177 x_6 + 137 x_7 + 135 x_8 + 52 x_9 + 238 x_10 + 172 x_11 + 77 x_12 = 6967
	c_5: + 140 x_1 + 78 x_2 + 137 x_3 + 18 x_4 + 170 x_5 + 244 x_6 + 69 x_7 + 59 x_8 + 6 x_9 + 53 x_10 + 204 x_11 + 198 x_12 = 4627
	c_6: + 187 x_1 + 121 x_2 + 146 x_3 + 73 x_4 + 163 x_5 + 187 x_6 + 243 x_7 + 82 x_8 + 8 x_9 + 103 x_10 + 145 x_11 + 26 x_12 = 5170
	c_7: + 105 x_1 + 104 x_2 + 209 x_3 + 73 x_4 + 237 x_5 + 21 x_6 + 2 x_7 + 233 x_8 + 113 x_9 + 115 x_10 + 238 x_11 + 221 x_12 = 7304
	c_8: + 86 x_1 + 205 x_2 + 238 x_3 + 167 x_4 + 139 x_5 + 167 x_6 + 160 x_7 + 148 x_8 + 230 x_9 + 179 x_10 + 118 x_11 + 192 x_12 = 7818
Bounds
  0 <= x_1 <= 10
  0 <= x_2 <= 10
  0 <= x_3 <= 10
  0 <= x_4 <= 10
  0 <= x_5 <= 10
  0 <= x_6 <= 10
  0 <= x_7 <= 10
  0 <= x_8 <= 10
  0 <= x_9 <= 10
  0 <= x_10 <= 10
  0 <= x_11 <= 10
  0 <= x_12 <= 10
End
