Subject To
	c_1: + 58 x_1 + 221 x_2 + 138 x_3 + 167 x_4 + 208 x_5 + 34 x_6 + 6 x_7 + 189 x_8 + 170 x_9 + 193 x_10 + 205 x_11 + 76 x_12 = 12327
	c_2: + 124 x_1 + 174 x_2 + 207 x_3 + 27 x_4 + 125 x_5 + 214 x_6 + 106 x_7 + 75 x_8 + 156 x_9 + 2 x_10 + 139 x_11 + 134 x_12 = 7945
	c_3: + 119 x_1 + 2 x_2 + 118 x_3 + 177 x_4 + 20 x_5 + 137 x_6 + 106 x_7 + 120 x_8 + 84 x_9 + 213 x_10 + 234 x_11 + 74 x_12 = 8100
	c_4: + 161 x_1 + 144 x_2 + 226 x_3 + 166 x_4 + 136 x_5 + 32 x_6 + 118 x_7 + 23 x_8 + 173 x_9 + 9 x_10 + 199 x_11 + 239 x_12 = 9367
	c_5: + 77 x_1 + 113 x_2 + 170 x_3 + 31 x_4 + 222 x_5 + 202 x_6 + 84 x_7 + 33 x_8 + 192 x_9 + 202 x_10 + 105 x_11 + 58 x_12 = 8951
	c_6: + 213 x_1 + 169 x_2 + 138 x_3 + 39 x_4 + 201 x_5 + 138 x_6 + 11 x_7 + 62 x_8 + 81 x_9 + 240 x_10 + 179 x_11 + 73 x_12 = 9808
	c_7: + 76 x_1 + 109 x_2 + 119 x_3 + 192 x_4 + 16 x_5 + 216 x_6 + 230 x_7 + 188 x_8 + 46 x_9 + 205 x_10 + 28 x_11 + 221 x_12 = 7932
	c_8: + 201 x_1 + 111 x_2 + 40 x_3 + 31 x_4 + 146 x_5 + 196 x_6 + 67 x_7 + 196 x_8 + 99 x_9 + 104 x_10 + 217 x_11 + 125 x_12 = 8789
Bounds
  0 <= x_1 <= 10
  0 <= x_2 <= 10
  0 <= x_3 <= 10
  0 <= x_4 <= 10
  0 <= x_5 <= 10
  0 <= x_6 <= 10
  0 <= x_7 <= 10
  0 <= x_8 <= 10
  0 <= x_9 <= 10
  0 <= x_10 <= 10
  0 <= x_11 <= 10
  0 <= x_12 <= 10
End
