Subject To
	c_1: + 121 x_1 + 116 x_2 + 91 x_3 + 4 x_4 + 195 x_5 + 149 x_6 + 147 x_7 + 67 x_8 + 113 x_9 + 229 x_10 + 155 x_11 + 141 x_12 = 9446
	c_2: + 202 x_1 + 37 x_2 + 60 x_3 + 5 x_4 + 44 x_5 + 10 x_6 + 53 x_7 + 128 x_8 + 64 x_9 + 211 x_10 + 178 x_11 + 40 x_12 = 6035
	c_3: + 249 x_1 + 232 x_2 + 43 x_3 + 31 x_4 + 75 x_5 + 4 x_6 + 86 x_7 + 136 x_8 + 183 x_9 + 43 x_10 + 24 x_11 + 228 x_12 = 6620
	c_4: + 47 x_1 + 170 x_2 + 200 x_3 + 60 x_4 + 182 x_5 + 102 x_6 + 177 x_7 + 43 x_8 + 103 x_9 + 87 x_10 + 221 x_11 + 25 x_12 = 7659
	c_5: + 227 x_1 + 68 x_2 + 56 x_3 + 21 x_4 + 203 x_5 + 195 x_6 + 204 x_7 + 162 x_8 + 55 x_9 + 157 x_10 + 186 x_11 + 142 x_12 = 9743
	c_6: + 192 x_1 + 193 x_2 + 107 x_3 + 12 x_4 + 35 x_5 + 38 x_6 + 82 x_7 + 172 x_8 + 135 x_9 + 248 x_10 + 21 x_11 + 93 x_12 = 7294
	c_7: + 115 x_1 + 167 x_2 + 175 x_3 + 95 x_4 + 140 x_5 + 142 x_6 + 44 x_7 + 103 x_8 + 50 x_9 + 158 x_10 + 226 x_11 + 170 x_12 = 8533
	c_8: + 222 x_1 + 76 x_2 + 35 x_3 + 195 x_4 + 157 x_5 + 246 x_6 + 166 x_7 + 107 x_8 + 133 x_9 + 184 x_10 + 117 x_11 + 174 x_12 = 9655
Bounds
  0 <= x_1 <= 10
  0 <= x_2 <= 10
  0 <= x_3 <= 10
  0 <= x_4 <= 10
  0 <= x_5 <= 10
  0 <= x_6 <= 10
  0 <= x_7 <= 10
  0 <= x_8 <= 10
  0 <= x_9 <= 10
  0 <= x_10 <= 10
  0 <= x_11 <= 10
  0 <= x_12 <= 10
End
