Subject To
	c_1: + 75 x_1 + 231 x_2 + 66 x_3 + 205 x_4 + 218 x_5 + 129 x_6 + 133 x_7 + 135 x_8 + 51 x_9 + 54 x_10 + 192 x_11 + 202 x_12 = 11616
	c_2: + 244 x_1 + 181 x_2 + 246 x_3 + 155 x_4 + 20 x_5 + 144 x_6 + 168 x_7 + 81 x_8 + 193 x_9 + 175 x_10 + 134 x_11 + 11 x_12 = 8315
	c_3: + 41 x_1 + 128 x_2 + 6 x_3 + 27 x_4 + 53 x_5 + 28 x_6 + 202 x_7 + 30 x_8 + 92 x_9 + 199 x_10 + 198 x_11 + 140 x_12 = 6694
	c_4: + 91 x_1 + 204 x_2 + 107 x_3 + 32 x_4 + 182 x_5 + 99 x_6 + 39 x_7 + 47 x_8 + 135 x_9 + 134 x_10 + 136 x_11 + 218 x_12 = 8716
	c_5: + 42 x_1 + 216 x_2 + 104 x_3 + 115 x_4 + 146 x_5 + 210 x_6 + 92 x_7 + 9 x_8 + 112 x_9 + 67 x_10 + 11 x_11 + 136 x_12 = 7817
	c_6: + 42 x_1 + 111 x_2 + 69 x_3 + 149 x_4 + 222 x_5 + 140 x_6 + 232 x_7 + 141 x_8 + 10 x_9 + 142 x_10 + 67 x_11 + 18 x_12 = 8113
	c_7: + 71 x_1 + 161 x_2 + 113 x_3 + 103 x_4 + 129 x_5 + 244 x_6 + 173 x_7 + 185 x_8 + 1 x_9 + 245 x_10 + 38 x_11 + 4 x_12 = 7872
	c_8: + 94 x_1 + 167 x_2 + 79 x_3 + 180 x_4 + 143 x_5 + 173 x_6 + 157 x_7 + 225 x_8 + 140 x_9 + 137 x_10 + 126 x_11 + 199 x_12 = 10766
Bounds
  0 <= x_1 <= 10
  0 <= x_2 <= 10
  0 <= x_3 <= 10
  0 <= x_4 <= 10
  0 <= x_5 <= 10
  0 <= x_6 <= 10
  0 <= x_7 <= 10
  0 <= x_8 <= 10
  0 <= x_9 <= 10
  0 <= x_10 <= 10
  0 <= x_11 <= 10
  0 <= x_12 <= 10
End
