Subject To
	c_1: + 79 x_1 + 245 x_2 + 52 x_3 + 162 x_4 + 26 x_5 + 170 x_6 + 59 x_7 + 98 x_8 + 185 x_9 + 166 x_10 + 113 x_11 + 22 x_12 = 8745
	c_2: + 171 x_1 + 137 x_2 + 221 x_3 + 98 x_4 + 182 x_5 + 195 x_6 + 148 x_7 + 77 x_8 + 225 x_9 + 131 x_10 + 89 x_11 + 212 x_12 = 8235
	c_3: + 96 x_1 + 92 x_2 + 85 x_3 + 239 x_4 + 71 x_5 + 248 x_6 + 79 x_7 + 250 x_8 + 154 x_9 + 126 x_10 + 1 x_11 + 198 x_12 = 8134
	c_4: + 109 x_1 + 146 x_2 + 16 x_3 + 68 x_4 + 93 x_5 + 51 x_6 + 243 x_7 + 177 x_8 + 11 x_9 + 140 x_10 + 101 x_11 + 82 x_12 = 5411
	c_5: + 8 x_1 + 32 x_2 + 10 x_3 + 96 x_4 + 132 x_5 + 9 x_6 + 165 x_7 + 39 x_8 + 104 x_9 + 83 x_10 + 59 x_11 + 170 x_12 = 3366
	c_6: + 212 x_1 + 94 x_2 + 23 x_3 + 5 x_4 + 142 x_5 + 209 x_6 + 162 x_7 + 229 x_8 + 24 x_9 + 87 x_10 + 131 x_11 + 65 x_12 = 5827
	c_7: + 232 x_1 + 82 x_2 + 3 x_3 + 90 x_4 + 176 x_5 + 151 x_6 + 240 x_7 + 5 x_8 + 66 x_9 + 68 x_10 + 235 x_11 + 38 x_12 = 5829
	c_8: + 178 x_1 + 109 x_2 + 222 x_3 + 179 x_4 + 146 x_5 + 96 x_6 + 104 x_7 + 228 x_8 + 26 x_9 + 58 x_10 + 10 x_11 + 198 x_12 = 5913
Bounds
  0 <= x_1 <= 10
  0 <= x_2 <= 10
  0 <= x_3 <= 10
  0 <= x_4 <= 10
  0 <= x_5 <= 10
  0 <= x_6 <= 10
  0 <= x_7 <= 10
  0 <= x_8 <= 10
  0 <= x_9 <= 10
  0 <= x_10 <= 10
  0 <= x_11 <= 10
  0 <= x_12 <= 10
End
