Subject To
	c_1: + 228 x_1 + 170 x_2 + 221 x_3 + 157 x_4 + 49 x_5 + 79 x_6 + 41 x_7 + 205 x_8 + 227 x_9 + 49 x_10 + 147 x_11 + 139 x_12 = 12274
	c_2: + 159 x_1 + 30 x_2 + 97 x_3 + 67 x_4 + 56 x_5 + 146 x_6 + 194 x_7 + 138 x_8 + 122 x_9 + 24 x_10 + 149 x_11 + 107 x_12 = 7605
	c_3: + 196 x_1 + 219 x_2 + 116 x_3 + 103 x_4 + 170 x_5 + 132 x_6 + 220 x_7 + 199 x_8 + 101 x_9 + 17 x_10 + 202 x_11 + 202 x_12 = 11070
	c_4: + 158 x_1 + 211 x_2 + 167 x_3 + 172 x_4 + 213 x_5 + 18 x_6 + 242 x_7 + 11 x_8 + 75 x_9 + 222 x_10 + 131 x_11 + 123 x_12 = 9045
	c_5: + 12 x_1 + 86 x_2 + 119 x_3 + 38 x_4 + 26 x_5 + 228 x_6 + 39 x_7 + 123 x_8 + 108 x_9 + 100 x_10 + 152 x_11 + 18 x_12 = 5972
	c_6: + 239 x_1 + 124 x_2 + 104 x_3 + 179 x_4 + 7 x_5 + 164 x_6 + 36 x_7 + 66 x_8 + 206 x_9 + 174 x_10 + 236 x_11 + 190 x_12 = 11096
	c_7: + 60 x_1 + 159 x_2 + 107 x_3 + 46 x_4 + 88 x_5 + 205 x_6 + 179 x_7 + 4 x_8 + 215 x_9 + 64 x_10 + 18 x_11 + 223 x_12 = 7463
	c_8: + 82 x_1 + 240 x_2 + 51 x_3 + 57 x_4 + 122 x_5 + 61 x_6 + 158 x_7 + 16 x_8 + 85 x_9 + 165 x_10 + 63 x_11 + 8 x_12 = 5535
Bounds
  0 <= x_1 <= 10
  0 <= x_2 <= 10
  0 <= x_3 <= 10
  0 <= x_4 <= 10
  0 <= x_5 <= 10
  0 <= x_6 <= 10
  0 <= x_7 <= 10
  0 <= x_8 <= 10
  0 <= x_9 <= 10
  0 <= x_10 <= 10
  0 <= x_11 <= 10
  0 <= x_12 <= 10
End
