Subject To
	c_1: + 80 x_1 + 215 x_2 + 77 x_3 + 60 x_4 + 70 x_5 + 182 x_6 + 118 x_7 + 148 x_8 + 61 x_9 + 121 x_10 + 75 x_11 + 246 x_12 = 8900
	c_2: + 198 x_1 + 157 x_2 + 58 x_3 + 119 x_4 + 146 x_5 + 167 x_6 + 36 x_7 + 62 x_8 + 102 x_9 + 30 x_10 + 185 x_11 + 249 x_12 = 7977
	c_3: + 215 x_1 + 221 x_2 + 1 x_3 + 84 x_4 + 100 x_5 + 172 x_6 + 125 x_7 + 75 x_8 + 195 x_9 + 92 x_10 + 116 x_11 + 103 x_12 = 7612
	c_4: + 14 x_1 + 174 x_2 + 197 x_3 + 110 x_4 + 67 x_5 + 140 x_6 + 103 x_7 + 43 x_8 + 29 x_9 + 110 x_10 + 108 x_11 + 191 x_12 = 7215
	c_5: + 237 x_1 + 77 x_2 + 64 x_3 + 72 x_4 + 117 x_5 + 41 x_6 + 218 x_7 + 16 x_8 + 63 x_9 + 176 x_10 + 175 x_11 + 151 x_12 = 6605
	c_6: + 246 x_1 + 58 x_2 + 145 x_3 + 155 x_4 + 24 x_5 + 225 x_6 + 7 x_7 + 192 x_8 + 145 x_9 + 134 x_10 + 25 x_11 + 113 x_12 = 7004
	c_7: + 130 x_1 + 174 x_2 + 64 x_3 + 65 x_4 + 82 x_5 + 51 x_6 + 169 x_7 + 247 x_8 + 204 x_9 + 71 x_10 + 63 x_11 + 43 x_12 = 6590
	c_8: + 16 x_1 + 173 x_2 + 150 x_3 + 111 x_4 + 34 x_5 + 178 x_6 + 229 x_7 + 138 x_8 + 21 x_9 + 116 x_10 + 137 x_11 + 28 x_12 = 6911
Bounds
  0 <= x_1 <= 10
  0 <= x_2 <= 10
  0 <= x_3 <= 10
  0 <= x_4 <= 10
  0 <= x_5 <= 10
  0 <= x_6 <= 10
  0 <= x_7 <= 10
  0 <= x_8 <= 10
  0 <= x_9 <= 10
  0 <= x_10 <= 10
  0 <= x_11 <= 10
  0 <= x_12 <= 10
End
