Subject To
	c_1: + 15 x_1 + 77 x_2 + 171 x_3 + 90 x_4 + 136 x_5 + 39 x_6 + 104 x_7 + 54 x_8 + 95 x_9 + 38 x_10 + 148 x_11 + 136 x_12 = 4927
	c_2: + 42 x_1 + 173 x_2 + 153 x_3 + 71 x_4 + 73 x_5 + 116 x_6 + 137 x_7 + 167 x_8 + 237 x_9 + 233 x_10 + 25 x_11 + 111 x_12 = 5052
	c_3: + 152 x_1 + 18 x_2 + 33 x_3 + 13 x_4 + 136 x_5 + 113 x_6 + 140 x_7 + 42 x_8 + 157 x_9 + 220 x_10 + 92 x_11 + 80 x_12 = 3561
	c_4: + 71 x_1 + 88 x_2 + 65 x_3 + 36 x_4 + 92 x_5 + 151 x_6 + 160 x_7 + 196 x_8 + 110 x_9 + 38 x_10 + 162 x_11 + 229 x_12 = 5065
	c_5: + 150 x_1 + 100 x_2 + 193 x_3 + 196 x_4 + 26 x_5 + 63 x_6 + 63 x_7 + 9 x_8 + 247 x_9 + 38 x_10 + 119 x_11 + 79 x_12 = 4837
	c_6: + 184 x_1 + 180 x_2 + 92 x_3 + 3 x_4 + 6 x_5 + 221 x_6 + 23 x_7 + 234 x_8 + 137 x_9 + 222 x_10 + 48 x_11 + 27 x_12 = 3197
	c_7: + 176 x_1 + 182 x_2 + 38 x_3 + 42 x_4 + 45 x_5 + 87 x_6 + 130 x_7 + 237 x_8 + 16 x_9 + 201 x_10 + 111 x_11 + 149 x_12 = 3920
	c_8: + 141 x_1 + 126 x_2 + 214 x_3 + 104 x_4 + 201 x_5 + 227 x_6 + 51 x_7 + 90 x_8 + 190 x_9 + 200 x_10 + 133 x_11 + 102 x_12 = 6072
Bounds
  0 <= x_1 <= 10
  0 <= x_2 <= 10
  0 <= x_3 <= 10
  0 <= x_4 <= 10
  0 <= x_5 <= 10
  0 <= x_6 <= 10
  0 <= x_7 <= 10
  0 <= x_8 <= 10
  0 <= x_9 <= 10
  0 <= x_10 <= 10
  0 <= x_11 <= 10
  0 <= x_12 <= 10
End
