Subject To
	c_1: + 80 x_1 + 130 x_2 + 91 x_3 + 20 x_4 + 31 x_5 + 43 x_6 + 50 x_7 + 132 x_8 + 158 x_9 + 111 x_10 + 193 x_11 + 97 x_12 = 5412
	c_2: + 151 x_1 + 194 x_2 + 58 x_3 + 176 x_4 + 83 x_5 + 176 x_6 + 38 x_7 + 189 x_8 + 137 x_9 + 221 x_10 + 198 x_11 + 85 x_12 = 6565
	c_3: + 22 x_1 + 142 x_2 + 127 x_3 + 239 x_4 + 150 x_5 + 110 x_6 + 150 x_7 + 92 x_8 + 213 x_9 + 207 x_10 + 41 x_11 + 33 x_12 = 4870
	c_4: + 128 x_1 + 246 x_2 + 21 x_3 + 57 x_4 + 90 x_5 + 106 x_6 + 246 x_7 + 185 x_8 + 57 x_9 + 156 x_10 + 76 x_11 + 146 x_12 = 5469
	c_5: + 17 x_1 + 105 x_2 + 86 x_3 + 164 x_4 + 70 x_5 + 67 x_6 + 64 x_7 + 113 x_8 + 180 x_9 + 146 x_10 + 66 x_11 + 68 x_12 = 4214
	c_6: + 196 x_1 + 87 x_2 + 81 x_3 + 165 x_4 + 64 x_5 + 67 x_6 + 146 x_7 + 95 x_8 + 119 x_9 + 38 x_10 + 250 x_11 + 166 x_12 = 5775
	c_7: + 148 x_1 + 19 x_2 + 146 x_3 + 73 x_4 + 105 x_5 + 207 x_6 + 123 x_7 + 142 x_8 + 71 x_9 + 224 x_10 + 127 x_11 + 228 x_12 = 5641
	c_8: + 136 x_1 + 22 x_2 + 224 x_3 + 44 x_4 + 115 x_5 + 14 x_6 + 57 x_7 + 129 x_8 + 4 x_9 + 176 x_10 + 30 x_11 + 229 x_12 = 4186
Bounds
  0 <= x_1 <= 10
  0 <= x_2 <= 10
  0 <= x_3 <= 10
  0 <= x_4 <= 10
  0 <= x_5 <= 10
  0 <= x_6 <= 10
  0 <= x_7 <= 10
  0 <= x_8 <= 10
  0 <= x_9 <= 10
  0 <= x_10 <= 10
  0 <= x_11 <= 10
  0 <= x_12 <= 10
End
