Subject To
	c_1: + 154 x_1 + 141 x_2 + 92 x_3 + 86 x_4 + 95 x_5 + 156 x_6 + 198 x_7 + 203 x_8 + 213 x_9 + 83 x_10 + 181 x_11 + 5 x_12 = 10353
	c_2: + 42 x_1 + 105 x_2 + 139 x_3 + 185 x_4 + 19 x_5 + 23 x_6 + 173 x_7 + 112 x_8 + 43 x_9 + 229 x_10 + 122 x_11 + 226 x_12 = 6415
	c_3: + 146 x_1 + 123 x_2 + 69 x_3 + 3 x_4 + 204 x_5 + 84 x_6 + 232 x_7 + 211 x_8 + 166 x_9 + 18 x_10 + 50 x_11 + 63 x_12 = 8661
	c_4: + 116 x_1 + 45 x_2 + 210 x_3 + 78 x_4 + 1 x_5 + 199 x_6 + 51 x_7 + 39 x_8 + 125 x_9 + 234 x_10 + 84 x_11 + 241 x_12 = 6373
	c_5: + 229 x_1 + 95 x_2 + 154 x_3 + 229 x_4 + 37 x_5 + 66 x_6 + 81 x_7 + 209 x_8 + 120 x_9 + 96 x_10 + 54 x_11 + 115 x_12 = 7857
	c_6: + 222 x_1 + 162 x_2 + 25 x_3 + 158 x_4 + 99 x_5 + 120 x_6 + 56 x_7 + 80 x_8 + 188 x_9 + 89 x_10 + 160 x_11 + 239 x_12 = 8161
	c_7: + 169 x_1 + 94 x_2 + 29 x_3 + 178 x_4 + 104 x_5 + 26 x_6 + 39 x_7 + 86 x_8 + 82 x_9 + 223 x_10 + 8 x_11 + 226 x_12 = 5263
	c_8: + 179 x_1 + 149 x_2 + 220 x_3 + 101 x_4 + 187 x_5 + 16 x_6 + 168 x_7 + 222 x_8 + 232 x_9 + 209 x_10 + 17 x_11 + 188 x_12 = 9949
Bounds
  0 <= x_1 <= 10
  0 <= x_2 <= 10
  0 <= x_3 <= 10
  0 <= x_4 <= 10
  0 <= x_5 <= 10
  0 <= x_6 <= 10
  0 <= x_7 <= 10
  0 <= x_8 <= 10
  0 <= x_9 <= 10
  0 <= x_10 <= 10
  0 <= x_11 <= 10
  0 <= x_12 <= 10
End
