Subject To
	c_1: + 150 x_1 + 9 x_2 + 237 x_3 + 175 x_4 + 123 x_5 + 207 x_6 + 41 x_7 + 223 x_8 + 161 x_9 + 230 x_10 + 83 x_11 + 205 x_12 = 14542
	c_2: + 167 x_1 + 99 x_2 + 35 x_3 + 129 x_4 + 34 x_5 + 70 x_6 + 38 x_7 + 27 x_8 + 78 x_9 + 155 x_10 + 249 x_11 + 235 x_12 = 8294
	c_3: + 8 x_1 + 115 x_2 + 193 x_3 + 17 x_4 + 120 x_5 + 76 x_6 + 91 x_7 + 157 x_8 + 177 x_9 + 243 x_10 + 56 x_11 + 185 x_12 = 10387
	c_4: + 148 x_1 + 228 x_2 + 175 x_3 + 51 x_4 + 193 x_5 + 239 x_6 + 155 x_7 + 115 x_8 + 248 x_9 + 198 x_10 + 223 x_11 + 27 x_12 = 11929
	c_5: + 125 x_1 + 25 x_2 + 77 x_3 + 216 x_4 + 25 x_5 + 18 x_6 + 142 x_7 + 160 x_8 + 195 x_9 + 249 x_10 + 90 x_11 + 18 x_12 = 9188
	c_6: + 18 x_1 + 163 x_2 + 6 x_3 + 186 x_4 + 75 x_5 + 10 x_6 + 233 x_7 + 161 x_8 + 48 x_9 + 48 x_10 + 4 x_11 + 15 x_12 = 4580
	c_7: + 22 x_1 + 29 x_2 + 16 x_3 + 40 x_4 + 244 x_5 + 41 x_6 + 130 x_7 + 172 x_8 + 120 x_9 + 206 x_10 + 225 x_11 + 158 x_12 = 8836
	c_8: + 44 x_1 + 25 x_2 + 80 x_3 + 134 x_4 + 226 x_5 + 89 x_6 + 183 x_7 + 2 x_8 + 43 x_9 + 28 x_10 + 164 x_11 + 233 x_12 = 7304
Bounds
  0 <= x_1 <= 10
  0 <= x_2 <= 10
  0 <= x_3 <= 10
  0 <= x_4 <= 10
  0 <= x_5 <= 10
  0 <= x_6 <= 10
  0 <= x_7 <= 10
  0 <= x_8 <= 10
  0 <= x_9 <= 10
  0 <= x_10 <= 10
  0 <= x_11 <= 10
  0 <= x_12 <= 10
End
