Subject To
	c_1: + 146 x_1 + 46 x_2 + 150 x_3 + 12 x_4 + 158 x_5 + 236 x_6 + 52 x_7 + 86 x_8 + 148 x_9 + 192 x_10 + 186 x_11 + 115 x_12 = 9979
	c_2: + 223 x_1 + 246 x_2 + 186 x_3 + 221 x_4 + 103 x_5 + 163 x_6 + 57 x_7 + 7 x_8 + 245 x_9 + 32 x_10 + 17 x_11 + 5 x_12 = 6970
	c_3: + 87 x_1 + 240 x_2 + 87 x_3 + 246 x_4 + 105 x_5 + 223 x_6 + 96 x_7 + 72 x_8 + 226 x_9 + 48 x_10 + 232 x_11 + 15 x_12 = 8223
	c_4: + 8 x_1 + 190 x_2 + 36 x_3 + 91 x_4 + 179 x_5 + 232 x_6 + 119 x_7 + 204 x_8 + 58 x_9 + 34 x_10 + 128 x_11 + 17 x_12 = 6427
	c_5: + 174 x_1 + 41 x_2 + 207 x_3 + 62 x_4 + 212 x_5 + 137 x_6 + 118 x_7 + 130 x_8 + 147 x_9 + 61 x_10 + 109 x_11 + 100 x_12 = 8337
	c_6: + 60 x_1 + 201 x_2 + 90 x_3 + 95 x_4 + 39 x_5 + 37 x_6 + 105 x_7 + 30 x_8 + 117 x_9 + 135 x_10 + 136 x_11 + 197 x_12 = 5860
	c_7: + 117 x_1 + 93 x_2 + 105 x_3 + 171 x_4 + 43 x_5 + 195 x_6 + 24 x_7 + 185 x_8 + 235 x_9 + 246 x_10 + 201 x_11 + 226 x_12 = 10352
	c_8: + 70 x_1 + 228 x_2 + 98 x_3 + 136 x_4 + 19 x_5 + 73 x_6 + 162 x_7 + 34 x_8 + 210 x_9 + 248 x_10 + 162 x_11 + 41 x_12 = 7251
Bounds
  0 <= x_1 <= 10
  0 <= x_2 <= 10
  0 <= x_3 <= 10
  0 <= x_4 <= 10
  0 <= x_5 <= 10
  0 <= x_6 <= 10
  0 <= x_7 <= 10
  0 <= x_8 <= 10
  0 <= x_9 <= 10
  0 <= x_10 <= 10
  0 <= x_11 <= 10
  0 <= x_12 <= 10
End
