Subject To
	c_1: + 154 x_1 + 39 x_2 + 198 x_3 + 177 x_4 + 52 x_5 + 129 x_6 + 166 x_7 + 25 x_8 + 113 x_9 + 123 x_10 + 194 x_11 + 44 x_12 = 8385
	c_2: + 147 x_1 + 194 x_2 + 248 x_3 + 174 x_4 + 58 x_5 + 108 x_6 + 164 x_7 + 196 x_8 + 83 x_9 + 161 x_10 + 124 x_11 + 86 x_12 = 8493
	c_3: + 144 x_1 + 223 x_2 + 196 x_3 + 76 x_4 + 11 x_5 + 83 x_6 + 146 x_7 + 129 x_8 + 83 x_9 + 8 x_10 + 212 x_11 + 154 x_12 = 6997
	c_4: + 20 x_1 + 86 x_2 + 49 x_3 + 112 x_4 + 103 x_5 + 90 x_6 + 18 x_7 + 188 x_8 + 29 x_9 + 59 x_10 + 44 x_11 + 106 x_12 = 3221
	c_5: + 214 x_1 + 222 x_2 + 222 x_3 + 249 x_4 + 179 x_5 + 58 x_6 + 241 x_7 + 114 x_8 + 15 x_9 + 204 x_10 + 155 x_11 + 91 x_12 = 9885
	c_6: + 104 x_1 + 68 x_2 + 245 x_3 + 250 x_4 + 234 x_5 + 119 x_6 + 81 x_7 + 141 x_8 + 96 x_9 + 107 x_10 + 159 x_11 + 175 x_12 = 8539
	c_7: + 181 x_1 + 190 x_2 + 121 x_3 + 16 x_4 + 12 x_5 + 27 x_6 + 100 x_7 + 153 x_8 + 107 x_9 + 38 x_10 + 106 x_11 + 206 x_12 = 5040
	c_8: + 8 x_1 + 50 x_2 + 75 x_3 + 86 x_4 + 112 x_5 + 238 x_6 + 143 x_7 + 192 x_8 + 70 x_9 + 160 x_10 + 3 x_11 + 244 x_12 = 5255
Bounds
  0 <= x_1 <= 10
  0 <= x_2 <= 10
  0 <= x_3 <= 10
  0 <= x_4 <= 10
  0 <= x_5 <= 10
  0 <= x_6 <= 10
  0 <= x_7 <= 10
  0 <= x_8 <= 10
  0 <= x_9 <= 10
  0 <= x_10 <= 10
  0 <= x_11 <= 10
  0 <= x_12 <= 10
End
