Subject To
	c_1: + 244 x_1 + 173 x_2 + 107 x_3 + 44 x_4 + 64 x_5 + 241 x_6 + 98 x_7 + 178 x_8 + 131 x_9 + 97 x_10 + 51 x_11 + 16 x_12 = 9444
	c_2: + 234 x_1 + 109 x_2 + 49 x_3 + 36 x_4 + 224 x_5 + 98 x_6 + 221 x_7 + 11 x_8 + 153 x_9 + 67 x_10 + 237 x_11 + 147 x_12 = 7231
	c_3: + 159 x_1 + 32 x_2 + 66 x_3 + 48 x_4 + 155 x_5 + 88 x_6 + 119 x_7 + 59 x_8 + 240 x_9 + 67 x_10 + 13 x_11 + 160 x_12 = 5699
	c_4: + 48 x_1 + 113 x_2 + 41 x_3 + 198 x_4 + 68 x_5 + 173 x_6 + 48 x_7 + 210 x_8 + 31 x_9 + 214 x_10 + 223 x_11 + 150 x_12 = 6618
	c_5: + 14 x_1 + 173 x_2 + 1 x_3 + 179 x_4 + 66 x_5 + 161 x_6 + 239 x_7 + 2 x_8 + 161 x_9 + 246 x_10 + 167 x_11 + 14 x_12 = 6369
	c_6: + 42 x_1 + 134 x_2 + 196 x_3 + 84 x_4 + 11 x_5 + 80 x_6 + 112 x_7 + 81 x_8 + 158 x_9 + 44 x_10 + 202 x_11 + 191 x_12 = 5433
	c_7: + 239 x_1 + 75 x_2 + 64 x_3 + 107 x_4 + 20 x_5 + 55 x_6 + 170 x_7 + 150 x_8 + 204 x_9 + 66 x_10 + 125 x_11 + 183 x_12 = 7132
	c_8: + 167 x_1 + 145 x_2 + 203 x_3 + 246 x_4 + 29 x_5 + 125 x_6 + 208 x_7 + 179 x_8 + 31 x_9 + 12 x_10 + 113 x_11 + 197 x_12 = 7565
Bounds
  0 <= x_1 <= 10
  0 <= x_2 <= 10
  0 <= x_3 <= 10
  0 <= x_4 <= 10
  0 <= x_5 <= 10
  0 <= x_6 <= 10
  0 <= x_7 <= 10
  0 <= x_8 <= 10
  0 <= x_9 <= 10
  0 <= x_10 <= 10
  0 <= x_11 <= 10
  0 <= x_12 <= 10
End
