Subject To
	c_1: + 84 x_1 + 171 x_2 + 202 x_3 + 219 x_4 + 65 x_5 + 128 x_6 + 133 x_7 + 221 x_8 + 205 x_9 + 32 x_10 + 206 x_11 + 8 x_12 = 11986
	c_2: + 241 x_1 + 161 x_2 + 72 x_3 + 98 x_4 + 171 x_5 + 101 x_6 + 230 x_7 + 35 x_8 + 77 x_9 + 211 x_10 + 220 x_11 + 67 x_12 = 8427
	c_3: + 121 x_1 + 211 x_2 + 247 x_3 + 19 x_4 + 248 x_5 + 65 x_6 + 225 x_7 + 240 x_8 + 216 x_9 + 91 x_10 + 101 x_11 + 175 x_12 = 10821
	c_4: + 177 x_1 + 215 x_2 + 141 x_3 + 224 x_4 + 12 x_5 + 81 x_6 + 112 x_7 + 55 x_8 + 79 x_9 + 84 x_10 + 49 x_11 + 89 x_12 = 7821
	c_5: + 152 x_1 + 144 x_2 + 84 x_3 + 47 x_4 + 35 x_5 + 5 x_6 + 24 x_7 + 47 x_8 + 49 x_9 + 241 x_10 + 49 x_11 + 152 x_12 = 4271
	c_6: + 226 x_1 + 182 x_2 + 93 x_3 + 156 x_4 + 44 x_5 + 74 x_6 + 30 x_7 + 2 x_8 + 204 x_9 + 34 x_10 + 168 x_11 + 96 x_12 = 7904
	c_7: + 226 x_1 + 216 x_2 + 87 x_3 + 143 x_4 + 214 x_5 + 138 x_6 + 24 x_7 + 90 x_8 + 45 x_9 + 38 x_10 + 152 x_11 + 170 x_12 = 7987
	c_8: + 229 x_1 + 246 x_2 + 15 x_3 + 138 x_4 + 160 x_5 + 3 x_6 + 217 x_7 + 108 x_8 + 151 x_9 + 191 x_10 + 123 x_11 + 25 x_12 = 8669
Bounds
  0 <= x_1 <= 10
  0 <= x_2 <= 10
  0 <= x_3 <= 10
  0 <= x_4 <= 10
  0 <= x_5 <= 10
  0 <= x_6 <= 10
  0 <= x_7 <= 10
  0 <= x_8 <= 10
  0 <= x_9 <= 10
  0 <= x_10 <= 10
  0 <= x_11 <= 10
  0 <= x_12 <= 10
End
