Subject To
	c_1: + 33 x_1 + 46 x_2 + 90 x_3 + 28 x_4 + 122 x_5 + 135 x_6 + 31 x_7 + 248 x_8 + 176 x_9 + 23 x_10 + 88 x_11 + 2 x_12 = 5715
	c_2: + 44 x_1 + 214 x_2 + 233 x_3 + 246 x_4 + 92 x_5 + 70 x_6 + 2 x_7 + 194 x_8 + 178 x_9 + 97 x_10 + 158 x_11 + 117 x_12 = 5889
	c_3: + 115 x_1 + 32 x_2 + 35 x_3 + 91 x_4 + 60 x_5 + 179 x_6 + 74 x_7 + 181 x_8 + 122 x_9 + 80 x_10 + 68 x_11 + 218 x_12 = 4512
	c_4: + 172 x_1 + 247 x_2 + 166 x_3 + 153 x_4 + 211 x_5 + 211 x_6 + 140 x_7 + 63 x_8 + 25 x_9 + 188 x_10 + 170 x_11 + 15 x_12 = 4882
	c_5: + 69 x_1 + 29 x_2 + 81 x_3 + 25 x_4 + 133 x_5 + 120 x_6 + 95 x_7 + 2 x_8 + 189 x_9 + 68 x_10 + 56 x_11 + 83 x_12 = 3266
	c_6: + 244 x_1 + 37 x_2 + 136 x_3 + 229 x_4 + 144 x_5 + 233 x_6 + 6 x_7 + 30 x_8 + 164 x_9 + 180 x_10 + 6 x_11 + 238 x_12 = 4312
	c_7: + 179 x_1 + 174 x_2 + 183 x_3 + 73 x_4 + 86 x_5 + 36 x_6 + 126 x_7 + 64 x_8 + 4 x_9 + 224 x_10 + 13 x_11 + 187 x_12 = 2592
	c_8: + 162 x_1 + 238 x_2 + 56 x_3 + 130 x_4 + 46 x_5 + 22 x_6 + 179 x_7 + 129 x_8 + 39 x_9 + 129 x_10 + 64 x_11 + 7 x_12 = 3210
Bounds
  0 <= x_1 <= 10
  0 <= x_2 <= 10
  0 <= x_3 <= 10
  0 <= x_4 <= 10
  0 <= x_5 <= 10
  0 <= x_6 <= 10
  0 <= x_7 <= 10
  0 <= x_8 <= 10
  0 <= x_9 <= 10
  0 <= x_10 <= 10
  0 <= x_11 <= 10
  0 <= x_12 <= 10
End
