Subject To
	c_1: + 121 x_1 + 148 x_2 + 236 x_3 + 247 x_4 + 35 x_5 + 143 x_6 + 160 x_7 + 78 x_8 + 38 x_9 + 118 x_10 + 20 x_11 + 188 x_12 = 10702
	c_2: + 18 x_1 + 197 x_2 + 51 x_3 + 170 x_4 + 163 x_5 + 64 x_6 + 26 x_7 + 197 x_8 + 96 x_9 + 76 x_10 + 43 x_11 + 119 x_12 = 6230
	c_3: + 29 x_1 + 115 x_2 + 33 x_3 + 116 x_4 + 187 x_5 + 152 x_6 + 25 x_7 + 76 x_8 + 160 x_9 + 84 x_10 + 104 x_11 + 74 x_12 = 4999
	c_4: + 138 x_1 + 20 x_2 + 103 x_3 + 57 x_4 + 115 x_5 + 233 x_6 + 87 x_7 + 152 x_8 + 63 x_9 + 14 x_10 + 120 x_11 + 37 x_12 = 5417
	c_5: + 152 x_1 + 208 x_2 + 75 x_3 + 66 x_4 + 5 x_5 + 62 x_6 + 160 x_7 + 175 x_8 + 216 x_9 + 153 x_10 + 100 x_11 + 205 x_12 = 8061
	c_6: + 137 x_1 + 128 x_2 + 73 x_3 + 45 x_4 + 125 x_5 + 135 x_6 + 58 x_7 + 154 x_8 + 196 x_9 + 156 x_10 + 37 x_11 + 175 x_12 = 6812
	c_7: + 172 x_1 + 133 x_2 + 30 x_3 + 250 x_4 + 169 x_5 + 75 x_6 + 218 x_7 + 25 x_8 + 170 x_9 + 11 x_10 + 194 x_11 + 178 x_12 = 8327
	c_8: + 30 x_1 + 219 x_2 + 16 x_3 + 184 x_4 + 117 x_5 + 81 x_6 + 156 x_7 + 203 x_8 + 180 x_9 + 15 x_10 + 77 x_11 + 130 x_12 = 7063
Bounds
  0 <= x_1 <= 10
  0 <= x_2 <= 10
  0 <= x_3 <= 10
  0 <= x_4 <= 10
  0 <= x_5 <= 10
  0 <= x_6 <= 10
  0 <= x_7 <= 10
  0 <= x_8 <= 10
  0 <= x_9 <= 10
  0 <= x_10 <= 10
  0 <= x_11 <= 10
  0 <= x_12 <= 10
End
