Subject To
	c_1: + 135 x_1 + 68 x_2 + 158 x_3 + 137 x_4 + 132 x_5 + 90 x_6 + 250 x_7 + 170 x_8 + 198 x_9 + 95 x_10 + 58 x_11 + 167 x_12 = 10450
	c_2: + 158 x_1 + 141 x_2 + 88 x_3 + 12 x_4 + 77 x_5 + 118 x_6 + 49 x_7 + 113 x_8 + 250 x_9 + 215 x_10 + 28 x_11 + 12 x_12 = 6692
	c_3: + 197 x_1 + 172 x_2 + 150 x_3 + 214 x_4 + 191 x_5 + 83 x_6 + 140 x_7 + 163 x_8 + 15 x_9 + 168 x_10 + 77 x_11 + 158 x_12 = 9310
	c_4: + 152 x_1 + 103 x_2 + 139 x_3 + 24 x_4 + 2 x_5 + 63 x_6 + 83 x_7 + 135 x_8 + 96 x_9 + 52 x_10 + 36 x_11 + 185 x_12 = 6261
	c_5: + 144 x_1 + 137 x_2 + 76 x_3 + 80 x_4 + 89 x_5 + 235 x_6 + 13 x_7 + 146 x_8 + 176 x_9 + 157 x_10 + 27 x_11 + 96 x_12 = 6994
	c_6: + 91 x_1 + 185 x_2 + 90 x_3 + 213 x_4 + 201 x_5 + 243 x_6 + 43 x_7 + 142 x_8 + 222 x_9 + 210 x_10 + 236 x_11 + 186 x_12 = 10191
	c_7: + 212 x_1 + 211 x_2 + 200 x_3 + 240 x_4 + 72 x_5 + 249 x_6 + 213 x_7 + 170 x_8 + 239 x_9 + 101 x_10 + 223 x_11 + 197 x_12 = 12690
	c_8: + 200 x_1 + 234 x_2 + 14 x_3 + 160 x_4 + 119 x_5 + 93 x_6 + 167 x_7 + 158 x_8 + 155 x_9 + 203 x_10 + 25 x_11 + 36 x_12 = 8516
Bounds
  0 <= x_1 <= 10
  0 <= x_2 <= 10
  0 <= x_3 <= 10
  0 <= x_4 <= 10
  0 <= x_5 <= 10
  0 <= x_6 <= 10
  0 <= x_7 <= 10
  0 <= x_8 <= 10
  0 <= x_9 <= 10
  0 <= x_10 <= 10
  0 <= x_11 <= 10
  0 <= x_12 <= 10
End
