Subject To
	c_1: + 215 x_1 + 33 x_2 + 30 x_3 + 109 x_4 + 14 x_5 + 239 x_6 + 78 x_7 + 119 x_8 + 187 x_9 + 76 x_10 + 227 x_11 + 69 x_12 = 9627
	c_2: + 11 x_1 + 220 x_2 + 45 x_3 + 97 x_4 + 67 x_5 + 102 x_6 + 170 x_7 + 232 x_8 + 36 x_9 + 205 x_10 + 156 x_11 + 160 x_12 = 6229
	c_3: + 108 x_1 + 107 x_2 + 229 x_3 + 197 x_4 + 227 x_5 + 79 x_6 + 87 x_7 + 126 x_8 + 62 x_9 + 149 x_10 + 96 x_11 + 116 x_12 = 5932
	c_4: + 104 x_1 + 54 x_2 + 29 x_3 + 36 x_4 + 95 x_5 + 27 x_6 + 107 x_7 + 215 x_8 + 148 x_9 + 149 x_10 + 134 x_11 + 18 x_12 = 5720
	c_5: + 125 x_1 + 235 x_2 + 9 x_3 + 229 x_4 + 196 x_5 + 180 x_6 + 102 x_7 + 77 x_8 + 7 x_9 + 47 x_10 + 198 x_11 + 5 x_12 = 6770
	c_6: + 149 x_1 + 50 x_2 + 68 x_3 + 211 x_4 + 124 x_5 + 208 x_6 + 42 x_7 + 105 x_8 + 132 x_9 + 107 x_10 + 238 x_11 + 96 x_12 = 8841
	c_7: + 117 x_1 + 50 x_2 + 177 x_3 + 101 x_4 + 50 x_5 + 168 x_6 + 177 x_7 + 75 x_8 + 201 x_9 + 11 x_10 + 138 x_11 + 154 x_12 = 7615
	c_8: + 64 x_1 + 207 x_2 + 56 x_3 + 249 x_4 + 189 x_5 + 108 x_6 + 188 x_7 + 23 x_8 + 108 x_9 + 211 x_10 + 241 x_11 + 104 x_12 = 7572
Bounds
  0 <= x_1 <= 10
  0 <= x_2 <= 10
  0 <= x_3 <= 10
  0 <= x_4 <= 10
  0 <= x_5 <= 10
  0 <= x_6 <= 10
  0 <= x_7 <= 10
  0 <= x_8 <= 10
  0 <= x_9 <= 10
  0 <= x_10 <= 10
  0 <= x_11 <= 10
  0 <= x_12 <= 10
End
