Subject To
	c_1: + 248 x_1 + 106 x_2 + 98 x_3 + 37 x_4 + 173 x_5 + 149 x_6 + 147 x_7 + 40 x_8 + 190 x_9 + 170 x_10 + 110 x_11 + 91 x_12 = 9783
	c_2: + 142 x_1 + 239 x_2 + 106 x_3 + 168 x_4 + 85 x_5 + 19 x_6 + 75 x_7 + 164 x_8 + 160 x_9 + 249 x_10 + 76 x_11 + 195 x_12 = 8203
	c_3: + 222 x_1 + 46 x_2 + 46 x_3 + 186 x_4 + 209 x_5 + 75 x_6 + 158 x_7 + 170 x_8 + 241 x_9 + 26 x_10 + 232 x_11 + 104 x_12 = 9155
	c_4: + 231 x_1 + 18 x_2 + 31 x_3 + 177 x_4 + 165 x_5 + 217 x_6 + 89 x_7 + 168 x_8 + 134 x_9 + 51 x_10 + 142 x_11 + 8 x_12 = 7863
	c_5: + 112 x_1 + 151 x_2 + 232 x_3 + 10 x_4 + 38 x_5 + 227 x_6 + 190 x_7 + 243 x_8 + 216 x_9 + 181 x_10 + 120 x_11 + 233 x_12 = 9847
	c_6: + 78 x_1 + 96 x_2 + 13 x_3 + 187 x_4 + 18 x_5 + 232 x_6 + 108 x_7 + 214 x_8 + 241 x_9 + 140 x_10 + 63 x_11 + 124 x_12 = 7315
	c_7: + 14 x_1 + 87 x_2 + 238 x_3 + 31 x_4 + 71 x_5 + 8 x_6 + 62 x_7 + 175 x_8 + 170 x_9 + 99 x_10 + 61 x_11 + 36 x_12 = 4968
	c_8: + 244 x_1 + 245 x_2 + 113 x_3 + 122 x_4 + 187 x_5 + 127 x_6 + 177 x_7 + 12 x_8 + 114 x_9 + 186 x_10 + 141 x_11 + 25 x_12 = 9992
Bounds
  0 <= x_1 <= 10
  0 <= x_2 <= 10
  0 <= x_3 <= 10
  0 <= x_4 <= 10
  0 <= x_5 <= 10
  0 <= x_6 <= 10
  0 <= x_7 <= 10
  0 <= x_8 <= 10
  0 <= x_9 <= 10
  0 <= x_10 <= 10
  0 <= x_11 <= 10
  0 <= x_12 <= 10
End
