Subject To
	c_1: + 72 x_1 + 112 x_2 + 56 x_3 + 74 x_4 + 244 x_5 + 129 x_6 + 23 x_7 + 155 x_8 + 107 x_9 + 153 x_10 + 152 x_11 + 148 x_12 = 8182
	c_2: + 78 x_1 + 71 x_2 + 86 x_3 + 222 x_4 + 203 x_5 + 98 x_6 + 67 x_7 + 189 x_8 + 202 x_9 + 246 x_10 + 106 x_11 + 103 x_12 = 8615
	c_3: + 5 x_1 + 164 x_2 + 10 x_3 + 9 x_4 + 90 x_5 + 79 x_6 + 171 x_7 + 2 x_8 + 138 x_9 + 53 x_10 + 204 x_11 + 120 x_12 = 5010
	c_4: + 58 x_1 + 150 x_2 + 208 x_3 + 18 x_4 + 206 x_5 + 173 x_6 + 249 x_7 + 139 x_8 + 248 x_9 + 130 x_10 + 203 x_11 + 67 x_12 = 8644
	c_5: + 127 x_1 + 8 x_2 + 19 x_3 + 245 x_4 + 99 x_5 + 144 x_6 + 135 x_7 + 26 x_8 + 217 x_9 + 191 x_10 + 63 x_11 + 74 x_12 = 6023
	c_6: + 98 x_1 + 45 x_2 + 214 x_3 + 87 x_4 + 174 x_5 + 230 x_6 + 163 x_7 + 41 x_8 + 106 x_9 + 227 x_10 + 236 x_11 + 181 x_12 = 8750
	c_7: + 86 x_1 + 115 x_2 + 123 x_3 + 103 x_4 + 91 x_5 + 243 x_6 + 148 x_7 + 92 x_8 + 3 x_9 + 20 x_10 + 97 x_11 + 214 x_12 = 6096
	c_8: + 55 x_1 + 137 x_2 + 77 x_3 + 31 x_4 + 157 x_5 + 19 x_6 + 128 x_7 + 122 x_8 + 172 x_9 + 221 x_10 + 93 x_11 + 38 x_12 = 6285
Bounds
  0 <= x_1 <= 10
  0 <= x_2 <= 10
  0 <= x_3 <= 10
  0 <= x_4 <= 10
  0 <= x_5 <= 10
  0 <= x_6 <= 10
  0 <= x_7 <= 10
  0 <= x_8 <= 10
  0 <= x_9 <= 10
  0 <= x_10 <= 10
  0 <= x_11 <= 10
  0 <= x_12 <= 10
End
