Subject To
	c_1: + 53 x_1 + 181 x_2 + 204 x_3 + 60 x_4 + 183 x_5 + 233 x_6 + 24 x_7 + 190 x_8 + 127 x_9 + 192 x_10 + 39 x_11 + 226 x_12 = 12707
	c_2: + 4 x_1 + 99 x_2 + 19 x_3 + 35 x_4 + 92 x_5 + 63 x_6 + 104 x_7 + 77 x_8 + 133 x_9 + 200 x_10 + 149 x_11 + 224 x_12 = 7439
	c_3: + 105 x_1 + 198 x_2 + 112 x_3 + 62 x_4 + 71 x_5 + 120 x_6 + 42 x_7 + 126 x_8 + 101 x_9 + 30 x_10 + 33 x_11 + 22 x_12 = 6410
	c_4: + 159 x_1 + 113 x_2 + 190 x_3 + 97 x_4 + 77 x_5 + 105 x_6 + 27 x_7 + 181 x_8 + 56 x_9 + 214 x_10 + 162 x_11 + 161 x_12 = 9567
	c_5: + 250 x_1 + 23 x_2 + 50 x_3 + 21 x_4 + 22 x_5 + 49 x_6 + 175 x_7 + 194 x_8 + 79 x_9 + 193 x_10 + 213 x_11 + 38 x_12 = 5990
	c_6: + 239 x_1 + 154 x_2 + 40 x_3 + 104 x_4 + 249 x_5 + 236 x_6 + 38 x_7 + 17 x_8 + 175 x_9 + 163 x_10 + 148 x_11 + 138 x_12 = 10179
	c_7: + 148 x_1 + 51 x_2 + 232 x_3 + 223 x_4 + 89 x_5 + 232 x_6 + 222 x_7 + 226 x_8 + 97 x_9 + 105 x_10 + 217 x_11 + 194 x_12 = 11305
	c_8: + 64 x_1 + 23 x_2 + 71 x_3 + 66 x_4 + 177 x_5 + 82 x_6 + 86 x_7 + 138 x_8 + 213 x_9 + 76 x_10 + 240 x_11 + 199 x_12 = 8119
Bounds
  0 <= x_1 <= 10
  0 <= x_2 <= 10
  0 <= x_3 <= 10
  0 <= x_4 <= 10
  0 <= x_5 <= 10
  0 <= x_6 <= 10
  0 <= x_7 <= 10
  0 <= x_8 <= 10
  0 <= x_9 <= 10
  0 <= x_10 <= 10
  0 <= x_11 <= 10
  0 <= x_12 <= 10
End
