Subject To
	c_1: + 113 x_1 + 166 x_2 + 7 x_3 + 5 x_4 + 55 x_5 + 232 x_6 + 226 x_7 + 150 x_8 + 98 x_9 + 214 x_10 + 45 x_11 + 69 x_12 = 9548
	c_2: + 197 x_1 + 244 x_2 + 174 x_3 + 157 x_4 + 197 x_5 + 59 x_6 + 25 x_7 + 2 x_8 + 179 x_9 + 44 x_10 + 39 x_11 + 13 x_12 = 4907
	c_3: + 43 x_1 + 139 x_2 + 53 x_3 + 76 x_4 + 172 x_5 + 202 x_6 + 156 x_7 + 14 x_8 + 33 x_9 + 25 x_10 + 130 x_11 + 155 x_12 = 5949
	c_4: + 69 x_1 + 44 x_2 + 8 x_3 + 39 x_4 + 223 x_5 + 192 x_6 + 175 x_7 + 97 x_8 + 40 x_9 + 50 x_10 + 221 x_11 + 94 x_12 = 6220
	c_5: + 160 x_1 + 183 x_2 + 28 x_3 + 173 x_4 + 140 x_5 + 105 x_6 + 127 x_7 + 67 x_8 + 249 x_9 + 41 x_10 + 198 x_11 + 220 x_12 = 7019
	c_6: + 85 x_1 + 43 x_2 + 241 x_3 + 16 x_4 + 150 x_5 + 197 x_6 + 142 x_7 + 26 x_8 + 202 x_9 + 143 x_10 + 181 x_11 + 57 x_12 = 6792
	c_7: + 174 x_1 + 5 x_2 + 76 x_3 + 133 x_4 + 244 x_5 + 2 x_6 + 47 x_7 + 101 x_8 + 76 x_9 + 123 x_10 + 118 x_11 + 166 x_12 = 4295
	c_8: + 51 x_1 + 25 x_2 + 162 x_3 + 42 x_4 + 152 x_5 + 82 x_6 + 107 x_7 + 67 x_8 + 147 x_9 + 249 x_10 + 52 x_11 + 147 x_12 = 6190
Bounds
  0 <= x_1 <= 10
  0 <= x_2 <= 10
  0 <= x_3 <= 10
  0 <= x_4 <= 10
  0 <= x_5 <= 10
  0 <= x_6 <= 10
  0 <= x_7 <= 10
  0 <= x_8 <= 10
  0 <= x_9 <= 10
  0 <= x_10 <= 10
  0 <= x_11 <= 10
  0 <= x_12 <= 10
End
