Subject To
	c_1: + 66 x_1 + 131 x_2 + 149 x_3 + 39 x_4 + 74 x_5 + 145 x_6 + 111 x_7 + 167 x_8 + 154 x_9 + 13 x_10 + 208 x_11 + 149 x_12 = 8115
	c_2: + 100 x_1 + 64 x_2 + 105 x_3 + 133 x_4 + 126 x_5 + 163 x_6 + 194 x_7 + 44 x_8 + 101 x_9 + 202 x_10 + 137 x_11 + 13 x_12 = 5640
	c_3: + 30 x_1 + 172 x_2 + 218 x_3 + 75 x_4 + 158 x_5 + 120 x_6 + 192 x_7 + 144 x_8 + 115 x_9 + 130 x_10 + 74 x_11 + 98 x_12 = 7217
	c_4: + 230 x_1 + 191 x_2 + 231 x_3 + 107 x_4 + 205 x_5 + 88 x_6 + 1 x_7 + 65 x_8 + 133 x_9 + 32 x_10 + 111 x_11 + 166 x_12 = 7303
	c_5: + 119 x_1 + 172 x_2 + 101 x_3 + 84 x_4 + 64 x_5 + 165 x_6 + 211 x_7 + 52 x_8 + 245 x_9 + 18 x_10 + 200 x_11 + 3 x_12 = 7466
	c_6: + 237 x_1 + 189 x_2 + 132 x_3 + 207 x_4 + 219 x_5 + 56 x_6 + 91 x_7 + 119 x_8 + 54 x_9 + 248 x_10 + 28 x_11 + 221 x_12 = 6510
	c_7: + 21 x_1 + 228 x_2 + 147 x_3 + 201 x_4 + 220 x_5 + 95 x_6 + 158 x_7 + 174 x_8 + 40 x_9 + 69 x_10 + 18 x_11 + 231 x_12 = 7133
	c_8: + 211 x_1 + 234 x_2 + 53 x_3 + 62 x_4 + 206 x_5 + 24 x_6 + 190 x_7 + 135 x_8 + 131 x_9 + 241 x_10 + 173 x_11 + 214 x_12 = 8066
Bounds
  0 <= x_1 <= 10
  0 <= x_2 <= 10
  0 <= x_3 <= 10
  0 <= x_4 <= 10
  0 <= x_5 <= 10
  0 <= x_6 <= 10
  0 <= x_7 <= 10
  0 <= x_8 <= 10
  0 <= x_9 <= 10
  0 <= x_10 <= 10
  0 <= x_11 <= 10
  0 <= x_12 <= 10
End
