Subject To
	c_1: + 70 x_1 + 4 x_2 + 33 x_3 + 147 x_4 + 6 x_5 + 78 x_6 + 27 x_7 + 105 x_8 + 69 x_9 + 168 x_10 + 53 x_11 + 61 x_12 = 3417
	c_2: + 113 x_1 + 118 x_2 + 33 x_3 + 245 x_4 + 90 x_5 + 230 x_6 + 37 x_7 + 44 x_8 + 29 x_9 + 183 x_10 + 154 x_11 + 49 x_12 = 4519
	c_3: + 233 x_1 + 34 x_2 + 103 x_3 + 87 x_4 + 89 x_5 + 51 x_6 + 235 x_7 + 146 x_8 + 113 x_9 + 192 x_10 + 33 x_11 + 18 x_12 = 4081
	c_4: + 169 x_1 + 84 x_2 + 160 x_3 + 214 x_4 + 149 x_5 + 212 x_6 + 185 x_7 + 158 x_8 + 195 x_9 + 179 x_10 + 10 x_11 + 46 x_12 = 5354
	c_5: + 32 x_1 + 167 x_2 + 100 x_3 + 223 x_4 + 122 x_5 + 239 x_6 + 242 x_7 + 248 x_8 + 98 x_9 + 126 x_10 + 119 x_11 + 67 x_12 = 5033
	c_6: + 166 x_1 + 210 x_2 + 218 x_3 + 95 x_4 + 169 x_5 + 158 x_6 + 245 x_7 + 225 x_8 + 208 x_9 + 64 x_10 + 87 x_11 + 171 x_12 = 4493
	c_7: + 157 x_1 + 92 x_2 + 173 x_3 + 142 x_4 + 232 x_5 + 146 x_6 + 55 x_7 + 46 x_8 + 94 x_9 + 188 x_10 + 150 x_11 + 199 x_12 = 4469
	c_8: + 108 x_1 + 121 x_2 + 83 x_3 + 112 x_4 + 75 x_5 + 179 x_6 + 33 x_7 + 174 x_8 + 18 x_9 + 246 x_10 + 58 x_11 + 146 x_12 = 4529
Bounds
  0 <= x_1 <= 10
  0 <= x_2 <= 10
  0 <= x_3 <= 10
  0 <= x_4 <= 10
  0 <= x_5 <= 10
  0 <= x_6 <= 10
  0 <= x_7 <= 10
  0 <= x_8 <= 10
  0 <= x_9 <= 10
  0 <= x_10 <= 10
  0 <= x_11 <= 10
  0 <= x_12 <= 10
End
