Subject To
	c_1: + 144 x_1 + 214 x_2 + 125 x_3 + 157 x_4 + 239 x_5 + 110 x_6 + 135 x_7 + 194 x_8 + 226 x_9 + 56 x_10 + 126 x_11 + 11 x_12 = 12190
	c_2: + 30 x_1 + 226 x_2 + 226 x_3 + 172 x_4 + 89 x_5 + 126 x_6 + 147 x_7 + 139 x_8 + 7 x_9 + 4 x_10 + 187 x_11 + 31 x_12 = 8623
	c_3: + 146 x_1 + 209 x_2 + 178 x_3 + 3 x_4 + 135 x_5 + 41 x_6 + 144 x_7 + 180 x_8 + 2 x_9 + 59 x_10 + 69 x_11 + 219 x_12 = 7820
	c_4: + 200 x_1 + 242 x_2 + 138 x_3 + 203 x_4 + 2 x_5 + 117 x_6 + 17 x_7 + 81 x_8 + 93 x_9 + 130 x_10 + 68 x_11 + 165 x_12 = 7944
	c_5: + 185 x_1 + 131 x_2 + 82 x_3 + 239 x_4 + 203 x_5 + 92 x_6 + 21 x_7 + 151 x_8 + 136 x_9 + 59 x_10 + 68 x_11 + 211 x_12 = 9526
	c_6: + 102 x_1 + 163 x_2 + 90 x_3 + 250 x_4 + 108 x_5 + 40 x_6 + 54 x_7 + 229 x_8 + 73 x_9 + 63 x_10 + 132 x_11 + 227 x_12 = 8814
	c_7: + 150 x_1 + 227 x_2 + 191 x_3 + 39 x_4 + 48 x_5 + 140 x_6 + 152 x_7 + 154 x_8 + 149 x_9 + 237 x_10 + 62 x_11 + 71 x_12 = 9289
	c_8: + 192 x_1 + 132 x_2 + 22 x_3 + 120 x_4 + 140 x_5 + 76 x_6 + 24 x_7 + 59 x_8 + 144 x_9 + 115 x_10 + 169 x_11 + 131 x_12 = 7837
Bounds
  0 <= x_1 <= 10
  0 <= x_2 <= 10
  0 <= x_3 <= 10
  0 <= x_4 <= 10
  0 <= x_5 <= 10
  0 <= x_6 <= 10
  0 <= x_7 <= 10
  0 <= x_8 <= 10
  0 <= x_9 <= 10
  0 <= x_10 <= 10
  0 <= x_11 <= 10
  0 <= x_12 <= 10
End
