Subject To
	c_1: + 56 x_1 + 181 x_2 + 79 x_3 + 116 x_4 + 208 x_5 + 123 x_6 + 62 x_7 + 137 x_8 + 6 x_9 + 140 x_10 + 131 x_11 + 51 x_12 = 7226
	c_2: + 12 x_1 + 190 x_2 + 34 x_3 + 29 x_4 + 221 x_5 + 232 x_6 + 141 x_7 + 123 x_8 + 220 x_9 + 76 x_10 + 184 x_11 + 12 x_12 = 7170
	c_3: + 112 x_1 + 150 x_2 + 56 x_3 + 66 x_4 + 5 x_5 + 108 x_6 + 235 x_7 + 187 x_8 + 142 x_9 + 158 x_10 + 61 x_11 + 191 x_12 = 5584
	c_4: + 93 x_1 + 128 x_2 + 221 x_3 + 138 x_4 + 228 x_5 + 31 x_6 + 55 x_7 + 198 x_8 + 132 x_9 + 100 x_10 + 187 x_11 + 151 x_12 = 7777
	c_5: + 101 x_1 + 47 x_2 + 96 x_3 + 215 x_4 + 114 x_5 + 74 x_6 + 217 x_7 + 109 x_8 + 98 x_9 + 29 x_10 + 112 x_11 + 91 x_12 = 5294
	c_6: + 146 x_1 + 9 x_2 + 40 x_3 + 97 x_4 + 4 x_5 + 163 x_6 + 76 x_7 + 122 x_8 + 207 x_9 + 70 x_10 + 49 x_11 + 8 x_12 = 3376
	c_7: + 221 x_1 + 160 x_2 + 64 x_3 + 245 x_4 + 108 x_5 + 207 x_6 + 55 x_7 + 45 x_8 + 95 x_9 + 182 x_10 + 48 x_11 + 61 x_12 = 6820
	c_8: + 80 x_1 + 183 x_2 + 7 x_3 + 135 x_4 + 209 x_5 + 247 x_6 + 20 x_7 + 138 x_8 + 101 x_9 + 160 x_10 + 145 x_11 + 97 x_12 = 8000
Bounds
  0 <= x_1 <= 10
  0 <= x_2 <= 10
  0 <= x_3 <= 10
  0 <= x_4 <= 10
  0 <= x_5 <= 10
  0 <= x_6 <= 10
  0 <= x_7 <= 10
  0 <= x_8 <= 10
  0 <= x_9 <= 10
  0 <= x_10 <= 10
  0 <= x_11 <= 10
  0 <= x_12 <= 10
End
