Subject To
	c_1: + 82 x_1 + 5 x_2 + 20 x_3 + 34 x_4 + 182 x_5 + 130 x_6 + 180 x_7 + 204 x_8 + 195 x_9 + 8 x_10 + 149 x_11 + 183 x_12 = 9014
	c_2: + 33 x_1 + 77 x_2 + 108 x_3 + 167 x_4 + 8 x_5 + 145 x_6 + 109 x_7 + 223 x_8 + 119 x_9 + 60 x_10 + 186 x_11 + 250 x_12 = 7662
	c_3: + 5 x_1 + 29 x_2 + 126 x_3 + 46 x_4 + 235 x_5 + 168 x_6 + 211 x_7 + 197 x_8 + 175 x_9 + 79 x_10 + 224 x_11 + 148 x_12 = 9527
	c_4: + 51 x_1 + 67 x_2 + 109 x_3 + 150 x_4 + 27 x_5 + 184 x_6 + 9 x_7 + 236 x_8 + 239 x_9 + 118 x_10 + 179 x_11 + 64 x_12 = 6861
	c_5: + 199 x_1 + 160 x_2 + 232 x_3 + 234 x_4 + 100 x_5 + 43 x_6 + 245 x_7 + 173 x_8 + 69 x_9 + 189 x_10 + 125 x_11 + 35 x_12 = 6427
	c_6: + 107 x_1 + 53 x_2 + 233 x_3 + 227 x_4 + 208 x_5 + 57 x_6 + 167 x_7 + 236 x_8 + 144 x_9 + 248 x_10 + 52 x_11 + 120 x_12 = 7770
	c_7: + 35 x_1 + 23 x_2 + 117 x_3 + 138 x_4 + 67 x_5 + 232 x_6 + 102 x_7 + 24 x_8 + 221 x_9 + 95 x_10 + 83 x_11 + 43 x_12 = 5388
	c_8: + 136 x_1 + 93 x_2 + 38 x_3 + 151 x_4 + 38 x_5 + 63 x_6 + 187 x_7 + 156 x_8 + 189 x_9 + 130 x_10 + 244 x_11 + 53 x_12 = 7097
Bounds
  0 <= x_1 <= 10
  0 <= x_2 <= 10
  0 <= x_3 <= 10
  0 <= x_4 <= 10
  0 <= x_5 <= 10
  0 <= x_6 <= 10
  0 <= x_7 <= 10
  0 <= x_8 <= 10
  0 <= x_9 <= 10
  0 <= x_10 <= 10
  0 <= x_11 <= 10
  0 <= x_12 <= 10
End
