Subject To
	c_1: + 78 x_1 + 95 x_2 + 246 x_3 + 162 x_4 + 87 x_5 + 68 x_6 + 104 x_7 + 44 x_8 + 188 x_9 + 51 x_10 + 215 x_11 + 237 x_12 = 10976
	c_2: + 125 x_1 + 111 x_2 + 61 x_3 + 4 x_4 + 68 x_5 + 7 x_6 + 51 x_7 + 244 x_8 + 77 x_9 + 105 x_10 + 117 x_11 + 164 x_12 = 5642
	c_3: + 247 x_1 + 146 x_2 + 191 x_3 + 224 x_4 + 1 x_5 + 176 x_6 + 27 x_7 + 228 x_8 + 140 x_9 + 246 x_10 + 181 x_11 + 17 x_12 = 8905
	c_4: + 226 x_1 + 117 x_2 + 178 x_3 + 83 x_4 + 79 x_5 + 219 x_6 + 173 x_7 + 85 x_8 + 13 x_9 + 222 x_10 + 77 x_11 + 238 x_12 = 8580
	c_5: + 56 x_1 + 207 x_2 + 32 x_3 + 173 x_4 + 208 x_5 + 212 x_6 + 161 x_7 + 213 x_8 + 203 x_9 + 83 x_10 + 196 x_11 + 193 x_12 = 9916
	c_6: + 122 x_1 + 134 x_2 + 42 x_3 + 249 x_4 + 223 x_5 + 90 x_6 + 66 x_7 + 71 x_8 + 210 x_9 + 190 x_10 + 75 x_11 + 211 x_12 = 9094
	c_7: + 94 x_1 + 48 x_2 + 54 x_3 + 174 x_4 + 185 x_5 + 223 x_6 + 14 x_7 + 242 x_8 + 78 x_9 + 239 x_10 + 143 x_11 + 233 x_12 = 8250
	c_8: + 20 x_1 + 184 x_2 + 22 x_3 + 241 x_4 + 46 x_5 + 10 x_6 + 6 x_7 + 239 x_8 + 59 x_9 + 113 x_10 + 100 x_11 + 9 x_12 = 4812
Bounds
  0 <= x_1 <= 10
  0 <= x_2 <= 10
  0 <= x_3 <= 10
  0 <= x_4 <= 10
  0 <= x_5 <= 10
  0 <= x_6 <= 10
  0 <= x_7 <= 10
  0 <= x_8 <= 10
  0 <= x_9 <= 10
  0 <= x_10 <= 10
  0 <= x_11 <= 10
  0 <= x_12 <= 10
End
