Subject To
	c_1: + 188 x_1 + 17 x_2 + 219 x_3 + 238 x_4 + 250 x_5 + 79 x_6 + 248 x_7 + 213 x_8 + 8 x_9 + 132 x_10 + 224 x_11 + 227 x_12 = 17708
	c_2: + 162 x_1 + 232 x_2 + 114 x_3 + 140 x_4 + 197 x_5 + 110 x_6 + 209 x_7 + 203 x_8 + 110 x_9 + 110 x_10 + 243 x_11 + 15 x_12 = 12811
	c_3: + 178 x_1 + 111 x_2 + 123 x_3 + 243 x_4 + 144 x_5 + 194 x_6 + 43 x_7 + 116 x_8 + 151 x_9 + 132 x_10 + 129 x_11 + 185 x_12 = 11943
	c_4: + 60 x_1 + 205 x_2 + 237 x_3 + 123 x_4 + 213 x_5 + 58 x_6 + 7 x_7 + 13 x_8 + 230 x_9 + 191 x_10 + 99 x_11 + 93 x_12 = 9017
	c_5: + 132 x_1 + 89 x_2 + 181 x_3 + 193 x_4 + 105 x_5 + 6 x_6 + 241 x_7 + 177 x_8 + 19 x_9 + 95 x_10 + 207 x_11 + 4 x_12 = 12060
	c_6: + 143 x_1 + 137 x_2 + 139 x_3 + 38 x_4 + 173 x_5 + 79 x_6 + 196 x_7 + 71 x_8 + 19 x_9 + 120 x_10 + 96 x_11 + 226 x_12 = 10839
	c_7: + 70 x_1 + 45 x_2 + 84 x_3 + 241 x_4 + 217 x_5 + 49 x_6 + 140 x_7 + 153 x_8 + 216 x_9 + 10 x_10 + 205 x_11 + 141 x_12 = 11984
	c_8: + 155 x_1 + 107 x_2 + 196 x_3 + 238 x_4 + 235 x_5 + 2 x_6 + 118 x_7 + 23 x_8 + 84 x_9 + 137 x_10 + 10 x_11 + 135 x_12 = 11117
Bounds
  0 <= x_1 <= 10
  0 <= x_2 <= 10
  0 <= x_3 <= 10
  0 <= x_4 <= 10
  0 <= x_5 <= 10
  0 <= x_6 <= 10
  0 <= x_7 <= 10
  0 <= x_8 <= 10
  0 <= x_9 <= 10
  0 <= x_10 <= 10
  0 <= x_11 <= 10
  0 <= x_12 <= 10
End
