Subject To
	c_1: + 76 x_1 + 87 x_2 + 227 x_3 + 82 x_4 + 86 x_5 + 68 x_6 + 236 x_7 + 180 x_8 + 23 x_9 + 197 x_10 + 121 x_11 + 183 x_12 = 10437
	c_2: + 32 x_1 + 156 x_2 + 159 x_3 + 172 x_4 + 98 x_5 + 239 x_6 + 28 x_7 + 203 x_8 + 80 x_9 + 126 x_10 + 211 x_11 + 134 x_12 = 8119
	c_3: + 204 x_1 + 248 x_2 + 156 x_3 + 216 x_4 + 202 x_5 + 149 x_6 + 160 x_7 + 240 x_8 + 78 x_9 + 141 x_10 + 176 x_11 + 163 x_12 = 10904
	c_4: + 211 x_1 + 89 x_2 + 107 x_3 + 230 x_4 + 58 x_5 + 180 x_6 + 41 x_7 + 218 x_8 + 165 x_9 + 54 x_10 + 230 x_11 + 181 x_12 = 8053
	c_5: + 90 x_1 + 155 x_2 + 104 x_3 + 138 x_4 + 42 x_5 + 175 x_6 + 245 x_7 + 84 x_8 + 5 x_9 + 21 x_10 + 215 x_11 + 120 x_12 = 7802
	c_6: + 74 x_1 + 240 x_2 + 192 x_3 + 6 x_4 + 174 x_5 + 196 x_6 + 137 x_7 + 150 x_8 + 95 x_9 + 149 x_10 + 81 x_11 + 7 x_12 = 7675
	c_7: + 129 x_1 + 101 x_2 + 141 x_3 + 177 x_4 + 122 x_5 + 226 x_6 + 56 x_7 + 225 x_8 + 89 x_9 + 71 x_10 + 48 x_11 + 46 x_12 = 6619
	c_8: + 83 x_1 + 159 x_2 + 15 x_3 + 106 x_4 + 8 x_5 + 20 x_6 + 102 x_7 + 84 x_8 + 206 x_9 + 201 x_10 + 34 x_11 + 175 x_12 = 6029
Bounds
  0 <= x_1 <= 10
  0 <= x_2 <= 10
  0 <= x_3 <= 10
  0 <= x_4 <= 10
  0 <= x_5 <= 10
  0 <= x_6 <= 10
  0 <= x_7 <= 10
  0 <= x_8 <= 10
  0 <= x_9 <= 10
  0 <= x_10 <= 10
  0 <= x_11 <= 10
  0 <= x_12 <= 10
End
