Subject To
	c_1: + 104 x_1 + 122 x_2 + 126 x_3 + 78 x_4 + 109 x_5 + 162 x_6 + 228 x_7 + 160 x_8 + 51 x_9 + 84 x_10 + 174 x_11 + 109 x_12 = 8868
	c_2: + 212 x_1 + 247 x_2 + 180 x_3 + 137 x_4 + 153 x_5 + 45 x_6 + 154 x_7 + 36 x_8 + 116 x_9 + 196 x_10 + 61 x_11 + 235 x_12 = 8300
	c_3: + 79 x_1 + 115 x_2 + 228 x_3 + 226 x_4 + 249 x_5 + 42 x_6 + 66 x_7 + 223 x_8 + 48 x_9 + 80 x_10 + 124 x_11 + 40 x_12 = 7584
	c_4: + 23 x_1 + 95 x_2 + 56 x_3 + 127 x_4 + 108 x_5 + 11 x_6 + 161 x_7 + 163 x_8 + 211 x_9 + 171 x_10 + 103 x_11 + 171 x_12 = 6828
	c_5: + 74 x_1 + 129 x_2 + 173 x_3 + 72 x_4 + 29 x_5 + 218 x_6 + 231 x_7 + 194 x_8 + 113 x_9 + 84 x_10 + 203 x_11 + 240 x_12 = 10191
	c_6: + 29 x_1 + 122 x_2 + 141 x_3 + 40 x_4 + 181 x_5 + 113 x_6 + 153 x_7 + 16 x_8 + 218 x_9 + 174 x_10 + 127 x_11 + 117 x_12 = 7023
	c_7: + 15 x_1 + 93 x_2 + 227 x_3 + 128 x_4 + 11 x_5 + 102 x_6 + 216 x_7 + 93 x_8 + 57 x_9 + 91 x_10 + 84 x_11 + 27 x_12 = 6696
	c_8: + 109 x_1 + 129 x_2 + 238 x_3 + 160 x_4 + 42 x_5 + 1 x_6 + 215 x_7 + 150 x_8 + 230 x_9 + 218 x_10 + 192 x_11 + 26 x_12 = 8688
Bounds
  0 <= x_1 <= 10
  0 <= x_2 <= 10
  0 <= x_3 <= 10
  0 <= x_4 <= 10
  0 <= x_5 <= 10
  0 <= x_6 <= 10
  0 <= x_7 <= 10
  0 <= x_8 <= 10
  0 <= x_9 <= 10
  0 <= x_10 <= 10
  0 <= x_11 <= 10
  0 <= x_12 <= 10
End
