Subject To
	c_1: + 79 x_1 + 27 x_2 + 128 x_3 + 96 x_4 + 35 x_5 + 85 x_6 + 14 x_7 + 189 x_8 + 247 x_9 + 58 x_10 + 109 x_11 + 181 x_12 = 7379
	c_2: + 44 x_1 + 2 x_2 + 134 x_3 + 211 x_4 + 142 x_5 + 42 x_6 + 67 x_7 + 198 x_8 + 73 x_9 + 153 x_10 + 231 x_11 + 171 x_12 = 6657
	c_3: + 18 x_1 + 162 x_2 + 191 x_3 + 34 x_4 + 210 x_5 + 9 x_6 + 249 x_7 + 1 x_8 + 10 x_9 + 20 x_10 + 174 x_11 + 89 x_12 = 3011
	c_4: + 132 x_1 + 234 x_2 + 150 x_3 + 238 x_4 + 207 x_5 + 37 x_6 + 144 x_7 + 203 x_8 + 202 x_9 + 194 x_10 + 53 x_11 + 200 x_12 = 8294
	c_5: + 99 x_1 + 148 x_2 + 130 x_3 + 243 x_4 + 40 x_5 + 44 x_6 + 64 x_7 + 208 x_8 + 166 x_9 + 43 x_10 + 164 x_11 + 110 x_12 = 7075
	c_6: + 137 x_1 + 97 x_2 + 164 x_3 + 208 x_4 + 213 x_5 + 133 x_6 + 37 x_7 + 182 x_8 + 213 x_9 + 28 x_10 + 247 x_11 + 18 x_12 = 7528
	c_7: + 15 x_1 + 215 x_2 + 176 x_3 + 12 x_4 + 185 x_5 + 127 x_6 + 139 x_7 + 163 x_8 + 249 x_9 + 173 x_10 + 78 x_11 + 221 x_12 = 7753
	c_8: + 42 x_1 + 23 x_2 + 108 x_3 + 34 x_4 + 38 x_5 + 164 x_6 + 159 x_7 + 152 x_8 + 228 x_9 + 33 x_10 + 70 x_11 + 209 x_12 = 6660
Bounds
  0 <= x_1 <= 10
  0 <= x_2 <= 10
  0 <= x_3 <= 10
  0 <= x_4 <= 10
  0 <= x_5 <= 10
  0 <= x_6 <= 10
  0 <= x_7 <= 10
  0 <= x_8 <= 10
  0 <= x_9 <= 10
  0 <= x_10 <= 10
  0 <= x_11 <= 10
  0 <= x_12 <= 10
End
