Subject To
	c_1: + 45 x_1 + 190 x_2 + 118 x_3 + 49 x_4 + 181 x_5 + 53 x_6 + 136 x_7 + 218 x_8 + 99 x_9 + 203 x_10 + 172 x_11 + 235 x_12 = 11842
	c_2: + 89 x_1 + 226 x_2 + 219 x_3 + 165 x_4 + 132 x_5 + 41 x_6 + 151 x_7 + 85 x_8 + 220 x_9 + 203 x_10 + 48 x_11 + 180 x_12 = 10488
	c_3: + 186 x_1 + 154 x_2 + 68 x_3 + 139 x_4 + 67 x_5 + 64 x_6 + 148 x_7 + 25 x_8 + 18 x_9 + 150 x_10 + 34 x_11 + 243 x_12 = 7538
	c_4: + 229 x_1 + 177 x_2 + 239 x_3 + 234 x_4 + 156 x_5 + 197 x_6 + 79 x_7 + 74 x_8 + 149 x_9 + 244 x_10 + 133 x_11 + 242 x_12 = 11754
	c_5: + 128 x_1 + 116 x_2 + 49 x_3 + 127 x_4 + 177 x_5 + 250 x_6 + 16 x_7 + 116 x_8 + 80 x_9 + 157 x_10 + 102 x_11 + 21 x_12 = 6918
	c_6: + 209 x_1 + 76 x_2 + 80 x_3 + 197 x_4 + 146 x_5 + 241 x_6 + 217 x_7 + 157 x_8 + 109 x_9 + 131 x_10 + 118 x_11 + 228 x_12 = 10203
	c_7: + 41 x_1 + 16 x_2 + 31 x_3 + 218 x_4 + 243 x_5 + 48 x_6 + 176 x_7 + 7 x_8 + 62 x_9 + 27 x_10 + 175 x_11 + 118 x_12 = 6369
	c_8: + 196 x_1 + 27 x_2 + 241 x_3 + 164 x_4 + 157 x_5 + 34 x_6 + 23 x_7 + 147 x_8 + 117 x_9 + 229 x_10 + 46 x_11 + 195 x_12 = 9122
Bounds
  0 <= x_1 <= 10
  0 <= x_2 <= 10
  0 <= x_3 <= 10
  0 <= x_4 <= 10
  0 <= x_5 <= 10
  0 <= x_6 <= 10
  0 <= x_7 <= 10
  0 <= x_8 <= 10
  0 <= x_9 <= 10
  0 <= x_10 <= 10
  0 <= x_11 <= 10
  0 <= x_12 <= 10
End
