Subject To
	c_1: + 236 x_1 + 93 x_2 + 91 x_3 + 234 x_4 + 229 x_5 + 106 x_6 + 241 x_7 + 101 x_8 + 112 x_9 + 215 x_10 + 227 x_11 + 84 x_12 = 15551
	c_2: + 33 x_1 + 82 x_2 + 198 x_3 + 104 x_4 + 206 x_5 + 125 x_6 + 99 x_7 + 4 x_8 + 227 x_9 + 31 x_10 + 124 x_11 + 152 x_12 = 8617
	c_3: + 54 x_1 + 120 x_2 + 188 x_3 + 157 x_4 + 94 x_5 + 66 x_6 + 189 x_7 + 199 x_8 + 179 x_9 + 135 x_10 + 34 x_11 + 79 x_12 = 9518
	c_4: + 119 x_1 + 78 x_2 + 29 x_3 + 8 x_4 + 215 x_5 + 62 x_6 + 245 x_7 + 50 x_8 + 134 x_9 + 40 x_10 + 6 x_11 + 106 x_12 = 7985
	c_5: + 48 x_1 + 59 x_2 + 91 x_3 + 94 x_4 + 125 x_5 + 103 x_6 + 85 x_7 + 194 x_8 + 96 x_9 + 21 x_10 + 94 x_11 + 15 x_12 = 6681
	c_6: + 12 x_1 + 8 x_2 + 126 x_3 + 119 x_4 + 245 x_5 + 13 x_6 + 98 x_7 + 210 x_8 + 243 x_9 + 227 x_10 + 163 x_11 + 21 x_12 = 10587
	c_7: + 67 x_1 + 126 x_2 + 207 x_3 + 246 x_4 + 132 x_5 + 60 x_6 + 161 x_7 + 16 x_8 + 38 x_9 + 238 x_10 + 185 x_11 + 15 x_12 = 11493
	c_8: + 19 x_1 + 209 x_2 + 202 x_3 + 47 x_4 + 152 x_5 + 60 x_6 + 143 x_7 + 111 x_8 + 17 x_9 + 199 x_10 + 150 x_11 + 150 x_12 = 9395
Bounds
  0 <= x_1 <= 10
  0 <= x_2 <= 10
  0 <= x_3 <= 10
  0 <= x_4 <= 10
  0 <= x_5 <= 10
  0 <= x_6 <= 10
  0 <= x_7 <= 10
  0 <= x_8 <= 10
  0 <= x_9 <= 10
  0 <= x_10 <= 10
  0 <= x_11 <= 10
  0 <= x_12 <= 10
End
