Subject To
	c_1: + 126 x_1 + 118 x_2 + 87 x_3 + 141 x_4 + 64 x_5 + 185 x_6 + 18 x_7 + 121 x_8 + 65 x_9 + 170 x_10 + 166 x_11 + 53 x_12 = 7128
	c_2: + 123 x_1 + 184 x_2 + 140 x_3 + 236 x_4 + 21 x_5 + 153 x_6 + 214 x_7 + 111 x_8 + 56 x_9 + 136 x_10 + 164 x_11 + 15 x_12 = 7434
	c_3: + 248 x_1 + 102 x_2 + 3 x_3 + 40 x_4 + 118 x_5 + 79 x_6 + 184 x_7 + 25 x_8 + 176 x_9 + 105 x_10 + 34 x_11 + 249 x_12 = 4815
	c_4: + 149 x_1 + 176 x_2 + 174 x_3 + 39 x_4 + 237 x_5 + 130 x_6 + 141 x_7 + 242 x_8 + 123 x_9 + 247 x_10 + 176 x_11 + 119 x_12 = 8550
	c_5: + 223 x_1 + 224 x_2 + 204 x_3 + 42 x_4 + 112 x_5 + 154 x_6 + 53 x_7 + 209 x_8 + 190 x_9 + 177 x_10 + 45 x_11 + 237 x_12 = 8008
	c_6: + 41 x_1 + 193 x_2 + 157 x_3 + 33 x_4 + 114 x_5 + 128 x_6 + 176 x_7 + 173 x_8 + 30 x_9 + 31 x_10 + 163 x_11 + 233 x_12 = 5840
	c_7: + 75 x_1 + 57 x_2 + 45 x_3 + 8 x_4 + 238 x_5 + 95 x_6 + 191 x_7 + 168 x_8 + 87 x_9 + 139 x_10 + 184 x_11 + 127 x_12 = 5608
	c_8: + 96 x_1 + 89 x_2 + 144 x_3 + 89 x_4 + 49 x_5 + 173 x_6 + 229 x_7 + 229 x_8 + 153 x_9 + 192 x_10 + 98 x_11 + 32 x_12 = 6918
Bounds
  0 <= x_1 <= 10
  0 <= x_2 <= 10
  0 <= x_3 <= 10
  0 <= x_4 <= 10
  0 <= x_5 <= 10
  0 <= x_6 <= 10
  0 <= x_7 <= 10
  0 <= x_8 <= 10
  0 <= x_9 <= 10
  0 <= x_10 <= 10
  0 <= x_11 <= 10
  0 <= x_12 <= 10
End
