Subject To
	c_1: + 248 x_1 + 31 x_2 + 104 x_3 + 162 x_4 + 198 x_5 + 98 x_6 + 166 x_7 + 66 x_8 + 110 x_9 + 238 x_10 + 135 x_11 + 77 x_12 = 11057
	c_2: + 227 x_1 + 228 x_2 + 46 x_3 + 217 x_4 + 155 x_5 + 198 x_6 + 197 x_7 + 153 x_8 + 129 x_9 + 146 x_10 + 123 x_11 + 102 x_12 = 10815
	c_3: + 114 x_1 + 62 x_2 + 153 x_3 + 83 x_4 + 70 x_5 + 167 x_6 + 145 x_7 + 76 x_8 + 93 x_9 + 189 x_10 + 36 x_11 + 212 x_12 = 7868
	c_4: + 9 x_1 + 81 x_2 + 94 x_3 + 166 x_4 + 128 x_5 + 57 x_6 + 97 x_7 + 14 x_8 + 113 x_9 + 171 x_10 + 227 x_11 + 24 x_12 = 7037
	c_5: + 21 x_1 + 234 x_2 + 225 x_3 + 135 x_4 + 31 x_5 + 194 x_6 + 248 x_7 + 141 x_8 + 188 x_9 + 131 x_10 + 56 x_11 + 90 x_12 = 7943
	c_6: + 29 x_1 + 53 x_2 + 182 x_3 + 117 x_4 + 41 x_5 + 57 x_6 + 224 x_7 + 189 x_8 + 49 x_9 + 205 x_10 + 207 x_11 + 23 x_12 = 7742
	c_7: + 162 x_1 + 26 x_2 + 45 x_3 + 107 x_4 + 66 x_5 + 152 x_6 + 149 x_7 + 21 x_8 + 221 x_9 + 73 x_10 + 44 x_11 + 226 x_12 = 7308
	c_8: + 188 x_1 + 133 x_2 + 134 x_3 + 193 x_4 + 212 x_5 + 161 x_6 + 89 x_7 + 234 x_8 + 54 x_9 + 33 x_10 + 110 x_11 + 5 x_12 = 8442
Bounds
  0 <= x_1 <= 10
  0 <= x_2 <= 10
  0 <= x_3 <= 10
  0 <= x_4 <= 10
  0 <= x_5 <= 10
  0 <= x_6 <= 10
  0 <= x_7 <= 10
  0 <= x_8 <= 10
  0 <= x_9 <= 10
  0 <= x_10 <= 10
  0 <= x_11 <= 10
  0 <= x_12 <= 10
End
