Subject To
	c_1: + 97 x_1 + 223 x_2 + 181 x_3 + 156 x_4 + 111 x_5 + 128 x_6 + 39 x_7 + 239 x_8 + 42 x_9 + 5 x_10 + 54 x_11 + 202 x_12 = 9877
	c_2: + 120 x_1 + 65 x_2 + 62 x_3 + 11 x_4 + 61 x_5 + 242 x_6 + 15 x_7 + 169 x_8 + 11 x_9 + 166 x_10 + 75 x_11 + 36 x_12 = 5173
	c_3: + 63 x_1 + 228 x_2 + 235 x_3 + 224 x_4 + 141 x_5 + 77 x_6 + 161 x_7 + 16 x_8 + 52 x_9 + 49 x_10 + 103 x_11 + 85 x_12 = 7501
	c_4: + 213 x_1 + 72 x_2 + 199 x_3 + 195 x_4 + 101 x_5 + 142 x_6 + 228 x_7 + 153 x_8 + 189 x_9 + 60 x_10 + 166 x_11 + 16 x_12 = 7584
	c_5: + 17 x_1 + 152 x_2 + 13 x_3 + 225 x_4 + 32 x_5 + 64 x_6 + 233 x_7 + 146 x_8 + 161 x_9 + 39 x_10 + 94 x_11 + 142 x_12 = 6503
	c_6: + 212 x_1 + 147 x_2 + 27 x_3 + 1 x_4 + 130 x_5 + 205 x_6 + 107 x_7 + 216 x_8 + 231 x_9 + 165 x_10 + 209 x_11 + 30 x_12 = 7067
	c_7: + 183 x_1 + 158 x_2 + 118 x_3 + 219 x_4 + 87 x_5 + 146 x_6 + 44 x_7 + 215 x_8 + 4 x_9 + 230 x_10 + 66 x_11 + 27 x_12 = 7918
	c_8: + 228 x_1 + 3 x_2 + 128 x_3 + 56 x_4 + 223 x_5 + 38 x_6 + 235 x_7 + 133 x_8 + 38 x_9 + 36 x_10 + 159 x_11 + 56 x_12 = 5622
Bounds
  0 <= x_1 <= 10
  0 <= x_2 <= 10
  0 <= x_3 <= 10
  0 <= x_4 <= 10
  0 <= x_5 <= 10
  0 <= x_6 <= 10
  0 <= x_7 <= 10
  0 <= x_8 <= 10
  0 <= x_9 <= 10
  0 <= x_10 <= 10
  0 <= x_11 <= 10
  0 <= x_12 <= 10
End
