Subject To
	c_1: + 188 x_1 + 202 x_2 + 182 x_3 + 212 x_4 + 134 x_5 + 158 x_6 + 167 x_7 + 250 x_8 + 26 x_9 + 116 x_10 + 29 x_11 + 122 x_12 = 12834
	c_2: + 35 x_1 + 26 x_2 + 205 x_3 + 183 x_4 + 171 x_5 + 81 x_6 + 8 x_7 + 23 x_8 + 242 x_9 + 135 x_10 + 141 x_11 + 201 x_12 = 7260
	c_3: + 128 x_1 + 58 x_2 + 119 x_3 + 10 x_4 + 7 x_5 + 32 x_6 + 67 x_7 + 164 x_8 + 250 x_9 + 158 x_10 + 177 x_11 + 191 x_12 = 6919
	c_4: + 107 x_1 + 42 x_2 + 157 x_3 + 209 x_4 + 236 x_5 + 70 x_6 + 55 x_7 + 21 x_8 + 83 x_9 + 97 x_10 + 170 x_11 + 77 x_12 = 7490
	c_5: + 204 x_1 + 148 x_2 + 208 x_3 + 230 x_4 + 134 x_5 + 212 x_6 + 72 x_7 + 32 x_8 + 206 x_9 + 232 x_10 + 181 x_11 + 174 x_12 = 11525
	c_6: + 1 x_1 + 68 x_2 + 132 x_3 + 228 x_4 + 223 x_5 + 167 x_6 + 50 x_7 + 57 x_8 + 182 x_9 + 50 x_10 + 86 x_11 + 162 x_12 = 7893
	c_7: + 242 x_1 + 242 x_2 + 161 x_3 + 97 x_4 + 160 x_5 + 197 x_6 + 57 x_7 + 146 x_8 + 203 x_9 + 95 x_10 + 167 x_11 + 150 x_12 = 11308
	c_8: + 87 x_1 + 53 x_2 + 5 x_3 + 60 x_4 + 238 x_5 + 203 x_6 + 3 x_7 + 7 x_8 + 23 x_9 + 156 x_10 + 38 x_11 + 243 x_12 = 6250
Bounds
  0 <= x_1 <= 10
  0 <= x_2 <= 10
  0 <= x_3 <= 10
  0 <= x_4 <= 10
  0 <= x_5 <= 10
  0 <= x_6 <= 10
  0 <= x_7 <= 10
  0 <= x_8 <= 10
  0 <= x_9 <= 10
  0 <= x_10 <= 10
  0 <= x_11 <= 10
  0 <= x_12 <= 10
End
