Subject To
	c_1: + 152 x_1 + 102 x_2 + 139 x_3 + 2 x_4 + 202 x_5 + 239 x_6 + 31 x_7 + 132 x_8 + 113 x_9 + 150 x_10 + 127 x_11 + 207 x_12 = 10701
	c_2: + 59 x_1 + 211 x_2 + 13 x_3 + 100 x_4 + 231 x_5 + 81 x_6 + 110 x_7 + 80 x_8 + 125 x_9 + 188 x_10 + 213 x_11 + 233 x_12 = 9234
	c_3: + 56 x_1 + 233 x_2 + 205 x_3 + 31 x_4 + 63 x_5 + 61 x_6 + 189 x_7 + 98 x_8 + 248 x_9 + 208 x_10 + 182 x_11 + 81 x_12 = 8170
	c_4: + 32 x_1 + 178 x_2 + 191 x_3 + 44 x_4 + 110 x_5 + 157 x_6 + 176 x_7 + 31 x_8 + 103 x_9 + 167 x_10 + 11 x_11 + 34 x_12 = 6606
	c_5: + 110 x_1 + 39 x_2 + 188 x_3 + 104 x_4 + 88 x_5 + 77 x_6 + 173 x_7 + 244 x_8 + 30 x_9 + 114 x_10 + 84 x_11 + 187 x_12 = 7718
	c_6: + 113 x_1 + 181 x_2 + 185 x_3 + 133 x_4 + 10 x_5 + 29 x_6 + 117 x_7 + 158 x_8 + 14 x_9 + 247 x_10 + 78 x_11 + 98 x_12 = 6599
	c_7: + 105 x_1 + 128 x_2 + 20 x_3 + 23 x_4 + 162 x_5 + 130 x_6 + 144 x_7 + 28 x_8 + 192 x_9 + 220 x_10 + 19 x_11 + 83 x_12 = 7072
	c_8: + 139 x_1 + 240 x_2 + 33 x_3 + 161 x_4 + 168 x_5 + 75 x_6 + 167 x_7 + 54 x_8 + 93 x_9 + 208 x_10 + 223 x_11 + 111 x_12 = 8257
Bounds
  0 <= x_1 <= 10
  0 <= x_2 <= 10
  0 <= x_3 <= 10
  0 <= x_4 <= 10
  0 <= x_5 <= 10
  0 <= x_6 <= 10
  0 <= x_7 <= 10
  0 <= x_8 <= 10
  0 <= x_9 <= 10
  0 <= x_10 <= 10
  0 <= x_11 <= 10
  0 <= x_12 <= 10
End
