Subject To
	c_1: + 55 x_1 + 62 x_2 + 3 x_3 + 1 x_4 + 153 x_5 + 73 x_6 + 66 x_7 + 106 x_8 + 54 x_9 + 111 x_10 + 51 x_11 + 42 x_12 = 2623
	c_2: + 165 x_1 + 215 x_2 + 96 x_3 + 63 x_4 + 92 x_5 + 96 x_6 + 18 x_7 + 6 x_8 + 124 x_9 + 117 x_10 + 100 x_11 + 84 x_12 = 2660
	c_3: + 9 x_1 + 51 x_2 + 130 x_3 + 211 x_4 + 209 x_5 + 242 x_6 + 4 x_7 + 13 x_8 + 235 x_9 + 49 x_10 + 74 x_11 + 45 x_12 = 3019
	c_4: + 135 x_1 + 64 x_2 + 124 x_3 + 190 x_4 + 140 x_5 + 155 x_6 + 8 x_7 + 37 x_8 + 144 x_9 + 191 x_10 + 207 x_11 + 86 x_12 = 3419
	c_5: + 127 x_1 + 231 x_2 + 87 x_3 + 223 x_4 + 179 x_5 + 135 x_6 + 98 x_7 + 73 x_8 + 250 x_9 + 68 x_10 + 217 x_11 + 142 x_12 = 4031
	c_6: + 195 x_1 + 230 x_2 + 154 x_3 + 131 x_4 + 215 x_5 + 139 x_6 + 231 x_7 + 220 x_8 + 182 x_9 + 221 x_10 + 181 x_11 + 105 x_12 = 5614
	c_7: + 243 x_1 + 62 x_2 + 106 x_3 + 234 x_4 + 24 x_5 + 27 x_6 + 136 x_7 + 169 x_8 + 175 x_9 + 215 x_10 + 178 x_11 + 93 x_12 = 3442
	c_8: + 18 x_1 + 3 x_2 + 71 x_3 + 227 x_4 + 226 x_5 + 237 x_6 + 3 x_7 + 250 x_8 + 234 x_9 + 95 x_10 + 6 x_11 + 149 x_12 = 4124
Bounds
  0 <= x_1 <= 10
  0 <= x_2 <= 10
  0 <= x_3 <= 10
  0 <= x_4 <= 10
  0 <= x_5 <= 10
  0 <= x_6 <= 10
  0 <= x_7 <= 10
  0 <= x_8 <= 10
  0 <= x_9 <= 10
  0 <= x_10 <= 10
  0 <= x_11 <= 10
  0 <= x_12 <= 10
End
