Subject To
	c_1: + 194 x_1 + 152 x_2 + 148 x_3 + 189 x_4 + 207 x_5 + 62 x_6 + 148 x_7 + 35 x_8 + 67 x_9 + 72 x_10 + 46 x_11 + 69 x_12 = 8423
	c_2: + 34 x_1 + 55 x_2 + 245 x_3 + 246 x_4 + 180 x_5 + 199 x_6 + 102 x_7 + 91 x_8 + 97 x_9 + 63 x_10 + 44 x_11 + 34 x_12 = 7334
	c_3: + 95 x_1 + 144 x_2 + 171 x_3 + 74 x_4 + 164 x_5 + 77 x_6 + 37 x_7 + 153 x_8 + 226 x_9 + 224 x_10 + 153 x_11 + 10 x_12 = 6707
	c_4: + 82 x_1 + 248 x_2 + 29 x_3 + 7 x_4 + 220 x_5 + 103 x_6 + 34 x_7 + 244 x_8 + 83 x_9 + 226 x_10 + 225 x_11 + 240 x_12 = 7022
	c_5: + 127 x_1 + 92 x_2 + 230 x_3 + 24 x_4 + 12 x_5 + 135 x_6 + 21 x_7 + 136 x_8 + 228 x_9 + 117 x_10 + 162 x_11 + 54 x_12 = 5073
	c_6: + 222 x_1 + 183 x_2 + 96 x_3 + 165 x_4 + 53 x_5 + 11 x_6 + 245 x_7 + 135 x_8 + 70 x_9 + 142 x_10 + 211 x_11 + 237 x_12 = 8573
	c_7: + 30 x_1 + 108 x_2 + 83 x_3 + 98 x_4 + 146 x_5 + 49 x_6 + 221 x_7 + 53 x_8 + 132 x_9 + 107 x_10 + 177 x_11 + 98 x_12 = 6194
	c_8: + 70 x_1 + 101 x_2 + 209 x_3 + 120 x_4 + 240 x_5 + 103 x_6 + 217 x_7 + 188 x_8 + 16 x_9 + 86 x_10 + 28 x_11 + 144 x_12 = 8014
Bounds
  0 <= x_1 <= 10
  0 <= x_2 <= 10
  0 <= x_3 <= 10
  0 <= x_4 <= 10
  0 <= x_5 <= 10
  0 <= x_6 <= 10
  0 <= x_7 <= 10
  0 <= x_8 <= 10
  0 <= x_9 <= 10
  0 <= x_10 <= 10
  0 <= x_11 <= 10
  0 <= x_12 <= 10
End
