Subject To
	c_1: + 223 x_1 + 153 x_2 + 34 x_3 + 209 x_4 + 105 x_5 + 149 x_6 + 246 x_7 + 126 x_8 + 171 x_9 + 43 x_10 + 204 x_11 + 127 x_12 = 12751
	c_2: + 249 x_1 + 210 x_2 + 235 x_3 + 189 x_4 + 202 x_5 + 42 x_6 + 209 x_7 + 17 x_8 + 12 x_9 + 207 x_10 + 101 x_11 + 136 x_12 = 10451
	c_3: + 110 x_1 + 112 x_2 + 114 x_3 + 86 x_4 + 64 x_5 + 96 x_6 + 128 x_7 + 238 x_8 + 200 x_9 + 201 x_10 + 243 x_11 + 111 x_12 = 9952
	c_4: + 155 x_1 + 13 x_2 + 227 x_3 + 187 x_4 + 68 x_5 + 20 x_6 + 112 x_7 + 205 x_8 + 147 x_9 + 2 x_10 + 79 x_11 + 139 x_12 = 8278
	c_5: + 27 x_1 + 246 x_2 + 230 x_3 + 137 x_4 + 20 x_5 + 220 x_6 + 28 x_7 + 191 x_8 + 111 x_9 + 211 x_10 + 1 x_11 + 216 x_12 = 7893
	c_6: + 68 x_1 + 27 x_2 + 130 x_3 + 245 x_4 + 61 x_5 + 228 x_6 + 41 x_7 + 83 x_8 + 177 x_9 + 149 x_10 + 54 x_11 + 94 x_12 = 7836
	c_7: + 165 x_1 + 42 x_2 + 167 x_3 + 13 x_4 + 32 x_5 + 40 x_6 + 67 x_7 + 220 x_8 + 143 x_9 + 146 x_10 + 101 x_11 + 213 x_12 = 7179
	c_8: + 128 x_1 + 119 x_2 + 136 x_3 + 195 x_4 + 177 x_5 + 25 x_6 + 146 x_7 + 217 x_8 + 216 x_9 + 236 x_10 + 1 x_11 + 220 x_12 = 10016
Bounds
  0 <= x_1 <= 10
  0 <= x_2 <= 10
  0 <= x_3 <= 10
  0 <= x_4 <= 10
  0 <= x_5 <= 10
  0 <= x_6 <= 10
  0 <= x_7 <= 10
  0 <= x_8 <= 10
  0 <= x_9 <= 10
  0 <= x_10 <= 10
  0 <= x_11 <= 10
  0 <= x_12 <= 10
End
