Subject To
	c_1: + 221 x_1 + 232 x_2 + 187 x_3 + 26 x_4 + 163 x_5 + 3 x_6 + 9 x_7 + 243 x_8 + 80 x_9 + 164 x_10 + 94 x_11 + 33 x_12 = 11199
	c_2: + 90 x_1 + 90 x_2 + 96 x_3 + 217 x_4 + 172 x_5 + 23 x_6 + 100 x_7 + 152 x_8 + 120 x_9 + 199 x_10 + 143 x_11 + 5 x_12 = 7749
	c_3: + 17 x_1 + 24 x_2 + 204 x_3 + 99 x_4 + 204 x_5 + 230 x_6 + 106 x_7 + 150 x_8 + 38 x_9 + 1 x_10 + 249 x_11 + 229 x_12 = 6398
	c_4: + 15 x_1 + 103 x_2 + 106 x_3 + 227 x_4 + 224 x_5 + 8 x_6 + 62 x_7 + 2 x_8 + 123 x_9 + 9 x_10 + 31 x_11 + 165 x_12 = 4549
	c_5: + 92 x_1 + 207 x_2 + 13 x_3 + 127 x_4 + 173 x_5 + 181 x_6 + 5 x_7 + 89 x_8 + 123 x_9 + 8 x_10 + 121 x_11 + 26 x_12 = 6165
	c_6: + 171 x_1 + 119 x_2 + 163 x_3 + 149 x_4 + 201 x_5 + 127 x_6 + 239 x_7 + 131 x_8 + 111 x_9 + 146 x_10 + 125 x_11 + 136 x_12 = 8890
	c_7: + 176 x_1 + 124 x_2 + 40 x_3 + 42 x_4 + 115 x_5 + 45 x_6 + 18 x_7 + 203 x_8 + 153 x_9 + 89 x_10 + 134 x_11 + 93 x_12 = 7732
	c_8: + 106 x_1 + 106 x_2 + 150 x_3 + 208 x_4 + 89 x_5 + 244 x_6 + 54 x_7 + 151 x_8 + 58 x_9 + 247 x_10 + 91 x_11 + 47 x_12 = 7869
Bounds
  0 <= x_1 <= 10
  0 <= x_2 <= 10
  0 <= x_3 <= 10
  0 <= x_4 <= 10
  0 <= x_5 <= 10
  0 <= x_6 <= 10
  0 <= x_7 <= 10
  0 <= x_8 <= 10
  0 <= x_9 <= 10
  0 <= x_10 <= 10
  0 <= x_11 <= 10
  0 <= x_12 <= 10
End
