Subject To
	c_1: + 128 x_1 + 216 x_2 + 80 x_3 + 12 x_4 + 81 x_5 + 188 x_6 + 199 x_7 + 177 x_8 + 144 x_9 + 41 x_10 + 21 x_11 + 117 x_12 = 8892
	c_2: + 209 x_1 + 12 x_2 + 119 x_3 + 10 x_4 + 5 x_5 + 114 x_6 + 161 x_7 + 137 x_8 + 33 x_9 + 238 x_10 + 176 x_11 + 12 x_12 = 5180
	c_3: + 195 x_1 + 56 x_2 + 199 x_3 + 160 x_4 + 117 x_5 + 124 x_6 + 144 x_7 + 63 x_8 + 233 x_9 + 33 x_10 + 46 x_11 + 121 x_12 = 7048
	c_4: + 139 x_1 + 239 x_2 + 245 x_3 + 97 x_4 + 2 x_5 + 55 x_6 + 196 x_7 + 88 x_8 + 135 x_9 + 118 x_10 + 108 x_11 + 94 x_12 = 7609
	c_5: + 44 x_1 + 207 x_2 + 222 x_3 + 198 x_4 + 124 x_5 + 24 x_6 + 42 x_7 + 247 x_8 + 47 x_9 + 181 x_10 + 35 x_11 + 172 x_12 = 6701
	c_6: + 149 x_1 + 106 x_2 + 166 x_3 + 77 x_4 + 174 x_5 + 148 x_6 + 89 x_7 + 123 x_8 + 159 x_9 + 195 x_10 + 29 x_11 + 43 x_12 = 6840
	c_7: + 34 x_1 + 77 x_2 + 207 x_3 + 20 x_4 + 141 x_5 + 17 x_6 + 19 x_7 + 24 x_8 + 119 x_9 + 249 x_10 + 14 x_11 + 171 x_12 = 4181
	c_8: + 118 x_1 + 81 x_2 + 12 x_3 + 172 x_4 + 46 x_5 + 210 x_6 + 241 x_7 + 88 x_8 + 38 x_9 + 178 x_10 + 109 x_11 + 115 x_12 = 6698
Bounds
  0 <= x_1 <= 10
  0 <= x_2 <= 10
  0 <= x_3 <= 10
  0 <= x_4 <= 10
  0 <= x_5 <= 10
  0 <= x_6 <= 10
  0 <= x_7 <= 10
  0 <= x_8 <= 10
  0 <= x_9 <= 10
  0 <= x_10 <= 10
  0 <= x_11 <= 10
  0 <= x_12 <= 10
End
