Subject To
	c_1: + 28 x_1 + 60 x_2 + 120 x_3 + 17 x_4 + 189 x_5 + 47 x_6 + 246 x_7 + 29 x_8 + 236 x_9 + 159 x_10 + 1 x_11 + 157 x_12 = 9099
	c_2: + 7 x_1 + 78 x_2 + 88 x_3 + 132 x_4 + 60 x_5 + 194 x_6 + 245 x_7 + 19 x_8 + 18 x_9 + 116 x_10 + 227 x_11 + 153 x_12 = 5734
	c_3: + 236 x_1 + 187 x_2 + 108 x_3 + 196 x_4 + 66 x_5 + 46 x_6 + 206 x_7 + 51 x_8 + 119 x_9 + 73 x_10 + 16 x_11 + 131 x_12 = 6295
	c_4: + 134 x_1 + 234 x_2 + 139 x_3 + 113 x_4 + 147 x_5 + 108 x_6 + 83 x_7 + 208 x_8 + 81 x_9 + 79 x_10 + 89 x_11 + 89 x_12 = 5545
	c_5: + 77 x_1 + 95 x_2 + 246 x_3 + 91 x_4 + 246 x_5 + 165 x_6 + 27 x_7 + 48 x_8 + 82 x_9 + 147 x_10 + 153 x_11 + 33 x_12 = 6013
	c_6: + 230 x_1 + 42 x_2 + 112 x_3 + 224 x_4 + 156 x_5 + 81 x_6 + 59 x_7 + 94 x_8 + 62 x_9 + 112 x_10 + 107 x_11 + 165 x_12 = 5250
	c_7: + 4 x_1 + 182 x_2 + 204 x_3 + 78 x_4 + 230 x_5 + 114 x_6 + 120 x_7 + 189 x_8 + 53 x_9 + 91 x_10 + 52 x_11 + 110 x_12 = 6581
	c_8: + 136 x_1 + 99 x_2 + 150 x_3 + 95 x_4 + 45 x_5 + 38 x_6 + 87 x_7 + 166 x_8 + 35 x_9 + 46 x_10 + 105 x_11 + 218 x_12 = 4490
Bounds
  0 <= x_1 <= 10
  0 <= x_2 <= 10
  0 <= x_3 <= 10
  0 <= x_4 <= 10
  0 <= x_5 <= 10
  0 <= x_6 <= 10
  0 <= x_7 <= 10
  0 <= x_8 <= 10
  0 <= x_9 <= 10
  0 <= x_10 <= 10
  0 <= x_11 <= 10
  0 <= x_12 <= 10
End
