Subject To
	c_1: + 9 x_1 + 49 x_2 + 92 x_3 + 15 x_4 + 171 x_5 + 9 x_6 + 48 x_7 + 49 x_8 + 183 x_9 + 51 x_10 + 183 x_11 + 16 x_12 = 4887
	c_2: + 103 x_1 + 80 x_2 + 134 x_3 + 217 x_4 + 142 x_5 + 51 x_6 + 34 x_7 + 214 x_8 + 127 x_9 + 192 x_10 + 127 x_11 + 234 x_12 = 4602
	c_3: + 174 x_1 + 226 x_2 + 78 x_3 + 209 x_4 + 71 x_5 + 73 x_6 + 12 x_7 + 91 x_8 + 25 x_9 + 105 x_10 + 115 x_11 + 169 x_12 = 2797
	c_4: + 176 x_1 + 30 x_2 + 91 x_3 + 3 x_4 + 1 x_5 + 138 x_6 + 36 x_7 + 240 x_8 + 124 x_9 + 198 x_10 + 93 x_11 + 242 x_12 = 3115
	c_5: + 57 x_1 + 248 x_2 + 242 x_3 + 138 x_4 + 8 x_5 + 75 x_6 + 206 x_7 + 106 x_8 + 160 x_9 + 225 x_10 + 114 x_11 + 177 x_12 = 4786
	c_6: + 45 x_1 + 83 x_2 + 131 x_3 + 71 x_4 + 32 x_5 + 60 x_6 + 76 x_7 + 99 x_8 + 175 x_9 + 17 x_10 + 9 x_11 + 148 x_12 = 2770
	c_7: + 133 x_1 + 223 x_2 + 115 x_3 + 21 x_4 + 141 x_5 + 80 x_6 + 5 x_7 + 77 x_8 + 202 x_9 + 178 x_10 + 106 x_11 + 40 x_12 = 4877
	c_8: + 149 x_1 + 130 x_2 + 123 x_3 + 239 x_4 + 94 x_5 + 21 x_6 + 61 x_7 + 84 x_8 + 177 x_9 + 37 x_10 + 218 x_11 + 214 x_12 = 4934
Bounds
  0 <= x_1 <= 10
  0 <= x_2 <= 10
  0 <= x_3 <= 10
  0 <= x_4 <= 10
  0 <= x_5 <= 10
  0 <= x_6 <= 10
  0 <= x_7 <= 10
  0 <= x_8 <= 10
  0 <= x_9 <= 10
  0 <= x_10 <= 10
  0 <= x_11 <= 10
  0 <= x_12 <= 10
End
