Subject To
	c_1: + 1 x_1 + 190 x_2 + 104 x_3 + 155 x_4 + 169 x_5 + 187 x_6 + 212 x_7 + 224 x_8 + 72 x_9 + 127 x_10 + 67 x_11 + 121 x_12 = 11059
	c_2: + 169 x_1 + 234 x_2 + 154 x_3 + 138 x_4 + 5 x_5 + 147 x_6 + 84 x_7 + 42 x_8 + 244 x_9 + 63 x_10 + 248 x_11 + 213 x_12 = 8269
	c_3: + 63 x_1 + 81 x_2 + 18 x_3 + 122 x_4 + 27 x_5 + 103 x_6 + 206 x_7 + 184 x_8 + 207 x_9 + 246 x_10 + 158 x_11 + 32 x_12 = 8302
	c_4: + 185 x_1 + 183 x_2 + 69 x_3 + 151 x_4 + 109 x_5 + 113 x_6 + 73 x_7 + 194 x_8 + 87 x_9 + 173 x_10 + 36 x_11 + 230 x_12 = 9064
	c_5: + 242 x_1 + 200 x_2 + 16 x_3 + 119 x_4 + 228 x_5 + 18 x_6 + 93 x_7 + 204 x_8 + 214 x_9 + 198 x_10 + 199 x_11 + 205 x_12 = 9846
	c_6: + 167 x_1 + 106 x_2 + 124 x_3 + 79 x_4 + 130 x_5 + 67 x_6 + 138 x_7 + 6 x_8 + 65 x_9 + 103 x_10 + 231 x_11 + 206 x_12 = 6762
	c_7: + 163 x_1 + 152 x_2 + 231 x_3 + 247 x_4 + 239 x_5 + 115 x_6 + 214 x_7 + 21 x_8 + 178 x_9 + 10 x_10 + 51 x_11 + 85 x_12 = 9441
	c_8: + 25 x_1 + 249 x_2 + 133 x_3 + 165 x_4 + 130 x_5 + 201 x_6 + 56 x_7 + 49 x_8 + 199 x_9 + 142 x_10 + 16 x_11 + 69 x_12 = 8661
Bounds
  0 <= x_1 <= 10
  0 <= x_2 <= 10
  0 <= x_3 <= 10
  0 <= x_4 <= 10
  0 <= x_5 <= 10
  0 <= x_6 <= 10
  0 <= x_7 <= 10
  0 <= x_8 <= 10
  0 <= x_9 <= 10
  0 <= x_10 <= 10
  0 <= x_11 <= 10
  0 <= x_12 <= 10
End
