Subject To
	c_1: + 192 x_1 + 90 x_2 + 70 x_3 + 239 x_4 + 206 x_5 + 153 x_6 + 28 x_7 + 24 x_8 + 17 x_9 + 153 x_10 + 96 x_11 + 2 x_12 = 8532
	c_2: + 62 x_1 + 124 x_2 + 50 x_3 + 240 x_4 + 11 x_5 + 215 x_6 + 117 x_7 + 19 x_8 + 104 x_9 + 249 x_10 + 37 x_11 + 111 x_12 = 6585
	c_3: + 134 x_1 + 200 x_2 + 38 x_3 + 7 x_4 + 117 x_5 + 184 x_6 + 221 x_7 + 17 x_8 + 30 x_9 + 16 x_10 + 178 x_11 + 162 x_12 = 5059
	c_4: + 145 x_1 + 66 x_2 + 9 x_3 + 51 x_4 + 42 x_5 + 170 x_6 + 99 x_7 + 121 x_8 + 16 x_9 + 11 x_10 + 131 x_11 + 155 x_12 = 4103
	c_5: + 53 x_1 + 132 x_2 + 28 x_3 + 6 x_4 + 100 x_5 + 57 x_6 + 25 x_7 + 235 x_8 + 170 x_9 + 128 x_10 + 98 x_11 + 5 x_12 = 3626
	c_6: + 61 x_1 + 128 x_2 + 132 x_3 + 239 x_4 + 130 x_5 + 248 x_6 + 196 x_7 + 229 x_8 + 23 x_9 + 192 x_10 + 229 x_11 + 194 x_12 = 8809
	c_7: + 93 x_1 + 38 x_2 + 153 x_3 + 225 x_4 + 118 x_5 + 192 x_6 + 138 x_7 + 46 x_8 + 55 x_9 + 181 x_10 + 102 x_11 + 11 x_12 = 7459
	c_8: + 137 x_1 + 203 x_2 + 21 x_3 + 34 x_4 + 124 x_5 + 225 x_6 + 192 x_7 + 25 x_8 + 249 x_9 + 206 x_10 + 239 x_11 + 84 x_12 = 6983
Bounds
  0 <= x_1 <= 10
  0 <= x_2 <= 10
  0 <= x_3 <= 10
  0 <= x_4 <= 10
  0 <= x_5 <= 10
  0 <= x_6 <= 10
  0 <= x_7 <= 10
  0 <= x_8 <= 10
  0 <= x_9 <= 10
  0 <= x_10 <= 10
  0 <= x_11 <= 10
  0 <= x_12 <= 10
End
