Subject To
	c_1: + 136 x_1 + 167 x_2 + 30 x_3 + 121 x_4 + 133 x_5 + 167 x_6 + 240 x_7 + 109 x_8 + 145 x_9 + 50 x_10 + 144 x_11 + 223 x_12 = 10995
	c_2: + 216 x_1 + 65 x_2 + 86 x_3 + 175 x_4 + 183 x_5 + 213 x_6 + 40 x_7 + 232 x_8 + 249 x_9 + 236 x_10 + 135 x_11 + 131 x_12 = 10185
	c_3: + 194 x_1 + 78 x_2 + 175 x_3 + 228 x_4 + 50 x_5 + 31 x_6 + 195 x_7 + 184 x_8 + 146 x_9 + 204 x_10 + 112 x_11 + 86 x_12 = 8714
	c_4: + 98 x_1 + 111 x_2 + 206 x_3 + 231 x_4 + 233 x_5 + 129 x_6 + 7 x_7 + 29 x_8 + 7 x_9 + 181 x_10 + 89 x_11 + 158 x_12 = 7242
	c_5: + 83 x_1 + 185 x_2 + 88 x_3 + 32 x_4 + 202 x_5 + 211 x_6 + 90 x_7 + 18 x_8 + 54 x_9 + 81 x_10 + 196 x_11 + 50 x_12 = 7529
	c_6: + 223 x_1 + 109 x_2 + 20 x_3 + 140 x_4 + 163 x_5 + 143 x_6 + 231 x_7 + 15 x_8 + 182 x_9 + 211 x_10 + 74 x_11 + 210 x_12 = 10632
	c_7: + 121 x_1 + 227 x_2 + 93 x_3 + 105 x_4 + 118 x_5 + 235 x_6 + 186 x_7 + 216 x_8 + 119 x_9 + 222 x_10 + 105 x_11 + 199 x_12 = 11350
	c_8: + 15 x_1 + 127 x_2 + 148 x_3 + 97 x_4 + 233 x_5 + 193 x_6 + 4 x_7 + 13 x_8 + 83 x_9 + 46 x_10 + 103 x_11 + 74 x_12 = 6079
Bounds
  0 <= x_1 <= 10
  0 <= x_2 <= 10
  0 <= x_3 <= 10
  0 <= x_4 <= 10
  0 <= x_5 <= 10
  0 <= x_6 <= 10
  0 <= x_7 <= 10
  0 <= x_8 <= 10
  0 <= x_9 <= 10
  0 <= x_10 <= 10
  0 <= x_11 <= 10
  0 <= x_12 <= 10
End
