Subject To
	c_1: + 158 x_1 + 175 x_2 + 57 x_3 + 212 x_4 + 243 x_5 + 32 x_6 + 81 x_7 + 193 x_8 + 5 x_9 + 77 x_10 + 170 x_11 + 185 x_12 = 11345
	c_2: + 33 x_1 + 219 x_2 + 16 x_3 + 76 x_4 + 11 x_5 + 81 x_6 + 106 x_7 + 164 x_8 + 54 x_9 + 10 x_10 + 237 x_11 + 178 x_12 = 7381
	c_3: + 20 x_1 + 188 x_2 + 230 x_3 + 178 x_4 + 210 x_5 + 240 x_6 + 195 x_7 + 144 x_8 + 17 x_9 + 248 x_10 + 221 x_11 + 175 x_12 = 11266
	c_4: + 151 x_1 + 26 x_2 + 84 x_3 + 194 x_4 + 33 x_5 + 47 x_6 + 181 x_7 + 189 x_8 + 1 x_9 + 235 x_10 + 131 x_11 + 8 x_12 = 7120
	c_5: + 49 x_1 + 153 x_2 + 198 x_3 + 3 x_4 + 212 x_5 + 46 x_6 + 181 x_7 + 156 x_8 + 70 x_9 + 218 x_10 + 205 x_11 + 18 x_12 = 7978
	c_6: + 178 x_1 + 80 x_2 + 233 x_3 + 208 x_4 + 221 x_5 + 80 x_6 + 116 x_7 + 180 x_8 + 142 x_9 + 211 x_10 + 232 x_11 + 134 x_12 = 11373
	c_7: + 20 x_1 + 239 x_2 + 24 x_3 + 49 x_4 + 240 x_5 + 112 x_6 + 152 x_7 + 130 x_8 + 175 x_9 + 238 x_10 + 28 x_11 + 64 x_12 = 7712
	c_8: + 108 x_1 + 70 x_2 + 229 x_3 + 6 x_4 + 70 x_5 + 74 x_6 + 245 x_7 + 176 x_8 + 193 x_9 + 7 x_10 + 6 x_11 + 203 x_12 = 6254
Bounds
  0 <= x_1 <= 10
  0 <= x_2 <= 10
  0 <= x_3 <= 10
  0 <= x_4 <= 10
  0 <= x_5 <= 10
  0 <= x_6 <= 10
  0 <= x_7 <= 10
  0 <= x_8 <= 10
  0 <= x_9 <= 10
  0 <= x_10 <= 10
  0 <= x_11 <= 10
  0 <= x_12 <= 10
End
