Subject To
	c_1: + 152 x_1 + 157 x_2 + 222 x_3 + 210 x_4 + 75 x_5 + 10 x_6 + 78 x_7 + 185 x_8 + 222 x_9 + 12 x_10 + 199 x_11 + 4 x_12 = 11271
	c_2: + 26 x_1 + 113 x_2 + 142 x_3 + 211 x_4 + 179 x_5 + 96 x_6 + 212 x_7 + 179 x_8 + 180 x_9 + 14 x_10 + 56 x_11 + 102 x_12 = 8684
	c_3: + 161 x_1 + 207 x_2 + 20 x_3 + 7 x_4 + 30 x_5 + 1 x_6 + 35 x_7 + 163 x_8 + 55 x_9 + 159 x_10 + 216 x_11 + 201 x_12 = 6173
	c_4: + 125 x_1 + 128 x_2 + 85 x_3 + 247 x_4 + 134 x_5 + 110 x_6 + 177 x_7 + 213 x_8 + 85 x_9 + 132 x_10 + 192 x_11 + 157 x_12 = 9444
	c_5: + 247 x_1 + 191 x_2 + 25 x_3 + 154 x_4 + 232 x_5 + 211 x_6 + 15 x_7 + 207 x_8 + 32 x_9 + 87 x_10 + 177 x_11 + 198 x_12 = 8340
	c_6: + 11 x_1 + 22 x_2 + 192 x_3 + 146 x_4 + 103 x_5 + 122 x_6 + 114 x_7 + 180 x_8 + 246 x_9 + 179 x_10 + 24 x_11 + 111 x_12 = 7737
	c_7: + 60 x_1 + 223 x_2 + 122 x_3 + 109 x_4 + 198 x_5 + 51 x_6 + 17 x_7 + 113 x_8 + 148 x_9 + 67 x_10 + 75 x_11 + 73 x_12 = 7258
	c_8: + 24 x_1 + 171 x_2 + 189 x_3 + 153 x_4 + 88 x_5 + 60 x_6 + 218 x_7 + 69 x_8 + 154 x_9 + 126 x_10 + 71 x_11 + 234 x_12 = 7672
Bounds
  0 <= x_1 <= 10
  0 <= x_2 <= 10
  0 <= x_3 <= 10
  0 <= x_4 <= 10
  0 <= x_5 <= 10
  0 <= x_6 <= 10
  0 <= x_7 <= 10
  0 <= x_8 <= 10
  0 <= x_9 <= 10
  0 <= x_10 <= 10
  0 <= x_11 <= 10
  0 <= x_12 <= 10
End
