Subject To
	w1: + 43 x_1 + 7 x_2 + 35 x_3 + 48 x_4 + 33 x_5 + 46 x_6 + 4 x_7 + 43 x_8 + 7 x_9 + 23 x_10 + 36 x_11 + 13 x_12 + 49 x_13 + 31 x_14 + 17 x_15 + 41 x_16 + 22 x_17 + 37 x_18 + 46 x_19 + 20 x_20 + 38 x_21 + 35 x_22 + 18 x_23 + 6 x_24 + 29 x_25 + 41 x_26 + 46 x_27 + 35 x_28 + 28 x_29 + 42 x_30 + 1 x_31 + 32 x_32 + 3 x_33 + 33 x_34 + 27 x_35 + 49 x_36 + 37 x_37 + 41 x_38 + 14 x_39 + 21 x_40 + 29 x_41 + 21 x_42 + 5 x_43 + 29 x_44 + 9 x_45 + 47 x_46 + 17 x_47 + 41 x_48 + 43 x_49 + 35 x_50 <= 720
	w2: + 47 x_1 + 18 x_2 + 7 x_3 + 21 x_4 + 8 x_5 + 33 x_6 + 42 x_7 + 40 x_8 + 10 x_9 + 47 x_10 + 25 x_11 + 17 x_12 + 45 x_13 + 46 x_14 + 44 x_15 + 32 x_16 + 47 x_17 + 30 x_18 + 20 x_19 + 10 x_20 + 2 x_21 + 15 x_22 + 25 x_23 + 9 x_24 + 37 x_25 + 44 x_26 + 48 x_27 + 19 x_28 + 9 x_29 + 43 x_30 + 45 x_31 + 8 x_32 + 41 x_33 + 26 x_34 + 33 x_35 + 49 x_36 + 38 x_37 + 34 x_38 + 39 x_39 + 45 x_40 + 5 x_41 + 8 x_42 + 43 x_43 + 31 x_44 + 47 x_45 + 35 x_46 + 11 x_47 + 49 x_48 + 10 x_49 + 14 x_50 <= 719
	w3: + 37 x_1 + 20 x_2 + 29 x_3 + 30 x_4 + 44 x_5 + 31 x_6 + 6 x_7 + 6 x_8 + 27 x_9 + 21 x_10 + 44 x_11 + 14 x_12 + 40 x_13 + 48 x_14 + 11 x_15 + 4 x_16 + 28 x_17 + 6 x_18 + 49 x_19 + 17 x_20 + 34 x_21 + 37 x_22 + 1 x_23 + 38 x_24 + 26 x_25 + 18 x_26 + 1 x_27 + 7 x_28 + 47 x_29 + 8 x_30 + 37 x_31 + 22 x_32 + 14 x_33 + 11 x_34 + 8 x_35 + 7 x_36 + 44 x_37 + 3 x_38 + 5 x_39 + 36 x_40 + 14 x_41 + 1 x_42 + 30 x_43 + 10 x_44 + 37 x_45 + 9 x_46 + 14 x_47 + 22 x_48 + 43 x_49 + 47 x_50 <= 566
	w4: + 19 x_1 + 5 x_2 + 38 x_3 + 46 x_4 + 20 x_5 + 11 x_6 + 14 x_7 + 10 x_8 + 30 x_9 + 15 x_10 + 1 x_11 + 1 x_12 + 5 x_13 + 18 x_14 + 11 x_15 + 35 x_16 + 45 x_17 + 7 x_18 + 30 x_19 + 4 x_20 + 7 x_21 + 6 x_22 + 43 x_23 + 6 x_24 + 38 x_25 + 28 x_26 + 4 x_27 + 37 x_28 + 8 x_29 + 35 x_30 + 8 x_31 + 27 x_32 + 25 x_33 + 36 x_34 + 45 x_35 + 48 x_36 + 42 x_37 + 17 x_38 + 41 x_39 + 14 x_40 + 30 x_41 + 12 x_42 + 33 x_43 + 44 x_44 + 41 x_45 + 26 x_46 + 27 x_47 + 44 x_48 + 42 x_49 + 8 x_50 <= 588
	w5: + 9 x_1 + 14 x_2 + 8 x_3 + 3 x_4 + 46 x_5 + 5 x_6 + 34 x_7 + 15 x_8 + 12 x_9 + 31 x_10 + 49 x_11 + 6 x_12 + 39 x_13 + 44 x_14 + 48 x_15 + 2 x_16 + 3 x_17 + 16 x_18 + 3 x_19 + 33 x_20 + 45 x_21 + 42 x_22 + 38 x_23 + 42 x_24 + 10 x_25 + 42 x_26 + 8 x_27 + 27 x_28 + 30 x_29 + 45 x_30 + 32 x_31 + 7 x_32 + 46 x_33 + 45 x_34 + 26 x_35 + 34 x_36 + 13 x_37 + 40 x_38 + 47 x_39 + 25 x_40 + 41 x_41 + 23 x_42 + 36 x_43 + 17 x_44 + 34 x_45 + 38 x_46 + 22 x_47 + 2 x_48 + 49 x_49 + 19 x_50 <= 667
	w6: + 28 x_1 + 40 x_2 + 27 x_3 + 6 x_4 + 14 x_5 + 37 x_6 + 2 x_7 + 11 x_8 + 2 x_9 + 44 x_10 + 39 x_11 + 14 x_12 + 37 x_13 + 17 x_14 + 21 x_15 + 25 x_16 + 22 x_17 + 27 x_18 + 39 x_19 + 2 x_20 + 13 x_21 + 2 x_22 + 30 x_23 + 4 x_24 + 9 x_25 + 7 x_26 + 36 x_27 + 32 x_28 + 39 x_29 + 2 x_30 + 41 x_31 + 25 x_32 + 39 x_33 + 3 x_34 + 4 x_35 + 18 x_36 + 26 x_37 + 24 x_38 + 11 x_39 + 12 x_40 + 43 x_41 + 10 x_42 + 41 x_43 + 34 x_44 + 18 x_45 + 24 x_46 + 30 x_47 + 17 x_48 + 12 x_49 + 22 x_50 <= 536
	w7: + 23 x_1 + 26 x_2 + 27 x_3 + 11 x_4 + 1 x_5 + 16 x_6 + 19 x_7 + 49 x_8 + 46 x_9 + 46 x_10 + 6 x_11 + 19 x_12 + 38 x_13 + 27 x_14 + 9 x_15 + 20 x_16 + 24 x_17 + 9 x_18 + 19 x_19 + 18 x_20 + 14 x_21 + 32 x_22 + 39 x_23 + 14 x_24 + 30 x_25 + 2 x_26 + 24 x_27 + 22 x_28 + 38 x_29 + 35 x_30 + 13 x_31 + 3 x_32 + 13 x_33 + 37 x_34 + 18 x_35 + 42 x_36 + 43 x_37 + 7 x_38 + 39 x_39 + 15 x_40 + 16 x_41 + 38 x_42 + 1 x_43 + 29 x_44 + 1 x_45 + 20 x_46 + 16 x_47 + 10 x_48 + 1 x_49 + 17 x_50 <= 536
	w8: + 20 x_1 + 26 x_2 + 12 x_3 + 18 x_4 + 49 x_5 + 3 x_6 + 4 x_7 + 43 x_8 + 44 x_9 + 23 x_10 + 16 x_11 + 20 x_12 + 17 x_13 + 10 x_14 + 36 x_15 + 47 x_16 + 16 x_17 + 30 x_18 + 23 x_19 + 46 x_20 + 27 x_21 + 17 x_22 + 27 x_23 + 38 x_24 + 11 x_25 + 32 x_26 + 28 x_27 + 47 x_28 + 28 x_29 + 36 x_30 + 19 x_31 + 27 x_32 + 34 x_33 + 18 x_34 + 11 x_35 + 44 x_36 + 27 x_37 + 16 x_38 + 29 x_39 + 27 x_40 + 43 x_41 + 3 x_42 + 7 x_43 + 46 x_44 + 25 x_45 + 13 x_46 + 44 x_47 + 17 x_48 + 21 x_49 + 36 x_50 <= 645
	w9: + 8 x_1 + 37 x_2 + 26 x_3 + 33 x_4 + 8 x_5 + 29 x_6 + 23 x_7 + 20 x_8 + 44 x_9 + 10 x_10 + 29 x_11 + 25 x_12 + 10 x_13 + 2 x_14 + 49 x_15 + 14 x_16 + 4 x_17 + 13 x_18 + 21 x_19 + 2 x_20 + 21 x_21 + 29 x_22 + 45 x_23 + 10 x_24 + 4 x_25 + 15 x_26 + 15 x_27 + 37 x_28 + 48 x_29 + 38 x_30 + 48 x_31 + 26 x_32 + 1 x_33 + 24 x_34 + 27 x_35 + 23 x_36 + 9 x_37 + 33 x_38 + 30 x_39 + 34 x_40 + 41 x_41 + 42 x_42 + 14 x_43 + 29 x_44 + 15 x_45 + 9 x_46 + 18 x_47 + 18 x_48 + 7 x_49 + 33 x_50 <= 570
	w10: + 40 x_1 + 40 x_2 + 38 x_3 + 44 x_4 + 41 x_5 + 12 x_6 + 1 x_7 + 41 x_8 + 32 x_9 + 44 x_10 + 24 x_11 + 15 x_12 + 4 x_13 + 30 x_14 + 16 x_15 + 5 x_16 + 41 x_17 + 29 x_18 + 34 x_19 + 8 x_20 + 39 x_21 + 33 x_22 + 47 x_23 + 38 x_24 + 39 x_25 + 27 x_26 + 25 x_27 + 46 x_28 + 37 x_29 + 11 x_30 + 12 x_31 + 47 x_32 + 27 x_33 + 27 x_34 + 39 x_35 + 23 x_36 + 47 x_37 + 18 x_38 + 26 x_39 + 32 x_40 + 25 x_41 + 37 x_42 + 17 x_43 + 38 x_44 + 9 x_45 + 45 x_46 + 27 x_47 + 7 x_48 + 6 x_49 + 22 x_50 <= 700
	w11: + 4 x_1 + 22 x_2 + 34 x_3 + 41 x_4 + 46 x_5 + 16 x_6 + 48 x_7 + 31 x_8 + 49 x_9 + 27 x_10 + 5 x_11 + 25 x_12 + 11 x_13 + 28 x_14 + 44 x_15 + 13 x_16 + 5 x_17 + 5 x_18 + 9 x_19 + 26 x_20 + 16 x_21 + 9 x_22 + 25 x_23 + 4 x_24 + 11 x_25 + 41 x_26 + 31 x_27 + 13 x_28 + 42 x_29 + 33 x_30 + 2 x_31 + 19 x_32 + 20 x_33 + 33 x_34 + 29 x_35 + 28 x_36 + 10 x_37 + 31 x_38 + 32 x_39 + 42 x_40 + 13 x_41 + 30 x_42 + 2 x_43 + 42 x_44 + 27 x_45 + 8 x_46 + 45 x_47 + 7 x_48 + 17 x_49 + 25 x_50 <= 583
	w12: + 20 x_1 + 12 x_2 + 16 x_3 + 41 x_4 + 41 x_5 + 13 x_6 + 14 x_7 + 33 x_8 + 15 x_9 + 39 x_10 + 20 x_11 + 32 x_12 + 4 x_13 + 8 x_14 + 23 x_15 + 32 x_16 + 24 x_17 + 34 x_18 + 34 x_19 + 40 x_20 + 32 x_21 + 33 x_22 + 3 x_23 + 2 x_24 + 4 x_25 + 16 x_26 + 47 x_27 + 18 x_28 + 12 x_29 + 2 x_30 + 16 x_31 + 3 x_32 + 25 x_33 + 39 x_34 + 4 x_35 + 27 x_36 + 27 x_37 + 1 x_38 + 35 x_39 + 45 x_40 + 43 x_41 + 49 x_42 + 24 x_43 + 11 x_44 + 5 x_45 + 48 x_46 + 14 x_47 + 44 x_48 + 1 x_49 + 23 x_50 <= 569
	w13: + 8 x_1 + 29 x_2 + 12 x_3 + 6 x_4 + 27 x_5 + 1 x_6 + 41 x_7 + 3 x_8 + 5 x_9 + 41 x_10 + 26 x_11 + 47 x_12 + 30 x_13 + 17 x_14 + 33 x_15 + 8 x_16 + 48 x_17 + 2 x_18 + 31 x_19 + 45 x_20 + 24 x_21 + 6 x_22 + 24 x_23 + 16 x_24 + 3 x_25 + 19 x_26 + 41 x_27 + 1 x_28 + 33 x_29 + 29 x_30 + 26 x_31 + 14 x_32 + 29 x_33 + 19 x_34 + 49 x_35 + 23 x_36 + 13 x_37 + 16 x_38 + 10 x_39 + 8 x_40 + 19 x_41 + 32 x_42 + 35 x_43 + 4 x_44 + 35 x_45 + 17 x_46 + 41 x_47 + 46 x_48 + 24 x_49 + 1 x_50 <= 554
	w14: + 17 x_1 + 29 x_2 + 42 x_3 + 22 x_4 + 42 x_5 + 18 x_6 + 12 x_7 + 44 x_8 + 26 x_9 + 40 x_10 + 11 x_11 + 14 x_12 + 28 x_13 + 3 x_14 + 29 x_15 + 31 x_16 + 18 x_17 + 48 x_18 + 46 x_19 + 38 x_20 + 4 x_21 + 22 x_22 + 29 x_23 + 8 x_24 + 15 x_25 + 15 x_26 + 43 x_27 + 25 x_28 + 33 x_29 + 17 x_30 + 25 x_31 + 31 x_32 + 5 x_33 + 41 x_34 + 20 x_35 + 22 x_36 + 49 x_37 + 38 x_38 + 39 x_39 + 40 x_40 + 38 x_41 + 43 x_42 + 27 x_43 + 12 x_44 + 23 x_45 + 13 x_46 + 30 x_47 + 6 x_48 + 48 x_49 + 29 x_50 <= 668
	w15: + 1 x_1 + 30 x_2 + 7 x_3 + 43 x_4 + 34 x_5 + 26 x_6 + 28 x_7 + 46 x_8 + 25 x_9 + 6 x_10 + 27 x_11 + 7 x_12 + 25 x_13 + 3 x_14 + 35 x_15 + 9 x_16 + 12 x_17 + 10 x_18 + 35 x_19 + 11 x_20 + 49 x_21 + 33 x_22 + 35 x_23 + 7 x_24 + 49 x_25 + 27 x_26 + 20 x_27 + 17 x_28 + 27 x_29 + 30 x_30 + 21 x_31 + 11 x_32 + 18 x_33 + 7 x_34 + 32 x_35 + 19 x_36 + 19 x_37 + 10 x_38 + 18 x_39 + 8 x_40 + 18 x_41 + 44 x_42 + 14 x_43 + 35 x_44 + 17 x_45 + 1 x_46 + 29 x_47 + 31 x_48 + 41 x_49 + 18 x_50 <= 558
	w16: + 20 x_1 + 26 x_2 + 28 x_3 + 20 x_4 + 40 x_5 + 20 x_6 + 20 x_7 + 9 x_8 + 27 x_9 + 31 x_10 + 35 x_11 + 36 x_12 + 19 x_13 + 24 x_14 + 39 x_15 + 47 x_16 + 29 x_17 + 21 x_18 + 6 x_19 + 37 x_20 + 14 x_21 + 5 x_22 + 11 x_23 + 30 x_24 + 37 x_25 + 23 x_26 + 28 x_27 + 39 x_28 + 11 x_29 + 4 x_30 + 45 x_31 + 2 x_32 + 3 x_33 + 40 x_34 + 5 x_35 + 42 x_36 + 3 x_37 + 20 x_38 + 23 x_39 + 8 x_40 + 33 x_41 + 20 x_42 + 41 x_43 + 45 x_44 + 19 x_45 + 3 x_46 + 18 x_47 + 30 x_48 + 1 x_49 + 9 x_50 <= 568
	w17: + 24 x_1 + 11 x_2 + 26 x_3 + 41 x_4 + 16 x_5 + 33 x_6 + 15 x_7 + 35 x_8 + 17 x_9 + 9 x_10 + 25 x_11 + 48 x_12 + 42 x_13 + 39 x_14 + 13 x_15 + 11 x_16 + 9 x_17 + 38 x_18 + 41 x_19 + 19 x_20 + 47 x_21 + 21 x_22 + 27 x_23 + 31 x_24 + 41 x_25 + 8 x_26 + 28 x_27 + 48 x_28 + 49 x_29 + 29 x_30 + 42 x_31 + 10 x_32 + 9 x_33 + 24 x_34 + 39 x_35 + 16 x_36 + 41 x_37 + 32 x_38 + 17 x_39 + 45 x_40 + 13 x_41 + 40 x_42 + 33 x_43 + 14 x_44 + 3 x_45 + 2 x_46 + 2 x_47 + 48 x_48 + 40 x_49 + 7 x_50 <= 653
	w18: + 33 x_1 + 9 x_2 + 48 x_3 + 29 x_4 + 41 x_5 + 13 x_6 + 1 x_7 + 18 x_8 + 4 x_9 + 36 x_10 + 31 x_11 + 29 x_12 + 38 x_13 + 29 x_14 + 21 x_15 + 22 x_16 + 19 x_17 + 6 x_18 + 7 x_19 + 10 x_20 + 6 x_21 + 15 x_22 + 39 x_23 + 49 x_24 + 49 x_25 + 28 x_26 + 42 x_27 + 16 x_28 + 1 x_29 + 35 x_30 + 31 x_31 + 48 x_32 + 35 x_33 + 28 x_34 + 40 x_35 + 26 x_36 + 16 x_37 + 38 x_38 + 41 x_39 + 44 x_40 + 47 x_41 + 22 x_42 + 18 x_43 + 37 x_44 + 34 x_45 + 1 x_46 + 28 x_47 + 17 x_48 + 13 x_49 + 15 x_50 <= 646
	w19: + 48 x_1 + 11 x_2 + 10 x_3 + 10 x_4 + 38 x_5 + 33 x_6 + 1 x_7 + 27 x_8 + 41 x_9 + 22 x_10 + 27 x_11 + 1 x_12 + 35 x_13 + 23 x_14 + 6 x_15 + 22 x_16 + 16 x_17 + 44 x_18 + 21 x_19 + 16 x_20 + 12 x_21 + 38 x_22 + 28 x_23 + 21 x_24 + 34 x_25 + 1 x_26 + 38 x_27 + 29 x_28 + 13 x_29 + 14 x_30 + 34 x_31 + 43 x_32 + 38 x_33 + 47 x_34 + 3 x_35 + 13 x_36 + 33 x_37 + 44 x_38 + 21 x_39 + 41 x_40 + 33 x_41 + 26 x_42 + 2 x_43 + 35 x_44 + 32 x_45 + 47 x_46 + 7 x_47 + 28 x_48 + 49 x_49 + 24 x_50 <= 634
	w20: + 26 x_1 + 49 x_2 + 44 x_3 + 32 x_4 + 43 x_5 + 4 x_6 + 20 x_7 + 7 x_8 + 46 x_9 + 32 x_10 + 31 x_11 + 26 x_12 + 8 x_13 + 1 x_14 + 49 x_15 + 32 x_16 + 1 x_17 + 43 x_18 + 38 x_19 + 40 x_20 + 17 x_21 + 23 x_22 + 45 x_23 + 13 x_24 + 42 x_25 + 1 x_26 + 14 x_27 + 20 x_28 + 35 x_29 + 40 x_30 + 48 x_31 + 36 x_32 + 4 x_33 + 35 x_34 + 34 x_35 + 27 x_36 + 35 x_37 + 45 x_38 + 20 x_39 + 36 x_40 + 15 x_41 + 45 x_42 + 8 x_43 + 30 x_44 + 13 x_45 + 20 x_46 + 14 x_47 + 8 x_48 + 41 x_49 + 15 x_50 <= 670
	w21: + 23 x_1 + 43 x_2 + 11 x_3 + 49 x_4 + 48 x_5 + 29 x_6 + 27 x_7 + 29 x_8 + 16 x_9 + 32 x_10 + 37 x_11 + 9 x_12 + 48 x_13 + 15 x_14 + 40 x_15 + 41 x_16 + 41 x_17 + 41 x_18 + 35 x_19 + 48 x_20 + 31 x_21 + 45 x_22 + 38 x_23 + 22 x_24 + 38 x_25 + 43 x_26 + 33 x_27 + 39 x_28 + 21 x_29 + 27 x_30 + 45 x_31 + 21 x_32 + 7 x_33 + 34 x_34 + 9 x_35 + 34 x_36 + 30 x_37 + 44 x_38 + 3 x_39 + 9 x_40 + 26 x_41 + 45 x_42 + 1 x_43 + 37 x_44 + 15 x_45 + 22 x_46 + 41 x_47 + 47 x_48 + 30 x_49 + 49 x_50 <= 767
	w22: + 27 x_1 + 32 x_2 + 45 x_3 + 16 x_4 + 31 x_5 + 37 x_6 + 3 x_7 + 10 x_8 + 1 x_9 + 25 x_10 + 3 x_11 + 45 x_12 + 21 x_13 + 28 x_14 + 14 x_15 + 3 x_16 + 35 x_17 + 19 x_18 + 3 x_19 + 11 x_20 + 44 x_21 + 24 x_22 + 46 x_23 + 5 x_24 + 31 x_25 + 6 x_26 + 2 x_27 + 13 x_28 + 44 x_29 + 4 x_30 + 37 x_31 + 30 x_32 + 30 x_33 + 13 x_34 + 29 x_35 + 32 x_36 + 39 x_37 + 39 x_38 + 45 x_39 + 38 x_40 + 11 x_41 + 16 x_42 + 7 x_43 + 2 x_44 + 47 x_45 + 23 x_46 + 22 x_47 + 6 x_48 + 7 x_49 + 36 x_50 <= 563
	w23: + 37 x_1 + 35 x_2 + 42 x_3 + 45 x_4 + 23 x_5 + 44 x_6 + 21 x_7 + 35 x_8 + 29 x_9 + 20 x_10 + 12 x_11 + 30 x_12 + 29 x_13 + 41 x_14 + 24 x_15 + 2 x_16 + 45 x_17 + 20 x_18 + 4 x_19 + 24 x_20 + 13 x_21 + 23 x_22 + 3 x_23 + 16 x_24 + 1 x_25 + 16 x_26 + 11 x_27 + 12 x_28 + 6 x_29 + 16 x_30 + 42 x_31 + 33 x_32 + 44 x_33 + 35 x_34 + 38 x_35 + 25 x_36 + 47 x_37 + 15 x_38 + 45 x_39 + 11 x_40 + 43 x_41 + 26 x_42 + 30 x_43 + 7 x_44 + 47 x_45 + 29 x_46 + 9 x_47 + 6 x_48 + 5 x_49 + 5 x_50 <= 605
	w24: + 13 x_1 + 16 x_2 + 16 x_3 + 26 x_4 + 42 x_5 + 35 x_6 + 27 x_7 + 4 x_8 + 11 x_9 + 36 x_10 + 37 x_11 + 22 x_12 + 46 x_13 + 13 x_14 + 22 x_15 + 23 x_16 + 29 x_17 + 45 x_18 + 43 x_19 + 39 x_20 + 3 x_21 + 11 x_22 + 7 x_23 + 36 x_24 + 7 x_25 + 25 x_26 + 22 x_27 + 45 x_28 + 11 x_29 + 45 x_30 + 32 x_31 + 43 x_32 + 6 x_33 + 24 x_34 + 30 x_35 + 25 x_36 + 30 x_37 + 37 x_38 + 6 x_39 + 22 x_40 + 11 x_41 + 8 x_42 + 18 x_43 + 39 x_44 + 35 x_45 + 20 x_46 + 3 x_47 + 4 x_48 + 3 x_49 + 22 x_50 <= 582
	w25: + 39 x_1 + 15 x_2 + 46 x_3 + 40 x_4 + 10 x_5 + 16 x_6 + 26 x_7 + 20 x_8 + 35 x_9 + 8 x_10 + 39 x_11 + 20 x_12 + 21 x_13 + 39 x_14 + 18 x_15 + 2 x_16 + 41 x_17 + 40 x_18 + 15 x_19 + 42 x_20 + 9 x_21 + 21 x_22 + 1 x_23 + 33 x_24 + 35 x_25 + 7 x_26 + 3 x_27 + 8 x_28 + 31 x_29 + 20 x_30 + 14 x_31 + 47 x_32 + 32 x_33 + 27 x_34 + 1 x_35 + 39 x_36 + 40 x_37 + 48 x_38 + 16 x_39 + 14 x_40 + 12 x_41 + 49 x_42 + 3 x_43 + 19 x_44 + 6 x_45 + 44 x_46 + 20 x_47 + 8 x_48 + 5 x_49 + 41 x_50 <= 587
	profits: + 15 x_1 + 1 x_2 + 23 x_3 + 25 x_4 + 10 x_5 + 14 x_6 + 49 x_7 + 39 x_8 + 12 x_9 + 14 x_10 + 32 x_11 + 11 x_12 + 29 x_13 + 43 x_14 + 22 x_15 + 39 x_16 + 23 x_17 + 36 x_18 + 48 x_19 + 8 x_20 + 10 x_21 + 25 x_22 + 47 x_23 + 22 x_24 + 49 x_25 + 31 x_26 + 1 x_27 + 17 x_28 + 32 x_29 + 3 x_30 + 40 x_31 + 21 x_32 + 27 x_33 + 35 x_34 + 41 x_35 + 36 x_36 + 23 x_37 + 46 x_38 + 33 x_39 + 18 x_40 + 16 x_41 + 2 x_42 + 15 x_43 + 42 x_44 + 43 x_45 + 21 x_46 + 7 x_47 + 47 x_48 + 6 x_49 + 31 x_50 >= 645
Bounds
  0 <= x_1 <= 1
  0 <= x_2 <= 1
  0 <= x_3 <= 1
  0 <= x_4 <= 1
  0 <= x_5 <= 1
  0 <= x_6 <= 1
  0 <= x_7 <= 1
  0 <= x_8 <= 1
  0 <= x_9 <= 1
  0 <= x_10 <= 1
  0 <= x_11 <= 1
  0 <= x_12 <= 1
  0 <= x_13 <= 1
  0 <= x_14 <= 1
  0 <= x_15 <= 1
  0 <= x_16 <= 1
  0 <= x_17 <= 1
  0 <= x_18 <= 1
  0 <= x_19 <= 1
  0 <= x_20 <= 1
  0 <= x_21 <= 1
  0 <= x_22 <= 1
  0 <= x_23 <= 1
  0 <= x_24 <= 1
  0 <= x_25 <= 1
  0 <= x_26 <= 1
  0 <= x_27 <= 1
  0 <= x_28 <= 1
  0 <= x_29 <= 1
  0 <= x_30 <= 1
  0 <= x_31 <= 1
  0 <= x_32 <= 1
  0 <= x_33 <= 1
  0 <= x_34 <= 1
  0 <= x_35 <= 1
  0 <= x_36 <= 1
  0 <= x_37 <= 1
  0 <= x_38 <= 1
  0 <= x_39 <= 1
  0 <= x_40 <= 1
  0 <= x_41 <= 1
  0 <= x_42 <= 1
  0 <= x_43 <= 1
  0 <= x_44 <= 1
  0 <= x_45 <= 1
  0 <= x_46 <= 1
  0 <= x_47 <= 1
  0 <= x_48 <= 1
  0 <= x_49 <= 1
  0 <= x_50 <= 1
End
